<?xml version="1.0"?>
<VTKFile type="UnstructuredGrid" version="0.1" byte_order="LittleEndian" header_type="UInt32" compressor="vtkZLibDataCompressor">
  <UnstructuredGrid>
    <Piece NumberOfPoints="780" NumberOfCells="454">
      <PointData>
        <DataArray type="Int32" Name="libmesh_node_id" format="ascii" RangeMin="1278" RangeMax="5063">
          1278 1279 1280 1281 1282 1283
          1284 1285 1286 1287 1288 1289
          1290 1291 1292 1293 1294 1295
          1296 1297 1298 1299 1300 1301
          1302 1303 1304 1305 1306 1307
          1308 1309 1310 1311 1312 1313
          1314 1315 1316 1317 1318 1319
          1320 1321 1322 1323 1324 1325
          1329 1330 1331 1332 1333 1334
          1335 1336 1337 1338 1339 1340
          1341 1342 1343 1344 1345 1346
          1347 1348 1349 1350 1351 1352
          1356 1357 1358 1359 1360 1361
          1362 1363 1364 1365 1366 1367
          1368 1369 1370 1371 1372 1373
          1374 1375 1376 1377 1378 1379
          1383 1384 1385 1386 1387 1388
          1389 1390 1391 1392 1393 1394
          1395 1396 1397 1398 1399 1400
          1401 1402 1403 1404 1405 1406
          1410 1411 1412 1413 1414 1415
          1416 1417 1418 1419 1420 1421
          1422 1423 1424 1425 1426 1427
          1428 1429 1430 1431 1432 1433
          1437 1438 1439 1440 1441 1442
          1443 1444 1445 1446 1447 1448
          1449 1450 1451 1452 1453 1454
          1455 1456 1457 1458 1459 1460
          1461 1462 1463 1464 1465 1466
          1467 1468 1469 1470 1471 1472
          1473 1474 1475 1476 1477 1478
          1479 1480 1481 1482 1483 1484
          1485 1486 1487 1488 1489 1490
          1491 1492 1493 1494 1495 1496
          1497 1498 1499 1500 1501 1502
          1503 1504 1505 1506 1507 1508
          1509 1510 1511 1512 1513 1514
          1515 1516 1517 1518 1519 1520
          1521 1522 1523 1524 1525 1526
          1527 1528 1529 1530 1531 1532
          1533 1534 1535 1536 1537 1538
          1539 1540 1541 1542 1543 1544
          1545 1546 1547 1548 1549 1550
          1551 1552 1553 1554 1555 1556
          1557 1558 1559 1560 1561 1562
          1563 1564 1565 1566 1567 1568
          1569 1570 1571 1572 1573 1574
          1575 1576 1577 1578 1579 1580
          1581 1582 1583 1584 1585 1586
          1587 1588 1589 1590 1591 1592
          1593 1594 1595 1596 1597 1598
          1599 1600 1601 1602 1603 1604
          1605 1606 1607 1608 1609 1610
          1611 1612 1613 1614 1615 1616
          1617 1618 1619 1620 1621 1622
          1623 1624 1625 1626 1627 1628
          1629 1630 1631 1632 1633 1634
          1635 1636 1637 1638 1639 1640
          1641 1642 1643 1644 1645 1646
          1647 1648 1649 1650 1651 1652
          1653 1654 1655 1656 1657 1658
          1659 1660 1661 1662 1663 1664
          1665 1666 1667 1668 1669 1670
          1671 1672 1673 1674 1675 1676
          1680 1681 1682 1683 1684 1685
          1686 1687 1688 1689 1690 1691
          1692 1693 1694 1695 1696 1697
          1698 1699 1700 1701 1702 1703
          1707 1708 1709 1710 1711 1712
          1713 1714 1715 1716 1717 1718
          1719 1720 1721 1722 1723 1724
          1725 1726 1727 1728 1729 1730
          1734 1735 1736 1737 1738 1739
          1740 1741 1742 1743 1744 1745
          1746 1747 1748 1749 1750 1751
          1752 1753 1754 1755 1756 1757
          1761 1762 1763 1764 1765 1766
          1767 1768 1769 1770 1771 1772
          1773 1774 1775 1776 1777 1778
          1779 1780 1781 1782 1783 1784
          1791 1792 1793 1794 1795 1796
          1797 1798 1799 1800 1801 1802
          1803 1804 1805 1806 1807 1808
          1809 1810 1811 1818 1819 1820
          1821 1822 1823 1824 1825 1826
          1827 1828 1829 1830 1831 1832
          1833 1834 1835 1836 1837 1838
          1845 1846 1847 1848 1849 1850
          1851 1852 1853 1854 1855 1856
          1857 1858 1859 1860 1861 1862
          1872 1873 1874 1875 1876 1877
          1878 1879 1880 1881 1882 1883
          1884 1885 1886 2184 2185 2186
          2187 2188 2189 2190 2191 2192
          2193 2194 2195 2196 2197 2198
          2199 2200 2201 2202 2203 2204
          2205 2206 2207 2208 2210 2211
          2212 2214 2215 2216 2218 2219
          2244 2246 2248 2262 2263 2264
          2265 2266 2267 2268 2269 2270
          2271 2272 2273 2592 2593 2594
          2595 2596 2597 2913 2914 2915
          2916 2917 2918 2919 2920 2921
          3336 3337 3338 3339 3340 3341
          3582 3583 3584 3585 3586 3587
          3688 3690 3692 3699 3700 3701
          3702 3703 3704 4161 4162 4163
          4164 4165 4166 4527 4528 4529
          4530 4531 4532 4536 4537 4538
          4539 4540 4541 4671 4672 4673
          4698 4699 4700 4701 4702 4703
          4725 4726 4727 4770 4771 4772
          4884 4885 4886 4905 4906 4907
          4983 4984 4985 5034 5035 5036
          5061 5062 5063 1863 1864 1865
          1887 1888 1889 1890 1891 1892
          1902 1899 1903 1900 1904 1901
          1905 1906 1907 1908 1909 1910
          1911 1912 1913 1914 1915 1916
          2209 2213 2217 2245 2247 2249
          2526 2525 2530 2529 2534 2533
          3234 3235 3236 3237 3238 3239
          3300 3301 3302 3303 3304 3305
          3366 3367 3368 3663 3665 3667
          3687 3386 3689 3389 3691 3392
          3705 3706 3707 3939 3940 3941
          3942 3943 3944 4467 4468 4469
          3455 3458 3461 3210 3120 3212
          3124 3214 3128 4441 4443 4445
          3119 3123 3127 3231 3232 3233
        </DataArray>
        <DataArray type="Float64" Name="resid_x" format="ascii" RangeMin="-0.5552477943833862" RangeMax="0.5571865183095928">
          0.0007267972493885111 0.0007884576804864096 0.1710106339378612 0.004018902224604659 0.10628154774385479 -0.008326367279115843
          -0.14459119308753365 -0.5552477943833862 -0.2828144523617091 -0.18081557082185373 -0.287258416855221 0.06534773505692026
          0.15264689235112794 0.5571865183095928 0.12201883022654592 0.264996634915156 0.21576181094086255 0.06154289414460212
          -0.000675907436251677 -0.0008425562165408351 -0.018628632916609433 -0.08062510603249873 -0.03073622223457395 -0.1268645297322184
          -0.00011051401980122222 0.0003415916285511855 -0.00016554623089426457 -0.0009102719390794434 -0.0004175101177725793 -0.0006741550633968529
          0.0004751497168946628 0.0008611425948510387 0.0007629828968171992 0.00007651980034673045 0.0006937813812983862 0.0006217093535427765
          0.014429157152657801 0.019256370942083656 0.037757909971892545 0.030634922469448433 0.022280943956468846 0.016907568071313328
          -0.014405332993033149 -0.021318443158041767 -0.03474373170772882 -0.031063239830910305 -0.02782174895535583 -0.01829469292281427
          0.0013069693196072762 0.04077867291863768 0.034262682994279814 0.0002549525690440646 -0.04432654190992391 -0.03362619000849332
          0.00018003479456929483 0.0009426828503729112 -0.0002731524523333917 -0.0015809085020226377 0.00042667106769744834 -0.0008014763727270946
          0.0010402179470894168 0.00004200369950790872 0.0001896653037771756 -0.012328694251191763 0.021391370365238416 0.0024568917679461677
          0.010807160685344819 -0.02074950740188264 -0.003373530257579027 -0.0013578369884528207 0.0009343122156488803 -0.001440531140996626
          0.00007669202943105802 -0.000753625431734406 0.0004332031865370567 0.00023591576431325478 0.00018117175357179605 0.0006839830172262751
          0.0004228280529288142 1.1271413757896198e-7 0.0000833787800784691 0.00015996722246125472 -0.00011514464149797732 0.00010512391955952438
          -0.00013116310082406102 0.0005788327033702245 0.0007713984618140657 -0.002907858515385442 0.004531386684186067 0.00025131024663771484
          0.0033864052431287206 -0.0051977798170268485 -0.001755480392784392 -0.0004719409214697379 0.00024162650761505589 -0.001632635840204788
          -0.000372474840126813 0.0012412929460126065 0.0015647253775732395 -0.0002636145812271451 0.0001978698511235777 0.0001429233905900773
          0.00014404353704922102 0.00008377347667476442 -0.00021711690720938037 0.000004343814372198551 0.00011335610175411404 0.000014718686236037115
          0.001216885291352554 0.004972579963077983 0.0015040651117441683 -0.0007943676129231747 -0.0043203793104629185 -0.0023665668812897778
          -0.00028614079195588005 -0.00028927856306548705 -0.002228769667313557 -0.00027031704824143077 -0.00008814659725242535 -0.002897485108871223
          -0.0004078917348095956 -0.000869559884510096 0.0002649968507668632 -0.000017801910349390937 -0.00013697198007278644 0.0002171281841141237
          0.00029000913356380664 0.0004259173133993599 0.0005293884800501303 0.00037982361413302357 0.00009268136245488279 0.00041013793298727563
          0.0001744277222242019 -0.0002838077497111513 -0.000972764473784693 0.00029508909305331343 0.0004187077792137117 -0.001783524625582622
          0.00002376531244685509 0.00036267654312194253 -0.0021442071559460985 -0.000058924035075680337 0.000008662303894624301 -0.00427476248230807
          0.00015237395442291302 0.00023365177305834095 -0.00037599441001745504 0.00009796012540252974 0.000045043957024759607 -0.000013295790104450589
          0.00013179940590557493 0.00018795942424532086 0.0000703428835686637 0.0023095810062239153 0.012674459678682304 0.02183323117438185
          -0.0023579394918424867 -0.012939496912419912 -0.022786465593195082 -0.000199551073042592 -0.00047841073683629887 -0.00265636544835246
          -0.00020186332370331073 0.00004719941835329422 -0.003238540606886886 -0.0008247824929239478 -0.0003333427880547468 -0.0044699288341165655
          0.0009768232326132775 0.0011507356526756496 -0.0004370890101554892 0.00014537942887571376 0.00017686156891016935 -0.000315814076595089
          0.000015671104641512557 -0.000162517070764423 -0.00019705532106861767 0.0014882341981037328 0.0048003799331155506 0.004043390382274303
          -0.0007445148254898726 -0.0012573762185592585 0.0007594765114475877 -0.0008720311009255965 -0.003463101070180663 -0.006632207447202276
          0.0005263139035642794 0.0010744123311816622 -0.0024824625392341204 -0.00023845695320900973 -0.00025012245845346115 -0.0037557785406328037
          -0.0008320028553696623 -0.0003016838182001713 -0.004893797918372744 0.0002249307152020208 0.00002729519644972811 -0.00044068685587461687
          -0.00005591613426680908 -0.00000917147507539795 -0.00013971901396203634 -0.0002733697098262766 -0.00033119547861915066 -0.0005034798725178646
          0.019260802063089777 0.0023702364061888304 0.006632052995233728 -0.020665765997733843 -0.002741195047287981 -0.009056163510486215
          0.0011688037538135632 0.0017787528640065275 -0.0017270779933298286 0.000489772511794051 0.0005181643462650598 -0.003267984491330367
          -0.0004614256326034294 -0.0003077575105008279 -0.0040600454305455 -0.0008624160046291074 -0.0007009883747106649 -0.004912831047111155
          -0.00044905237232129025 -0.0007831624475542753 -0.0009474399315436699 -0.000163795782284204 -0.0001176011635450891 -0.0002582983095162916
          0.005126232337761216 0.003525693506545302 0.0035304525997048586 -0.0028571087646689364 -0.008188066123914872 -0.007191404430899162
          -0.004204754003152011 0.004096731001419052 0.0004256656235348544 0.0006031042816792009 0.0008686583533394909 -0.0034806443371353524
          -0.000675668982938582 -0.0008910655383909116 -0.0043489911683405325 -0.000023175539698883085 0.00005274848918279673 -0.0036537727622123484
          0.00001824711271813939 0.00034483522714934267 -0.003871199048814944 -0.0006447448381212695 -0.0017405749252681346 -0.0012988380149483447
          -0.00019014981093157246 -0.00006717456740101824 -0.0003317421491733086 0.020667275995482015 0.01177345772840166 0.00818756135594878
          -0.021575061075112423 -0.013088063977018116 -0.011146413280776812 0.0009299340412818324 0.0020154176186322204 -0.0023265085204746683
          -0.00020524916585884512 -0.0004682227693777463 -0.004362167466107181 -0.0010299831164140016 -0.001017171348077106 -0.004300712093992409
          0.0006590451439620892 0.0006231543236330239 -0.0029667453192718796 0.000009412311213097269 -0.0006450694027577697 -0.0034696476270705823
          -0.0015114360593706522 -0.003987894761241506 -0.002165070942284686 0.000833836158113499 0.004456659526832496 0.0002929241327080945
          -0.002023301429973756 -0.004867948559895474 -0.0030939392593074544 -0.0007486873556574736 -0.00016374838284960447 -0.0030904506866820114
          0.0007055921217276051 0.001177707704678177 -0.003947159222787988 -0.000546817005053768 -0.0007632900653993246 -0.004935146101513688
          -0.00012189374357252092 0.000008015929887861262 -0.0038802642524062847 0.0003985561541268723 0.00011480734416924321 -0.0028488684595435743
          0.0011284650516367734 0.001393627648968554 -0.002112887114888551 -0.0018816089772073497 -0.004683806952755276 -0.0026615692941316382
          0.003946219559162856 0.006247360673488522 -0.0006408680884346651 -0.005276414645614125 -0.006693352751370618 -0.004180415583033614
          -0.0005915258040389837 0.0003742339720647081 -0.004301383848994256 -0.000678254642497933 -0.00042675477920539606 -0.0050274508331931145
          0.00005416367598254368 0.0007043926191663274 -0.00406906835376919 0.0005299149202118159 0.0005660023415900994 -0.0037102423377612936
          -0.0005016672779456499 -0.0007735354279239104 -0.0029412498705223555 0.0006691703291688 0.0008527353775260593 -0.0011290752657808767
          -0.001271872161556331 -0.003116199685312182 -0.0018430348577638256 -0.000060844801290649286 0.00027050646886284113 -0.002022558420020637
          -0.0009964857535602611 -0.00028073218690405355 -0.004019169190225824 -0.0004324996577076412 0.00011988675426399809 -0.0052719948489601265
          -0.0007800044448904586 -0.0003434118673206754 -0.005510565929256472 0.0001240218296940654 0.0004538538794420788 -0.004876254896384324
          -0.0006869995574430021 -0.0006110890513690848 -0.004225479634750506 -0.0003867731484099579 -0.00018394236806873465 -0.002378044533585033
          0.0007639784620838697 0.0011398361903003362 -0.0007243534577368038 -0.000601651500506506 -0.0013150794922225373 -0.0012931742515247535
          -0.00007066392352417239 0.0004273588151217922 -0.002693138788085747 -0.0006370212866375624 -0.000357174330906318 -0.005284387036542881
          -0.0011001022562586726 -0.0006037280455992722 -0.006197049018777712 -0.0001393324012992636 0.0007219397844382414 -0.005787071501403673
          -0.0014202504594011955 -0.0012436691981907444 -0.00595145710456535 -0.001784070631519974 -0.0011506359474813266 -0.003981180861239331
          0.00001343044185730946 0.0006820458775633753 -0.0014556514858279357 0.00028583147407612586 0.0007926690451673934 -0.00039441732474365665
          -0.000475964178333399 -0.0010085764487151039 -0.004529042009963291 -0.0006579457351998386 -0.0005185521383381797 -0.006289337975376341
          -0.0009040456191709012 -0.00038117348282273866 -0.006774923273062061 -0.0010788040532450083 -0.0003581509562886609 -0.006368935430617562
          -0.0021852494593375127 -0.0013770851402883366 -0.0052669848974309375 -0.001139093493046417 0.000033344033640858584 -0.0027862773105296057
          -0.0005911570418470902 0.00012210135870649452 -0.0013674219580055436 -0.0008033737545125597 0.00019748911467853958 -0.000342349830887656
          -0.00191423746953312 -0.0035126278387132004 -0.006590523928592162 -0.00028707040404363227 0.00003249926296433614 -0.006531166263202159
          -0.0005488614891824284 0.000024822527048939946 -0.006658308638407107 -0.001654034897877743 -0.0008555053576451144 -0.005834539325284993
          -0.0017791797254407271 -0.0005492680064742572 -0.003873552160039928 -0.000994117161909891 0.00023504647593597383 -0.002071876935456629
          -0.0017968404493142742 -0.0009871729185855216 -0.0013701179963687693 -0.0013074068641847347 0.00020270782847919833 0.000045877108459713156
          -0.0015775778014877062 -0.002508494308731457 -0.007265773997165326 -0.0003732744354021378 -0.00023638446054619067 -0.006825665954676374
          -0.0005898488362552357 0.00015139931463448164 -0.005986752232893799 -0.001414195631047832 -0.0006821412044146768 -0.004680180023872715
          -0.0015231764048042606 -0.0003547060484301312 -0.002791116201685817 -0.0012380778734852882 0.000153479482085217 -0.0013012415606326044
          -0.0022768806206361347 -0.0012157774656609277 -0.0012306400708919085 -0.0024987630465154176 -0.001293213392473902 -0.00029344739370795736
          -0.0011126475303155914 -0.0020613797742203843 -0.00781548286684508 -0.00041810113770512913 -0.0003890570828879447 -0.006537300207143382
          -0.0006447012652817108 -0.0000034732585918462178 -0.005302563906347757 -0.0017564891600860832 -0.0009129993026650851 -0.003972068667817297
          -0.001811782568789333 -0.00040392332142502596 -0.0019697876094362243 -0.0016975287068330402 -0.00001898917462828109 -0.0006522809795095341
          -0.0026735929776027234 -0.0013315592730807069 -0.0010004280066260307 -0.0024794673049770566 -0.0009237628667984055 -0.0000624554543282585
          -0.0010672205092845388 -0.002971696258345702 -0.007304688322303576 -0.0007226802937871923 -0.0005095217553643394 -0.004499021918003443
          -0.002384247993055588 -0.0010730236413669658 -0.0032042586838709752 -0.002223604402840529 -0.00024362358075435964 -0.0011793090413467766
          -0.002744119092817243 -0.0007774510288083292 -0.0005002199037216215 -0.0035932608198621097 -0.0021654375894817335 -0.000794986243196405
          -0.0019964876535802922 -0.00007598712128853435 0.0013503670422658764 -0.00045147273175594194 -0.0014915455217874296 -0.005375494308029971
          -0.0012370938901540285 -0.0010888066856953316 -0.0032621095873857087 -0.002801363737368945 -0.0009569740605943622 -0.002086815557459154
          -0.0030050810662443084 -0.0007324796661478672 -0.0004905589628378948 -0.0035647827773344076 -0.001132304618371549 0.00018871025330913227
          -0.0041402025792312 -0.0026844279607285415 -0.00004122334114775583 -0.0033134736309645696 -0.0019622892256334623 0.0018694870288982202
          -0.000045074757311525104 -0.0005466251522534549 -0.003101209276362482 -0.001023177002891451 -0.000590706989147094 -0.0011561352191629126
          -0.0028477197892762263 -0.0008999209538966824 -0.0003338688245166921 -0.003448452035448746 -0.0011333968348932189 0.000716978388377143
          -0.004084605296847954 -0.0018351622540810908 0.0012385082982850903 -0.00583557043956251 -0.006132824545027837 0.00007661590801433249
          -0.0006451142937464738 -0.0015156591638785244 -0.000795553331499832 -0.0012610045545731197 -0.0014603043853158582 0.0009356263111977015
          -0.0031251009767432336 -0.002444239159672179 0.0014703398904973852 -0.0036057794580504066 -0.0023330787961146626 0.0024103264346679865
          -0.006253311001366946 -0.007502946432305535 0.0009559869414381694 -0.00009858248990335383 -0.0013489271519548929 -0.0008546823782862312
          -0.0002780988837249865 -0.0003189191844290562 -0.002266658556515644 -0.0010956361676499604 -0.0008517947835073869 0.0022235170571436313
          -0.0014045659778196828 -0.0012607226215903822 0.0005728133666389468 -0.0013701466416549124 -0.0011750677769746254 -0.0008562724298224467
          -0.0007110693240894861 -0.0024210190886160277 -0.0021980130345080617 -0.0009292739860375931 -0.000212004710121505 -0.004173318038445117
          -0.0032391171766099625 -0.004200162705204846 -0.004766328622427096 0.00025206408172362416 -0.005256119797685699 -0.0026223871802448784
          0.0003640873652104304 -0.008909114569576992 -0.003963693807008006 0.004462578696652564 0.0006921697934441084 0.001144572005152611
          -0.004492090107710567 -0.007205796858428926 -0.00130641904893114 -0.0006978335351326415 0.00032608339653794616 -0.003545643269353249
          -0.0036469008712352036 -0.0010004839365729268 0.0003568630837893494 -0.006861740412392958 -0.005614354573930669 -0.0011895973272650906
          -0.0008121775670000275 -0.0034966694331828307 -0.0018044214578250006 -0.0012099978823520985 -0.0011382662660830434 -0.0020822524170287515
          -0.0009595423049502116 -0.005545406329804603 -0.005620173238505721 -0.002343654754437985 -0.0023231579117899415 -0.0014601447111619592
          -0.001996346726259368 -0.004017981772955537 -0.003037471439459871 0.00009979374855451084 0.000028843384856536147 0.0010409212076334384
          -0.0012417905480517355 -0.0022354155992365676 -0.00042069872524708174 -0.004380744072290277 -0.005276324631256379 -0.006736699610904395
          -0.0014595682534068732 -0.002462982696405769 -0.0001638235445989289 -0.003162826019847964 0.003289720356295822 0.003039495369588807
          -0.0005459361660555828 -0.0008066719460213534 -0.002056278556145763 -0.004829273807316348 -0.004436514996572605 -0.004887432587677765
          -0.0071821338239344 0.0003161993744313918 0.00008320212786738779 -0.0031261632709647103 -0.0029839035167738004 -0.0013334216073288552
          -0.0016648399382508394 0.0006034915001209562 0.0011605372822574012 0.0005447765084816147 -0.0019285608538495147 0.0007374792729795132
          -0.004055862271581723 -0.00047330540376844255 -0.0036908143338566513 -0.0007065944802606694 0.000681802836736467 -0.0011273594233993656
          0.0008631141267240183 -0.003241315344806317 -0.0016323398633808495 -0.0017775616551301 -0.0007487263900753938 -0.004970234940525398
          0.0005723711655840624 -0.000060078013332409697 0.00012660848238521538 0.0004002115325880684 -0.0031587970867104076 -0.00393005795506296
          -0.0004005002299152238 -0.00033786014705849965 -0.0011090810689182717 0.0003905228810694439 0.0023131323468623677 -0.002133167121163293
          -0.004206395806746865 -0.003956868378809375 -0.0009248235779133473 -0.0027664794813624383 0.0008549158269803847 -0.002019438417423025
          -0.0027582559332293144 -0.00463454813608255 -0.0066550414566908245 -0.0010756022927953524 -0.001005258763045802 -0.004697432899085641
          -0.0019685628981807035 -0.003274936984356991 -0.003821562207911633 -0.0038577968713333632 -0.008007668818347469 -0.0002656348358991423
          -0.001899435799058935 -0.006643446755136395 -0.0016772971012342097 -0.0001424488144801117 -0.002072166053324054 0.00006364659048996302
          -0.0007271537788393623 -0.0007793960736295347 -0.0018630523852420922 -0.002693553159835105 0.0025218739372538934 0.00037300975389431557
          -0.002616432867454943 -0.002318891784845345 0.00320361155060489 -0.002482904305101119 -0.002182442549574226 0.0032450281633717992
          -0.005493496399056053 -0.0031026650778862574 0.0022292786137660947 -0.0005179260919954132 -0.004722244785211771 -0.002436303558126518
          -0.006502667783580662 -0.008911720390628375 -0.0009921082306281193 -0.005460774982005034 -0.007478480268224175 -0.002678160759423953
          -0.0034973179078257033 -0.0022940926402910122 -0.009397942513299284 -0.006377433914453334 -0.004105986625862812 -0.00017769681933277326
          -0.002182989158734827 -0.0029561314675019545 -0.0023691853862466417 -0.003159901076388749 0.0003386585273670306 -0.000253322990743321
          -0.001407151423279629 -0.0006618575807326721 -0.0032508062548757266 -0.002808670300655791 -0.00525484198141335 -0.004168616376462708
          -0.0018201777469197822 -0.003462146358980789 -0.005220921808776424 -0.0019967177878825737 -0.004180832069527796 -0.0003207901831041582
          -0.003229541549590209 -0.0012610348062311871 -0.004993138710215561 -0.0036117002161759615 -0.0017606419425071351 -0.002904557697432253
          -0.007121336963810343 -0.010676754647391817 -0.0013949516857163502 -0.005585571188923666 -0.005297604399860489 -0.008093799091717813
          -0.0062951949546992125 -0.001955696380605776 -0.0006250809528496326 -0.00459753459295964 -0.003034068858270622 0.0025669017963902974
          -0.002586047351879728 -0.004932708048222878 -0.0072297408120061135 -0.0030463215260345677 -0.00014417795554777513 0.0028079544537522594
          0.0012754571759856503 -0.003438811369240291 -0.006649382776242163 -0.0019488723635490146 -0.0037246923057772108 -0.008388096401366951
          -0.0011586813766299997 -0.002910820798760483 -0.0071454181739127876 -0.006346647247456261 -0.006447268478758872 -0.0025519830571978375
        </DataArray>
        <DataArray type="Float64" Name="resid_y" format="ascii" RangeMin="-0.6078639247475937" RangeMax="0.4757446118169113">
          -0.0003828192039551509 -0.27708866185136666 -0.0692953507810212 -0.6078639247475937 -0.02493697571104722 -0.2977928521080633
          -0.18726083180939018 -0.238353601216929 -0.0757267558770328 -0.4024983080971941 -0.06831048066262585 -0.13202957835490509
          -0.18830589707439416 -0.20723467263397158 -0.046827556245107156 -0.32194761730244326 -0.07836356724546079 -0.15607346744746725
          0.000868982262049324 -0.15678103492447376 0.03031940699318733 -0.32932478900419365 0.028764613105172934 -0.2074463453662589
          -0.0006441239696918025 -0.09692545519227985 -0.000051829990098783973 -0.1951128979849136 -0.00012458680128998867 -0.10582898731547004
          -0.0006106139230320426 -0.0012041409751107415 0.00018704392019055355 -0.003532763914628388 -0.00039129738215736704 -0.002607585338948693
          0.007017398803987357 0.1568922163522804 0.023542857484960013 0.2780282581100174 0.016850703911465287 0.08626801387416125
          0.011179619574940673 0.28397343649069173 0.014698340979794614 0.4757446118169113 0.0018811610919199778 0.1406323928723114
          -0.00045481807520003636 0.0769162450513805 0.04988382471849753 0.001073350363454767 0.025816989005894686 0.0334859568023978
          0.0013271785060320895 0.0008954824978439774 0.001804648292777461 0.0008399589782657757 0.0010085950345509187 -0.000685044950055419
          -0.0009488030100385514 -0.00023383952979099537 -0.00047111163002308554 0.0013160334539797022 -0.0033596476700065853 -0.0012258634330973841
          0.005928716900059184 -0.013195197188381202 -0.000767507560359551 0.001273319469885563 -0.0023715199769810645 0.00046292289779828466
          0.0019606262657103912 -0.0017982275162937988 -0.0015353654398065908 0.0015574116180901987 -0.00017264829383825675 0.00041598176214854843
          -0.0007339758918496059 0.00030401289502175743 -0.00043768892852810715 -0.0003328408282814721 0.00015076696650744015 -0.0002696015173689753
          -0.0008755516751830159 -0.00033393457127161436 -0.0011991152662773966 -0.0003572765569030559 0.0007672135687575334 -0.00022315321992943948
          -0.003555691316251275 0.010747880721323405 0.00034335545384595045 0.0005636903789832115 0.0003379782303270379 0.00014099047246166063
          0.0010821514059413673 0.0018924212681846742 0.000057033983563964386 -0.00031717919818349816 -0.00014224976937329825 -0.00047099714497897405
          0.0004124804494994999 -0.00014219253404033905 -0.0004204169274533154 -0.000803362791274076 0.00003230699945348803 -0.0003066563432155833
          -0.0005194292278315029 0.00016165039298357553 -0.0002559424483711617 0.0006335485408799635 0.0018824532231452862 0.0009871924854203962
          0.000992548961263759 0.00021957324747205742 0.00023065553200747602 -0.00020982407266779968 -0.00014629628565218655 -0.00038079970193580226
          -0.0008016263988755712 0.0011624285378533383 -0.00007232533142859099 -0.000585947202319359 0.00010792774625451029 -0.00024008510028941665
          -0.0005397410321976159 0.000042501011646350895 -0.00034427344221071854 -0.0002577475674141738 0.000005717147042463844 -0.0003157815258557073
          0.00042070829971489754 0.0001868309494213738 -0.0002720345415865022 0.0008375403399581288 0.00033712509786598677 0.000566187725078382
          0.00036439184210049214 0.0003549616187031035 -0.00013260363938816244 -0.0003409662619452136 0.0001284752117841348 -0.0002211008255037783
          -0.0008649650795483632 0.0000936207378045284 -0.00022839418584644222 -0.0002563746137450307 -0.00004611138959911831 -0.0002362364239335002
          -0.0001718776570198005 0.00020274442882260713 -0.0002182266948575623 -0.0018311425795347752 -0.007056174115709704 -0.010466792900945016
          -0.000019380936479795885 -0.0016086368908870274 -0.0014261889495737756 0.00045135409610633226 -0.00005132111022443375 0.0002725546773913734
          -0.00012455308775918827 0.0004909391093576576 0.00006943242049131659 -0.00043011306422732765 0.00011504986380578286 0.00022725602818152169
          -0.00022739100104599008 0.0004674345791658707 -0.0009202978197438705 -0.00010163092150997088 0.0003550540887822251 -0.00023573125210080148
          -0.00021710955388246078 0.000028403151447836672 -0.0002047685257499099 -0.0010171033293666504 -0.002629660161871758 -0.002826707787383531
          -0.0013828301857175818 -0.002137452516028232 0.003707142108505257 0.0011689416450450518 0.002845413269281144 0.003966479578689341
          0.0002661127111159012 0.0004997284065968166 0.0003726424795942318 0.000049488175503598075 0.00025727511310810747 0.00003307104052308052
          0.00001846437117383748 0.000049615341878056496 0.0003767195171099913 0.00006579986135046845 0.0001230226820172764 -0.0006544435788686243
          -0.0004124289139242898 0.000006516878340606658 -0.0006228394108043767 -0.00022490027751993769 0.00003314271212249975 -0.0004655927732952203
          -0.007577393547504932 0.009909880954329028 0.006879559460075013 0.0016459638516840014 0.010947144873202058 0.008471400129207551
          0.00046223558759223016 -0.00013776194507236772 0.00006433289325386005 0.00028753974471479316 0.00046523728656877594 0.00023908838855407621
          0.0002363764474441199 0.0007252598233122021 0.000331755020125446 0.0000022256281877186535 0.000025791676186992518 0.00024290335728671675
          -0.0005299687922352969 -0.0006755973607508459 -0.000783520361675144 -0.0004579800609319229 -0.0001517380292256898 -0.0006722828441987905
          -0.0034735860096424542 -0.003966053426926186 -0.00486025031585105 -0.0026203779944610484 -0.011670760047141793 -0.0064301596537778005
          0.0030566062856904053 -0.0012566874286312202 -0.0006390207639177525 0.00004891715588017931 -0.000013811799069285424 0.00022217072531377502
          0.00018595489552986066 0.0005612609001775515 0.0005698754778594717 0.00012658056442127474 0.0004636343757975503 0.0004922180636302287
          -0.00025834020142312397 -0.00008825827824499033 0.00046457020626455847 -0.0006035145405380304 0.000754209454572663 -0.0002810105284903608
          -0.0003051511195427403 0.00004097540487024709 -0.00042667114407560214 0.002173174919819207 0.003526779504517713 0.003588111627663787
          0.01105262447465949 0.003780013157969747 0.0019675879834126775 0.00006559762643060241 0.000006651629183507257 0.00013571975262283154
          0.00029927181819477955 0.0004065349935332141 0.0007777154731644087 0.0007606533382820135 0.0003258381301202151 0.0008770831686930602
          0.0004717734190002598 0.00008372371584955407 0.0009158308736451348 0.00047473933235661625 0.0003466893088672207 0.0011319107684565344
          -0.0002292410743008344 0.000839608332773023 -0.00008779299178954258 -0.0023141395667961306 -0.002856491692066254 -0.0007533237437787887
          -0.0006969908416756543 -0.002384295790614138 -0.0013584965798562054 0.0004901218471812241 0.0005802339909992682 -0.0000524791424011406
          0.0004357581289005652 0.0004597550673076656 0.0005781674523924196 0.0008062806569638648 0.00046819674672748945 0.0008735811498553625
          0.0006855626835223227 -0.00029154649474577576 0.0006310588375558202 0.0008771192790964777 0.000017282726139294935 0.0010766681091412267
          0.0009386870615033654 -0.00006943763403048642 0.0014653880317441192 -0.0008300553449394898 -0.0004527684746959415 -0.00046005084985042966
          0.0012881141920666195 0.0023606268411737186 -0.0003103494213460567 0.000293264313340591 0.002693121130240561 0.00007219866382446316
          -0.0001427409129691748 0.00008806594430083026 -0.00025394147474844253 0.00025820763192074825 0.0002510518415758112 0.000315983399799713
          0.0005566636296021055 0.000022460915417743532 0.00045943900530465154 0.0005217158631733998 -0.0003488381631704396 0.0006185869548673006
          0.0009652842784239335 -0.00013350299731748616 0.0011397884610195863 0.0009871421429891065 -0.00017580524514482568 0.0012724710874850841
          -0.0008741478107062439 -0.0005928574520816243 -0.000457375298871493 -0.00042611616069124225 0.00022963826931204911 -0.00023827986097568754
          -0.0003635407700755544 -0.00008208412126581299 -0.0003261127359193705 -0.0001982654863241784 -0.00010041198344401536 -0.00010695629402390772
          0.00006742075095761413 -0.000286978058791465 -0.000018687524210303508 0.00017106388963544772 -0.0004636884832554533 0.00011522509387751345
          0.0007657693913939723 0.0001963341927656015 0.0008913946515487492 0.0012852046645558945 0.00023322752138033032 0.001430872344501094
          0.0011565619437246544 0.00007144605789698166 0.001677248948728706 -0.0005472054681885385 -0.0009334113782762943 -0.00027057287175585865
          -0.00045444766358090916 -0.0003561565174696746 -0.00014350893690751043 -0.00018150765215718678 0.000010224935137082003 0.000012112028873356717
          -0.00011721298856653961 0.000011662826925107339 0.0002094070217315558 -0.00009121043405219131 -0.00031959387827684704 0.0000565994993897978
          0.00018132281274135797 -0.00008919247435151823 0.00033136151491089394 0.0007403488224712318 -0.0000016667799562497532 0.0007064266258510338
          0.0011097257704983307 -0.00003774223555124204 0.0012595904863622158 0.0012842134694991663 0.00020846061385793903 0.001832966904856126
          0.00046023699202732415 0.0007702293648380043 0.0008542107900691431 0.00013489488008938677 0.0003683972866827534 0.0006071203625368504
          0.00024803585653787596 -0.0001076580414383077 0.0004139329961362348 0.00015092186380638584 -0.0001233389683054642 0.00032353615710817296
          0.0003289458796286171 -0.000005046785627155215 0.00043158176388150005 0.000502014851841745 -0.0005131937665947967 0.00048651337349048945
          0.0011862858396403941 0.00004249206858924354 0.0013686642211928474 0.0016088688990349154 0.0006236385233056585 0.002140636629116427
          0.0008959683720909939 0.0011795018854796613 0.0007650675969660403 0.000573736473986064 0.0003326189502936838 0.0006697233684915815
          0.0003476903701503664 -0.00000450276722480103 0.0004529845045461167 0.0002371458220539191 -0.0001087171512722529 0.0002691142893906928
          0.00037797038000211836 -0.0002529984599962676 0.0003756653008568783 0.0005291322569729584 -0.0003789503454494289 0.0007197625516605355
          0.0012646014618872686 0.00020295741785153476 0.0015880756271817176 0.0018061307643078561 0.0009404156581127587 0.0024387754834655218
          0.0011017214986785984 0.0008093264721439342 0.0005313489529997772 0.0005055507624204258 0.00004971362331218643 0.00039494722444699537
          0.0001472374735565496 -0.000339263462630468 0.0002060296229646208 0.00016538228988635661 -0.00019388140673512466 0.00033773410660703496
          0.0005059639145043315 -0.00011332073861828468 0.0007695249091929299 0.0009532182105964071 0.000091136290321564 0.0013039870148884025
          0.00156142247977048 0.00036798659831357994 0.0018998567547109657 0.0016337855133594648 0.000388072557191671 0.002317304661942521
          0.0013992775156127513 0.0020266109050339765 0.0008069585695219539 0.0006151174597808784 0.0005328077535620701 0.00037838409863275024
          0.00011622695489277302 -0.0004586144471339093 0.00027541566196181977 0.00047093916798032764 -0.00015181379540599171 0.0007105624331380234
          0.0009447064170153424 -0.000013253403924509688 0.0012133382150185806 0.0015035919706363476 0.0003234638327836714 0.0017938373373715677
          0.002099914265259434 0.001001883370641471 0.0024794908469393806 0.002005240702741176 0.0012408089080645085 0.0024130588067689807
          0.00017172574509094485 -0.0008241793513714679 0.00029550196616939806 0.00010729581313795311 -0.0004961093854493059 0.00041563652521922623
          0.0008364144415729151 -0.00010499637673081624 0.0010643217320535844 0.001350338096425735 0.00010196064290718398 0.0015429477102920919
          0.0019359514789932253 0.0004999774120508782 0.002071794330047949 0.002373513340065081 0.00111110073706705 0.002564608936549695
          0.0012779491407724497 0.0002688900849282527 0.0018680971040761496 0.0004442408841186518 -0.0007183400834039899 0.00020570054020035977
          0.0003386467196901666 -0.0004513816095348816 0.0007057750912185176 0.001073784402649866 -0.0002095315359850608 0.0012404804062438046
          0.001657041752488153 0.0003243306927798728 0.0018236477743663326 0.0021598419513150224 0.0006030118319306776 0.002118426038243082
          0.0018192836571241378 0.00018623904865922025 0.0019527684288956904 0.0018727081312271965 0.0015108802823199374 0.002132647582280822
          0.0008298559239844905 0.0005349737738106208 0.0007303960753826111 0.000662376721047811 -0.00003639374451043509 0.0010683379396802112
          0.0013628411461421852 0.00018186567614758564 0.001597630149395235 0.001852382598091895 0.0005588340717607165 0.00191854509542988
          0.0016668727444850706 -0.0002462318756265014 0.0016067073998268233 0.0025192772041449096 0.0023603379247528755 0.0024215308104761912
          0.002183395830650442 0.002862553804125867 0.000994556740698177 0.003001717145197147 0.004323747367393632 0.0025009880314731947
          0.0040435224248966395 0.005570310642371845 0.0034693362001241845 0.004237437910387498 0.005742042854523344 0.0033328629370048546
          0.0034336806968011113 0.00421386694199416 0.002463321789679618 0.00022146878684305843 0.0005222949457465431 0.0007523061177280403
          0.0008691098110505668 0.0007260725586979155 0.0004103570248900068 0.0014632783215993046 0.003481000300293635 0.002823504364304258
          0.002569970040610242 0.00300553528065782 0.003868713053056083 0.00023874443672161627 0.0002624019370439379 -0.000003208173136794168
          -0.00004007280367102073 0.000374128472372115 0.0002833130016679855 0.00008462372160069481 0.000049066061855562726 0.0006004469035029714
          0.0006078497588836371 0.0005555809846386206 0.0005811754585733908 0.00015870303709319966 0.0031923949598681722 0.0003873181558939065
          0.00008255839022827671 0.006519661628340501 0.00025062560229152653 0.0007199980251586524 0.003944268133105583 0.001255623729868982
          0.0032124414995697848 0.005310176412309575 0.0033253476572152607 0.002101288389352571 0.0007150708384814561 0.0011654220096392262
          0.003375586482855353 0.0011211030964857066 0.00039467397153176986 0.002221079939296197 0.004254624180731137 0.0017884420780395482
          0.0009492473597761675 0.001536959003487881 0.0028583923032228786 0.0008037095952254103 0.00041975453887677094 0.0012390903587157776
          0.0004015286472677515 0.0008048697449730691 0.0008429212960280319 0.0016463094071090811 0.0008898256720545339 0.00042633809916289844
          0.002076611766473696 0.002168833571414397 0.0025341091754725598 0.001979600036556395 0.0023847274192515533 0.0031113704270011033
          0.00017767993135481275 0.0010137935077355054 9.427570535347485e-8 0.0018715268325124046 0.0002275981643675984 0.0013974551842081406
          0.0017652109273171845 0.002633967063990328 0.0008760287215430207 0.001100442684872499 0.002717896405206144 0.0019513331806308432
          0.00030173430451840844 0.00042067592423641886 0.0004170273139241648 0.004777103383728928 0.005931539861283225 0.0075945947778903455
          0.009039096413397757 0.004796313304707783 0.004829595933649365 0.0045249517840010856 0.00414250591038115 0.004220546855232932
          0.0039575120278111525 0.003419880643252049 0.002817001385473753 0.0020520072185059453 0.0018101191447632559 0.0015894863481227886
          0.001808946912990897 0.0012237222559013938 0.0012100980429742454 0.0006398507140600307 0.00020386707852941555 0.0007116798961773474
          -0.0013027296670820032 0.0007964270123752837 -0.00010862008635519754 0.0000686796628488473 0.0004503965104752372 0.00010108364627470223
          0.0003132188198040897 -0.0004335187804963003 0.0007487892909638638 -0.0005396129059279664 0.0006267713062939884 0.000054828288659103386
          0.0008592993275911842 0.0005067969293392066 0.0003790674408451211 0.000016412967351067675 0.00005179064612975681 0.00009311521067240786
          0.003284823623380284 0.003589031795054709 0.002539358973057737 0.0016675007796856933 0.0017368347057499234 -0.0002533330821488239
          0.0014926319703633673 0.001428776120731834 0.0008935222719306524 0.0010565111887614609 0.0015996306636209268 0.0011808464162374743
          0.0010424878956135086 0.002081303999427464 0.0013946685316869323 0.0034418069741585094 0.0035364245393208205 0.001975021446467412
          0.0002899628587196279 0.002573975882474544 0.0037917086638588615 -0.0006153697352661025 0.0010463855449803772 0.0032686497665861958
          0.002196076959058324 0.0017056450703691606 0.006027256175850315 0.0044729517490152415 0.0045093480363068705 0.0034015297247621534
          0.003262479261158524 0.007252261255142001 0.005191159182542648 0.003462449969082404 0.00745308578903936 0.0050852044146780795
          0.00292188446515651 0.005293759139805232 0.004288347833856898 -0.0007655089578834096 -0.0005746056562943025 0.0023950355897462416
          0.0012988191475211686 0.0035838035072564 0.005887945849367859 0.0030434149874671856 0.0036950804428559636 0.004357479772366807
          0.0020159317194483883 0.0033116246209417 0.004045841434777701 0.007716463749928848 0.002351332180505039 0.004847923231981799
          0.0015687005040982693 0.0026163798801924487 -0.00027212706585821866 0.0016046641144573104 0.001903342842165201 0.002530331257136975
          0.0008816274938399926 -0.0005537462645629487 0.0008743929130610173 -0.000692397219345886 0.0012267078033761092 0.00017454102776504055
          0.00025422801599717104 0.0006133382939292886 0.001047215310804983 0.0011402081642311046 0.0013644694166545235 0.001424325570044016
          0.002471375276588042 0.000852587838058666 0.0034553884103857846 0.0009099138725729428 0.0027073218093393997 0.001677838103077034
          0.006511914896533091 0.008179157662597913 0.005273753800117159 0.008734485963919236 0.0072437418656928765 0.012498460681578338
          0.011019747560895521 0.006651381068598972 0.006069008123828046 0.002865087048498527 0.0026521451940769714 0.0022904907634520577
          0.0004468441692620506 0.0008827234330562872 0.0011750018688931885 -0.26609509963217315 0.00040456694308138585 -0.596395074145847
          0.0023953282949102928 -0.41845898335586695 0.00148199589471798 0.0013819905402972787 0.0022547075644476777 0.0012608354989284698
          0.0005130819443110168 0.001096845746299424 0.0007048268847993366 0.0007980596409317697 0.0006054842603663291 0.0033859843712104043
        </DataArray>
        <DataArray type="Float64" Name="resid_z" format="ascii" RangeMin="0" RangeMax="0">
          0 0 0 0 0 0
          0 0 0 0 0 0
          0 0 0 0 0 0
          0 0 0 0 0 0
          0 0 0 0 0 0
          0 0 0 0 0 0
          0 0 0 0 0 0
          0 0 0 0 0 0
          0 0 0 0 0 0
          0 0 0 0 0 0
          0 0 0 0 0 0
          0 0 0 0 0 0
          0 0 0 0 0 0
          0 0 0 0 0 0
          0 0 0 0 0 0
          0 0 0 0 0 0
          0 0 0 0 0 0
          0 0 0 0 0 0
          0 0 0 0 0 0
          0 0 0 0 0 0
          0 0 0 0 0 0
          0 0 0 0 0 0
          0 0 0 0 0 0
          0 0 0 0 0 0
          0 0 0 0 0 0
          0 0 0 0 0 0
          0 0 0 0 0 0
          0 0 0 0 0 0
          0 0 0 0 0 0
          0 0 0 0 0 0
          0 0 0 0 0 0
          0 0 0 0 0 0
          0 0 0 0 0 0
          0 0 0 0 0 0
          0 0 0 0 0 0
          0 0 0 0 0 0
          0 0 0 0 0 0
          0 0 0 0 0 0
          0 0 0 0 0 0
          0 0 0 0 0 0
          0 0 0 0 0 0
          0 0 0 0 0 0
          0 0 0 0 0 0
          0 0 0 0 0 0
          0 0 0 0 0 0
          0 0 0 0 0 0
          0 0 0 0 0 0
          0 0 0 0 0 0
          0 0 0 0 0 0
          0 0 0 0 0 0
          0 0 0 0 0 0
          0 0 0 0 0 0
          0 0 0 0 0 0
          0 0 0 0 0 0
          0 0 0 0 0 0
          0 0 0 0 0 0
          0 0 0 0 0 0
          0 0 0 0 0 0
          0 0 0 0 0 0
          0 0 0 0 0 0
          0 0 0 0 0 0
          0 0 0 0 0 0
          0 0 0 0 0 0
          0 0 0 0 0 0
          0 0 0 0 0 0
          0 0 0 0 0 0
          0 0 0 0 0 0
          0 0 0 0 0 0
          0 0 0 0 0 0
          0 0 0 0 0 0
          0 0 0 0 0 0
          0 0 0 0 0 0
          0 0 0 0 0 0
          0 0 0 0 0 0
          0 0 0 0 0 0
          0 0 0 0 0 0
          0 0 0 0 0 0
          0 0 0 0 0 0
          0 0 0 0 0 0
          0 0 0 0 0 0
          0 0 0 0 0 0
          0 0 0 0 0 0
          0 0 0 0 0 0
          0 0 0 0 0 0
          0 0 0 0 0 0
          0 0 0 0 0 0
          0 0 0 0 0 0
          0 0 0 0 0 0
          0 0 0 0 0 0
          0 0 0 0 0 0
          0 0 0 0 0 0
          0 0 0 0 0 0
          0 0 0 0 0 0
          0 0 0 0 0 0
          0 0 0 0 0 0
          0 0 0 0 0 0
          0 0 0 0 0 0
          0 0 0 0 0 0
          0 0 0 0 0 0
          0 0 0 0 0 0
          0 0 0 0 0 0
          0 0 0 0 0 0
          0 0 0 0 0 0
          0 0 0 0 0 0
          0 0 0 0 0 0
          0 0 0 0 0 0
          0 0 0 0 0 0
          0 0 0 0 0 0
          0 0 0 0 0 0
          0 0 0 0 0 0
          0 0 0 0 0 0
          0 0 0 0 0 0
          0 0 0 0 0 0
          0 0 0 0 0 0
          0 0 0 0 0 0
          0 0 0 0 0 0
          0 0 0 0 0 0
          0 0 0 0 0 0
          0 0 0 0 0 0
          0 0 0 0 0 0
          0 0 0 0 0 0
          0 0 0 0 0 0
          0 0 0 0 0 0
          0 0 0 0 0 0
          0 0 0 0 0 0
          0 0 0 0 0 0
          0 0 0 0 0 0
          0 0 0 0 0 0
          0 0 0 0 0 0
          0 0 0 0 0 0
        </DataArray>
        <DataArray type="Float64" Name="stress_zz" format="ascii" RangeMin="-3821720.508018859" RangeMax="5319559.838723749">
          -768853.7324588844 -1482824.3759967359 -45958.63774002448 -594632.3561058934 676936.4569788354 293559.6637849491
          -1368103.82003658 -3117010.495910397 -421972.5779992654 -1216259.245170403 524158.6640380492 684492.0055695904
          -1318503.9724220918 -3196494.7911563613 -576149.8195697533 -1147440.5470716406 166204.33328258514 901613.6970130802
          -771617.5100620971 -1558095.4230027376 -362910.8766568464 -473398.91873623634 45795.75674840444 611297.5855302649
          329114.35592793 600806.4300579152 296076.32069556304 497313.2041114377 263038.28546319605 393819.9781649603
          15407.529572623458 338559.9287326277 -77093.05616673874 224067.0599283521 -169593.64190610085 109574.1911240765
          -674961.2876622302 -660996.8131808836 -773076.9482788122 -747764.7330814364 -871192.6088953944 -834532.6529819891
          -2150107.272322992 -3278788.16536102 -1780671.175055565 -3041764.6083277236 -1411235.077788138 -2804741.051294428
          -25123.525333044607 233882.67248800863 492888.8703090619 150013.25960547937 181749.03433000832 213484.80905453727
          238042.15205556713 32198.178120952045 -173645.79581366308 31187.143246347674 -90522.19405879577 -212231.53136393917
          62688.46090066702 65974.05231016649 69259.64371966594 -781744.4096719113 -819071.8989873938 -856399.3883028761
          -874625.3332245711 -949997.1732357647 -1025369.0132469581 -166787.9040870724 68249.27461044517 303286.45330796274
          -4083.6643844709743 -15060.370561797008 -26037.076739123047 -58399.31247260797 -24351.14752780022 9697.01741700753
          -57943.098973495464 910.0793734028266 59763.257720301124 148870.63309136813 131833.44216230538 114796.25123324266
          -258878.7400815596 -266058.5147751188 -273238.28946867783 -1587013.9964023016 -1581743.5269876132 -1576473.057572924
          -773360.1465646178 -821168.7929768794 -868977.439389141 1022254.7435659971 990159.6447326703 958064.5458993432
          -5891.114148605939 -332.60150893390073 5225.911130738138 -25512.65209115445 -23212.885560720522 -20913.11903028659
          888.5310841590453 -23911.231185575438 -48710.99345530992 224256.01659444877 150241.4137303129 76226.81086617697
          -1066804.058426509 -1013953.3055901533 -961102.5527537977 -2075691.379049692 -2043075.4208821394 -2010459.4627145869
          -85791.19848472212 -154213.70208502165 -222636.20568532136 1340279.2443032933 1417608.2887527952 1494937.3332022973
          -9703.295161538907 -9483.03341973298 -9262.77167792705 -18491.32052817744 -21272.32754261447 -24053.334557051494
          146942.7046986079 119524.43014510069 92106.15559159349 -174933.94472504017 -235940.80058009483 -296947.65643514955
          -1895786.1273318485 -1779528.1954969359 -1663270.263662023 -1972059.0488020706 -1956624.4243597318 -1941189.7999173924
          420401.32847760076 320696.9366326343 220992.54478766787 1431543.798479048 1637607.8169122308 1843671.835345413
          -20801.549726075056 -15112.511278119011 -9423.472830162966 22209.089466551108 3176.9873404488762 -15855.114785653357
          202052.10722256516 162387.43484665654 122722.76247074794 -1051932.0961862993 -1018787.9506875044 -985643.8051887095
          -2406484.258020203 -2225565.320120528 -2044646.3822208524 -1411838.9809410907 -1461536.1988473618 -1511233.416753633
          550598.7467731554 441752.08584774414 332905.4249223331 1559784.7795041152 1796029.241176338 2032273.7028485606
          -11737.263713915487 -9635.454688034864 -7533.645662154244 -26907.95961003164 -25834.54864095261 -24761.137671873577
          189481.01204497652 134242.43480432392 79003.85756367134 -280216.97202757274 -355354.21727290336 -430491.4625182341
          -1933145.4559809365 -1864173.8513706853 -1795202.2467604342 -2280144.5303634694 -2110924.5775536946 -1941704.62474392
          -898876.1980319583 -997783.0362712065 -1096689.8745104547 693156.8133772798 610692.8706505082 528228.9279237367
          1514407.2728690421 1775246.8389229532 2036086.4049768648 -21322.258462039663 -20015.523774397392 -18708.789086755118
          39325.13679797563 30817.471523104326 22309.806248233013 173689.92776059755 70593.51653471192 -32502.894691173664
          -1211595.004893148 -1294066.1307598792 -1376537.2566266104 -2430997.9321760004 -2374570.0605570883 -2318142.1889381763
          -1711346.4063014651 -1618706.6305767002 -1526066.854851935 -448504.8029445962 -561547.3054446691 -674589.8079447419
          1042937.8707934633 981232.1611834895 919526.4515735155 1613455.706846549 1882796.9578842781 2152138.2089220076
          -29878.995410332762 -38036.96731075844 -46194.93921118413 226604.42906565338 185732.17926071194 144859.9294557705
          -524649.8417896756 -592682.7490694836 -660715.6563492917 -2210394.9922414534 -2201724.701358137 -2193054.410474821
          -2287799.5501769325 -2234062.1841863277 -2180324.818195723 -1229085.2654398107 -1178505.1690787985 -1127925.0727177863
          50760.931910786865 -67605.3802317343 -185971.69237425545 1598598.2650225626 1528212.7242264021 1457827.1834302414
          2124305.760572702 2383952.0002113525 2643598.239850003 57035.318871991345 32475.3714927252 7915.424113459059
          127221.60874496857 52285.26599811118 -22651.076748746207 -1607329.2387806042 -1587595.9390740448 -1567862.639367486
          -2778984.8445895826 -2689098.697467122 -2599212.550344662 -1740228.5129235075 -1722663.7963620727 -1705099.0798006377
          -683859.2531675904 -659693.7867148581 -635528.3202621259 615199.599721731 509738.96679854393 404278.3338753569
          2011409.9115825137 1961109.252128739 1910808.5926749639 2699513.0372571293 2863598.6367559438 3027684.236254758
          244686.67743721907 182516.86926808106 120347.061098943 -726400.0097962487 -773281.6616697712 -820163.3135432936
          -2678721.282062088 -2584851.649096177 -2490982.016130265 -2575930.280873771 -2489429.6165862614 -2402928.952298753
          -1181272.0908709662 -1187212.9889839743 -1193153.8870969824 6546.418399935152 12009.025701753664 17471.633003572206
          1164513.5027669119 1103343.0052584866 1042172.5077500611 1892259.0639180727 1867140.4098481527 1842021.7557782328
          2864212.5350307776 2948219.8362718397 3032227.1375129023 94461.85534694459 -5735.613103503842 -105933.08155395223
          -1923980.3415314956 -1904966.4580445806 -1885952.574557666 -3266232.315503021 -3128746.598183607 -2991260.880864194
          -1944256.5530707627 -1907416.8303455187 -1870577.1076202746 -535000.7754534667 -551440.1486080311 -567879.5217625955
          658788.2250931486 652879.7561154433 646971.2871377382 1541098.921550445 1497923.6958000762 1454748.4700497072
          2117316.377792407 2066169.4704576693 2015022.5631229312 2974678.4939440656 3048170.885421913 3121663.2768997615
          -872512.0461251508 -932981.0397338837 -993450.0333426164 -3118000.3086133436 -3012545.3293863935 -2907090.3501594425
          -2967295.5069019543 -2855392.234301869 -2743488.9617017834 -1229277.67652885 -1234707.1275219473 -1240136.5785150444
          227768.78593632608 207075.54522179475 186382.30450726335 1305905.815266841 1289229.7044246406 1272553.5935824402
          1967509.9484958898 1931567.6403233684 1895625.3321508472 2518194.462530503 2470045.6794871455 2421896.896443788
          2209163.213359935 2227346.375920782 2245529.538481629 -2213919.229406554 -2184803.771178604 -2155688.312950654
          -3821720.508018859 -3649820.435634484 -3477920.3632501084 -2187526.767730776 -2140082.0990929124 -2092637.4304550483
          -415459.64390159317 -441808.1004477972 -468156.5569940013 1009804.1407554012 984913.1804495018 960022.2201436029
          1991332.25768622 1965959.5842907971 1940586.9108953741 2514647.219896546 2489359.217207569 2464071.214518592
          2471623.882455577 2436468.9851984167 2401314.087941257 2098501.8614696646 2113572.394344476 2128642.927219288
          -3494054.6502219555 -3348446.239274707 -3202837.8283274597 -1237027.8443866037 -1246848.783540344 -1256669.7226940843
          553283.4492843205 519076.10788660205 484868.7664888838 1793762.9705629959 1763703.7453238338 1733644.5200846717
          2554833.8267218494 2523174.0177577157 2491514.2087935824 2907382.3021585373 2879312.8209368 2851243.3397150626
          2637075.5356692257 2615696.9769021976 2594318.4181351694 1225984.6208548883 1320191.2882853176 1414397.9557157466
          -2562988.457508737 -2478299.0117933042 -2393609.5660778712 -84091.57363512268 -136235.3055227212 -188379.0374103196
          1617149.1125920103 1577491.132784369 1537833.1529767276 2569597.627478218 2538695.413688682 2507793.1998991463
          2942788.865996824 2904334.1346201813 2865879.403243539 2892660.631044668 2864354.9732820336 2836049.315519399
          2403877.0131682013 2414331.9983110013 2424786.9834538014 1257533.448851094 1392780.4777743362 1528027.506697578
          -1426195.2116581034 -1348820.3753549203 -1271445.5390517372 1271519.9218323112 1181527.0810770965 1091534.2403218814
          2678341.4374590665 2632954.9794659596 2587568.5214728517 3255031.084313189 3225766.5692600533 3196502.054206918
          3221907.6188168605 3173737.4833072834 3125567.3477977053 2504597.7660883944 2521388.183955809 2538178.601823224
          983788.7050015554 1075388.7507671348 1166988.7965327143 587964.6396921601 517799.8116306493 447634.9835691386
          -91203.50246220018 47221.79608310934 185647.0946284189 2655848.6059237556 2524873.420048426 2393898.2341730967
          3595842.929013166 3550560.0677468404 3505277.206480514 3704249.9070359524 3679692.803412803 3655135.699789654
          3245223.3558575986 3185252.435524918 3125281.5151922377 1927430.3017376289 2016576.3070275662 2105722.312317504
          -675509.5296401621 -499737.05444517056 -323964.57925017923 -1842962.3644786794 -2188867.057305024 -2534771.750131368
          3886494.176537088 3716560.3962750556 3546626.6160130235 4233688.732900341 4193461.7678423547 4153234.8027843684
          3796877.4482638687 3781627.529971838 3766377.6116798073 2869367.0280587985 2801120.1473153243 2732873.26657185
          1173893.7568911228 1299976.8350741651 1426059.9132572073 -1320451.3093683757 -1212446.5578658537 -1104441.8063633312
          -2192444.1614845768 -2681084.3451492437 -3169724.5288139107 4813726.935179629 4614042.279967649 4414357.6247556675
          4506661.3339438345 4469367.866277575 4432074.398611315 3514831.236830772 3506915.908516124 3499000.580201475
          2231839.0492327367 2155700.4796564723 2079561.9100802084 526718.5078505777 670509.0651888849 814299.6225271921
          -1302169.4949232938 -1298450.6813594871 -1294731.8677956806 -1879452.8600833344 -2314249.556452212 -2749046.2528210897
          5319559.838723749 5096121.573945351 4872683.309166955 4374689.973308992 4327394.03737459 4280098.1014401885
          2927362.4036320355 2916010.0183753665 2904657.6331186974 1494002.6695647556 1411953.1809146837 1329903.6922646118
          -51354.258165054605 98192.6832008854 247739.6245668254 -1639675.523480861 -1675523.0418242111 -1711370.5601675613
          5287375.742628783 5054416.139351707 4821456.536074631 3762095.8841252755 3701645.9093894456 3641195.9346536165
          1994130.855594916 1980966.5723662828 1967802.289137649 531128.8113783476 459007.8746833088 386886.9379882701
          -890753.3259717595 -754874.7762052851 -618996.2264388105 2201744.5229845312 1022186.8886977956 1711271.3193042227
          1493103.7541744902 2039391.7180683226 1010253.3386775595 1762851.8478858555 1409215.2963545711 1877038.9131521143
          998319.7886573233 1814432.3764674878 1325326.8385346523 217855.37122330314 -392827.8029917461 1220598.0446969997
          883204.2194605157 -32395.24712418366 -676992.190066072 1120899.0144268125 813848.8067168528 -282645.86547167046
          -961156.577140398 1021199.9841566253 744493.3939731902 1522822.2272345652 -1445244.7967230477 -2101808.582789745
          1814680.1080793412 -1325698.0446646023 -2453448.3232291564 2106537.9889241178 -1206151.292606157 -2805088.0636685677
          3947083.6928478405 4363059.509841479 4779035.326835118 1596217.2599210574 3007433.5810899166 1694410.873707446
          2208032.513236513 1626357.1482269843 3113139.266153825 1594071.0207230896 2093821.548505223 1656497.0365329105
          3218844.9512177333 1493731.1677387333 1979610.5837739322 659144.3853935865 1200083.6538980394 455400.69255960087
          1155636.9031682604 251656.99972561523 1111190.1524384809 3922551.762998478 3871545.2433398017 1006552.7030782772
          3973757.1215925603 4056133.1846605856 1130418.5876028135 4024962.4801866426 4240721.125981369 1254284.4721273496
          1108942.4400847554 -256098.44488392037 1084928.487812868 -416886.55258160585 1060914.5355409808 -577674.6602792913
          300837.4432520194 -42503.879898716696 123580.36142696794 -17989.592390354628 -53676.72039808366 6524.695118007367
          213928.73601292024 163062.33274819423 112195.92948346809 2751383.375680844 3542905.8559836466 2627682.6888212035
          3594498.73620047 2503982.0019615632 3646091.6164172934 -748894.6397762895 -843614.40722035 -851025.7730394686
          -1283440.1446445703 -953156.9063026474 -1723265.8820687903 3200568.9392231745 1259787.2250868955 3329402.487644747
          1254107.576764902 3458236.0360663184 1248427.928442909 2008072.4078391846 1536803.2811295944 1862438.2652061903
          1461234.3873641402 1716804.1225731957 1385665.4935986863 638958.1889523094 703489.8858415708 768021.5827308323
          -452549.38442003925 183866.40538077196 -328566.69197227724 404101.8277769866 -204583.99952451524 624337.2501732014
          284238.4543831714 -27090.53613694447 -338419.5266570604 -1951280.708052704 -1719242.1163644276 -1487203.524676151
          -1375580.9496310444 -1999129.527733538 -2622678.1058360315 -3524626.3824000824 -3006165.9808274773 -2487705.579254872
          -1403179.4183260212 -1478111.3146100412 -1553043.2108940613 -1992021.7807397041 -1740412.3225974264 -1488802.8644551483
          -2261837.944371491 -1940902.6175302125 -1619967.290688933 -2589299.8138362938 -2896595.320278522 -3203890.82672075
          -2341037.220674804 -2377637.011812508 -2414236.8029502127 -3272863.215828461 -3498738.7427661004 -3724614.2697037403
          2556614.6286925217 4577369.464855332 2481794.5443508322 4348077.365850006 2406974.4600091428 4118785.2668446796
          607541.9301515918 595836.2078330442 584130.4855144966 -740540.7101685225 -789846.644416372 -839152.5786642213
          -1826011.8710694406 -1699061.8198562544 -1572111.7686430684 -2740073.6389927883 -2751028.371143627 -2761983.103294466
          -72653.34809723953 243681.58047306753 560016.5090433742 523447.9208569431 666124.6935157471 808801.466174551
          1118001.2932361395 3063374.115001297 934570.9269427119 3006363.11156593 751140.5606492843 2949352.1081305626
          -941475.0755927637 -3043607.4102532873 -943302.9962347846 -3042757.359305812 -945130.9168768052 -3041907.3083583373
          208106.37971413202 -169902.63244841862 280496.12681671727 -128903.17200024771 352885.87391930254 -87903.71155207678
          -293157.2480942712 -260912.93274101455 -228668.6173877578 -2945700.3436777494 -2943502.4452900034 -2941304.546902258
          843145.4361448225 572752.2017656896 744809.0406440074 507892.0910522397 646472.6451431925 443031.98033878964
          1820651.9994665072 1873837.1649039618 1927022.3303414157 1528122.4523568174 3351652.3339049187 1575476.6515024574
          3475843.822263119 1622830.8506480972 3600035.3106213184 -1575770.641115751 -1248523.117917171 -921275.5947185911
          -1367671.3079558748 -1346314.1068903971 -1324956.9058249197 -2979948.0056323297 -3148603.3996007075 -2946117.881076785
          -3249068.654244057 -2912287.75652124 -3349533.908887407 -2406037.1287165517 -2423938.5012865206 -2441839.8738564895
          -3585408.187061919 -3629689.1390670347 -3673970.0910721505 -581300.6472323004 -388865.05787635443 -196429.46852040838
        </DataArray>
        <DataArray type="Float64" Name="peeq" format="ascii" RangeMin="0" RangeMax="0.004395736658509321">
          0 0 0 0 0 0
          0.000003116380389817518 0.000006232760779635036 0.000001558190194908759 0.000003116380389817518 0 0
          0.000003116380389817518 0.000006232760779635036 0.000001558190194908759 0.000003116380389817518 0 0
          0 0 0 0 0 0
          0 0 0 0 0 0
          0 0 0 0 0 0
          0.000019026797786784856 0.000007396347591971638 0.000021457789969883092 0.000010016340341091596 0.000023888782152981328 0.000012636333090211555
          0.00012241998485952756 0.00010596029640911863 0.00012978533931117819 0.00011325613221204563 0.00013715069376282884 0.00012055196801497264
          0 0 0 0 0 0
          0 0 0 0 0 0
          0 0 0 0.000004720050973861217 0.000005091373079811137 0.000005462695185761056
          0.00006031306625460583 0.00006283108349205506 0.00006534910072950429 0.0002003265576081584 0.00020722874761712934 0.00021413093762610034
          0 0 0 0 0 0
          0 0 0 0 0 0
          0 1.2313114949521774e-8 2.4626229899043548e-8 0.000026729226616281277 0.000027625304513334064 0.000028521382410386855
          0.00014111577548646498 0.0001438945883667321 0.00014667340124699927 0.00033337980665563814 0.000339283268604236 0.00034518673055283387
          0 0 0 0 0 0
          0 0 0 0 0 0
          0.000005268691738211008 0.0000058909420802078305 0.000006513192422204653 0.00007656037064959062 0.00007812964145949839 0.00007969891226940618
          0.00026131315702967805 0.0002639627792128538 0.00026661240139602964 0.0004994774698179282 0.0005048285533068695 0.0005101796367958108
          0 0 0 0 0 0
          0 0 0 0 2.9470368018739664e-8 5.894073603747933e-8
          0.00002958429464261276 0.000030998937115791735 0.00003241357958897071 0.00016618414066144134 0.00016832298590258672 0.0001704618311437321
          0.0004219843564172475 0.0004244776471416591 0.00042697093786607065 0.000718336834606888 0.0007234191702402303 0.0007285015058735723
          0 0 0 0 0 0
          0 0 0 0.000007168626466286535 0.00000796370050859003 0.000008758774550893522
          0.00008755447420680366 0.0000898365463529323 0.00009211861849906091 0.00030535535494811684 0.0003073451664574304 0.000309334977966744
          0.0006291267282723881 0.0006314565880601448 0.0006337864478479017 0.00098838180063666 0.0009928556126107988 0.0009973294245849379
          0 0 0 0 0 0
          0 0 0 3.6161542238830706e-7 5.919961194741067e-7 8.223768165599064e-7
          0.00003845806636141904 0.00004040953965572993 0.00004236101295004082 0.0001962237812049238 0.00019918370868273605 0.00020214363616054834
          0.0004964012064201676 0.000497840245472273 0.0004992792845243784 0.0008818172472445246 0.0008837630310604383 0.0008857088148763519
          0.001290852765600066 0.0012943776401635526 0.0012979025147270393 0 0 0
          0 0 0 0 0 0
          0.000012301628841640135 0.000013550842059367739 0.000014800055277095344 0.00011218843348016235 0.00011529221042181736 0.00011839598736347238
          0.00036410877985726007 0.00036679462068763403 0.000369480461518008 0.0007405881945682667 0.0007412394757214693 0.0007418907568746719
          0.0011751703211970105 0.001176431944452326 0.0011776935677076414 0.001607704444830486 0.0016101821322660797 0.001612659819701674
          0 0 0 0 0 0
          9.572726710691962e-7 0.0000014611853919424755 0.000001965098112815755 0.00005262372250144852 0.00005522376145077513 0.00005782380040010174
          0.00024237659518029132 0.0002461205727598133 0.0002498645503393352 0.0005874216452719947 0.0005894477362145044 0.0005914738271570138
          0.0010323438794139685 0.0010321190348303191 0.0010318941902466698 0.001500214854409077 0.0015005018507208828 0.0015007888470326884
          0.0019248051015848507 0.001926077781187605 0.0019273504607903598 0 0 0
          0 0 0 0.00001696776950593517 0.00001859377639735812 0.000020219783288781073
          0.00013926145924188498 0.00014296572156677006 0.00014666998389165515 0.00043284911902313186 0.000436156598420896 0.0004394640778186602
          0.0008621841792008637 0.0008632976576240153 0.0008644111360471672 0.0013586373797987794 0.0013574971860682902 0.0013563569923378013
          0.0018404327473584452 0.0018395453989330111 0.0018386580505075772 0.00224107099964438 0.002240759673139193 0.0022404483466340066
          0 0 0 0.000001695840138437601 0.0000024124744752031096 0.0000031291088119686183
          0.00006508725506327227 0.00006812496378409405 0.00007116267250491584 0.0002873801463603677 0.000291495801620219 0.00029561145688007033
          0.0006812575565429719 0.0006837090612953081 0.0006861605660476446 0.0011818004029939986 0.0011818242853378913 0.001181848167681784
          0.0017092389858445432 0.0017071546839275546 0.001705070382010566 0.002187660937431645 0.0021854722267135446 0.0021832835159954433
          0.002622892270870603 0.0026207639455828147 0.0026186356202950274 0 0 0
          0.00002056777257404797 0.00002257075876252901 0.00002457374495101005 0.00016291560394853536 0.00016723748610965235 0.00017155936827076932
          0.0004995393264197567 0.000503116564923759 0.0005066938034277613 0.0009849953225821917 0.0009862688073056076 0.0009875422920290232
          0.0015384788315109252 0.001537362746627468 0.001536246661744011 0.002076848770169016 0.002073856250726461 0.0020708637312839054
          0.0025292943953457475 0.0025259288466815155 0.0025225632980172834 0.002848964257157649 0.002846242330402678 0.0028435204036477073
          0.0000017774323788216457 0.0000025813120748639665 0.000003385191770906287 0.00007383326392398821 0.00007732261263715664 0.00008081196135032507
          0.0003274860077162658 0.00033215348837359527 0.0003368209690309248 0.0007756071251945753 0.0007781454787027823 0.0007806838322109891
          0.001338481974483077 0.0013383452108359068 0.0013382084471887366 0.0019218246068875419 0.0019194766883791413 0.0019171287698707404
          0.002442322360046331 0.002438459477088552 0.002434596594130773 0.0028342789670113304 0.0028300999890881946 0.0028259210111650597
          0.0030576948997250186 0.0030540715581065647 0.003050448216488111 0.00002187957170133993 0.00002416592477937982 0.000026452277857419714
          0.00018125687591640633 0.00018623150981178006 0.00019120614370715387 0.000563690876571236 0.0005676874306880537 0.0005716839848048715
          0.001114173048931104 0.0011152435275630123 0.001116314006194921 0.001731814471822669 0.0017301490242634813 0.0017284835767042946
          0.0023150813749539287 0.0023114605513847183 0.0023078397278155074 0.002781794356761987 0.0027771486758296784 0.00277250299489737
          0.003079546909466706 0.003074974376715602 0.0030704018439644985 0.003191977812078331 0.003187864629445196 0.003183751446812061
          0.0003643570103588697 0.0003697227132867069 0.0003750884162145442 0.0008745413807663709 0.0008771645325506103 0.0008797876843348497
          0.001508589004972567 0.00150785610204936 0.001507123199126153 0.0021490437391738 0.0021458182604030414 0.0021425927816322837
          0.0026958287895231005 0.00269110700006093 0.0026863852105987584 0.0030764023912137114 0.0030712166587432313 0.0030660309262727503
          0.0032533755717778405 0.0032488189707498886 0.0032442623697219366 0.0032394808050168365 0.0032355014387442653 0.0032315220724716946
          0.0006305944751438795 0.00063513946041007 0.0006396844456762606 0.0012592562689961887 0.0012599366800193827 0.0012606170910425766
          0.0019471463411872788 0.0019444086240996922 0.0019416709070121056 0.0025698078612514416 0.0025650766902552734 0.0025603455192591052
          0.0030389275029830912 0.0030334726288980133 0.003028017754812935 0.003304756120699419 0.0032997031133223044 0.00329465010594519
          0.0033548831008158 0.0033506677122476843 0.0033464523236795695 0.0032197378154352457 0.003215589201516165 0.0032114405875970837
          0.000984501343611973 0.000987423191343056 0.000990345039074139 0.0017091513995259816 0.001707584931608614 0.0017060184636912465
          0.002412078862418353 0.0024073061326421864 0.0024025334028660206 0.0029724610991289867 0.0029664132567284486 0.0029603654143279118
          0.003323478649957176 0.0033177132722067926 0.0033119478944564082 0.003447533181377984 0.00344340060165183 0.0034392680219256754
          0.0033758034751367443 0.0033722322113825627 0.00336866094762838 0.003170133941971909 0.0031647889246772145 0.0031594439073825194
          0.0014278882318203394 0.001428650907274418 0.0014294135827284961 0.002208479813778051 0.0022047176754469208 0.0022009555371157903
          0.0028787975162680376 0.0028722368616716427 0.0028656762070752477 0.0033335996870586726 0.0033266633940772423 0.003319727101095813
          0.0035353880364359554 0.003529783217901181 0.0035241783993664073 0.0035005725472126723 0.0034976417431254085 0.0034947109390381457
          0.0033012566884298147 0.003298277197035393 0.00329529770564097 0.0030373192975645933 0.003030306845900846 0.0030232943942370975
          0.002734794188551437 0.0027292263312536603 0.002723658473955884 0.0033184434189964993 0.003310614462602597 0.0033027855062086955
          0.00362742072364153 0.003620205683915272 0.0036129906441890146 0.003658262751981437 0.0036533181726834244 0.003648373593385411
          0.0034577277943597024 0.00345587977273793 0.003454031751116157 0.003115324943485317 0.0031125232146623576 0.0031097214858393975
          0.00272052479476356 0.0027137044651122564 0.002706884135460953 0.003258335740410696 0.0032516783375023577 0.003245020934594018
          0.003699107863592229 0.0036906856961681747 0.003682263528744121 0.003824620545850136 0.0038177399351357628 0.00381085932442139
          0.0036648478828470586 0.003660901144071033 0.003656954405295008 0.003288837404462405 0.0032878878669549715 0.003286938329447539
          0.0027901110099686787 0.0027876280213327354 0.002785145032696792 0.002250132780057605 0.0022460449586129863 0.002241957137168368
          0.0037422127446824667 0.0037353680738913017 0.003728523403100136 0.003983492951064217 0.003975228310312345 0.0039669636695604735
          0.0038894547579979956 0.0038834920498249563 0.003877529341651916 0.0035205635855726724 0.0035179158685254017 0.003515268151478131
          0.002966035473474534 0.0029661860714362692 0.0029663366693980053 0.002332673410511368 0.002331476770114781 0.0023302801297181938
          0.004140587749496594 0.004134404974534241 0.0041282221995718885 0.0041266992535079865 0.0041194062380861375 0.004112113222664288
          0.003783000042118636 0.0037786253486593504 0.003774250655200064 0.003201987787870599 0.0032011164605137356 0.003200245133156872
          0.0024984758164374853 0.002500188414148975 0.0025019010118604644 0.002732750085931771 0.0030924391148492206 0.003136109618943802
          0.00295621109796706 0.002729602954709328 0.0030875504222246477 0.0031314453718413087 0.0029512651352962406 0.0027264558234868846
          0.0030826617296000744 0.003126781124738815 0.0029463191726254202 0.0023478218572097675 0.0025697102599470086 0.002280143987946836
          0.0020052000554002833 0.0023423809181670275 0.0025634684926482505 0.002277337343899403 0.0020034243154582613 0.002336939979124287
          0.0025572267253494924 0.00227453069985197 0.002001648575516239 0.0019934442640385 0.0017246219472119545 0.002327265383812733
          0.0019965818117552415 0.0017267680810255752 0.0023236231390129673 0.0019997193594719835 0.0017289142148391961 0.002319980894213201
          0.001785155383235259 0.0017899496341933123 0.001794743885151366 0.0031212584606699293 0.003029664606566464 0.003079894792022928
          0.003051960540433491 0.0031168966192795557 0.0030257043872447273 0.0030736024310608003 0.003046281473448623 0.0031125347778891816
          0.00302174416792299 0.0030673100700986723 0.0030406024064637545 0.0020255915239428216 0.0016795711141317812 0.0020217296534661604
          0.0016796141785425595 0.0020178677829895 0.0016796572429533382 0.0025187385054496435 0.002056279303752565 0.002077039064433863
          0.002517755825365221 0.0020577558273309916 0.0020788187983681707 0.002516773145280798 0.002059232350909418 0.0020805985323024785
          0.0013356878032925992 0.0016685487813374506 0.0013380888050082112 0.0016669903040097275 0.0013404898067238234 0.0016654318266820043
          0.0026942823066520723 0.002150262543836938 0.0026905129411755394 0.002151601067308408 0.002686743575699007 0.0021529395907798773
          0.0028525508798660053 0.00284621913740089 0.002839887394935774 0.002652186728344841 0.002139850282585761 0.0026502294158698373
          0.0021414932053624735 0.002648272103394833 0.0021431361281391854 0.0029703677809153417 0.0027200979848877502 0.00296560556074044
          0.002716660018360855 0.0029608433405655383 0.0027132220518339602 0.0029290123655467217 0.002984772953710315 0.002925286209694541
          0.0029791116639929656 0.00292156005384236 0.002973450374275616 0.0025280153603918637 0.0027768562017673293 0.0025241697692590785
          0.002772088963503088 0.0025203241781262924 0.002767321725238846 0.0010101760437213297 0.001014969799846393 0.001019763555971456
          0.0005513113301365045 0.0007337577338434875 0.0005586842817001785 0.000740290880555499 0.0005660572332638525 0.0007468240272675103
          0.002677808265945171 0.0026710572843794095 0.0026643063028136474 0.0004367626448936616 0.0004446284516071595 0.00045249425832065735
          0.002770083832184036 0.002762461014100435 0.002754838196016835 0.0003208268455732192 0.00032934383297967526 0.0003378608203861313
          0.001317196709790169 0.0013183554978001926 0.0013195142858102164 0.000995505601220738 0.0009991912711670682 0.0010028769411133984
          0.0007693675490789238 0.0007747382707581214 0.0007801089924373191 0.0017227398301848946 0.0017218010555166774 0.0017208622808484605
          0.0017975884713002663 0.00179833136750215 0.0017990742637040338 0.0012076364067994984 0.0012089417728987986 0.0012102471389980989
          0.004079004015901292 0.004395736658509321 0.004073678121843375 0.004390967512097143 0.004068352227785458 0.004386198365684965
          0.0034756614165919646 0.0034737084904374977 0.0034717555642830313 0.0027149750451828263 0.0027163682602879694 0.0027177614753931137
          0.001933881694603306 0.0019372375296954163 0.0019405933647875266 0.0012547873236786278 0.0012570750103482818 0.001259362697017936
          0.001219147495180067 0.0012251534550807657 0.0012311594149814642 0.0012662117426292642 0.0012704632042833412 0.0012747146659374182
          0.003027507957233721 0.002802102169286684 0.003021839984275392 0.0027996313181790815 0.0030161720113170637 0.0027971604670714778
          0.0013881571430805714 0.0013989584224157316 0.001390786538878043 0.0014018469143196029 0.0013934159346755146 0.0014047354062234742
          0.0026141386536603483 0.002843450594207325 0.0026104716698861956 0.002838942386682417 0.002606804686112043 0.0028344341791575094
          0.002333040027150165 0.0023298977805315414 0.0023267555339129167 0.0013735086645020721 0.001376731864220328 0.0013799550639385836
          0.0030174585551631843 0.003012298317778818 0.003011359793831614 0.003008415328178046 0.003005261032500044 0.0030045323385772733
          0.0014696702167518476 0.001472389045721053 0.0014751078746902588 0.0016839248035426212 0.0022779238544598213 0.0016856019044678115
          0.0022800195964354725 0.001687279005393002 0.0022821153384111233 0.00120576101676377 0.0012107935722810612 0.0012158261277983526
          0.0020226591303316977 0.002020275878456523 0.002017892626581348 0.0005978144799220795 0.0009223586886444726 0.000603374152062261
          0.0009257522546634301 0.0006089338242024423 0.0009291458206823876 0.0017055188848591127 0.0017042861750074878 0.001703053465155863
          0.0013734817151101848 0.0013739596818397588 0.0013744376485693328 0.0008026848925375126 0.000809081630541925 0.0008154783685463375
        </DataArray>
        <DataArray type="Float64" Name="pe11" format="ascii" RangeMin="0" RangeMax="0.00439217528067766">
          0 0 0 0 0 0
          0.000003112463809193774 0.000006224927618387548 0.000001556231904596887 0.000003112463809193774 0 0
          0.000003112463809193774 0.000006224927618387548 0.000001556231904596887 0.000003112463809193774 0 0
          0 0 0 0 0 0
          0 0 0 0 0 0
          0 0 0 0 0 0
          0.000019019037714622 0.000007392400979810967 0.000021450488595342668 0.000010012068666969504 0.000023881939476063327 0.00001263173635412804
          0.0001223647507072132 0.00010592539175640519 0.0001297297564063189 0.00011321541686556598 0.00013709476210542462 0.00012050544197472678
          0 0 0 0 0 0
          0 0 0 0 0 0
          0 0 0 0.0000047193995475851035 0.00000509076956702061 0.000005462139586456117
          0.00006028638184026134 0.00006280673956978437 0.00006532709729930737 0.00020022361566491783 0.00020713223492386208 0.0002140408541828064
          0 0 0 0 0 0
          0 0 0 0 0 0
          0 1.2312228888189363e-8 2.4624457776378726e-8 0.000026721254920273005 0.000027617863086627676 0.000028514471252982355
          0.00014103245872190337 0.00014381634069091857 0.0001466002226599338 0.00033315975543879895 0.0003390740227595297 0.00034498829008026044
          0 0 0 0 0 0
          0 0 0 0 0 0
          0.000005267262968133771 0.000005889386267836572 0.0000065115095675393736 0.00007652064924928485 0.00007809149744595707 0.00007966234564262932
          0.00026109646763127273 0.0002637547986612171 0.0002664131296911615 0.000499027325891122 0.0005043959901417378 0.0005097646543923537
          0 0 0 0 0 0
          0 0 0 0 2.9461949539669962e-8 5.8923899079339925e-8
          0.000029567807164701495 0.00003098239078525029 0.00003239697440579909 0.0001660464407633341 0.00016818870077273536 0.00017033096078213663
          0.00042152441036263683 0.00042402984525079473 0.00042653528013895264 0.0007175667041375392 0.000722667937972501 0.0007277691718074629
          0 0 0 0 0 0
          0 0 0 0.000007164719359404144 0.000007959214014214516 0.000008753708669024886
          0.00008748138636936418 0.0000897636256613493 0.00009204586495333441 0.00030501440555827884 0.00030700961961443833 0.00030900483367059776
          0.0006283269980902737 0.0006306686678966617 0.0006330103377030498 0.0009872390952860787 0.0009917231364685866 0.0009962071776510942
          0 0 0 0 0 0
          0 0 0 3.614187154509265e-7 5.916395825385975e-7 8.218604496262686e-7
          0.00003842484192326452 0.000040374899031740557 0.000042324956140216586 0.0001959989569547201 0.00019896010360598933 0.00020192125025725858
          0.0004957330691551637 0.0004971788589985733 0.0004986246488419828 0.0008806371855297442 0.0008825886522813984 0.0008845401190330524
          0.0012893847931963508 0.0012929047012767486 0.0012964246093571464 0 0 0
          0 0 0 0 0 0
          0.000012291060834991822 0.000013538924245302907 0.00001478678765561399 0.0001120565392760472 0.00011515753899170605 0.0001182585387073649
          0.0003635861847917642 0.0003662753806420645 0.0003689645764923648 0.0007394865955752775 0.0007401461300810517 0.0007408056645868259
          0.0011736473772639947 0.0011749062704480048 0.001176165163632015 0.0016060767922721386 0.0016085310636271889 0.0016109853349822395
          0 0 0 0 0 0
          9.564513799161762e-7 0.000001459824839324958 0.00000196319829873374 0.00005256038513812483 0.00005515721362949002 0.000057754042120855214
          0.00024201077081750707 0.0002457516560476334 0.0002494925412777598 0.0005864415366060857 0.0005884737982746778 0.0005905060599432698
          0.0010307566503550763 0.0010305404719045516 0.0010303242934540267 0.0014984300727772086 0.001498708177535371 0.0014989862822935335
          0.0019231710578582273 0.0019244051997530996 0.0019256393416479715 0 0 0
          0 0 0 0.000016946745787462555 0.000018570448015084355 0.00002019415024270616
          0.00013904106755638747 0.00014273983103192043 0.0001464385945074534 0.00043205897227305864 0.000435364488549591 0.00043867000482612344
          0.0008606175606088574 0.0008617381857533074 0.0008628588108977575 0.001356590161076315 0.0013554558024073357 0.0013543214437383559
          0.0018384881780088035 0.0018375884469817932 0.0018366887159547824 0.0022395087583391648 0.0022391489720040582 0.002238789185668952
          0 0 0 0.0000016936839823001407 0.000002409312880965657 0.0000031249417796311733
          0.0000649811386550511 0.000068013506112686 0.00007104587357032089 0.0002868128923442611 0.0002909220950774624 0.00029503129781066357
          0.0006798299811480268 0.0006822816647751367 0.0006847333484022465 0.0011795939329194453 0.001179624101220873 0.001179654269522301
          0.0017068971196569443 0.0017048158254718674 0.0017027345312867908 0.0021858589586488163 0.0021836574501329763 0.0021814559416171355
          0.0026218503267986006 0.0026196764583707576 0.0026175025899429164 0 0 0
          0.000020533234342642145 0.000022532293653531657 0.000024531352964421172 0.00016257143417603911 0.00016688426378844815 0.00017119709340085725
          0.0004983519530110396 0.0005019248349272682 0.0005054977168434968 0.0009827531704429183 0.0009840300907062042 0.00098530701096949
          0.0015357279612137104 0.0015346157191086596 0.0015335034770036081 0.0020745005372518996 0.0020715059322271813 0.0020685113272024625
          0.0025278754926076723 0.002524494983134323 0.002521114473660973 0.0028482637193301243 0.0028455076601016697 0.0028427516008732155
          0.0000017742897103784508 0.0000025765618333182552 0.0000033788339562580597 0.00007367091820354536 0.00007715089031744285 0.00008063086243134034
          0.000326622555099282 0.0003312783347407443 0.00033593411438220653 0.0007734963165968935 0.0007760337314760028 0.0007785711463551122
          0.00133539361887102 0.0013352611928738347 0.0013351287668766495 0.0019188014785085769 0.0019164512031644482 0.0019141009278203194
          0.0024402609802637388 0.002436386313325388 0.002432511646387037 0.002833294197333084 0.002829095112431519 0.0028248960275299535
          0.0030573135772914784 0.003053665714582024 0.003050017851872569 0.00002182922835926926 0.00002410891289411888 0.000026388597428968498
          0.00018073675569197888 0.00018569435122860442 0.00019065194676522998 0.0005619050474935365 0.0005658903987997978 0.000569875750106059
          0.0011109141647425446 0.0011119864333326906 0.001113058701922837 0.0017280596539540748 0.0017263942563141145 0.0017247288586741535
          0.0023121557037643708 0.002308523632407515 0.00230489156105066 0.002780254054965793 0.0027755888500635827 0.002770923645161372
          0.003079005702458483 0.003074411850206472 0.0030698179979544607 0.003191680996880204 0.003187549567200479 0.0031834181375207547
          0.00036304388413034 0.00036838564848686706 0.00037372741284339404 0.0008713926914148722 0.0008740080019713592 0.0008766233125278458
          0.0015041893747928146 0.0015034566797402546 0.0015027239846876947 0.002145029361774186 0.002141792662138747 0.0021385559625033083
          0.002693380186567536 0.002688635402721997 0.002683890618876457 0.003075461028538064 0.003070252301780861 0.003065043575023658
          0.0032530182933606226 0.003248449932792128 0.0032438815722236327 0.0032388169323244124 0.0032348292907278834 0.003230841649131354
          0.0006278554957021016 0.0006323734504031937 0.0006368914051042858 0.0012544349770040565 0.0012551121378109567 0.0012557892986178572
          0.0019419443822713792 0.0019392002732255352 0.0019364561641796916 0.0025661120350117333 0.0025613551666477724 0.0025565982982838115
          0.003037249949909462 0.0030317612236149447 0.003026272497320427 0.003304236312681205 0.0032991583099148502 0.003294080307148496
          0.003354115282263058 0.0033498926209437354 0.0033456699596244133 0.0032176857970696703 0.003213559693437189 0.003209433589804709
          0.0009796271330804183 0.0009825177046468643 0.0009854082762133106 0.0017027222538983128 0.0017011500757579978 0.0016995778976176823
          0.0024067411365003423 0.0024019523981645557 0.0023971636598287696 0.002969635432244521 0.0029635530886828283 0.0029574707451211356
          0.0033225624866544744 0.0033167660226056527 0.0033109695585568314 0.003446836875878043 0.0034426909801035994 0.003438545084329156
          0.0033738020513690153 0.0033702156981919476 0.00336662934501488 0.003166312091851753 0.0031609765136431764 0.0031556409354346
          0.0014203536704275137 0.0014210698926922487 0.0014217861149569836 0.0022010625323465754 0.0021972748437445967 0.0021934871551426175
          0.002874184300533481 0.0028675956015993833 0.0028610069026652855 0.003331888608677224 0.0033249190532844562 0.0033179494978916885
          0.003534637260172631 0.0035290211225315563 0.0035234049848904807 0.0034984648885901266 0.003495548531575887 0.003492632174561647
          0.0032966463896180907 0.003293669581010997 0.0032906927724039043 0.0030312040807941604 0.003024197411341729 0.003017190741889297
          0.002727530476223325 0.002721901888033405 0.002716273299843486 0.0033152487080780023 0.0033073823541476207 0.003299516000217239
          0.0036264209404499887 0.0036191844543304943 0.003611947968211 0.0036563679732782273 0.0036514399809538965 0.003646511988629566
          0.003452729056655492 0.003450925368388618 0.003449121680121744 0.0031074839073666743 0.0031047197839202036 0.003101955660473733
          0.002712358144559129 0.002705564112123018 0.002698770079686907 0.0032525312747259485 0.0032457767548040185 0.0032390222348820884
          0.0036973309858720597 0.0036888734037267435 0.0036804158215814273 0.003822998764641062 0.003816120059166241 0.00380924135369142
          0.0036600612890134165 0.0036561618820226847 0.003652262475031953 0.00328014858520781 0.003279264934790137 0.0032783812843724643
          0.0027799296552579213 0.0027774860689370527 0.002775042482616184 0.0022415069377307363 0.002237400116528332 0.002233293295325928
          0.0037386033632996465 0.003731646193842383 0.0037246890243851183 0.003981929240063201 0.003973649270335495 0.003965369300607789
          0.003885036670958273 0.003879108611079948 0.0038731805512016233 0.00351137958225432 0.0035088035699832112 0.003506227557712102
          0.002953936930070438 0.002954151732279833 0.002954366534489228 0.002321546689162847 0.002320354673391404 0.0023191626576199607
          0.004138449710558483 0.004132184944490694 0.004125920178422904 0.004122728272820096 0.004115463195209898 0.0041081981175996995
          0.0037733570775527526 0.003769051047238282 0.0037647450169238103 0.003187897240735522 0.0031870977016518866 0.003186298162568251
          0.002484382408062047 0.002486121538843988 0.0024878606696259295 0.0027286551566648174 0.003090846332190102 0.0031353492969164462
          0.002954368216780494 0.0027254946618792595 0.003085940251771757 0.0031306775903938403 0.0029494280059306106 0.0027223341670937007
          0.0030810341713534122 0.0031260058838712343 0.002944487795080728 0.0023462283919065885 0.0025684371397318205 0.0022786532699736314
          0.0020035218498623453 0.00234075555902832 0.0025621767907116387 0.0022758069823389138 0.002001717908676851 0.002335282726150051
          0.002555916441691458 0.002272960694704196 0.001999913967491356 0.001985839820844667 0.001717825002130009 0.002318832459487011
          0.0019890069362989405 0.001719905490972859 0.0023151999638055137 0.0019921740517532143 0.0017219859798157096 0.0023115674681240166
          0.0017790585268943305 0.0017838697195473958 0.001788680912200461 0.0031209595232233414 0.0030293115536744945 0.003079586319671569
          0.0030513624701308355 0.003116582854991503 0.0030253199746111837 0.003073275420842294 0.0030456699418863436 0.0031122061867596643
          0.003021328395547873 0.0030669645220130198 0.0030399774136418522 0.0020237322623341894 0.0016778807151103228 0.002019833986830293
          0.00167790781331567 0.0020159357113263966 0.001677934911521017 0.002513982906212626 0.002050638362403783 0.0020709962714418385
          0.0025130278612973977 0.0020521206176532863 0.002072729381374318 0.0025120728163821695 0.00205360287290279 0.0020744624913067973
          0.0013342469088888573 0.001666704801643877 0.0013366449076106265 0.0016651126337968371 0.001339042906332396 0.0016635204659497967
          0.0026873664179517622 0.0021435884385602563 0.0026836726474894885 0.0021449225671803227 0.0026799788770272164 0.0021462566958003896
          0.0028519344748686427 0.0028455810422998587 0.0028392276097310752 0.0026488079495938944 0.0021349514924738134 0.002646862095133602
          0.0021366202727916206 0.0026449162406733113 0.0021382890531094277 0.002966140252491739 0.0027140962537171103 0.0029614201003374868
          0.002710661478996646 0.0029566999481832348 0.002707226704276181 0.0029285714919975985 0.0029844865893068843 0.002924800765178474
          0.0029787950663799083 0.0029210300383593502 0.002973103543452933 0.0025267943202206414 0.0027761486291272594 0.002522897664846105
          0.0027713375537471363 0.0025190010094715684 0.002766526478367014 0.001009091885036458 0.001013892603614939 0.0010186933221934197
          0.0005509346601366078 0.0007330461551731228 0.0005582987469681475 0.0007395816321181326 0.0005656628337996873 0.0007461171090631423
          0.0026767728394389966 0.0026700033894269705 0.002663233939414945 0.0004364617596684734 0.00044431803155798146 0.0004521743034474895
          0.0027623320257450985 0.0027547514658880167 0.0027471709060309345 0.0003205565757178105 0.0003290651197312951 0.00033757366374477987
          0.0013156045132042132 0.0013167285726102596 0.0013178526320163063 0.0009940845840106787 0.0009977290066083984 0.001001373429206118
          0.0007683259277695154 0.0007736555781090015 0.0007789852284484875 0.0017149180424411389 0.001713898146695624 0.0017128782509501091
          0.001787383189481051 0.001788079917828693 0.0017887766461763353 0.0012018805267077467 0.0012030708445612123 0.0012042611624146777
          0.004069050558294109 0.00439217528067766 0.004063809756602185 0.00438741220279854 0.004058568954910262 0.004382649124919421
          0.003459306747865905 0.0034574322307156192 0.0034555577135653333 0.0026973700020671175 0.002698787913301989 0.0027002058245368605
          0.0019204633259179236 0.0019237766020392438 0.001927089878160564 0.0012473717747696063 0.0012495741830766821 0.0012517765913837584
          0.0012142943590959777 0.0012202688859151941 0.0012262434127344106 0.0012614464073664722 0.001265670156256291 0.0012698939051461102
          0.0030269323561664717 0.0028003898046714115 0.0030212380246366797 0.002797902876880397 0.0030155436931068886 0.0027954159490893825
          0.0013828532587250746 0.001393791965646796 0.0013854864077588627 0.001396635919880507 0.0013881195567926508 0.0013994798741142182
          0.0026129703380958777 0.002842749289757549 0.0026092597095561825 0.002838216152317936 0.0026055490810164873 0.002833683014878322
          0.0023314176710651753 0.002328220254944187 0.002325022838823198 0.0013685859319301024 0.0013717412150967396 0.0013748964982633768
          0.0030171425402355113 0.0030117575520650164 0.0030110143342678792 0.0030078448116910954 0.0030048861283002467 0.003003932071317175
          0.001464856803873733 0.0014676139457053669 0.0014703710875370003 0.0016793048760055844 0.0022740351379013663 0.0016810127965494759
          0.0022761616848807295 0.0016827207170933673 0.0022782882318600926 0.0012007270864947848 0.0012056605169743018 0.0012105939474538184
          0.0020207649664925513 0.002018325285034233 0.0020158856035759143 0.0005972161039824697 0.0009211240021128591 0.000602751461501318
          0.0009244845386820663 0.0006082868190201662 0.0009278450752512738 0.0017036327001823124 0.00170234509347877 0.0017010574867752277
          0.001371531154519216 0.0013719646867894962 0.0013723982190597763 0.0007996197476101618 0.0008059724316249099 0.0008123251156396581
        </DataArray>
        <DataArray type="Float64" Name="pe22" format="ascii" RangeMin="-0.0022536466166006314" RangeMax="0">
          0 0 0 0 0 0
          -0.0000014469866016581953 -0.0000028939732033163906 -7.234933008290976e-7 -0.0000014469866016581953 0 0
          -0.0000014469866016581953 -0.0000028939732033163906 -7.234933008290976e-7 -0.0000014469866016581953 0 0
          0 0 0 0 0 0
          0 0 0 0 0 0
          0 0 0 0 0 0
          -0.000009846361241822656 -0.0000038835835799032524 -0.000011042564436461808 -0.000005213335769314236 -0.000012238767631100961 -0.000006543087958725219
          -0.00006283045313068591 -0.000053574992630780746 -0.00006622453098119575 -0.00005699178491020447 -0.00006961860883170557 -0.00006040857718962818
          0 0 0 0 0 0
          0 0 0 0 0 0
          0 0 0 -0.0000023702893830287196 -0.0000025483546096061715 -0.0000027264198361836234
          -0.000030871174866759076 -0.000032020431236793015 -0.00003316968760682695 -0.00010297303351139829 -0.00010589652051919437 -0.00010882000752699044
          0 0 0 0 0 0
          0 0 0 0 0 0
          0 -6.066502948172988e-9 -1.2133005896345976e-8 -0.000013353596279069173 -0.000013757950878866329 -0.000014162305478663484
          -0.00007136687536278866 -0.00007251618019547746 -0.00007366548502816628 -0.00016875785538487007 -0.0001708960101451381 -0.0001730341649054061
          0 0 0 0 0 0
          0 0 0 0 0 0
          -0.0000025862725575096407 -0.0000028838891292912335 -0.0000031815057010728264 -0.0000378866370211704 -0.00003853604701548669 -0.00003918545700980297
          -0.00013058024400617053 -0.00013146463572335956 -0.00013234902744054864 -0.0002499901612100598 -0.00025164358586078015 -0.0002532970105115005
          0 0 0 0 0 0
          0 0 0 0 -1.4182098176599564e-8 -2.8364196353199128e-8
          -0.000014430472879810585 -0.000015074089348150286 -0.000015717705816489983 -0.00008134137522392592 -0.00008211357825669617 -0.00008288578128946641
          -0.00020878328501824738 -0.00020934863171825414 -0.00020991397841826093 -0.0003570686308561993 -0.00035843429552357624 -0.0003597999601909532
          0 0 0 0 0 0
          0 0 0 -0.000003447627225805899 -0.000003813952795903317 -0.0000041802783660007345
          -0.000042325446828379736 -0.000043280022047801836 -0.00004423459726722394 -0.00014802870938532118 -0.00014851751995018355 -0.00014900633051504592
          -0.00030885034698415284 -0.0003091406293931467 -0.00030943091180214043 -0.0004886585289192886 -0.0004897491575665713 -0.0004908397862138541
          0 0 0 0 0 0
          0 0 0 -1.7224464225513981e-7 -2.803189212443814e-7 -3.8839320023362303e-7
          -0.000018413131533943708 -0.000019263342119797466 -0.000020113552705651228 -0.00009404607477849274 -0.00009514083573090363 -0.00009623559668331451
          -0.00023874840408030134 -0.00023877969413554215 -0.00023881098419078301 -0.0004302797918179117 -0.00043030889366155894 -0.00043033799550520625
          -0.000635643293406819 -0.0006365104873565343 -0.0006373776813062494 0 0 0
          0 0 0 0 0 0
          -0.000005842333624142262 -0.000006405644580289552 -0.000006968955536436841 -0.00005338285079848823 -0.00005462443006146937 -0.00005586600932445052
          -0.00017332608145211254 -0.000174069660973534 -0.00017481324049495545 -0.0003541823517848688 -0.00035377701778283277 -0.00035337168378079674
          -0.0005709693562316022 -0.0005707912389765828 -0.0005706131217215636 -0.0007895658195442805 -0.0007903010060117779 -0.0007910361924792752
          0 0 0 0 0 0
          -4.5005300419156876e-7 -6.832930929593497e-7 -9.165331817271308e-7 -0.000024876036520177247 -0.00002597938832149961 -0.000027082740122821973
          -0.00011464177802903103 -0.00011594226118686121 -0.00011724274434469137 -0.00027821995788634675 -0.00027848977871257157 -0.00027875959953879627
          -0.0004921875819112122 -0.0004915019750067019 -0.0004908163681021918 -0.0007272446322345242 -0.0007269531077287749 -0.0007266615832230256
          -0.000943839998405537 -0.0009444849745807094 -0.000945129950755882 0 0 0
          0 0 0 -0.000007965953263022952 -0.00000868383971666573 -0.000009401726170308506
          -0.00006543917987001092 -0.00006685600854950935 -0.00006827283722900776 -0.00020361661945298847 -0.0002044337891902652 -0.00020525095892754195
          -0.00040701897632885954 -0.00040682024070994125 -0.0004066215050910232 -0.0006475241940959251 -0.0006466740459664649 -0.0006458238978370044
          -0.0008921033045234186 -0.0008917566671370396 -0.0008914100297506605 -0.001099128534877721 -0.0010996187165851895 -0.001100108898292658
          0 0 0 -7.865920031183803e-7 -0.0000011137515537808972 -0.0000014409111044434142
          -0.000030363679229849242 -0.00003161538217629843 -0.000032867085122747625 -0.0001341889403148821 -0.00013551240107615592 -0.00013683586183742974
          -0.0003190301658229026 -0.00031926031468578674 -0.0003194904635486709 -0.0005573589521375734 -0.0005567706049127749 -0.0005561822576879763
          -0.0008163748156434942 -0.0008155001185220017 -0.0008146254214005094 -0.0010644009048658744 -0.001064085368610354 -0.0010637698323548335
          -0.0012981910832145207 -0.0012986541589695027 -0.0012991172347244847 0 0 0
          -0.000009504115327473165 -0.000010372372953760636 -0.00001124063058004811 -0.00007541701153179146 -0.00007702345793105582 -0.0000786299043303202
          -0.00023187168108044408 -0.00023265187625272173 -0.00023343207142499938 -0.0004601045296815806 -0.0004597814472453131 -0.00045945836480904565
          -0.0007268596288185884 -0.0007260891588954095 -0.0007253186889722306 -0.000996856147908367 -0.0009962221965453316 -0.0009955882451822963
          -0.0012376444781205024 -0.0012376455100444755 -0.0012376465419684487 -0.0014162474767613936 -0.001417069269756795 -0.0014178910627521968
          -8.083067096217906e-7 -0.0000011677458466195668 -0.000001527184983617343 -0.00003383922581697384 -0.00003523218240991207 -0.000036625139002850296
          -0.00015045103697668174 -0.00015186819297818705 -0.00015328534897969241 -0.0003584037243128359 -0.00035850577105650663 -0.00035860781780017734
          -0.0006253701767558353 -0.0006246387908627312 -0.0006239074049696268 -0.0009121878079274099 -0.000911460370180728 -0.000910732932434046
          -0.001180735394769839 -0.0011805024059144244 -0.0011802694170590098 -0.0013957359983823808 -0.0013962377991284369 -0.001396739599874493
          -0.0015282419143104805 -0.0015294003320790615 -0.0015305587498476423 -0.000009885270165138775 -0.000010851665033278844 -0.000011818059901418914
          -0.0000822213993896817 -0.00008399043991155022 -0.00008575948043341872 -0.00025713845331170796 -0.0002578869855876692 -0.00025863551786363035
          -0.0005137886337809681 -0.0005132523017084842 -0.0005127159696360004 -0.00081187503212286 -0.0008109972764334974 -0.0008101195207441349
          -0.0011069103265835627 -0.0011064379194030184 -0.0011059655122224738 -0.0013566799607114747 -0.001356879917587638 -0.001357079874463801
          -0.0015289185776775174 -0.0015297852109623894 -0.0015306518442472616 -0.0016072267221385475 -0.0016084298913925156 -0.0016096330606464831
          -0.00016363195685410278 -0.0001651448801758702 -0.00016665780349763763 -0.00039688547158501185 -0.00039679554139877143 -0.0003967056112125309
          -0.0006964534319344219 -0.0006954705770863762 -0.0006944877222383307 -0.0010140182744040876 -0.0010132647505053426 -0.0010125112266065974
          -0.0013014045402751457 -0.0013013859139486877 -0.0013013672876222297 -0.0015162743860376716 -0.0015169486488630667 -0.0015176229116884623
          -0.001630919337161327 -0.0016319425870759841 -0.0016329658369906414 -0.0016457915772418515 -0.0016468843845086941 -0.0016479771917755368
          -0.0002806835327487801 -0.0002813861794494321 -0.0002820888261500841 -0.0005704976255748289 -0.000569645050688571 -0.000568792475802313
          -0.0009033669039989851 -0.0009022448567147195 -0.000901122809430454 -0.001224026141951458 -0.001223611607643416 -0.0012231970733353739
          -0.00148422797684574 -0.0014847292251410377 -0.0014852304734363354 -0.0016491136601339406 -0.0016503088081572428 -0.0016515039561805452
          -0.0017007239223447081 -0.0017019521053848068 -0.0017031802884249056 -0.0016513089258064248 -0.0016523536645493392 -0.0016533984032922541
          -0.0004355138691552609 -0.0004352393947299613 -0.00043496492030466183 -0.000776571911734944 -0.0007752710780996872 -0.0007739702444644305
          -0.0011292675796392235 -0.0011283667342381746 -0.0011274658888371254 -0.0014332427887255054 -0.0014333372667495745 -0.0014334317447736431
          -0.0016452825759943421 -0.0016462340197935354 -0.001647185463592729 -0.0017443956796145252 -0.0017460145301679232 -0.0017476333807213214
          -0.0017325587638052575 -0.001734235164406766 -0.001735911565008275 -0.0016434877447765181 -0.0016445100875016804 -0.0016455324302268432
          -0.0006308269548527633 -0.0006297557393602146 -0.0006286845238676661 -0.0010118588624991928 -0.001010577492731053 -0.001009296122962913
          -0.0013656448437571428 -0.001365307993514765 -0.0013649711432723874 -0.0016314764246328664 -0.0016322303286394543 -0.0016329842326460423
          -0.0017768018514431742 -0.0017782200567695563 -0.001779638262095939 -0.0017971395810054218 -0.0017991685285938242 -0.001801197476182227
          -0.0017144270906162794 -0.0017164914830852455 -0.0017185558755542117 -0.0015870392958782392 -0.001587674242855883 -0.001588309189833527
          -0.001270647964610139 -0.0012699011285630286 -0.0012691542925159186 -0.001600928741316324 -0.0016014280904372879 -0.0016019274395582513
          -0.0018057668625188427 -0.0018072959819506872 -0.0018088251013825322 -0.0018681907314663168 -0.001870219568332854 -0.0018722484051993914
          -0.0018000315024957055 -0.001802612683923622 -0.0018051938653515385 -0.0016332204503161035 -0.0016352501082440435 -0.0016372797661719828
          -0.001424306102579086 -0.001424315001707904 -0.0014243239008367224 -0.0015430789292483313 -0.0015433565138747727 -0.001543634098501214
          -0.0018199672508938322 -0.0018214992297163899 -0.001823031208538948 -0.001938903137400294 -0.0019412617956200144 -0.001943620453839735
          -0.001901284817992213 -0.001903904303870257 -0.0019065237897483009 -0.0017331930852796367 -0.0017360182211063997 -0.0017388433569331624
          -0.0014732450807868481 -0.0014746325583975348 -0.0014760200360082218 -0.0011820828501090499 -0.001181472555733902 -0.0011808622613587545
          -0.0018136464211990237 -0.0018153108283610916 -0.0018169752355231593 -0.002002099604159868 -0.002004736826149741 -0.0020073740481396135
          -0.0020080320999079104 -0.0020110972541800484 -0.0020141624084521865 -0.0018529678359922794 -0.0018558124426567622 -0.0018586570493212451
          -0.0015785383183773809 -0.0015809681732764968 -0.0015833980281756124 -0.0012383075316299273 -0.0012387844499812163 -0.0012392613683325053
          -0.0020589207302319657 -0.002062110668397261 -0.002065300606562556 -0.0021199420899853296 -0.0021235180149204087 -0.0021270939398554877
          -0.001987320987416665 -0.001990678336664162 -0.0019940356859116594 -0.0017063498567079232 -0.0017088541961243489 -0.0017113585355407748
          -0.001339017195816504 -0.0013406520919551008 -0.0013422869880936978 -0.0014382893517676317 -0.0015901799432241355 -0.0015954650807259404
          -0.0015219816037443062 -0.0014389316191284287 -0.0015908984170439865 -0.0015962873413873277 -0.0015222982848817272 -0.0014395738864892255
          -0.0015916168908638377 -0.0015971096020487153 -0.0015226149660191484 -0.001143870893197943 -0.0012514554611883894 -0.0011131536732641343
          -0.000979610183232752 -0.0011429843049500388 -0.0012509849331247861 -0.0011131362140777282 -0.0009794165871612002 -0.0011420977167021342
          -0.0012505144050611828 -0.001113118754891322 -0.0009792229910896486 -0.0010708009542125263 -0.0009156559890883945 -0.0012318116670042437
          -0.0010722244039388347 -0.0009163659557335976 -0.001231938903964404 -0.0010736478536651432 -0.0009170759223788008 -0.0012320661409245637
          -0.0009651708927724116 -0.000966488674627809 -0.0009678064564832061 -0.0015727241535549172 -0.0015175869401900918 -0.0015502980132315151
          -0.001549466606985777 -0.0015737879551489479 -0.0015185154820895872 -0.0015506187615804852 -0.0015498773951763691 -0.0015748517567429786
          -0.0015194440239890829 -0.0015509395099294553 -0.0015502881833669615 -0.0009826518209620854 -0.0008211519272801343 -0.0009816352649083114
          -0.0008210485044695653 -0.0009806187088545377 -0.0008209450816589962 -0.0013436134040759945 -0.0011085466806832534 -0.0011156273201316975
          -0.0013442272441420635 -0.0011092288236635452 -0.0011170234996480046 -0.0013448410842081323 -0.0011099109666438372 -0.0011184196791643116
          -0.0006542682710721007 -0.0008065762297337676 -0.0006545916644761322 -0.000805771364409055 -0.0006549150578801636 -0.0008049664990843423
          -0.0014204265438952427 -0.0011501944394702898 -0.0014210261842940554 -0.0011514963944531534 -0.0014216258246928684 -0.0011527983494360168
          -0.0014073025750158201 -0.0014071903729511196 -0.0014070781708864191 -0.001394590687062303 -0.0011485246559859617 -0.0013953071426033947
          -0.001149405371059272 -0.0013960235981444866 -0.0011502860861325823 -0.0015440513384790964 -0.0014367966103903242 -0.001544872985043009
          -0.0014377425649181614 -0.0015456946316069217 -0.0014386885194459982 -0.0014641479023403863 -0.0014927822476033061 -0.0014647715310036988
          -0.0014930330546253823 -0.0014653951596670116 -0.0014932838616474587 -0.0012376940570994865 -0.0013743672940147453 -0.001237550463267515
          -0.0013742688254271911 -0.0012374068694355439 -0.001374170356839637 -0.0004968691603227649 -0.0004978676374292293 -0.0004988661145356939
          -0.0002737078977138128 -0.00036262165784275855 -0.0002760187057547058 -0.0003643367563792328 -0.0002783295137955988 -0.00036605185491570685
          -0.0013048857360954524 -0.0013043035803319092 -0.0013037214245683664 -0.00021827924901416366 -0.00022107991438042102 -0.00022388057974667843
          -0.001461938837257215 -0.0014616691688494477 -0.0014613995004416807 -0.00016124483818993895 -0.00016464824181617284 -0.00016805164544240667
          -0.0006356503901808228 -0.0006352491970296961 -0.0006348480038785696 -0.00047927042577434564 -0.00047966311380042115 -0.0004800558018264966
          -0.00037149704797084386 -0.00037276317538095907 -0.0003740293027910743 -0.0009090282542956104 -0.000908092482600726 -0.0009071567109058417
          -0.0009567397044787925 -0.0009566372498726562 -0.0009565347952665199 -0.0006368135658374797 -0.0006361344111101106 -0.0006354552563827415
          -0.0021401749693187723 -0.002244287649998226 -0.0021443321085770854 -0.002248967133299429 -0.0021484892478353984 -0.0022536466166006314
          -0.0018544981316006702 -0.001857595554571166 -0.0018606929775416617 -0.0014607710933537527 -0.0014625177446009198 -0.0014642643958480868
          -0.0010399072430773522 -0.0010407596221286381 -0.0010416120011799246 -0.0006668550341258842 -0.0006666223036719955 -0.0006663895732181069
          -0.0006582042671963338 -0.0006597660183662848 -0.000661327769536236 -0.0006849311084626426 -0.0006856025030377526 -0.0006862738976128628
          -0.0015367855963129534 -0.0014510430234568829 -0.0015369440454967166 -0.001451850440916587 -0.00153710249468048 -0.001452657858376291
          -0.0007466959110645809 -0.0007470966060574879 -0.0007472842122525277 -0.0007480139742895318 -0.0007478725134404744 -0.0007489313425215755
          -0.001282636111771087 -0.0014094667476448248 -0.0012825621772148393 -0.0014099217569087824 -0.0012824882426585914 -0.0014103767661727395
          -0.0011326701030715 -0.0011322206015519898 -0.0011317711000324794 -0.000736655559289105 -0.0007373877987660976 -0.0007381200382430901
          -0.0015134995641336736 -0.0015270661066825173 -0.001513743907836821 -0.0015279469364693796 -0.0015139882515399683 -0.0015288277662562418
          -0.0007930172609844045 -0.0007935347571720668 -0.0007940522533597292 -0.000899155219396647 -0.001210247423828554 -0.0008996819650625772
          -0.0012118093786255644 -0.0009002087107285075 -0.001213371333422575 -0.0006432993894111242 -0.0006442421167639246 -0.0006451848441167249
          -0.00097241911434499 -0.0009716715393187367 -0.0009709239642924835 -0.0002910520964130936 -0.00044206337068017023 -0.00029258567567638625
          -0.0004424304122102156 -0.0002941192549396789 -0.00044279745374026095 -0.0008136105383291035 -0.0008126150828737812 -0.000811619627418459
          -0.0006513889859826676 -0.0006507159152959667 -0.0006500428446092656 -0.00043282125510090753 -0.0004344996836625912 -0.00043617811222427497
        </DataArray>
        <DataArray type="Float64" Name="pe33" format="ascii" RangeMin="-0.0021478876306794343" RangeMax="0">
          0 0 0 0 0 0
          -0.0000016654772075355791 -0.0000033309544150711583 -8.327386037677896e-7 -0.0000016654772075355791 0 0
          -0.0000016654772075355791 -0.0000033309544150711583 -8.327386037677896e-7 -0.0000016654772075355791 0 0
          0 0 0 0 0 0
          0 0 0 0 0 0
          0 0 0 0 0 0
          -0.00000917267647279934 -0.000003508817399907712 -0.000010407924158880851 -0.000004798732897655266 -0.000011643171844962361 -0.000006088648395402819
          -0.00005953429757652728 -0.0000523503991256244 -0.00006350522542512316 -0.00005622363195536149 -0.00006747615327371905 -0.00006009686478509858
          0 0 0 0 0 0
          0 0 0 0 0 0
          0 0 0 -0.0000023491101645563843 -0.000002542414957414439 -0.0000027357197502724945
          -0.00002941520697350226 -0.00003078630833299134 -0.00003215740969248041 -0.00009725058215351952 -0.00010123571440466771 -0.00010522084665581593
          0 0 0 0 0 0
          0 0 0 0 0 0
          0 -6.24572594001637e-9 -1.249145188003274e-8 -0.000013367658641203827 -0.000013859912207761348 -0.00001435216577431887
          -0.00006966558335911468 -0.00007130016049544109 -0.0000729347376317675 -0.00016440190005392885 -0.00016817801261439157 -0.00017195412517485427
          0 0 0 0 0 0
          0 0 0 0 0 0
          -0.0000026809904106241307 -0.000003005497138545337 -0.000003330003866466544 -0.00003863401222811444 -0.000039555450430470385 -0.00004047688863282634
          -0.00013051622362510217 -0.00013229016293785754 -0.00013406410225061288 -0.00024903716468106216 -0.00025275240428095764 -0.0002564676438808531
          0 0 0 0 0 0
          0 0 0 0 -1.5279851363070397e-8 -3.055970272614079e-8
          -0.000015137334284890907 -0.000015908301437100006 -0.000016679268589309106 -0.00008470506553940817 -0.00008607512251603919 -0.0000874451794926702
          -0.0002127411253443894 -0.00021468121353254054 -0.00021662130172069168 -0.0003604980732813398 -0.0003642336424489248 -0.0003679692116165098
          0 0 0 0 0 0
          0 0 0 -0.000003717092133598242 -0.000004145261218311196 -0.00000457343030302415
          -0.00004515593954098444 -0.00004648360361354745 -0.00004781126768611047 -0.0001569856961729577 -0.00015849209966425473 -0.0001599985031555518
          -0.00031947665110612075 -0.000321528038503515 -0.0003235794259009093 -0.0004985805663667903 -0.0005019739789020151 -0.0005053673914372401
          0 0 0 0 0 0
          0 0 0 -1.8917407319578669e-7 -3.11320661294216e-7 -4.3346724939264535e-7
          -0.000020011710389320806 -0.00002111155691194308 -0.00002221140343456535 -0.00010195288217622739 -0.00010381926787508574 -0.00010568565357394404
          -0.0002569846650748625 -0.00025839916486303114 -0.00025981366465119976 -0.00045035739371183275 -0.00045227975861983935 -0.00045420212352784606
          -0.0006537414997895319 -0.0006563942139202143 -0.0006590469280508967 0 0 0
          0 0 0 0 0 0
          -0.00000644872721084956 -0.0000071332796650133545 -0.000007817832119177149 -0.00005867368847755895 -0.000060533108930236655 -0.00006239252938291436
          -0.0001902601033396516 -0.00019220571966853042 -0.0001941513359974093 -0.0003853042437904087 -0.0003863691122982188 -0.00038743398080602897
          -0.0006026780210323925 -0.0006041150314714216 -0.000605552041910451 -0.0008165109727278582 -0.000818230057615411 -0.0008199491425029639
          0 0 0 0 0 0
          -5.063983757246075e-7 -7.765317463656081e-7 -0.0000010466651170066086 -0.000027684348617947577 -0.000029177825307990408 -0.00003067130199803324
          -0.00012736899278847599 -0.0001298093948607722 -0.00013224979693306842 -0.00030822157871973887 -0.0003099840195621062 -0.0003117464604044735
          -0.0005385690684438641 -0.0005390384968978496 -0.0005395079253518349 -0.0007711854405426842 -0.000771755069806596 -0.0007723246990705078
          -0.0009793310594526903 -0.0009799202251723899 -0.0009805093908920892 0 0 0
          0 0 0 -0.0000089807925244396 -0.000009886608298418625 -0.000010792424072397648
          -0.00007360188768637654 -0.0000758838224824111 -0.00007816575727844562 -0.00022844235282007018 -0.00023093069935932584 -0.0002334190458985815
          -0.00045359858427999775 -0.00045491794504336604 -0.0004562373058067343 -0.0007090659669803898 -0.0007087817564408705 -0.0007084975459013513
          -0.0009463848734853848 -0.0009458317798447532 -0.0009452786862041217 -0.0011403802234614432 -0.0011395302554188683 -0.0011386802873762935
          0 0 0 -9.070919791817605e-7 -0.000001295561327184759 -0.0000016840306751877577
          -0.00003461745942520183 -0.000036398123936387546 -0.000038178788447573255 -0.00015262395202937903 -0.00015540969400130642 -0.00015819543597323386
          -0.00036079981532512423 -0.0003630213500893498 -0.00036524288485357545 -0.0006222349807818715 -0.000622853496308098 -0.0006234720118343246
          -0.0008905223040134498 -0.0008893157069498654 -0.0008881091098862812 -0.0011214580537829417 -0.0011195720815226219 -0.001117686109262302
          -0.0013236592435840792 -0.001321022299401255 -0.001318385355218431 0 0 0
          -0.000011029119015168982 -0.000012159920699771021 -0.000013290722384373062 -0.00008715442264424766 -0.00008986080585739237 -0.00009256718907053707
          -0.00026648027193059543 -0.00026927295867454636 -0.00027206564541849734 -0.0005226486407613378 -0.0005242486434608911 -0.0005258486461604444
          -0.0008088683323951218 -0.0008085265602132497 -0.0008081847880313776 -0.0010776443893435325 -0.0010752837356818492 -0.0010729230820201662
          -0.00129023101448717 -0.001286849473089847 -0.0012834679316925243 -0.0014320162425687309 -0.0014284383903448747 -0.0014248605381210182
          -9.659830007566606e-7 -0.0000014088159866986888 -0.000001851648972640717 -0.0000398316923865715 -0.00004191870790753077 -0.00004400572342849004
          -0.0001761715181226003 -0.00017941014176255717 -0.0001826487654025141 -0.0004150925922840575 -0.0004175279604194961 -0.0004199633285549348
          -0.0007100234421151846 -0.0007106224020111036 -0.0007112213619070227 -0.0010066136705811665 -0.0010049908329837199 -0.0010033679953862732
          -0.001259525585493899 -0.0012558839074109627 -0.0012522422293280268 -0.0014375581989507034 -0.0014328573133030817 -0.0014281564276554597
          -0.001529071662980998 -0.001524265382502962 -0.0015194591020249262 -0.000011943958194130481 -0.000013257247860840036 -0.000014570537527549589
          -0.00009851535630229716 -0.0001017039113170542 -0.00010489246633181123 -0.00030476659418182835 -0.00030800341321212847 -0.00031124023224242864
          -0.0005971255309615761 -0.0005987341316242064 -0.0006003427322868367 -0.0009161846218312144 -0.0009153969798806165 -0.0009146093379300188
          -0.0012052453771808072 -0.0012020857130044962 -0.0011989260488281853 -0.0014235740942543178 -0.0014187089324759442 -0.0014138437706975703
          -0.0015500871247809648 -0.0015446266392440818 -0.001539166153707199 -0.0015844542747416558 -0.001579119675807964 -0.0015737850768742718
          -0.0001994119272762372 -0.00020324076831099679 -0.00020706960934575635 -0.00047450721982986025 -0.0004772124605725875 -0.0004799177013153148
          -0.0008077359428583927 -0.0008079861026538782 -0.0008082362624493638 -0.0011310110873700978 -0.0011285279116334042 -0.0011260447358967106
          -0.0013919756462923896 -0.001387249488773308 -0.0013825233312542266 -0.001559186642500392 -0.0015533036529177934 -0.001547420663335195
          -0.0016220989561992944 -0.0016165073457161429 -0.001610915735232991 -0.0015930253550825602 -0.0015879449062191889 -0.0015828644573558177
          -0.0003471719629533214 -0.0003509872709537615 -0.00035480257895420156 -0.0006839373514292275 -0.0006854670871223857 -0.000686996822815544
          -0.001038577478272394 -0.0010369554165108156 -0.0010353333547492372 -0.0013420858930602753 -0.0013377435590043564 -0.0013334012249484372
          -0.0015530219730637215 -0.0015470319984739061 -0.0015410420238840912 -0.0016551226525472642 -0.001648849501757607 -0.00164257635096795
          -0.0016533913599183498 -0.0016479405155589285 -0.0016424896711995066 -0.0015663768712632451 -0.0015612060288878495 -0.0015560351865124542
          -0.0005441132639251575 -0.000547278309916903 -0.0005504433559086485 -0.0009261503421633686 -0.0009258789976583101 -0.0009256076531532516
          -0.0012774735568611183 -0.0012735856639263811 -0.001269697770991644 -0.0015363926435190158 -0.0015302158219332542 -0.0015240390003474923
          -0.0016772799106601324 -0.0016705320028121173 -0.001663784094964102 -0.0017024411962635179 -0.0016966764499356758 -0.0016909117036078341
          -0.0016412432875637574 -0.001635980533785181 -0.001630717780006604 -0.0015228243470752339 -0.001516466426141495 -0.0015101085052077563
          -0.0007895267155747504 -0.000791314153332034 -0.0007931015910893176 -0.0011892036698473822 -0.0011866973510135433 -0.0011841910321797045
          -0.0015085394567763374 -0.0015022876080846173 -0.0014960357593928975 -0.0017004121840443578 -0.0016926887246450015 -0.0016849652652456458
          -0.0017578354087294569 -0.001750801065761999 -0.0017437667227945416 -0.0017013253075847043 -0.0016963800029820618 -0.001691434698379419
          -0.0015822192990018107 -0.001577178097925751 -0.0015721368968496918 -0.001444164784915921 -0.0014365231684858454 -0.00142888155205577
          -0.0014568825116131857 -0.0014520007594703763 -0.0014471190073275671 -0.0017143199667616774 -0.0017059542637103322 -0.001697588560658987
          -0.001820654077931145 -0.0018118884723798067 -0.0018031228668284683 -0.0017881772418119099 -0.0017812204126210424 -0.0017742635834301747
          -0.0016526975541597852 -0.001648312684464995 -0.0016439278147702048 -0.0014742634570505705 -0.00146946967567616 -0.0014646758943017493
          -0.0012880520419800434 -0.0012812491104151138 -0.001274446178850184 -0.001709452345477617 -0.0017024202409292454 -0.0016953881363808738
          -0.0018773637349782269 -0.001867374174010353 -0.0018573846130424789 -0.0018840956272407675 -0.001874858263546226 -0.0018656208998516846
          -0.0017587764710212035 -0.0017522575781524273 -0.0017457386852836516 -0.0015469554999281727 -0.001543246713683737 -0.0015395379274393012
          -0.001306684574471073 -0.0013028535105395174 -0.0012990224466079624 -0.0010594240876216864 -0.00105592756079443 -0.0010524310339671734
          -0.0019249569421006224 -0.0019163353654812903 -0.0019077137888619579 -0.0019798296359033324 -0.001968912444185754 -0.0019579952524681754
          -0.0018770045710503624 -0.0018680113568998993 -0.0018590181427494364 -0.0016584117462620403 -0.0016529911273264484 -0.0016475705083908564
          -0.0013753986116930566 -0.0013731835590033363 -0.001370968506313616 -0.0010832391575329196 -0.0010815702234101875 -0.0010799012892874558
          -0.0020795289803265168 -0.002070074276093432 -0.002060619571860347 -0.0020027861828347663 -0.0019919451802894892 -0.0019811041777442117
          -0.0017860360901360876 -0.0017783727105741191 -0.0017707093310121505 -0.0014815473840275987 -0.0014782435055275375 -0.0014749396270274766
          -0.0011453652122455425 -0.0011454694468888873 -0.001145573681532232 -0.0012903658048971853 -0.0015006663889659657 -0.0015398842161905054
          -0.0014323866130361875 -0.0012865630427508301 -0.00149504183472777 -0.001534390249006512 -0.0014271297210488834 -0.001282760280604475
          -0.0014894172804895748 -0.0015288962818225192 -0.0014218728290615792 -0.0012023574987086454 -0.0013169816785434305 -0.0011654995967094969
          -0.0010239116666295935 -0.0011977712540782808 -0.0013111918575868524 -0.0011626707682611853 -0.0010223013215156502 -0.0011931850094479167
          -0.0013054020366302743 -0.0011598419398128738 -0.0010206909764017072 -0.0009150388666321412 -0.0008021690130416143 -0.0010870207924827675
          -0.000916782532360106 -0.0008035395352392616 -0.00108326105984111 -0.000918526198088071 -0.0008049100574369088 -0.0010795013271994527
          -0.0008138876341219192 -0.0008173810449195869 -0.0008208744557172545 -0.0015482353696684237 -0.0015117246134844025 -0.0015292883064400536
          -0.0015018958631450577 -0.0015427948998425547 -0.001506804492521596 -0.0015226566592618086 -0.001495792546709974 -0.0015373544300166858
          -0.0015018843715587896 -0.0015160250120835636 -0.0014896892302748899 -0.0010410804413721036 -0.0008567287878301885 -0.001038198721921981
          -0.0008568593088461048 -0.0010353170024718584 -0.000856989829862021 -0.0011703695021366312 -0.0009420916817205295 -0.0009553689513101409
          -0.0011688006171553338 -0.0009428917939897409 -0.0009557058817263131 -0.0011672317321740364 -0.0009436919062589524 -0.0009560428121424855
          -0.0006799786378167566 -0.0008601285719101088 -0.0006820532431344944 -0.0008593412693877815 -0.0006841278484522322 -0.0008585539668654542
          -0.0012669398740565187 -0.000993393999089966 -0.001262646463195433 -0.0009934261727271693 -0.0012583530523343474 -0.0009934583463643725
          -0.0014446318998528219 -0.0014383906693487387 -0.001432149438844656 -0.0012542172625315908 -0.0009864268364878515 -0.001251554952530208
          -0.0009872149017323482 -0.0012488926425288248 -0.0009880029669768454 -0.0014220889140126418 -0.0012772996433267857 -0.0014165471152944773
          -0.0012729189140784837 -0.001411005316576313 -0.001268538184830182 -0.001464423589657212 -0.0014917043417035775 -0.001460029234174775
          -0.0014857620117545256 -0.0014556348786923378 -0.0014798196818054741 -0.0012891002631211545 -0.0014017813351125134 -0.0012853472015785894
          -0.0013970687283199452 -0.0012815941400360243 -0.0013923561215273767 -0.0005122227247136927 -0.0005160249661857094 -0.000519827207657726
          -0.0002772267624227949 -0.00037042449733036407 -0.00028228004121344166 -0.00037524487573889975 -0.0002873333200040884 -0.0003800652541474354
          -0.0013718871033435442 -0.0013656998090950609 -0.0013595125148465777 -0.00021818251065430967 -0.00022323811717756033 -0.00022829372370081094
          -0.0013003931884878837 -0.0012930822970385685 -0.0012857714055892536 -0.00015931173752787152 -0.00016441687791512232 -0.00016952201830237312
          -0.0006799541230233902 -0.0006814793755805635 -0.0006830046281377367 -0.000514814158236333 -0.0005180658928079771 -0.0005213176273796214
          -0.0003968288797986715 -0.00040089240272804224 -0.00040495592565741316 -0.0008058897881455281 -0.0008058056640948977 -0.0008057215400442674
          -0.0008306434850022582 -0.000831442667956037 -0.0008322418509098158 -0.0005650669608702667 -0.0005669364334511016 -0.0005688059060319364
          -0.0019288755889753362 -0.0021478876306794343 -0.0019194776480251 -0.0021384450694991114 -0.0019100797070748638 -0.0021290025083187886
          -0.0016048086162652347 -0.0015998366761444528 -0.0015948647360236714 -0.0012365989087133643 -0.0012362701687010688 -0.0012359414286887732
          -0.0008805560828405714 -0.0008830169799106055 -0.0008854778769806394 -0.0005805167406437218 -0.0005829518794046867 -0.0005853870181656515
          -0.0005560900918996439 -0.0005605028675489093 -0.0005649156431981746 -0.0005765152989038296 -0.0005800676532185385 -0.0005836200075332473
          -0.001490146759853518 -0.0013493467812145284 -0.001484293979139963 -0.0013460524359638097 -0.001478441198426408 -0.0013427580907130908
          -0.0006361573476604938 -0.000646695359589308 -0.0006382021955063351 -0.0006486219455909753 -0.0006402470433521764 -0.0006505485315926426
          -0.0013303342263247908 -0.0014332825421127238 -0.0013266975323413433 -0.001428294395409153 -0.0013230608383578957 -0.0014233062487055822
          -0.0011987475679936747 -0.0011959996533921966 -0.0011932517387907183 -0.0006319303726409974 -0.0006343534163306419 -0.0006367764600202865
          -0.0015036429761018377 -0.0014846914453824985 -0.0014972704264310578 -0.0014798978752217156 -0.0014908978767602782 -0.0014751043050609325
          -0.0006718395428893287 -0.0006740791885333 -0.0006763188341772712 -0.0007801496566089375 -0.001063787714072812 -0.0007813308314868986
          -0.001064352306255165 -0.0007825120063648596 -0.001064916898437518 -0.0005574276970836605 -0.000561418400210377 -0.0005654091033370934
          -0.0010483458521475606 -0.0010466537457154955 -0.0010449616392834305 -0.0003061640075693761 -0.00047906063143268886 -0.00031016578582493165
          -0.0004820541264718508 -0.0003141675640804872 -0.0004850476215110127 -0.0008900221618532088 -0.0008897300106049887 -0.0008894378593567687
          -0.0007201421685365482 -0.0007212487714935293 -0.0007223553744505105 -0.0003667984925092542 -0.0003714727479623187 -0.00037614700341538317
        </DataArray>
        <DataArray type="Float64" Name="disp_x" format="ascii" RangeMin="0.0000018125472697189667" RangeMax="0.000021170476218760317">
          0.0000023406867466993027 0.000002336342265977521 0.000002342492865920684 0.000002334997769176321 0.000002343536238083367 0.000002336280870027967
          0.0000028960559039334065 0.0000028694984451925462 0.000002892030313029067 0.000002888021574649779 0.0000028886546924315683 0.0000028984192204687365
          0.0000034516324101496467 0.0000034787613488478885 0.000003453686768053979 0.0000034627291640927957 0.0000034562771841444887 0.000003454493352139194
          0.000004010641787016212 0.000004011710179491548 0.000004010560208393424 0.000004010401706686738 0.000004009898675499971 0.0000040059022534874536
          0.000004565833122941771 0.000004563098740620453 0.000004565637536115002 0.000004563221942552012 0.000004565432656212958 0.0000045643602949800654
          0.000005123702654091177 0.000005121652708974588 0.00000512361232753993 0.000005121497014775309 0.000005123238505580471 0.000005120712468706685
          0.000005684326992340666 0.000005680735344653395 0.0000056845205732875486 0.000005680476263071171 0.0000056850932492266715 0.0000056795560357514754
          0.000006261953812652801 0.000006245598516550696 0.000006264925916999838 0.000006248726204687167 0.000006271817978170882 0.000006258324029022138
          0.0000023465380865242158 0.0000023464558485954373 0.000002346444164268118 0.0000028993873820160126 0.0000028997675004834665 0.0000029002937331147713
          0.000003454564512676214 0.0000034541147134851017 0.0000034532366434938082 0.000004011268214776123 0.0000040112184134862516 0.000004011026406931122
          0.00000457031198186333 0.000004570180566360347 0.000004569799351343014 0.000005129818639207855 0.000005130326097594833 0.000005130610073698063
          0.000005696810229562281 0.000005697174966608439 0.000005699623985161426 0.000006308182677748205 0.000006311628700666012 0.00000632072677398649
          0.000002350287992395141 0.00000235028552096275 0.0000023502272751798186 0.0000029050651453702542 0.000002904974597877844 0.0000029048031078144333
          0.0000034603833892513178 0.0000034604007135087897 0.0000034604000955639426 0.0000040178423821527324 0.000004017693999554539 0.00000401736223458252
          0.0000045769406132860295 0.000004577039326910951 0.000004576851990702009 0.000005138449110786598 0.000005139019602926715 0.000005141011426508328
          0.00000572579217692441 0.000005727610256100618 0.000005732996516160227 0.000006394612142027108 0.000006398178062484687 0.000006409498016926644
          0.0000023551455854084526 0.000002355133456253344 0.0000023550785271227273 0.0000029110768101964552 0.000002911075504538369 0.0000029110210375498143
          0.0000034681170725098448 0.0000034680389128096832 0.0000034679026428838525 0.000004026989907626806 0.000004026877022362019 0.000004026435364688971
          0.0000045871001532865365 0.000004587496177989662 0.0000045879787039350755 0.0000051539311714422295 0.000005155303887628752 0.0000051601917571000115
          0.0000057830614677120945 0.000005785717072539768 0.00000579353968375567 0.000006518276489431557 0.000006522709033601991 0.000006535595466168481
          0.0000023606373775316528 0.000002360621093523787 0.0000023605725685393837 0.0000029182298522273307 0.0000029182044480244334 0.0000029181413991042227
          0.0000034772048034478315 0.0000034771268702982344 0.000003476944630597222 0.000004037226456007187 0.000004037249595719731 0.000004037006432029198
          0.000004598882794318488 0.000004599726887219007 0.000004602026655170821 0.000005188951476286068 0.000005191417084207788 0.000005199536283791042
          0.000005876414822925727 0.000005879863103114164 0.000005889811278795589 0.0000066956030819717225 0.000006700902972850869 0.0000067165888824385745
          0.0000023664958439155884 0.0000023664947171536966 0.0000023664405536668554 0.000002925866545102668 0.000002925807728705332 0.0000029257829735725565
          0.0000034869884659851135 0.000003486923714017975 0.000003486529795430132 0.000004048925272192899 0.000004049413007230177 0.000004050303745385085
          0.000004617404666285022 0.000004619108532710656 0.000004624333333253443 0.000005253579438286487 0.000005257026233013437 0.0000052683528010201564
          0.00000602007333870018 0.00000602430851174856 0.000006036368349141739 0.0000069461664177270475 0.000006952287136280665 0.000006970550460254453
          0.0000018126033826605034 0.0000018125938568183003 0.0000018125472697189667 0.0000023722489381181837 0.0000023722266664053153 0.000002372207203557773
          0.000002933582179209337 0.0000029335160422531717 0.0000029333483878232197 0.000003495811629182361 0.00000349605696514348 0.0000034960865294275924
          0.000004059793998194614 0.000004060580884335835 0.000004063334254474365 0.000004657554351607517 0.000004660712714087746 0.0000046700652781873705
          0.000005363404589144283 0.000005367804380260573 0.000005381892322770661 0.000006231379340233095 0.000006236241161283264 0.000006250163506267807
          0.000007282748211011014 0.00000728936945420989 0.000007309167383449321 0.0000018165693546671061 0.0000018165603046685677 0.0000018165219842728323
          0.000002377567075412427 0.0000023775400207703083 0.0000023775432585525167 0.000002940241674993624 0.0000029401966015926136 0.0000029398215214197805
          0.000003504166841271243 0.0000035043250810110287 0.0000035053833752031607 0.000004077626262189702 0.00000408018208938747 0.000004086883823817268
          0.000004731989726118168 0.000004736293507827569 0.000004749492556834991 0.000005533702156256367 0.000005538884830047474 0.000005555271765914805
          0.0000065258497451355886 0.0000065311431731467805 0.000006546274440056545 0.000007717021577002137 0.000007723757076431177 0.000007743801603134677
          0.0000018200806554583329 0.0000018200606290252835 0.0000018200521566299918 0.0000023825521374157506 0.0000023824827856790305 0.000002382240748339123
          0.000002945548233897391 0.000002945773656996173 0.000002945956711006877 0.000003510455618212482 0.0000035116203683086255 0.0000035153257815803013
          0.000004120983796592393 0.000004124601372195822 0.000004135635833700045 0.000004855949172612559 0.0000048614513179825305 0.000004877968272324126
          0.000005777247378884984 0.000005783068702665568 0.000005801420510021935 0.000006914232529820426 0.0000069196549482661924 0.000006935189332079692
          0.000008256126754557278 0.000008262440050723254 0.000008281045234470418 0.0000018231389775967989 0.0000018230829253375885 0.0000018230470241251617
          0.000002386202284333859 0.0000023862226927270654 0.00000238589246986347 0.000002950376784909978 0.000002950666787839713 0.000002952021488921452
          0.000003528151991185038 0.0000035310917154805265 0.0000035393107524456136 0.000004202197856605754 0.0000042071402663426656 0.0000042223649524202346
          0.000005045424242732152 0.0000050518156282422514 0.000005070928319729833 0.000006106154833778931 0.000006112290435624186 0.0000061317399826696935
          0.000007399314739162047 0.000007404727601738197 0.000007419914191492863 0.000008894853549963653 0.000008900198574184696 0.000008916280404181266
          0.0000018259917345934548 0.0000018258977027020913 0.0000018255925392214005 0.000002388936360175342 0.0000023892179513197803 0.0000023894526152592445
          0.000002954140881696412 0.000002955691377005767 0.0000029603809237014335 0.0000035750314584639657 0.000003579158420490015 0.000003591977193573704
          0.00000433937615030121 0.000004345556060126713 0.000004364323124699688 0.000005314576054686629 0.000005321493454931084 0.000005342392956892814
          0.000006531284507783713 0.00000653755712259589 0.000006556583797652494 0.000007979774364476446 0.000007984765945991794 0.000007999473741771727
          0.000009622519491519435 0.000009626723194175405 0.000009639752540501504 0.0000018280314522381057 0.0000018280117394491011 0.000001827659277261302
          0.0000023913922587683687 0.0000023920120888110827 0.0000023936868727615515 0.0000029729339175792694 0.0000029761111679186404 0.0000029857313638552598
          0.000003663901471780539 0.000003669608840848057 0.000003687059957520096 0.000004548344450868076 0.000004555417618897518 0.000004576847240860669
          0.00000567661378485834 0.000005683800050058246 0.000005705391728510662 0.000007060242509217451 0.0000070662813477636805 0.000007084904810325472
          0.00000867671153716545 0.000008680934707321828 0.000008693614500316925 0.000010475292529473806 0.000010478037274633531 0.000010485260260793047
          0.0000018301398937489199 0.0000018304526845725383 0.0000018307537720666896 0.0000023951362870519385 0.000002396875698693789 0.000002402279881703522
          0.00000302285618050852 0.0000030276754055094987 0.000003042444859889201 0.0000038144261873582404 0.0000038214457847446 0.0000038427898183366515
          0.000004845007905240091 0.00000485267344225423 0.000004875870291844699 0.000006145026554910851 0.000006152034995016859 0.0000061732445553882905
          0.00000770376360978242 0.000007709155595983569 0.000007725403748172012 0.00000947667933232473 0.000009479890080767825 0.000009489508685559702
          0.000011389456835851275 0.000011390728927995598 0.000011394585268121827 0.0000018324654317851331 0.0000018332051160077972 0.0000018351808060565128
          0.0000024148623964682495 0.0000024184584768791697 0.0000024293654224601952 0.000003119825091588924 0.0000031263357290800827 0.0000031463452228924494
          0.000004045147563558952 0.000004053136401443095 0.000004077327533371397 0.000005246511637429257 0.000005254307863855272 0.0000052779309302898226
          0.000006730960098254935 0.000006737376777032677 0.000006756688233832436 0.00000846151727878211 0.000008465781194201266 0.000008478627358914844
          0.000010369720935025814 0.00001037153977593781 0.000010377068032707395 0.000012372380705453124 0.00001237207767808519 0.000012370467646802838
          0.0000024676764759161203 0.0000024731960151296214 0.0000024901391072929224 0.000003285626417582913 0.000003293627155023285 0.0000033180210337662148
          0.000004375731834759899 0.000004384213839730484 0.000004409936003085689 0.0000057675202119102445 0.000005774941705819047 0.000005797365338573122
          0.000007439409375684599 0.000007444747751401704 0.000007460816275265789 0.000009329038810566221 0.000009331779564940007 0.000009339857264822717
          0.000011345243406973324 0.000011345412130363989 0.000011345918840360483 0.00001339103178431711 0.00001338938462921017 0.00001338406069429098
          0.000002571578679755322 0.0000025790669229893655 0.0000026022156914882693 0.000003542135719407229 0.000003551174392101099 0.000003578598233219951
          0.000004826127230676162 0.000004834529762158053 0.000004859974158624748 0.0000064202268898258465 0.000006426664608655648 0.000006446045101003867
          0.00000827081368820135 0.000008274602777062755 0.000008285996207325628 0.000010292901781617923 0.00001029391858479993 0.000010296881454593746
          0.000012385704397910153 0.000012384260282243143 0.000012379575029570441 0.000014442524042652564 0.000014439846104298968 0.000014429945994981362
          0.0000027521870105328784 0.0000027612084971284726 0.0000027894461034101448 0.0000039116614936965255 0.000003921210706198579 0.000003950065448164709
          0.00000541277753939977 0.000005420464011258424 0.000005443652001802133 0.000007211940619425265 0.000007216806981426723 0.000007231405572229915
          0.000009223063838509335 0.000009224773669613927 0.000009229982997353706 0.000011339850368858479 0.000011339136214727346 0.000011336425228974743
          0.000013460362028122907 0.000013458087256944667 0.000013451376083711483 0.000015512748453289363 0.00001550820189227066 0.000015495140130521265
          0.0000030362233534613998 0.000003045948087730536 0.0000030771452134644232 0.000004418133640341546 0.000004427515806710009 0.000004455501743246127
          0.000006148495965624758 0.000006154800765195943 0.000006173765012184183 0.000008142911668439245 0.000008145764336391426 0.000008154251648714823
          0.000010287088984900901 0.00001028652183721102 0.000010284997782792 0.000012460963319927197 0.00001245846880218397 0.000012449806072910045
          0.000014564149865816539 0.000014561010900662224 0.000014551211633116005 0.000016548878141351344 0.00001654298308166522 0.00001652843664071971
          0.000005083000004458555 0.000005091342166632638 0.000005115829182811401 0.00000704198725343461 0.000007046292905013719 0.00000705920801706243
          0.000009208011563044497 0.000009208537805119742 0.00000921000055600736 0.000011447216647545756 0.000011444400040076161 0.000011436186927397217
          0.000013635899796924189 0.000013631911733308404 0.000013618279222719479 0.000015686757225927278 0.000015682107648478124 0.000015669619396922938
          0.000017569979781954527 0.00001756250066426174 0.000017541337322557203 0.000005923784974242749 0.000005930281205503735 0.000005948733560907496
          0.000008095787374906778 0.000008097608520693798 0.000008103013935247797 0.000010395886684672081 0.000010393903821443293 0.000010387834071564423
          0.00001268030138336066 0.000012675329729270875 0.000012660724036957988 0.000014830424090915126 0.000014824883200174273 0.000014806282396075738
          0.000016769345340552926 0.000016763035516701436 0.000016745865730996223 0.000018463945606339524 0.000018455125507801416 0.00001842803466925437
          0.000006951412732900872 0.00000695526341466559 0.000006965411633201903 0.000009303644552965296 0.000009302609448848808 0.000009299379192010682
          0.000011683820636261915 0.000011679228069938673 0.000011665338721234201 0.000013947209677000337 0.000013940174696972471 0.000013919275017559778
          0.000015985297769461954 0.000015978308518519073 0.000015955095701954552 0.000017736677932210997 0.000017729223489026475 0.000017708960596737723
          0.000008166366925780175 0.000008166867457749601 0.000008166783932342575 0.000010644462588644983 0.000010640333191807486 0.000010627690712736616
          0.000013029851220860957 0.000013022690813370736 0.00001300110641756227 0.000015187939281960211 0.000015179243951574151 0.000015153094889829268
          0.000017033712737406744 0.00001702570215333833 0.000016999826633748534 0.000017421381118533605 0.000015295166841650943 0.000014229075623234034
          0.000015988153460311533 0.000017414553571829838 0.00001529133500536136 0.000014226836341175673 0.000015983659332181408 0.000017393133292537734
          0.00001528043182507552 0.000014219957998958098 0.000015971543063002563 0.000009870452770848246 0.000010489376136962484 0.00000927763199207329
          0.000008688453838032163 0.000009875870311692318 0.000010494002854562073 0.000009284009797546834 0.000008695699320710117 0.000009891064736231196
          0.000010506386908257442 0.000009305585183145096 0.000008719463268202011 0.00001922447680721288 0.00001939194576403898 0.000018464539693475834
          0.000019214571343472532 0.0000193822328742114 0.00001845469390746989 0.000019183067706573877 0.000019350256962298563 0.00001842104442733672
          0.00001966753921299313 0.000019660171335360492 0.000019638187141598913 0.00001310773899593745 0.00001203116735197114 0.000013444446827830904
          0.000014775133621030488 0.00001310738343302652 0.000012032809744996527 0.000013444031531916447 0.000014772378994121056 0.000013106390437858356
          0.000012037832531004705 0.000013444718784726255 0.000014763702780794365 0.000009126075510641838 0.00000813334235116223 0.00000913307797622937
          0.000008141063973934334 0.000009152898456638699 0.000008165978739956727 0.000018266200202636025 0.0000195430698266365 0.00001941148508472619
          0.000018259163039857954 0.000019536168729310418 0.00001940427272264296 0.000018235699199514507 0.000019516423206405434 0.000019380719042424297
          0.00000766137930927862 0.000008485127086873568 0.00000766914977485999 0.00000849322333380482 0.000007694071233680231 0.00000851650219049495
          0.000017599724594032086 0.00001911470462321194 0.000017591649468242717 0.00001910638690102239 0.00001756615050444618 0.000019079828847380535
          0.000011740005847639656 0.000011742394454924584 0.00001174826141155158 0.000017646345576660387 0.000019414134221805278 0.000017640098852408867
          0.00001940750526408032 0.00001762136778174437 0.00001938686748746822 0.000016294049726921772 0.000017585049611575873 0.000016288849202858017
          0.000017578076141411342 0.000016276974710584544 0.000017556913773379882 0.000011361787132677851 0.000012111332269677934 0.000011364532018735798
          0.000012113268312185088 0.000011373259608337441 0.00001211857568095934 0.000009940861658060866 0.00001087682982351167 0.000009946058946421154
          0.000010880725273342867 0.000009963986740848946 0.000010892093110346729 0.000007299495006775232 0.000007306840674634848 0.000007330383557074026
          0.000006915261861396682 0.000007047698640384831 0.000006922121690530795 0.0000070543698862903815 0.00000694047415551295 0.000007074589409555489
          0.000010751832505766233 0.000010756492521949201 0.000010768477273535222 0.000006777071924818592 0.0000067835203547107075 0.000006806086845911189
          0.00001753334465429312 0.00001752596905378153 0.000017501270085813297 0.000006645640571881558 0.0000066515696974990655 0.000006670871418843649
          0.000007979202239138957 0.00000798807994664244 0.000008013760210856752 0.000007604424225924321 0.000007613184202386887 0.00000764084317061704
          0.000007315526588995256 0.000007324244362661384 0.000007349753769353463 0.000019192631893985116 0.000019183892660768436 0.000019156051661865704
          0.00001854091927809957 0.00001853340534799849 0.00001851245010076496 0.000019743150971745434 0.000019735668159953526 0.000019712080181629725
          0.00001207600807112701 0.000009553007113433547 0.000012068672454950746 0.000009549547190382667 0.000012046370285133994 0.000009537648792432956
          0.000014370140952754419 0.000014360827940724417 0.000014332614450648774 0.00001633055696082479 0.00001632093087692035 0.00001629180051215979
          0.00001791748838171189 0.00001790958562428939 0.000017884006206117546 0.000019157193788693422 0.000019150644185079457 0.000019132233693559268
          0.000020451919808382493 0.0000204454694625683 0.000020427034116268973 0.00002063839713016064 0.000020633002054452397 0.000020617731856263254
          0.000014646880072080136 0.00001666429284091736 0.00001464430142570889 0.00001665871001787439 0.000014635469092883088 0.000016641682879115727
          0.000021056238976711002 0.00002079579346757363 0.000021050417619794483 0.000020789734041697106 0.000021033177414902146 0.000020772495923737904
          0.000011277369020252114 0.000012376061484104566 0.0000112806278679313 0.000012377273688521736 0.000011289594113751591 0.000012381089721322483
          0.000010263873758528165 0.000010269116942490555 0.000010285116640172566 0.00002066914694678261 0.000020662855120515697 0.00002064520959511149
          0.000013115280736271934 0.00001419480414822166 0.000013115284036779054 0.00001419361517317965 0.000013116818335937806 0.000014190489402442191
          0.000021170476218760317 0.000021165372989570553 0.000021149520777302626 0.000020931702857584156 0.00001905296440656712 0.000020927358889391968
          0.00001904741106702264 0.00002091511204413599 0.000019029276336258628 0.00001998613757061746 0.000019978046224155455 0.00001995109757100599
          0.000009425340857618058 0.000009432487072916668 0.00000945435601627809 0.000007003922407035417 0.000007494187312439849 0.000007011932374264354
          0.000007503377714239711 0.00000703656191534716 0.000007531312742333737 0.000008767028970965017 0.0000087757492835759 0.000008802332722663436
          0.000008200244842368252 0.000008209747688142708 0.000008239784101607187 0.000020782697202310613 0.000020777527688464286 0.000020764575451265066
        </DataArray>
        <DataArray type="Float64" Name="disp_y" format="ascii" RangeMin="-0.000012567795277817594" RangeMax="0">
          -1.364491240637114e-7 0 -1.3747007689018929e-7 0 -1.3708962180268216e-7 0
          -1.4455969188307588e-7 0 -1.4339510208363775e-7 0 -1.4502265811966994e-7 0
          -1.47065501218419e-7 0 -1.4605195512283268e-7 0 -1.4758516485706398e-7 0
          -1.4439757788181892e-7 0 -1.4495674385137027e-7 0 -1.4426935574068401e-7 0
          -1.5030916309550644e-7 0 -1.50135142420943e-7 0 -1.5012222111779505e-7 0
          -1.55905842768736e-7 0 -1.5586852356805091e-7 0 -1.558631933554647e-7 0
          -1.635218108992542e-7 0 -1.6302448890524218e-7 0 -1.617736245570053e-7 0
          -1.9300696580931646e-7 0 -1.9224186544618662e-7 0 -1.8992549614958575e-7 0
          -2.74810920615352e-7 -2.7430130978314734e-7 -2.739871280934587e-7 -2.8191979657571747e-7 -2.8200972295822457e-7 -2.8147433295719417e-7
          -2.8802864391216e-7 -2.8806779940040817e-7 -2.879662277997171e-7 -2.9252220256901267e-7 -2.923457714765791e-7 -2.922580077465366e-7
          -3.0078272721171754e-7 -3.0078427705345956e-7 -3.006864831867847e-7 -3.120170884934103e-7 -3.1175227240160485e-7 -3.1131502243300727e-7
          -3.322401335267957e-7 -3.314898505471981e-7 -3.2862465720004027e-7 -3.905250475704618e-7 -3.88980049065816e-7 -3.8383734210812055e-7
          -4.126638358745923e-7 -4.1268574525439454e-7 -4.1260013832750984e-7 -4.205063771119758e-7 -4.204695798645702e-7 -4.2046245013779446e-7
          -4.2943712454234795e-7 -4.2945301524902356e-7 -4.2942189950862385e-7 -4.3918442828375245e-7 -4.3918156652251335e-7 -4.3907679045033914e-7
          -4.522001549081767e-7 -4.5211332963037404e-7 -4.521345850372988e-7 -4.695251885367097e-7 -4.689696183108177e-7 -4.674940411414603e-7
          -5.105863090235436e-7 -5.089848709287761e-7 -5.044798486857972e-7 -6.158338783121531e-7 -6.137170875581337e-7 -6.070440755916885e-7
          -5.506219655943211e-7 -5.506009476818178e-7 -5.505249190656359e-7 -5.599052312913593e-7 -5.598758568684011e-7 -5.597869222406737e-7
          -5.71366010750279e-7 -5.713224721144707e-7 -5.712257801800978e-7 -5.853710137216835e-7 -5.853482792786505e-7 -5.852761647788957e-7
          -6.030366955217341e-7 -6.027382885684007e-7 -6.02170305772505e-7 -6.322039775752114e-7 -6.311235939306183e-7 -6.280493943856366e-7
          -7.074686803351878e-7 -7.055418645032734e-7 -6.993705919966071e-7 -8.695655810365302e-7 -8.667717277818567e-7 -8.588225826186594e-7
          -6.886325999306006e-7 -6.885750013723575e-7 -6.88463181574869e-7 -6.99717945300784e-7 -6.99672143279606e-7 -6.995426033647533e-7
          -7.135735287303988e-7 -7.135469674067941e-7 -7.13400363473058e-7 -7.313073738004318e-7 -7.31197915903254e-7 -7.311681201475578e-7
          -7.544719296827634e-7 -7.538178112852237e-7 -7.521471445987837e-7 -8.057528792968061e-7 -8.041211229682658e-7 -7.989980948036896e-7
          -9.296337541145354e-7 -9.270280686602344e-7 -9.19087594977793e-7 -0.000001159041035623895 -0.0000011556810165712743 -0.000001145517218729659
          -8.267556741663811e-7 -8.267044744116946e-7 -8.265766711348305e-7 -8.397617883900892e-7 -8.397196534529498e-7 -8.395889135825756e-7
          -8.561576227146941e-7 -8.561106628127866e-7 -8.560220429352158e-7 -8.766956189222226e-7 -8.763516516675642e-7 -8.757330365440267e-7
          -9.111699068280843e-7 -9.098919609089054e-7 -9.062139736374865e-7 -9.989565991277231e-7 -9.966270529146135e-7 -9.893593611321076e-7
          -0.0000011853260029271006 -0.0000011820514878952528 -0.000001172095805759749 -0.0000014982449543218182 -0.000001494376554209869 -0.0000014824972781098145
          -9.533059764548544e-7 -9.532630501333713e-7 -9.53157905971569e-7 -9.65009720755406e-7 -9.64968655548627e-7 -9.648441297204176e-7
          -9.799242792686532e-7 -9.798903512256053e-7 -9.79749980477454e-7 -9.986952420209863e-7 -9.986437165671612e-7 -9.986526139702517e-7
          -0.0000010234609081386738 -0.000001022624257284119 -0.0000010203915849908837 -0.0000010808342817442909 -0.0000010788625751463398 -0.0000010726166717929039
          -0.0000012215830484935752 -0.0000012184905134044886 -0.0000012089648913219958 -0.0000014852155380237178 -0.000001481340806194394 -0.0000014695411364138906
          -0.0000018957183119640757 -0.0000018915150008519587 -0.0000018786228325817294 -0.000001089752559482123 -0.0000010897138820128813 -0.0000010895837698056548
          -0.0000011031334708382113 -0.000001103080081546669 -0.0000011029534706777992 -0.0000011202416521562985 -0.0000011202684102412577 -0.000001120293043817305
          -0.0000011409724171377216 -0.0000011403394401075643 -0.0000011393477310023832 -0.0000011776567977284632 -0.0000011761103556583488 -0.0000011716180409870275
          -0.0000012755227678685076 -0.0000012727675884751271 -0.0000012641434662983032 -0.0000014846163763317632 -0.0000014807989499306766 -0.0000014690187453207605
          -0.0000018390183780947305 -0.0000018346249341470146 -0.000001821231796838 -0.0000023559084900608587 -0.000002351602319214346 -0.000002338258691530396
          -0.0000012258922408194273 -0.000001225843095593629 -0.000001225715987697407 -0.0000012408710684065876 -0.0000012408748161986074 -0.0000012407688839876897
          -0.0000012601411001530534 -0.0000012599338927544346 -0.0000012598475641397972 -0.0000012859043740386218 -0.000001284938566292533 -0.0000012823137852719873
          -0.0000013492265643933015 -0.0000013470043036317811 -0.000001339842372718578 -0.0000015063021335188273 -0.000001502742498822375 -0.000001491798886084521
          -0.0000017999231822593898 -0.0000017955438354097298 -0.0000017820447932899021 -0.000002255525861710037 -0.0000022509047491501286 -0.000002236514073874708
          -0.0000028809911605367145 -0.0000028766426050956486 -0.0000028635013603466385 -0.000001361322506422135 -0.0000013612734876991629 -0.0000013611379227486555
          -0.0000013783897276446938 -0.0000013783640591879951 -0.0000013784164740803248 -0.000001399277654087796 -0.000001398716452711605 -0.0000013975193588438346
          -0.0000014397009739750387 -0.0000014381058911895017 -0.0000014329892115934948 -0.0000015500777330257729 -0.000001546931195851216 -0.0000015372298532814045
          -0.000001784060153101118 -0.000001779851014850936 -0.0000017668026871358555 -0.0000021773716483108507 -0.0000021726505380386754 -0.0000021581940926438802
          -0.0000027417144373767057 -0.0000027369408114185727 -0.0000027228802810496655 -0.000003470650161123134 -0.0000034666726953455813 -0.000003453701508745123
          -0.0000014958742726465218 -0.0000014958673981633207 -0.0000014957727206972924 -0.0000015148964334159984 -0.0000015146619729421154 -0.0000015144411034350727
          -0.0000015422182321038874 -0.0000015410872725679256 -0.0000015379791619140513 -0.0000016138127993994733 -0.0000016112189754987633 -0.0000016031122506244794
          -0.0000017910425323866248 -0.0000017871152415070665 -0.0000017749224414198928 -0.00000212007862077279 -0.000002115324523450781 -0.000002100693059668822
          -0.0000026237699722852685 -0.0000026188281285442456 -0.000002603805902458654 -0.0000033003371398930206 -0.00000329573422677675 -0.0000032815985038277776
          -0.0000041245441010576735 -0.000004120891724140247 -0.000004109692949781448 -0.0000016295917563495734 -0.0000016295406187762451 -0.0000016295638612216712
          -0.0000016504503514612866 -0.000001649847396052649 -0.0000016484895455279112 -0.000001695196334281732 -0.000001693239645478462 -0.000001687421986507105
          -0.0000018197913238210268 -0.000001816303962505415 -0.0000018054193514532824 -0.0000020840775661527643 -0.000002079417721538991 -0.0000020649926450025687
          -0.000002523928094034148 -0.000002518793785351288 -0.0000025030576100213257 -0.000003146231156432613 -0.000003141292044987768 -0.0000031261378993917857
          -0.000003932701647531479 -0.000003928486757362806 -0.000003915424930378704 -0.00000485797943357585 -0.000004854997231973161 -0.000004845526004683409
          -0.0000017616264314706416 -0.0000017613684766029091 -0.0000017610835528215407 -0.000001789756598768256 -0.0000017884393433308818 -0.000001784930125794546
          -0.0000018693679201891388 -0.0000018664812183201417 -0.0000018573970390784238 -0.000002069749186847242 -0.00000206533710347792 -0.0000020516497545195906
          -0.0000024413128783372387 -0.0000024360725105889656 -0.0000024198891874398817 -0.0000030046464529603244 -0.0000029993599396094877 -0.0000029831475825409473
          -0.000003749169080501538 -0.0000037445546111367195 -0.0000037304589399240485 -0.0000046425293469893145 -0.000004639028195807065 -0.000004628628031484745
          -0.000005639614893893169 -0.000005637606643503702 -0.000005631185185131133 -0.0000018921095834227507 -0.0000018914185303927032 -0.0000018898627700810589
          -0.000001938765475247729 -0.000001936563256792979 -0.000001929976390503569 -0.0000020775896019431865 -0.0000020736328693495113 -0.0000020612448026145177
          -0.0000023769368630781685 -0.0000023717107713641296 -0.000002355484435154553 -0.000002874160975727874 -0.0000028685502899911835 -0.000002851286707056274
          -0.0000035694718476008567 -0.0000035643359603542367 -0.0000035486080918774317 -0.0000044330707323535804 -0.0000044290882417964825 -0.000004416995172465478
          -0.000005416853362968349 -0.00000541445118931659 -0.000005407121011551607 -0.000006464191736400569 -0.000006463488404133009 -0.00000646107652391636
          -0.000002109357545481438 -0.0000021060513296797253 -0.0000020956211555158364 -0.000002333569239080377 -0.0000023285283627994377 -0.0000023127971786614673
          -0.000002755340908477399 -0.000002749475285785535 -0.000002731313728043798 -0.0000033923477737454602 -0.0000033866767729138614 -0.000003369297645467367
          -0.000004221804662536477 -0.000004217182238384059 -0.000004203081432032512 -0.0000051931079210521956 -0.000005190077990059916 -0.000005180748797324523
          -0.000006243749443771019 -0.000006242428377085456 -0.000006238621102632167 -0.000007315985025807928 -0.000007316289188193355 -0.0000073179253315148244
          -0.0000023160654206692315 -0.0000023115195522860375 -0.0000022971790605568137 -0.000002653253542285083 -0.000002647264274792625 -0.0000026285565087317496
          -0.0000032181115035094336 -0.0000032118690185676105 -0.000003192606331060766 -0.000004002370053870009 -0.000003996990048297877 -0.000003980549579861571
          -0.0000049595508264943505 -0.000004955789394576756 -0.000004944414743098396 -0.000006020786152815701 -0.00000601892814541859 -0.000006013413451576785
          -0.0000071112433930263935 -0.000007111161012020159 -0.000007110700097939848 -0.00000817169585824755 -0.000008172834913376612 -0.000008176013087119607
          -0.000002574791139788726 -0.0000025689629567458927 -0.0000025506540006153034 -0.0000030537400972693867 -0.0000030470389222108275 -0.000003026249747194128
          -0.0000037768837923314854 -0.0000037706486888340195 -0.000003751480406463651 -0.000004706898399705222 -0.0000047021652282665275 -0.000004687726542808639
          -0.000005775415285335313 -0.0000057727567293211 -0.0000057647707570694745 -0.000006901247195899809 -0.000006900720742650231 -0.000006899370235746292
          -0.000008005667438463625 -0.000008006702482646949 -0.000008010591839665183 -0.000009029200908432804 -0.00000903133683453792 -0.0000090358706375162
          -0.000002904420233026203 -0.0000028974121940202174 -0.0000028754899226372986 -0.0000035512036467009823 -0.000003544159812203848 -0.000003522482681495357
          -0.000004440039541802809 -0.000004434261592187628 -0.000004416605949570172 -0.0000055043912745101015 -0.0000055006669453464496 -0.000005489352204292903
          -0.0000066587734659864794 -0.000006657380958061218 -0.0000066532207554607945 -0.000007816870670614115 -0.000007817691376166354 -0.000007820119144161384
          -0.000008905785128139745 -0.000008908117400435419 -0.000008915406805358876 -0.000009877708843105122 -0.00000988149110477136 -0.00000989142034102264
          -0.0000041598858915188555 -0.000004152980330662585 -0.000004131894872764759 -0.000005211013636096533 -0.000005206159783103418 -0.000005191424113975603
          -0.000006388125466155235 -0.000006385768261010638 -0.000006378615818774001 -0.000007595625330622581 -0.000007595722201354509 -0.000007595997262013734
          -0.000008750003310565966 -0.000008752266273586244 -0.000008758715763238274 -0.00000979009366004115 -0.000009793979977837862 -0.000009805283339052174
          -0.000010683354271051845 -0.000010688900735968905 -0.000010704838328379214 -0.000004890255896992451 -0.000004884032701344182 -0.000004865227783601632
          -0.000006087226688258797 -0.000006083781227747237 -0.000006073318761436971 -0.000007344996570811237 -0.000007344371058213314 -0.00000734240154664087
          -0.000008566210400251411 -0.000008568115983709492 -0.000008573709380297441 -0.000009677010184525522 -0.000009680952251240467 -0.00000969259605063427
          -0.000010630641291656327 -0.000010636110856053662 -0.000010652748060726521 -0.000011399162692044392 -0.00001140559263268037 -0.000011425877767909044
          -0.000005746806408455433 -0.000005741885438633572 -0.000005727134033564187 -0.000007058429300171004 -0.0000070569021304378864 -0.000007052169282757206
          -0.000008353442313538655 -0.000008354936004696929 -0.000008359303139848056 -0.000009541191475106126 -0.000009545151447814876 -0.000009556958038109325
          -0.000010562896267602723 -0.000010568540561194683 -0.000010585684126953992 -0.000011387215349707506 -0.000011393788212191743 -0.00001141391851783326
          -0.000006725357672124479 -0.000006722415504796422 -0.000006713689100461331 -0.00000810395102755163 -0.000008104810088953635 -0.000008107350741942098
          -0.000009380738662251075 -0.000009384606074754164 -0.000009396302853935504 -0.000010480463467527267 -0.00001048639132957894 -0.000010504457030697858
          -0.00001136588154565326 -0.000011372758825566063 -0.000011393969291866264 -0.000009456559591240503 -0.000008335159820269353 -0.000007468084804197413
          -0.000008384569885953433 -0.000009460174109414324 -0.000008336833491617118 -0.0000074687538939097345 -0.000008386673938076727 -0.000009469539062938968
          -0.000008341317778669171 -0.000007471192681523604 -0.000008393317810994843 -0.000003201929049059757 -0.0000038515131651625995 -0.0000032971081323444608
          -0.000002713422695030218 -0.0000031984383403986445 -0.00000384871929750134 -0.000003293422008508461 -0.0000027093893795015523 -0.0000031875925014256895
          -0.0000038401241570949085 -0.00000328227877016452 -0.0000026969840427844534 -0.000011158768357777669 -0.000011668082808578683 -0.000010988281134549202
          -0.00001116432295167527 -0.000011674422775767073 -0.000010993666158707116 -0.000011181452150772995 -0.00001169574847075307 -0.000011012525001367818
          -0.000011260355259860393 -0.000011265582085703053 -0.000011283641745416287 -0.000006574033830962555 -0.000005720032262228315 -0.0000064370620725373164
          -0.0000074305432864030335 -0.000006573601592977367 -0.0000057186584979476855 -0.000006436772160721406 -0.000007431601097885405 -0.00000657248157972386
          -0.00000571349988277353 -0.000006436121281819103 -0.000007435118638418363 -0.0000024871382108403776 -0.0000021545520410801933 -0.0000024834039666410383
          -0.000002150352755622698 -0.0000024717301861433044 -0.0000021373324176859455 -0.000009760469164267858 -0.000010508789709207122 -0.000010650270067060667
          -0.000009763957919464328 -0.000010513125307834964 -0.000010654783990338096 -0.000009776767347837213 -0.000010527011648079971 -0.000010667964196984895
          -0.0000016536475460482407 -0.0000018715011874631908 -0.0000016495884304339202 -0.00000186773776403686 -0.0000016368340172437468 -0.0000018559287306242825
          -0.000010127324722679945 -0.000010758271473101466 -0.00001013220097300528 -0.000010763285613215065 -0.00001014626056012589 -0.000010781913852104924
          -0.00000486005578369562 -0.00000485812536592843 -0.000004853216789998687 -0.000009248623311134029 -0.000010206720023266065 -0.000009252145516955907
          -0.000010211050916091555 -0.000009262308955136414 -0.000010225965814305728 -0.00000915788978278707 -0.000009788155925899503 -0.00000916066580592809
          -0.000009792525748346228 -0.00000916844525734624 -0.000009805473111309493 -0.000005171690437752502 -0.000005464241238772159 -0.00000516949281224984
          -0.000005462663839015505 -0.000005163095473082251 -0.000005458515423466107 -0.000003886551481913869 -0.000004597718845457546 -0.000003883477643893244
          -0.000004595209420527261 -0.000003873882752701676 -0.000004588102410191196 -0.0000012347150684638116 -0.0000012311380706078418 -0.0000012195777673119604
          -6.222249345131625e-7 -8.99156284265206e-7 -6.19979715494078e-7 -8.962012194070249e-7 -6.132116252493442e-7 -8.86770156061238e-7
          -0.000004210759465503041 -0.000004208365915621483 -0.000004202141870601778 -3.81535924758175e-7 -3.806048145235284e-7 -3.7586628802662095e-7
          -0.000010347871446736044 -0.000010352749649383253 -0.0000103672417028918 -2.0825049203380317e-7 -2.0760401020454585e-7 -2.0653642598848673e-7
          -0.0000013557146063125419 -0.0000013523010391386326 -0.0000013411611669226126 -9.093283174282844e-7 -9.072774705046752e-7 -8.991700197320156e-7
          -6.89076378537096e-7 -6.86996674605251e-7 -6.833895641753361e-7 -0.00001199854957978005 -0.000012005160496861653 -0.000012025995989883456
          -0.000012028977543078682 -0.000012035725837400576 -0.000012056680389319295 -0.00001247987026470739 -0.000012485651252796098 -0.000012504263559040843
          -0.00000918961944958517 -0.000007809164438576085 -0.00000919318669010747 -0.000007808860234598917 -0.00000920416515717083 -0.000007808126928800275
          -0.000010382471139861802 -0.000010388649286377677 -0.000010407701605835956 -0.000011338449215083441 -0.000011345802236602323 -0.000011368663282305418
          -0.000012050750603182158 -0.000012057946837556694 -0.000012080429981538364 -0.000012542477959867727 -0.000012548639274558097 -0.000012567795277817594
          -0.000011963331532968922 -0.000011968334105646293 -0.000011983006736529785 -0.000011766511406554219 -0.000011771496026714735 -0.000011786017018534248
          -0.000006940921672052819 -0.000008370303718993985 -0.0000069416932250874005 -0.000008372697642455485 -0.000006944264147682109 -0.000008379679676995074
          -0.000011318548934701713 -0.00001139494457752013 -0.000011322759981372705 -0.00001139950131766946 -0.000011334477269912178 -0.000011412944435265108
          -0.000003818331309423038 -0.000004877457727992844 -0.000003816093281616162 -0.000004875915748884801 -0.0000038092619554317037 -0.000004871035964672866
          -0.0000029118312650017576 -0.0000029092061133365767 -0.0000029014936586698237 -0.000011548990031236198 -0.000011554231363509641 -0.000011569255228919068
          -0.00000583328609014755 -0.000006210870243779888 -0.000005833038641984459 -0.000006211417203406929 -0.000005830320726789771 -0.000006212713652543612
          -0.00001114266889060932 -0.000011147230918455717 -0.000011159383712797773 -0.000010755561821626315 -0.000009762318472589348 -0.000010760569024089041
          -0.000009766506076752778 -0.000010777205626910502 -0.00000977797598513423 -0.0000121934313761927 -0.000012199103668777757 -0.000012216517369420515
          -0.0000021448389273678457 -0.0000021420875031729407 -0.0000021334611170380312 0 -5.023751573253473e-7 0
          -5.007882735096108e-7 0 -4.967610057205093e-7 -0.000001521572526491914 -0.0000015190594707775804 -0.0000015115354339068955
          -0.0000010016212350929866 -9.995434951201409e-7 -9.943811344749226e-7 -0.000012414614920174086 -0.00001241887252514125 -0.000012431511094711261
        </DataArray>
        <DataArray type="Float64" Name="disp_z" format="ascii" RangeMin="-7.691924661745903e-7" RangeMax="0">
          0 0 -5.890302949715083e-8 -5.4278114079787176e-8 -1.1384809132460391e-7 -1.1375414873484077e-7
          0 0 -5.82409775111772e-8 -6.668716460711779e-8 -1.1742334009825887e-7 -1.2533734270761503e-7
          0 0 -5.772026047609277e-8 -6.643023158182156e-8 -1.194184430475076e-7 -1.1986034263841912e-7
          0 0 -5.7811837953229226e-8 -5.406667583039239e-8 -1.145999099537889e-7 -1.1035843386857871e-7
          0 0 -5.691052253201578e-8 -5.717553321480577e-8 -1.1412223437682641e-7 -1.1441056941988963e-7
          0 0 -5.6560145267426574e-8 -5.682390547979647e-8 -1.1316133906432818e-7 -1.1339021157986859e-7
          0 0 -5.5469352587851485e-8 -5.431284681422172e-8 -1.1130101957622998e-7 -1.0943735247375033e-7
          0 0 -6.03724594700163e-8 -5.693547357316269e-8 -1.2335574773551417e-7 -1.161268758106313e-7
          0 -5.836086459774562e-8 -1.1716942137452063e-7 0 -5.8643124800026335e-8 -1.1691672899140886e-7
          0 -5.854537429747206e-8 -1.1623258184096253e-7 0 -5.775658808955267e-8 -1.156536167494001e-7
          0 -5.7346841187845064e-8 -1.1481542052049144e-7 0 -5.6295349659007625e-8 -1.1255446424252125e-7
          0 -5.8800976113282356e-8 -1.1853521514307027e-7 0 -6.729952012556315e-8 -1.3637127521551114e-7
          0 -5.874840346122757e-8 -1.1732587570118425e-7 0 -5.861042088993375e-8 -1.1727452796932596e-7
          0 -5.8349660517218256e-8 -1.1688452738661952e-7 0 -5.801560303718699e-8 -1.1595833278026987e-7
          0 -5.715520798665198e-8 -1.1456575987024826e-7 0 -5.749131039778636e-8 -1.1522008902423136e-7
          0 -6.556622468120269e-8 -1.3231368660132764e-7 0 -7.996443324538097e-8 -1.6100191510124435e-7
          0 -5.883901842262187e-8 -1.1772963197129037e-7 0 -5.87121071059814e-8 -1.1741994171923717e-7
          0 -5.8565199867128985e-8 -1.170361043678287e-7 0 -5.823502177159791e-8 -1.1655318372033752e-7
          0 -5.686636882806297e-8 -1.1414013114919622e-7 0 -6.111617870073424e-8 -1.2253662071184718e-7
          0 -7.58703169174811e-8 -1.5304179474267838e-7 0 -9.275585581382283e-8 -1.8636403131781446e-7
          0 -5.9053683867562805e-8 -1.1810626626034333e-7 0 -5.894083277406077e-8 -1.1787878747999e-7
          0 -5.878636780859022e-8 -1.1754359961918439e-7 0 -5.810663263611338e-8 -1.1644341744021628e-7
          0 -5.8271547755334496e-8 -1.1729197820210777e-7 0 -6.855000106233335e-8 -1.3769403551823576e-7
          0 -8.899982650968391e-8 -1.7930656966791063e-7 0 -1.0907415018618605e-7 -2.191025413900045e-7
          0 -5.926242579179779e-8 -1.185455665057668e-7 0 -5.9219525334904024e-8 -1.1834441537026067e-7
          0 -5.902647133651944e-8 -1.1828494142978578e-7 0 -5.7903592610467236e-8 -1.1591785595731101e-7
          0 -6.24063335799574e-8 -1.2570919649913351e-7 0 -8.029989644580027e-8 -1.6128164655066317e-7
          0 -1.0570283471171047e-7 -2.1266345883878343e-7 0 -1.2983790567798317e-7 -2.6061950073078413e-7
          0 -5.955758106255949e-8 -1.1913280672117597e-7 0 -5.953394936303888e-8 -1.1903146008661546e-7
          0 -5.9454008113548803e-8 -1.1896043860055756e-7 0 -5.8868186329879656e-8 -1.1777992324235187e-7
          0 -5.971708012458917e-8 -1.202015166481882e-7 0 -7.141736117593767e-8 -1.4418602548480947e-7
          0 -9.625735239381919e-8 -1.9290857143781386e-7 0 -1.2597968110870255e-7 -2.5314878159242393e-7
          0 -1.5332107086004654e-7 -3.0738888362001914e-7 0 -5.979947771892287e-8 -1.195967589309945e-7
          0 -5.9760479556384e-8 -1.195085772833287e-7 0 -5.970294066240213e-8 -1.193481086517822e-7
          0 -5.84187371651236e-8 -1.1798972101411413e-7 0 -6.49432139775911e-8 -1.3087121067318155e-7
          0 -8.571350144867773e-8 -1.7270138129732358e-7 0 -1.1649604211047936e-7 -2.3314310102236049e-7
          0 -1.4965715907204232e-7 -3.002917119932833e-7 0 -1.7818966108674162e-7 -3.56852246263131e-7
          0 -6.007580084336445e-8 -1.2010701960627907e-7 0 -6.003236477014029e-8 -1.201016030798517e-7
          0 -5.9159859016862057e-8 -1.185402141622399e-7 0 -6.112678185006734e-8 -1.2309551461128162e-7
          0 -7.574374043547947e-8 -1.5298910489135842e-7 0 -1.0427293166409392e-7 -2.09559748117261e-7
          0 -1.406126542438978e-7 -2.810785632866635e-7 0 -1.7620751325971464e-7 -3.528463637581988e-7
          0 -2.0347038876245264e-7 -4.0722816651559943e-7 0 -6.032210166911738e-8 -1.2058659300283436e-7
          0 -6.012032962701151e-8 -1.2039057820156413e-7 0 -5.9204271398557254e-8 -1.1898794559039282e-7
          0 -6.721104962534151e-8 -1.3599703516230434e-7 0 -9.19470499326889e-8 -1.851762962134489e-7
          0 -1.2711617063855235e-7 -2.549614613517251e-7 0 -1.6715957584631174e-7 -3.3387436492020507e-7
          0 -2.0363984416722527e-7 -4.0750788789882667e-7 0 -2.2808794336999111e-7 -4.555023129559868e-7
          0 -6.060819205461788e-8 -1.2127688177030886e-7 0 -5.953281572335175e-8 -1.1933658806266852e-7
          0 -6.222762762845657e-8 -1.2546627083363595e-7 0 -7.982781183782851e-8 -1.6124309871087012e-7
          0 -1.1269691292811648e-7 -2.2649128841757292e-7 0 -1.5358738482138487e-7 -3.074818621162662e-7
          0 -1.9475853816273962e-7 -3.889478997740375e-7 0 -2.284180498136894e-7 -4.560566628793413e-7
          0 -2.5424042550206786e-7 -5.078747848063857e-7 0 -6.066713004601241e-8 -1.2147886565424966e-7
          0 -5.976365845317096e-8 -1.203896086919905e-7 0 -6.958720224582961e-8 -1.4071549663018732e-7
          0 -9.793671516288046e-8 -1.9735799071538963e-7 0 -1.381277125307257e-7 -2.7697702931842664e-7
          0 -1.823108394360498e-7 -3.645759764539857e-7 0 -2.2329636271254948e-7 -4.455908382469532e-7
          0 -2.5638464297662605e-7 -5.115938127497489e-7 0 -2.7374339915772194e-7 -5.461829375689832e-7
          0 -6.010782681080249e-8 -1.2051898119975213e-7 0 -6.323457359735659e-8 -1.2762554898858487e-7
          0 -8.351316961701969e-8 -1.688849727296723e-7 0 -1.2132068906688192e-7 -2.438162740402386e-7
          0 -1.6734953400549444e-7 -3.349852291879286e-7 0 -2.1282754265403722e-7 -4.2505570095357925e-7
          0 -2.5136687889762857e-7 -5.013609022774587e-7 0 -2.7748544728044174e-7 -5.530666373373453e-7
          0 -2.902880631152401e-7 -5.78976291473579e-7 0 -6.048768051956561e-8 -1.2187550427384138e-7
          0 -7.150887150011773e-8 -1.447990455451423e-7 0 -1.0401277848547062e-7 -2.0975581647634238e-7
          0 -1.4998678020718717e-7 -3.007184476965287e-7 0 -1.9937143000548543e-7 -3.9845638497997164e-7
          0 -2.434313394382438e-7 -4.856734097075489e-7 0 -2.7606506695426335e-7 -5.503171339239385e-7
          0 -2.9481201419341895e-7 -5.876297199559051e-7 0 -2.9851276759427754e-7 -5.949909117071546e-7
          0 -8.727909549386503e-8 -1.767377617498055e-7 0 -1.3092095947664764e-7 -2.6316951329804334e-7
          0 -1.8301006973090498e-7 -3.661649216856167e-7 0 -2.3259516792792718e-7 -4.642556716827818e-7
          0 -2.7207799470998107e-7 -5.423621384569187e-7 0 -2.9660165713289653e-7 -5.910074488054181e-7
          0 -3.0439077736549276e-7 -6.067181508533529e-7 0 -2.9904307178606355e-7 -5.967943531478525e-7
          0 -1.1101819669795669e-7 -2.2411694334120152e-7 0 -1.6417547600942902e-7 -3.290588006129763e-7
          0 -2.1901565464238597e-7 -4.374187531958401e-7 0 -2.6499512709449686e-7 -5.283719145672607e-7
          0 -2.963079408495177e-7 -5.903961980833936e-7 0 -3.108346043755911e-7 -6.19303064596047e-7
          0 -3.0842843187406626e-7 -6.148123949898308e-7 0 -2.9109766058262324e-7 -5.811864188254008e-7
          0 -1.4220571373434558e-7 -2.8619922693325186e-7 0 -2.0245077976740193e-7 -4.0476338935141114e-7
          0 -2.5614985995872276e-7 -5.108059788414705e-7 0 -2.946429781203978e-7 -5.870087555460359e-7
          0 -3.145422421245741e-7 -6.265649470452681e-7 0 -3.160736628329889e-7 -6.30257686614033e-7
          0 -3.0459585641302705e-7 -6.075833328715485e-7 0 -2.8924696403229215e-7 -5.762084030246202e-7
          0 -1.808926905055866e-7 -3.6326674622529435e-7 0 -2.435705777714733e-7 -4.859850143797282e-7
          0 -2.9167096989249017e-7 -5.809794073460292e-7 0 -3.193043735914345e-7 -6.35818554589439e-7
          0 -3.259297297301103e-7 -6.492016964063945e-7 0 -3.1402357693319637e-7 -6.267130518075081e-7
          0 -2.917831519283897e-7 -5.820852545076053e-7 0 -2.753748254147798e-7 -5.472836487827964e-7
          0 -2.849369875610384e-7 -5.677046730352156e-7 0 -3.2277215918146497e-7 -6.424688279724825e-7
          0 -3.368228614578241e-7 -6.705400813577839e-7 0 -3.293567381160114e-7 -6.560814138038583e-7
          0 -3.0538581278912555e-7 -6.098575456860024e-7 0 -2.761800137994991e-7 -5.504278674063479e-7
          0 -2.55253431968476e-7 -5.080054618765706e-7 0 -3.232721112916993e-7 -6.434986638466982e-7
          0 -3.4688544600537543e-7 -6.901684280464344e-7 0 -3.4540813144233105e-7 -6.875929056688166e-7
          0 -3.238411941590684e-7 -6.451780563127973e-7 0 -2.888050217007614e-7 -5.768945415769455e-7
          0 -2.503602788868487e-7 -4.984521446259945e-7 0 -2.1765744222790638e-7 -4.339431073334073e-7
          0 -3.5534769333483727e-7 -7.07036319288127e-7 0 -3.6149272139999687e-7 -7.190498067289589e-7
          0 -3.4320355207089303e-7 -6.832262509250162e-7 0 -3.074083966933001e-7 -6.126121005505441e-7
          0 -2.611751228017416e-7 -5.221092313051387e-7 0 -2.1485167720344351e-7 -4.2811275867365355e-7
          0 -3.777199359598011e-7 -7.514899376546839e-7 0 -3.6371698830753226e-7 -7.23454246713822e-7
          0 -3.278396936629256e-7 -6.528990493731494e-7 0 -2.7849708572859977e-7 -5.555597601848661e-7
          0 -2.239340788451145e-7 -4.4841743190816754e-7 0 0 0
          0 -2.532603899198456e-7 -2.8420681829128317e-7 -2.891397145264185e-7 -2.739457056533974e-7 -5.044294769183278e-7
          -5.662539615336483e-7 -5.763710653009816e-7 -5.461685632200952e-7 0 0 0
          0 -2.434596818684875e-7 -2.6258652243714937e-7 -2.360554932407096e-7 -2.1452336174140996e-7 -4.845541944552904e-7
          -5.225424139146019e-7 -4.7134492248328915e-7 -4.286855105914109e-7 0 0 0
          -1.837716964210525e-7 -1.6855775996712945e-7 -2.210966117880161e-7 -3.6967846549918235e-7 -3.3808592072091424e-7 -4.391824928162576e-7
          0 -1.6391881121898004e-7 -3.28988690251749e-7 0 0 0
          0 -2.935482980450818e-7 -2.8491016254069224e-7 -2.9108663397454456e-7 -2.8725945454821203e-7 -5.851871921591507e-7
          -5.685055871441555e-7 -5.792946724491224e-7 -5.719164623629791e-7 0 0 -2.1671618409895023e-7
          -1.8808463282990705e-7 -4.3182421973215047e-7 -3.7676973374140496e-7 0 0 0
          -2.2665752469527337e-7 -1.880248412333387e-7 -1.91674562641601e-7 -4.5352664297445387e-7 -3.7655197079349016e-7 -3.831891900851641e-7
          0 0 -1.5989427643155782e-7 -1.8799122797752728e-7 -3.2133740426046893e-7 -3.750387498779052e-7
          0 0 -2.502796537137008e-7 -2.0137223808568662e-7 -4.982958605151004e-7 -4.0324710763310567e-7
          0 -2.7589961970025285e-7 -5.491772262069211e-7 0 0 -2.454828177716914e-7
          -1.9967427307587774e-7 -4.895332488790657e-7 -3.9976515773739686e-7 0 0 -2.709788533610977e-7
          -2.578595272658485e-7 -5.386792520808541e-7 -5.150517833605497e-7 0 0 -2.7689603787821416e-7
          -2.83096561387058e-7 -5.519893428506198e-7 -5.638615769424382e-7 0 0 -2.537665806886751e-7
          -2.7221965317279546e-7 -5.065493443381726e-7 -5.432213598282658e-7 0 -1.331141110461488e-7 -2.688478643102114e-7
          0 0 -9.763671249509725e-8 -1.107394724275473e-7 -1.9912287877292213e-7 -2.2442750727948206e-7
          0 -2.6772729720952807e-7 -5.32849340709219e-7 0 -8.569301932348446e-8 -1.745617574986195e-7
          0 -2.565833320600065e-7 -5.105921746599842e-7 0 -7.353018670412872e-8 -1.4710820448956664e-7
          0 -1.5958504508744494e-7 -3.192786101582423e-7 0 -1.3232794204957291e-7 -2.6583379954455024e-7
          0 -1.1385399637705556e-7 -2.2604708863903383e-7 0 -1.7644052486220098e-7 -3.537386823858319e-7
          0 -1.745991289866918e-7 -3.488506366533658e-7 0 -1.368548558620337e-7 -2.752575023299775e-7
          0 0 -3.505806791684531e-7 -3.865954430396552e-7 -6.975518378678732e-7 -7.691924661745903e-7
          0 -2.977609930751211e-7 -5.936263513935002e-7 0 -2.382399454843987e-7 -4.762336517286184e-7
          0 -1.8112268865216135e-7 -3.6376252669455905e-7 0 -1.3546817925065232e-7 -2.71528238494439e-7
          0 -1.2880511136669607e-7 -2.6029700501842483e-7 0 -1.353208296226454e-7 -2.7178774873894356e-7
          0 0 -2.894253464116488e-7 -2.604348136948311e-7 -5.769736875072292e-7 -5.1951438232949e-7
          0 0 -1.4664955189693755e-7 -1.4737925999302916e-7 -2.9430914556524395e-7 -2.951077168608281e-7
          0 0 -2.586579676106454e-7 -2.764758421761975e-7 -5.163505428294626e-7 -5.514338291814911e-7
          0 -2.4021632674097085e-7 -4.794764625555674e-7 0 -1.4463338029547558e-7 -2.9034727900398786e-7
          0 0 -2.849193096251935e-7 -2.836162202923682e-7 -5.673211262908848e-7 -5.652800084671052e-7
          0 -1.4416897041408545e-7 -2.893096619141541e-7 0 0 -1.6326030456432356e-7
          -2.135136883409858e-7 -3.2686934313067015e-7 -4.2800662493825195e-7 0 -1.2824866379865998e-7 -2.5779638551673966e-7
          0 -2.1695981531059898e-7 -4.3342602105240477e-7 0 0 -1.0047862807857112e-7
          -1.337656581660621e-7 -2.0362940064098877e-7 -2.6933412809156006e-7 0 -1.930635577656041e-7 -3.861476150170468e-7
          0 -1.7049055997535137e-7 -3.421415483921265e-7 0 -1.0216180349089575e-7 -2.067171465689553e-7
        </DataArray>
      </PointData>
      <CellData>
        <DataArray type="Int32" Name="libmesh_elem_id" format="ascii" RangeMin="776" RangeMax="3207">
          776 777 778 779 780 781
          782 783 784 785 786 787
          788 789 794 795 796 797
          798 799 800 801 802 803
          804 805 806 807 812 813
          814 815 816 817 818 819
          820 821 822 823 824 825
          830 831 832 833 834 835
          836 837 838 839 840 841
          842 843 848 849 850 851
          852 853 854 855 856 857
          858 859 860 861 866 867
          868 869 870 871 872 873
          874 875 876 877 878 879
          884 885 886 887 888 889
          890 891 892 893 894 895
          896 897 900 901 902 903
          904 905 906 907 908 909
          910 911 912 913 914 915
          918 919 920 921 922 923
          924 925 926 927 928 929
          930 931 932 933 936 937
          938 939 940 941 942 943
          944 945 946 947 948 949
          950 951 954 955 956 957
          958 959 960 961 962 963
          964 965 966 967 968 969
          972 973 974 975 976 977
          978 979 980 981 982 983
          984 985 986 987 990 991
          992 993 994 995 996 997
          998 999 1000 1001 1002 1003
          1004 1005 1008 1009 1010 1011
          1012 1013 1014 1015 1016 1017
          1018 1019 1020 1021 1022 1023
          1028 1029 1030 1031 1032 1033
          1034 1035 1036 1037 1038 1039
          1040 1041 1046 1047 1048 1049
          1050 1051 1052 1053 1054 1055
          1056 1057 1058 1059 1064 1065
          1066 1067 1068 1069 1070 1071
          1072 1073 1074 1075 1076 1077
          1082 1083 1084 1085 1086 1087
          1088 1089 1090 1091 1092 1093
          1094 1095 1102 1103 1104 1105
          1106 1107 1108 1109 1110 1111
          1112 1113 1120 1121 1122 1123
          1124 1125 1126 1127 1128 1129
          1130 1131 1138 1139 1140 1141
          1142 1143 1144 1145 1146 1147
          1148 1149 1156 1157 1158 1159
          1160 1161 1162 1163 1164 1165
          1166 1167 1174 1175 1176 1177
          1178 1179 1180 1181 1182 1183
          1374 1375 1376 1377 1378 1379
          1384 1385 1388 1389 1404 1405
          1458 1459 1536 1537 1542 1543
          1624 1625 1648 1649 1658 1659
          1672 1673 1770 1771 1810 1811
          1818 1819 1828 1829 1830 1831
          1866 1867 2074 2075 2078 2079
          2116 2117 2124 2125 2288 2289
          2290 2291 2336 2337 2342 2343
          2348 2349 2352 2353 2356 2357
          2358 2359 2424 2425 2452 2453
          2464 2465 2496 2497 2526 2527
          2530 2531 2532 2533 2554 2555
          2560 2561 2590 2591 2594 2595
          2622 2623 2736 2737 2740 2741
          2762 2763 2768 2769 2794 2795
          2800 2801 2864 2865 2890 2891
          2904 2905 2920 2921 2956 2957
          2986 2987 3018 3019 3036 3037
          3088 3089 3114 3115 3144 3145
          3156 3157 3176 3177 3184 3185
          3190 3191 3206 3207
        </DataArray>
        <DataArray type="Int32" Name="subdomain_id" format="ascii" RangeMin="105" RangeMax="107">
          105 105 105 105 105 105
          105 105 105 105 105 105
          105 105 105 105 105 105
          105 105 105 105 105 105
          105 105 105 105 105 105
          105 105 105 105 105 105
          105 105 105 105 105 105
          105 105 105 105 105 105
          105 105 105 105 105 105
          105 105 105 105 105 105
          105 105 105 105 105 105
          105 105 105 105 105 105
          105 105 105 105 105 105
          105 105 105 105 105 105
          105 105 105 105 105 105
          105 105 105 105 105 105
          105 105 105 105 105 105
          105 105 105 105 105 105
          105 105 105 105 105 105
          105 105 105 105 105 105
          105 105 105 105 105 105
          105 105 105 105 105 105
          105 105 105 105 105 105
          105 105 105 105 105 105
          105 105 105 105 105 105
          105 105 105 105 105 105
          105 105 105 105 105 105
          105 105 105 105 105 105
          105 105 105 105 105 105
          105 105 105 105 105 105
          105 105 105 105 105 105
          105 105 105 105 105 105
          105 105 105 105 105 105
          105 105 105 105 105 105
          105 105 105 105 105 105
          105 105 105 105 105 105
          105 105 105 105 105 105
          105 105 105 105 105 105
          105 105 105 105 105 105
          105 105 105 105 105 105
          105 105 105 105 105 105
          105 105 105 105 105 105
          105 105 105 105 105 105
          105 105 105 105 105 105
          105 105 105 105 105 105
          105 105 105 105 105 105
          105 105 105 105 105 105
          105 105 105 105 105 105
          105 105 105 105 105 105
          105 105 105 105 105 105
          105 105 105 105 105 105
          105 105 105 105 105 105
          105 105 105 105 105 105
          105 105 105 105 105 105
          107 107 107 107 107 107
          107 107 107 107 107 107
          107 107 107 107 107 107
          107 107 107 107 107 107
          107 107 107 107 107 107
          107 107 107 107 107 107
          107 107 107 107 107 107
          107 107 107 107 107 107
          107 107 107 107 107 107
          107 107 107 107 107 107
          107 107 107 107 107 107
          107 107 107 107 107 107
          107 107 107 107 107 107
          107 107 107 107 107 107
          107 107 107 107 107 107
          107 107 107 107 107 107
          107 107 107 107 107 107
          107 107 107 107 107 107
          107 107 107 107 107 107
          107 107 107 107 107 107
          107 107 107 107 107 107
          107 107 107 107
        </DataArray>
        <DataArray type="Int32" Name="processor_id" format="ascii" RangeMin="6" RangeMax="6">
          6 6 6 6 6 6
          6 6 6 6 6 6
          6 6 6 6 6 6
          6 6 6 6 6 6
          6 6 6 6 6 6
          6 6 6 6 6 6
          6 6 6 6 6 6
          6 6 6 6 6 6
          6 6 6 6 6 6
          6 6 6 6 6 6
          6 6 6 6 6 6
          6 6 6 6 6 6
          6 6 6 6 6 6
          6 6 6 6 6 6
          6 6 6 6 6 6
          6 6 6 6 6 6
          6 6 6 6 6 6
          6 6 6 6 6 6
          6 6 6 6 6 6
          6 6 6 6 6 6
          6 6 6 6 6 6
          6 6 6 6 6 6
          6 6 6 6 6 6
          6 6 6 6 6 6
          6 6 6 6 6 6
          6 6 6 6 6 6
          6 6 6 6 6 6
          6 6 6 6 6 6
          6 6 6 6 6 6
          6 6 6 6 6 6
          6 6 6 6 6 6
          6 6 6 6 6 6
          6 6 6 6 6 6
          6 6 6 6 6 6
          6 6 6 6 6 6
          6 6 6 6 6 6
          6 6 6 6 6 6
          6 6 6 6 6 6
          6 6 6 6 6 6
          6 6 6 6 6 6
          6 6 6 6 6 6
          6 6 6 6 6 6
          6 6 6 6 6 6
          6 6 6 6 6 6
          6 6 6 6 6 6
          6 6 6 6 6 6
          6 6 6 6 6 6
          6 6 6 6 6 6
          6 6 6 6 6 6
          6 6 6 6 6 6
          6 6 6 6 6 6
          6 6 6 6 6 6
          6 6 6 6 6 6
          6 6 6 6 6 6
          6 6 6 6 6 6
          6 6 6 6 6 6
          6 6 6 6 6 6
          6 6 6 6 6 6
          6 6 6 6 6 6
          6 6 6 6 6 6
          6 6 6 6 6 6
          6 6 6 6 6 6
          6 6 6 6 6 6
          6 6 6 6 6 6
          6 6 6 6 6 6
          6 6 6 6 6 6
          6 6 6 6 6 6
          6 6 6 6 6 6
          6 6 6 6 6 6
          6 6 6 6 6 6
          6 6 6 6 6 6
          6 6 6 6 6 6
          6 6 6 6 6 6
          6 6 6 6 6 6
          6 6 6 6 6 6
          6 6 6 6
        </DataArray>
      </CellData>
      <Points>
        <DataArray type="Float64" Name="Points" NumberOfComponents="3" format="ascii" RangeMin="0.0018888888888872" RangeMax="0.010555613193541787">
          0.0018888888888873 0.00041379310344749 0 0.0018888888888872 0 0
          0.0018888888888873 0.00041379310344749 0.00015 0.0018888888888872 0 0.00015
          0.0018888888888873 0.00041379310344749 0.0003 0.0018888888888872 0 0.0003
          0.0023333333333313 0.00041379310344749 0 0.0023333333333311 0 0
          0.0023333333333313 0.00041379310344749 0.00015 0.0023333333333311 0 0.00015
          0.0023333333333313 0.00041379310344749 0.0003 0.0023333333333311 0 0.0003
          0.0027777777777734 0.00041379310344749 0 0.0027777777777731 0 0
          0.0027777777777734 0.00041379310344749 0.00015 0.0027777777777731 0 0.00015
          0.0027777777777734 0.00041379310344749 0.0003 0.0027777777777731 0 0.0003
          0.003222222222218 0.00041379310344749 0 0.0032222222222177 0 0
          0.003222222222218 0.00041379310344749 0.00015 0.0032222222222177 0 0.00015
          0.003222222222218 0.00041379310344749 0.0003 0.0032222222222177 0 0.0003
          0.0036666666666636 0.00041379310344749 0 0.0036666666666634 0 0
          0.0036666666666636 0.00041379310344749 0.00015 0.0036666666666634 0 0.00015
          0.0036666666666636 0.00041379310344749 0.0003 0.0036666666666634 0 0.0003
          0.0041111111111091 0.00041379310344749 0 0.004111111111109 0 0
          0.0041111111111091 0.00041379310344749 0.00015 0.004111111111109 0 0.00015
          0.0041111111111091 0.00041379310344749 0.0003 0.004111111111109 0 0.0003
          0.0045555555555554 0.00041379310344749 0 0.0045555555555553 0 0
          0.0045555555555554 0.00041379310344749 0.00015 0.0045555555555553 0 0.00015
          0.0045555555555554 0.00041379310344749 0.0003 0.0045555555555553 0 0.0003
          0.005 0.00041379310344749 0 0.005 0 0
          0.005 0.00041379310344749 0.00015 0.005 0 0.00015
          0.005 0.00041379310344749 0.0003 0.005 0 0.0003
          0.0018888888888875 0.00082758620689497 0 0.0018888888888875 0.00082758620689497 0.00015
          0.0018888888888875 0.00082758620689497 0.0003 0.0023333333333315 0.00082758620689497 0
          0.0023333333333315 0.00082758620689497 0.00015 0.0023333333333315 0.00082758620689497 0.0003
          0.0027777777777737 0.00082758620689497 0 0.0027777777777737 0.00082758620689497 0.00015
          0.0027777777777737 0.00082758620689497 0.0003 0.0032222222222183 0.00082758620689497 0
          0.0032222222222183 0.00082758620689497 0.00015 0.0032222222222183 0.00082758620689497 0.0003
          0.0036666666666638 0.00082758620689497 0 0.0036666666666638 0.00082758620689497 0.00015
          0.0036666666666638 0.00082758620689497 0.0003 0.0041111111111093 0.00082758620689497 0
          0.0041111111111093 0.00082758620689497 0.00015 0.0041111111111093 0.00082758620689497 0.0003
          0.0045555555555554 0.00082758620689497 0 0.0045555555555554 0.00082758620689497 0.00015
          0.0045555555555554 0.00082758620689497 0.0003 0.005 0.00082758620689497 0
          0.005 0.00082758620689497 0.00015 0.005 0.00082758620689497 0.0003
          0.0018888888888876 0.0012413793103426 0 0.0018888888888876 0.0012413793103426 0.00015
          0.0018888888888876 0.0012413793103426 0.0003 0.0023333333333317 0.0012413793103426 0
          0.0023333333333317 0.0012413793103426 0.00015 0.0023333333333317 0.0012413793103426 0.0003
          0.002777777777774 0.0012413793103426 0 0.002777777777774 0.0012413793103426 0.00015
          0.002777777777774 0.0012413793103426 0.0003 0.0032222222222186 0.0012413793103426 0
          0.0032222222222186 0.0012413793103426 0.00015 0.0032222222222186 0.0012413793103426 0.0003
          0.003666666666664 0.0012413793103426 0 0.003666666666664 0.0012413793103426 0.00015
          0.003666666666664 0.0012413793103426 0.0003 0.0041111111111095 0.0012413793103426 0
          0.0041111111111095 0.0012413793103426 0.00015 0.0041111111111095 0.0012413793103426 0.0003
          0.0045555555555554 0.0012413793103426 0 0.0045555555555554 0.0012413793103426 0.00015
          0.0045555555555554 0.0012413793103426 0.0003 0.005 0.0012413793103426 0
          0.005 0.0012413793103426 0.00015 0.005 0.0012413793103426 0.0003
          0.0018888888888877 0.0016551724137901 0 0.0018888888888877 0.0016551724137901 0.00015
          0.0018888888888877 0.0016551724137901 0.0003 0.0023333333333319 0.0016551724137901 0
          0.0023333333333319 0.0016551724137901 0.00015 0.0023333333333319 0.0016551724137901 0.0003
          0.0027777777777743 0.0016551724137901 0 0.0027777777777743 0.0016551724137901 0.00015
          0.0027777777777743 0.0016551724137901 0.0003 0.0032222222222189 0.0016551724137901 0
          0.0032222222222189 0.0016551724137901 0.00015 0.0032222222222189 0.0016551724137901 0.0003
          0.0036666666666642 0.0016551724137901 0 0.0036666666666642 0.0016551724137901 0.00015
          0.0036666666666642 0.0016551724137901 0.0003 0.0041111111111096 0.0016551724137901 0
          0.0041111111111096 0.0016551724137901 0.00015 0.0041111111111096 0.0016551724137901 0.0003
          0.0045555555555555 0.0016551724137901 0 0.0045555555555555 0.0016551724137901 0.00015
          0.0045555555555555 0.0016551724137901 0.0003 0.005 0.0016551724137901 0
          0.005 0.0016551724137901 0.00015 0.005 0.0016551724137901 0.0003
          0.0018888888888879 0.0020689655172371 0 0.0018888888888879 0.0020689655172371 0.00015
          0.0018888888888879 0.0020689655172371 0.0003 0.002333333333332 0.0020689655172371 0
          0.002333333333332 0.0020689655172371 0.00015 0.002333333333332 0.0020689655172371 0.0003
          0.0027777777777746 0.0020689655172371 0 0.0027777777777746 0.0020689655172371 0.00015
          0.0027777777777746 0.0020689655172371 0.0003 0.0032222222222192 0.0020689655172371 0
          0.0032222222222192 0.0020689655172371 0.00015 0.0032222222222192 0.0020689655172371 0.0003
          0.0036666666666643 0.0020689655172371 0 0.0036666666666643 0.0020689655172371 0.00015
          0.0036666666666643 0.0020689655172371 0.0003 0.0041111111111098 0.0020689655172371 0
          0.0041111111111098 0.0020689655172371 0.00015 0.0041111111111098 0.0020689655172371 0.0003
          0.0045555555555555 0.0020689655172371 0 0.0045555555555555 0.0020689655172371 0.00015
          0.0045555555555555 0.0020689655172371 0.0003 0.005 0.0020689655172371 0
          0.005 0.0020689655172371 0.00015 0.005 0.0020689655172371 0.0003
          0.001888888888888 0.0024827586206843 0 0.001888888888888 0.0024827586206843 0.00015
          0.001888888888888 0.0024827586206843 0.0003 0.0023333333333322 0.0024827586206843 0
          0.0023333333333322 0.0024827586206843 0.00015 0.0023333333333322 0.0024827586206843 0.0003
          0.0027777777777749 0.0024827586206843 0 0.0027777777777749 0.0024827586206843 0.00015
          0.0027777777777749 0.0024827586206843 0.0003 0.0032222222222196 0.0024827586206843 0
          0.0032222222222196 0.0024827586206843 0.00015 0.0032222222222196 0.0024827586206843 0.0003
          0.0036666666666645 0.0024827586206843 0 0.0036666666666645 0.0024827586206843 0.00015
          0.0036666666666645 0.0024827586206843 0.0003 0.0041111111111099 0.0024827586206843 0
          0.0041111111111099 0.0024827586206843 0.00015 0.0041111111111099 0.0024827586206843 0.0003
          0.0045555555555555 0.0024827586206843 0 0.0045555555555555 0.0024827586206843 0.00015
          0.0045555555555555 0.0024827586206843 0.0003 0.005 0.0024827586206843 0
          0.005 0.0024827586206843 0.00015 0.005 0.0024827586206843 0.0003
          0.0014444444444442 0.0028965517241314 0 0.0014444444444442 0.0028965517241314 0.00015
          0.0014444444444442 0.0028965517241314 0.0003 0.0018888888888881 0.0028965517241314 0
          0.0018888888888881 0.0028965517241314 0.00015 0.0018888888888881 0.0028965517241314 0.0003
          0.0023333333333324 0.0028965517241314 0 0.0023333333333324 0.0028965517241314 0.00015
          0.0023333333333324 0.0028965517241314 0.0003 0.0027777777777753 0.0028965517241314 0
          0.0027777777777753 0.0028965517241314 0.00015 0.0027777777777753 0.0028965517241314 0.0003
          0.0032222222222199 0.0028965517241314 0 0.0032222222222199 0.0028965517241314 0.00015
          0.0032222222222199 0.0028965517241314 0.0003 0.0036666666666647 0.0028965517241314 0
          0.0036666666666647 0.0028965517241314 0.00015 0.0036666666666647 0.0028965517241314 0.0003
          0.0041111111111101 0.0028965517241314 0 0.0041111111111101 0.0028965517241314 0.00015
          0.0041111111111101 0.0028965517241314 0.0003 0.0045555555555556 0.0028965517241314 0
          0.0045555555555556 0.0028965517241314 0.00015 0.0045555555555556 0.0028965517241314 0.0003
          0.005 0.0028965517241314 0 0.005 0.0028965517241314 0.00015
          0.005 0.0028965517241314 0.0003 0.0014444444444442 0.0033103448275785 0
          0.0014444444444442 0.0033103448275785 0.00015 0.0014444444444442 0.0033103448275785 0.0003
          0.0018888888888882 0.0033103448275785 0 0.0018888888888882 0.0033103448275785 0.00015
          0.0018888888888882 0.0033103448275785 0.0003 0.0023333333333326 0.0033103448275785 0
          0.0023333333333326 0.0033103448275785 0.00015 0.0023333333333326 0.0033103448275785 0.0003
          0.0027777777777756 0.0033103448275785 0 0.0027777777777756 0.0033103448275785 0.00015
          0.0027777777777756 0.0033103448275785 0.0003 0.0032222222222202 0.0033103448275785 0
          0.0032222222222202 0.0033103448275785 0.00015 0.0032222222222202 0.0033103448275785 0.0003
          0.0036666666666649 0.0033103448275785 0 0.0036666666666649 0.0033103448275785 0.00015
          0.0036666666666649 0.0033103448275785 0.0003 0.0041111111111102 0.0033103448275785 0
          0.0041111111111102 0.0033103448275785 0.00015 0.0041111111111102 0.0033103448275785 0.0003
          0.0045555555555556 0.0033103448275785 0 0.0045555555555556 0.0033103448275785 0.00015
          0.0045555555555556 0.0033103448275785 0.0003 0.005 0.0033103448275785 0
          0.005 0.0033103448275785 0.00015 0.005 0.0033103448275785 0.0003
          0.0014444444444443 0.0037241379310256 0 0.0014444444444443 0.0037241379310256 0.00015
          0.0014444444444443 0.0037241379310256 0.0003 0.0018888888888884 0.0037241379310256 0
          0.0018888888888884 0.0037241379310256 0.00015 0.0018888888888884 0.0037241379310256 0.0003
          0.0023333333333328 0.0037241379310256 0 0.0023333333333328 0.0037241379310256 0.00015
          0.0023333333333328 0.0037241379310256 0.0003 0.0027777777777759 0.0037241379310256 0
          0.0027777777777759 0.0037241379310256 0.00015 0.0027777777777759 0.0037241379310256 0.0003
          0.0032222222222205 0.0037241379310256 0 0.0032222222222205 0.0037241379310256 0.00015
          0.0032222222222205 0.0037241379310256 0.0003 0.003666666666665 0.0037241379310256 0
          0.003666666666665 0.0037241379310256 0.00015 0.003666666666665 0.0037241379310256 0.0003
          0.0041111111111104 0.0037241379310256 0 0.0041111111111104 0.0037241379310256 0.00015
          0.0041111111111104 0.0037241379310256 0.0003 0.0045555555555556 0.0037241379310256 0
          0.0045555555555556 0.0037241379310256 0.00015 0.0045555555555556 0.0037241379310256 0.0003
          0.005 0.0037241379310256 0 0.005 0.0037241379310256 0.00015
          0.005 0.0037241379310256 0.0003 0.0014444444444444 0.0041379310344727 0
          0.0014444444444444 0.0041379310344727 0.00015 0.0014444444444444 0.0041379310344727 0.0003
          0.0018888888888885 0.0041379310344727 0 0.0018888888888885 0.0041379310344727 0.00015
          0.0018888888888885 0.0041379310344727 0.0003 0.002333333333333 0.0041379310344727 0
          0.002333333333333 0.0041379310344727 0.00015 0.002333333333333 0.0041379310344727 0.0003
          0.0027777777777762 0.0041379310344727 0 0.0027777777777762 0.0041379310344727 0.00015
          0.0027777777777762 0.0041379310344727 0.0003 0.0032222222222208 0.0041379310344727 0
          0.0032222222222208 0.0041379310344727 0.00015 0.0032222222222208 0.0041379310344727 0.0003
          0.0036666666666652 0.0041379310344727 0 0.0036666666666652 0.0041379310344727 0.00015
          0.0036666666666652 0.0041379310344727 0.0003 0.0041111111111105 0.0041379310344727 0
          0.0041111111111105 0.0041379310344727 0.00015 0.0041111111111105 0.0041379310344727 0.0003
          0.0045555555555557 0.0041379310344727 0 0.0045555555555557 0.0041379310344727 0.00015
          0.0045555555555557 0.0041379310344727 0.0003 0.005 0.0041379310344727 0
          0.005 0.0041379310344727 0.00015 0.005 0.0041379310344727 0.0003
          0.0014444444444444 0.0045517241379199 0 0.0014444444444444 0.0045517241379199 0.00015
          0.0014444444444444 0.0045517241379199 0.0003 0.0018888888888886 0.0045517241379199 0
          0.0018888888888886 0.0045517241379199 0.00015 0.0018888888888886 0.0045517241379199 0.0003
          0.0023333333333331 0.0045517241379199 0 0.0023333333333331 0.0045517241379199 0.00015
          0.0023333333333331 0.0045517241379199 0.0003 0.0027777777777765 0.0045517241379199 0
          0.0027777777777765 0.0045517241379199 0.00015 0.0027777777777765 0.0045517241379199 0.0003
          0.0032222222222211 0.0045517241379199 0 0.0032222222222211 0.0045517241379199 0.00015
          0.0032222222222211 0.0045517241379199 0.0003 0.0036666666666654 0.0045517241379199 0
          0.0036666666666654 0.0045517241379199 0.00015 0.0036666666666654 0.0045517241379199 0.0003
          0.0041111111111107 0.0045517241379199 0 0.0041111111111107 0.0045517241379199 0.00015
          0.0041111111111107 0.0045517241379199 0.0003 0.0045555555555557 0.0045517241379199 0
          0.0045555555555557 0.0045517241379199 0.00015 0.0045555555555557 0.0045517241379199 0.0003
          0.005 0.0045517241379199 0 0.005 0.0045517241379199 0.00015
          0.005 0.0045517241379199 0.0003 0.0014444444444445 0.0049655172413669 0
          0.0014444444444445 0.0049655172413669 0.00015 0.0014444444444445 0.0049655172413669 0.0003
          0.0018888888888888 0.0049655172413669 0 0.0018888888888888 0.0049655172413669 0.00015
          0.0018888888888888 0.0049655172413669 0.0003 0.0023333333333333 0.0049655172413669 0
          0.0023333333333333 0.0049655172413669 0.00015 0.0023333333333333 0.0049655172413669 0.0003
          0.0027777777777768 0.0049655172413669 0 0.0027777777777768 0.0049655172413669 0.00015
          0.0027777777777768 0.0049655172413669 0.0003 0.0032222222222214 0.0049655172413669 0
          0.0032222222222214 0.0049655172413669 0.00015 0.0032222222222214 0.0049655172413669 0.0003
          0.0036666666666656 0.0049655172413669 0 0.0036666666666656 0.0049655172413669 0.00015
          0.0036666666666656 0.0049655172413669 0.0003 0.0041111111111108 0.0049655172413669 0
          0.0041111111111108 0.0049655172413669 0.00015 0.0041111111111108 0.0049655172413669 0.0003
          0.0045555555555557 0.0049655172413669 0 0.0045555555555557 0.0049655172413669 0.00015
          0.0045555555555557 0.0049655172413669 0.0003 0.005 0.0049655172413669 0
          0.005 0.0049655172413669 0.00015 0.005 0.0049655172413669 0.0003
          0.0014444444444445 0.0053793103448139 0 0.0014444444444445 0.0053793103448139 0.00015
          0.0014444444444445 0.0053793103448139 0.0003 0.0018888888888889 0.0053793103448139 0
          0.0018888888888889 0.0053793103448139 0.00015 0.0018888888888889 0.0053793103448139 0.0003
          0.0023333333333335 0.0053793103448139 0 0.0023333333333335 0.0053793103448139 0.00015
          0.0023333333333335 0.0053793103448139 0.0003 0.0027777777777771 0.0053793103448139 0
          0.0027777777777771 0.0053793103448139 0.00015 0.0027777777777771 0.0053793103448139 0.0003
          0.0032222222222217 0.0053793103448139 0 0.0032222222222217 0.0053793103448139 0.00015
          0.0032222222222217 0.0053793103448139 0.0003 0.0036666666666658 0.0053793103448139 0
          0.0036666666666658 0.0053793103448139 0.00015 0.0036666666666658 0.0053793103448139 0.0003
          0.004111111111111 0.0053793103448139 0 0.004111111111111 0.0053793103448139 0.00015
          0.004111111111111 0.0053793103448139 0.0003 0.0045555555555558 0.0053793103448139 0
          0.0045555555555558 0.0053793103448139 0.00015 0.0045555555555558 0.0053793103448139 0.0003
          0.005 0.0053793103448139 0 0.005 0.0053793103448139 0.00015
          0.005 0.0053793103448139 0.0003 0.0014444444444446 0.0057931034482612 0
          0.0014444444444446 0.0057931034482612 0.00015 0.0014444444444446 0.0057931034482612 0.0003
          0.001888888888889 0.0057931034482612 0 0.001888888888889 0.0057931034482612 0.00015
          0.001888888888889 0.0057931034482612 0.0003 0.0023333333333337 0.0057931034482612 0
          0.0023333333333337 0.0057931034482612 0.00015 0.0023333333333337 0.0057931034482612 0.0003
          0.0027777777777774 0.0057931034482612 0 0.0027777777777774 0.0057931034482612 0.00015
          0.0027777777777774 0.0057931034482612 0.0003 0.003222222222222 0.0057931034482612 0
          0.003222222222222 0.0057931034482612 0.00015 0.003222222222222 0.0057931034482612 0.0003
          0.0036666666666659 0.0057931034482612 0 0.0036666666666659 0.0057931034482612 0.00015
          0.0036666666666659 0.0057931034482612 0.0003 0.0041111111111112 0.0057931034482612 0
          0.0041111111111112 0.0057931034482612 0.00015 0.0041111111111112 0.0057931034482612 0.0003
          0.0045555555555558 0.0057931034482612 0 0.0045555555555558 0.0057931034482612 0.00015
          0.0045555555555558 0.0057931034482612 0.0003 0.005 0.0057931034482612 0
          0.005 0.0057931034482612 0.00015 0.005 0.0057931034482612 0.0003
          0.0018888888888891 0.0062068965517097 0 0.0018888888888891 0.0062068965517097 0.00015
          0.0018888888888891 0.0062068965517097 0.0003 0.0023333333333339 0.0062068965517097 0
          0.0023333333333339 0.0062068965517097 0.00015 0.0023333333333339 0.0062068965517097 0.0003
          0.0027777777777778 0.0062068965517097 0 0.0027777777777778 0.0062068965517097 0.00015
          0.0027777777777778 0.0062068965517097 0.0003 0.0032222222222224 0.0062068965517097 0
          0.0032222222222224 0.0062068965517097 0.00015 0.0032222222222224 0.0062068965517097 0.0003
          0.0036666666666661 0.0062068965517097 0 0.0036666666666661 0.0062068965517097 0.00015
          0.0036666666666661 0.0062068965517097 0.0003 0.0041111111111113 0.0062068965517097 0
          0.0041111111111113 0.0062068965517097 0.00015 0.0041111111111113 0.0062068965517097 0.0003
          0.0045555555555558 0.0062068965517097 0 0.0045555555555558 0.0062068965517097 0.00015
          0.0045555555555558 0.0062068965517097 0.0003 0.005 0.0062068965517097 0
          0.005 0.0062068965517097 0.00015 0.005 0.0062068965517097 0.0003
          0.0018888888888893 0.0066206896551586 0 0.0018888888888893 0.0066206896551586 0.00015
          0.0018888888888893 0.0066206896551586 0.0003 0.002333333333334 0.0066206896551586 0
          0.002333333333334 0.0066206896551586 0.00015 0.002333333333334 0.0066206896551586 0.0003
          0.0027777777777781 0.0066206896551586 0 0.0027777777777781 0.0066206896551586 0.00015
          0.0027777777777781 0.0066206896551586 0.0003 0.0032222222222227 0.0066206896551586 0
          0.0032222222222227 0.0066206896551586 0.00015 0.0032222222222227 0.0066206896551586 0.0003
          0.0036666666666663 0.0066206896551586 0 0.0036666666666663 0.0066206896551586 0.00015
          0.0036666666666663 0.0066206896551586 0.0003 0.0041111111111115 0.0066206896551586 0
          0.0041111111111115 0.0066206896551586 0.00015 0.0041111111111115 0.0066206896551586 0.0003
          0.0045555555555559 0.0066206896551586 0 0.0045555555555559 0.0066206896551586 0.00015
          0.0045555555555559 0.0066206896551586 0.0003 0.005 0.0066206896551586 0
          0.005 0.0066206896551586 0.00015 0.005 0.0066206896551586 0.0003
          0.0018888888888894 0.0070344827586082 0 0.0018888888888894 0.0070344827586082 0.00015
          0.0018888888888894 0.0070344827586082 0.0003 0.0023333333333342 0.0070344827586082 0
          0.0023333333333342 0.0070344827586082 0.00015 0.0023333333333342 0.0070344827586082 0.0003
          0.0027777777777784 0.0070344827586082 0 0.0027777777777784 0.0070344827586082 0.00015
          0.0027777777777784 0.0070344827586082 0.0003 0.003222222222223 0.0070344827586082 0
          0.003222222222223 0.0070344827586082 0.00015 0.003222222222223 0.0070344827586082 0.0003
          0.0036666666666665 0.0070344827586082 0 0.0036666666666665 0.0070344827586082 0.00015
          0.0036666666666665 0.0070344827586082 0.0003 0.0041111111111116 0.0070344827586082 0
          0.0041111111111116 0.0070344827586082 0.00015 0.0041111111111116 0.0070344827586082 0.0003
          0.0045555555555559 0.0070344827586082 0 0.0045555555555559 0.0070344827586082 0.00015
          0.0045555555555559 0.0070344827586082 0.0003 0.005 0.0070344827586082 0
          0.005 0.0070344827586082 0.00015 0.005 0.0070344827586082 0.0003
          0.0018888888888895 0.0074482758620575 0 0.0018888888888895 0.0074482758620575 0.00015
          0.0018888888888895 0.0074482758620575 0.0003 0.0023333333333344 0.0074482758620575 0
          0.0023333333333344 0.0074482758620575 0.00015 0.0023333333333344 0.0074482758620575 0.0003
          0.0027777777777787 0.0074482758620575 0 0.0027777777777787 0.0074482758620575 0.00015
          0.0027777777777787 0.0074482758620575 0.0003 0.0032222222222233 0.0074482758620575 0
          0.0032222222222233 0.0074482758620575 0.00015 0.0032222222222233 0.0074482758620575 0.0003
          0.0036666666666666 0.0074482758620576 0 0.0036666666666666 0.0074482758620576 0.00015
          0.0036666666666666 0.0074482758620576 0.0003 0.0041111111111118 0.0074482758620576 0
          0.0041111111111118 0.0074482758620576 0.00015 0.0041111111111118 0.0074482758620576 0.0003
          0.0045555555555559 0.0074482758620576 0 0.0045555555555559 0.0074482758620576 0.00015
          0.0045555555555559 0.0074482758620576 0.0003 0.005 0.0074482758620575 0
          0.005 0.0074482758620575 0.00015 0.005 0.0074482758620575 0.0003
          0.0023333333333346 0.0078620689655065 0 0.0023333333333346 0.0078620689655065 0.00015
          0.0023333333333346 0.0078620689655065 0.0003 0.002777777777779 0.0078620689655065 0
          0.002777777777779 0.0078620689655065 0.00015 0.002777777777779 0.0078620689655065 0.0003
          0.0032222222222236 0.0078620689655065 0 0.0032222222222236 0.0078620689655065 0.00015
          0.0032222222222236 0.0078620689655065 0.0003 0.0036666666666668 0.0078620689655065 0
          0.0036666666666668 0.0078620689655065 0.00015 0.0036666666666668 0.0078620689655065 0.0003
          0.0041111111111119 0.0078620689655065 0 0.0041111111111119 0.0078620689655065 0.00015
          0.0041111111111119 0.0078620689655065 0.0003 0.004555555555556 0.0078620689655065 0
          0.004555555555556 0.0078620689655065 0.00015 0.004555555555556 0.0078620689655065 0.0003
          0.005 0.0078620689655065 0 0.005 0.0078620689655065 0.00015
          0.005 0.0078620689655065 0.0003 0.0023333333333348 0.0082758620689564 0
          0.0023333333333348 0.0082758620689564 0.00015 0.0023333333333348 0.0082758620689564 0.0003
          0.0027777777777793 0.0082758620689564 0 0.0027777777777793 0.0082758620689564 0.00015
          0.0027777777777793 0.0082758620689564 0.0003 0.0032222222222239 0.0082758620689564 0
          0.0032222222222239 0.0082758620689564 0.00015 0.0032222222222239 0.0082758620689564 0.0003
          0.003666666666667 0.0082758620689564 0 0.003666666666667 0.0082758620689564 0.00015
          0.003666666666667 0.0082758620689564 0.0003 0.0041111111111121 0.0082758620689564 0
          0.0041111111111121 0.0082758620689564 0.00015 0.0041111111111121 0.0082758620689564 0.0003
          0.004555555555556 0.0082758620689564 0 0.004555555555556 0.0082758620689564 0.00015
          0.004555555555556 0.0082758620689564 0.0003 0.005 0.0082758620689564 0
          0.005 0.0082758620689564 0.00015 0.005 0.0082758620689564 0.0003
          0.002333333333335 0.0086896551724064 0 0.002333333333335 0.0086896551724064 0.00015
          0.002333333333335 0.0086896551724064 0.0003 0.0027777777777796 0.0086896551724064 0
          0.0027777777777796 0.0086896551724064 0.00015 0.0027777777777796 0.0086896551724064 0.0003
          0.0032222222222242 0.0086896551724064 0 0.0032222222222242 0.0086896551724064 0.00015
          0.0032222222222242 0.0086896551724064 0.0003 0.0036666666666672 0.0086896551724064 0
          0.0036666666666672 0.0086896551724064 0.00015 0.0036666666666672 0.0086896551724064 0.0003
          0.0041111111111122 0.0086896551724064 0 0.0041111111111122 0.0086896551724064 0.00015
          0.0041111111111122 0.0086896551724064 0.0003 0.004555555555556 0.0086896551724064 0
          0.004555555555556 0.0086896551724064 0.00015 0.004555555555556 0.0086896551724064 0.0003
          0.0023333333333351 0.0091034482758539 0 0.0023333333333351 0.0091034482758539 0.00015
          0.0023333333333351 0.0091034482758539 0.0003 0.0027777777777799 0.0091034482758539 0
          0.0027777777777799 0.0091034482758539 0.00015 0.0027777777777799 0.0091034482758539 0.0003
          0.0032222222222245 0.0091034482758539 0 0.0032222222222245 0.0091034482758539 0.00015
          0.0032222222222245 0.0091034482758539 0.0003 0.0036666666666673 0.0091034482758539 0
          0.0036666666666673 0.0091034482758539 0.00015 0.0036666666666673 0.0091034482758539 0.0003
          0.0041111111111124 0.0091034482758539 0 0.0041111111111124 0.0091034482758539 0.00015
          0.0041111111111124 0.0091034482758539 0.0003 0.0058597010152523 0.0063127004857001 0
          0.0053951839928307 0.0062556571299739 0 0.0053921082338215 0.005828945826549 0
          0.0057916174309905 0.0058352682535246 0 0.0058597010152523 0.0063127004857001 0.00015
          0.0053951839928307 0.0062556571299739 0.00015 0.0053921082338215 0.005828945826549 0.00015
          0.0057916174309905 0.0058352682535246 0.00015 0.0058597010152523 0.0063127004857001 0.0003
          0.0053951839928307 0.0062556571299739 0.0003 0.0053921082338215 0.005828945826549 0.0003
          0.0057916174309905 0.0058352682535246 0.0003 0.0057558905586118 0.0030553709280972 0
          0.0057130501801562 0.0035159257865852 0 0.005360618756523 0.0035837068269911 0
          0.0053739732009329 0.0031599138809835 0 0.0057558905586118 0.0030553709280972 0.00015
          0.0057130501801562 0.0035159257865852 0.00015 0.005360618756523 0.0035837068269911 0.00015
          0.0053739732009329 0.0031599138809835 0.00015 0.0057558905586118 0.0030553709280972 0.0003
          0.0057130501801562 0.0035159257865852 0.0003 0.005360618756523 0.0035837068269911 0.0003
          0.0053739732009329 0.0031599138809835 0.0003 0.0056439388514995 0.0075162532529611 0
          0.0053753336003136 0.0081134227852172 0 0.0053162760057692 0.0077147827843445 0
          0.0056439388514995 0.0075162532529611 0.00015 0.0053753336003136 0.0081134227852172 0.00015
          0.0053162760057692 0.0077147827843445 0.00015 0.0056439388514995 0.0075162532529611 0.0003
          0.0053753336003136 0.0081134227852172 0.0003 0.0053162760057692 0.0077147827843445 0.0003
          0.0059025575310583 0.0073410103875386 0 0.0059025575310583 0.0073410103875386 0.00015
          0.0059025575310583 0.0073410103875386 0.0003 0.005369078903807 0.0054112957512825 0
          0.0053441966179727 0.0050059769161847 0 0.0056930202847481 0.0049554676612008 0
          0.0057606246390047 0.0053811345728149 0 0.005369078903807 0.0054112957512825 0.00015
          0.0053441966179727 0.0050059769161847 0.00015 0.0056930202847481 0.0049554676612008 0.00015
          0.0057606246390047 0.0053811345728149 0.00015 0.005369078903807 0.0054112957512825 0.0003
          0.0053441966179727 0.0050059769161847 0.0003 0.0056930202847481 0.0049554676612008 0.0003
          0.0057606246390047 0.0053811345728149 0.0003 0.0057438065986578 0.0025718646608386 0
          0.0053684283361675 0.002728434685479 0 0.0057438065986578 0.0025718646608386 0.00015
          0.0053684283361675 0.002728434685479 0.00015 0.0057438065986578 0.0025718646608386 0.0003
          0.0053684283361675 0.002728434685479 0.0003 0.0061712548385041 0.0061513410385421 0
          0.006445117357903 0.0062971891343806 0 0.0062246515840748 0.0066057171706914 0
          0.0061712548385041 0.0061513410385421 0.00015 0.006445117357903 0.0062971891343806 0.00015
          0.0062246515840748 0.0066057171706914 0.00015 0.0061712548385041 0.0061513410385421 0.0003
          0.006445117357903 0.0062971891343806 0.0003 0.0062246515840748 0.0066057171706914 0.0003
          0.0053553835295756 0.0022900157905326 0 0.0057116151882083 0.0021168511926722 0
          0.0053553835295756 0.0022900157905326 0.00015 0.0057116151882083 0.0021168511926722 0.00015
          0.0053553835295756 0.0022900157905326 0.0003 0.0057116151882083 0.0021168511926722 0.0003
          0.0054233068561349 0.007134337670225 0 0.0059254586078826 0.006969673542248 0
          0.0054233068561349 0.007134337670225 0.00015 0.0059254586078826 0.006969673542248 0.00015
          0.0054233068561349 0.007134337670225 0.0003 0.0059254586078826 0.006969673542248 0.0003
          0.0057792643598707 0.0040250905144168 0 0.0057792643598707 0.0040250905144168 0.00015
          0.0057792643598707 0.0040250905144168 0.0003 0.0061880810420103 0.0058441905555885 0
          0.0066005814160285 0.0059502230786403 0 0.0061880810420103 0.0058441905555885 0.00015
          0.0066005814160285 0.0059502230786403 0.00015 0.0061880810420103 0.0058441905555885 0.0003
          0.0066005814160285 0.0059502230786403 0.0003 0.0054017220983371 0.0066575347525889 0
          0.0057115805714605 0.0066548075405697 0 0.0054017220983371 0.0066575347525889 0.00015
          0.0057115805714605 0.0066548075405697 0.00015 0.0054017220983371 0.0066575347525889 0.0003
          0.0057115805714605 0.0066548075405697 0.0003 0.005332609719228 0.0047287620137874 0
          0.0055816175545808 0.004587255111362 0 0.005332609719228 0.0047287620137874 0.00015
          0.0055816175545808 0.004587255111362 0.00015 0.005332609719228 0.0047287620137874 0.0003
          0.0055816175545808 0.004587255111362 0.0003 0.0053693194142364 0.0039518184911864 0
          0.0054474185858658 0.0042751360204936 0 0.0053693194142364 0.0039518184911864 0.00015
          0.0054474185858658 0.0042751360204936 0.00015 0.0053693194142364 0.0039518184911864 0.0003
          0.0054474185858658 0.0042751360204936 0.0003 0.0053395672611724 0.0018614292474742 0
          0.0053395672611724 0.0018614292474742 0.00015 0.0053395672611724 0.0018614292474742 0.0003
          0.0053367365074525 0.0010378216876611 0 0.0053236825500972 0.0014543115259673 0
          0.0053367365074525 0.0010378216876611 0.00015 0.0053236825500972 0.0014543115259673 0.00015
          0.0053367365074525 0.0010378216876611 0.0003 0.0053236825500972 0.0014543115259673 0.0003
          0.0056326688189693 0.0038271453778623 0 0.0056326688189693 0.0038271453778623 0.00015
          0.0056326688189693 0.0038271453778623 0.0003 0.0053236477572007 0.00066751117045644 0
          0.0053236477572007 0.00066751117045644 0.00015 0.0053236477572007 0.00066751117045644 0.0003
          0.0052365987891119 0.0074441888076402 0 0.0052365987891119 0.0074441888076402 0.00015
          0.0052365987891119 0.0074441888076402 0.0003 0.0052651323069134 0.00040272801788152 0
          0.0052651323069134 0.00040272801788152 0.00015 0.0052651323069134 0.00040272801788152 0.0003
          0.005675081773805 0.0016743369040255 0 0.005675081773805 0.0016743369040255 0.00015
          0.005675081773805 0.0016743369040255 0.0003 0.0056481668838523 0.0012062671985027 0
          0.0056481668838523 0.0012062671985027 0.00015 0.0056481668838523 0.0012062671985027 0.0003
          0.0055517738097912 0.00099492145317098 0 0.0055517738097912 0.00099492145317098 0.00015
          0.0055517738097912 0.00099492145317098 0.0003 0.005 0.0086896551724064 0
          0.005 0.0086896551724064 0.00015 0.005 0.0086896551724064 0.0003
          0.0045555555555561 0.0091034482758539 0 0.0045555555555561 0.0091034482758539 0.00015
          0.0045555555555561 0.0091034482758539 0.0003 0.005 0.0091034482758539 0
          0.005 0.0091034482758539 0.00015 0.005 0.0091034482758539 0.0003
          0.0027777777777802 0.0095172413793029 0 0.0023333333333353 0.0095172413793029 0
          0.0027777777777802 0.0095172413793029 0.00015 0.0023333333333353 0.0095172413793029 0.00015
          0.0027777777777802 0.0095172413793029 0.0003 0.0023333333333353 0.0095172413793029 0.0003
          0.0032222222222248 0.0095172413793029 0 0.0032222222222248 0.0095172413793029 0.00015
          0.0032222222222248 0.0095172413793029 0.0003 0.0036666666666675 0.0095172413793029 0
          0.0036666666666675 0.0095172413793029 0.00015 0.0036666666666675 0.0095172413793029 0.0003
          0.0041111111111126 0.0095172413793029 0 0.0041111111111126 0.0095172413793029 0.00015
          0.0041111111111126 0.0095172413793029 0.0003 0.0045555555555561 0.0095172413793029 0
          0.0045555555555561 0.0095172413793029 0.00015 0.0045555555555561 0.0095172413793029 0.0003
          0.0058653844060618 0.0079194158644502 0 0.0058653844060618 0.0079194158644502 0.00015
          0.0058653844060618 0.0079194158644502 0.0003 0.0061750164335738 0.0074760206739226 0
          0.0061750164335738 0.0074760206739226 0.00015 0.0061750164335738 0.0074760206739226 0.0003
          0.0060512178389602 0.0047929387822649 0 0.0062389906493372 0.0053128670028646 0
          0.0060512178389602 0.0047929387822649 0.00015 0.0062389906493372 0.0053128670028646 0.00015
          0.0060512178389602 0.0047929387822649 0.0003 0.0062389906493372 0.0053128670028646 0.0003
          0.0068354780286894 0.0065149558629347 0 0.0065694481807909 0.0068273110654121 0
          0.0068354780286894 0.0065149558629347 0.00015 0.0065694481807909 0.0068273110654121 0.00015
          0.0068354780286894 0.0065149558629347 0.0003 0.0065694481807909 0.0068273110654121 0.0003
          0.0061614658010566 0.0029736343202522 0 0.0061372854142827 0.0036106222238676 0
          0.0061614658010566 0.0029736343202522 0.00015 0.0061372854142827 0.0036106222238676 0.00015
          0.0061614658010566 0.0029736343202522 0.0003 0.0061372854142827 0.0036106222238676 0.0003
          0.0061231952422177 0.002444135475079 0 0.0061231952422177 0.002444135475079 0.00015
          0.0061231952422177 0.002444135475079 0.0003 0.0063586074578252 0.0071353312088165 0
          0.0063586074578252 0.0071353312088165 0.00015 0.0063586074578252 0.0071353312088165 0.0003
          0.005927800859391 0.0043689372395662 0 0.0063054236008776 0.0041223407032968 0
          0.005927800859391 0.0043689372395662 0.00015 0.0063054236008776 0.0041223407032968 0.00015
          0.005927800859391 0.0043689372395662 0.0003 0.0063054236008776 0.0041223407032968 0.0003
          0.0070635342364542 0.0061542378287001 0 0.0070635342364542 0.0061542378287001 0.00015
          0.0070635342364542 0.0061542378287001 0.0003 0.0071984303565192 0.0057392272964834 0
          0.0067200519522164 0.0055550541115669 0 0.0071984303565192 0.0057392272964834 0.00015
          0.0067200519522164 0.0055550541115669 0.00015 0.0071984303565192 0.0057392272964834 0.0003
          0.0067200519522164 0.0055550541115669 0.0003 0.0053754057810206 0.0085370600870078 0
          0.0053754057810206 0.0085370600870078 0.00015 0.0053754057810206 0.0085370600870078 0.0003
          0.0060722038988066 0.0019538017587265 0 0.0060722038988066 0.0019538017587265 0.00015
          0.0060722038988066 0.0019538017587265 0.0003 0.0055128205128194 0 0
          0.0057061681768373 0.00065177476244477 0 0.0055128205128194 0 0.00015
          0.0057061681768373 0.00065177476244477 0.00015 0.0055128205128194 0 0.0003
          0.0057061681768373 0.00065177476244477 0.0003 0.0060137569775388 0.0015029488511318 0
          0.0060137569775388 0.0015029488511318 0.00015 0.0060137569775388 0.0015029488511318 0.0003
          0.0059245902968253 0.0010856763727913 0 0.0059245902968253 0.0010856763727913 0.00015
          0.0059245902968253 0.0010856763727913 0.0003 0.0057785311780113 0.0084598603588589 0
          0.0057785311780113 0.0084598603588589 0.00015 0.0057785311780113 0.0084598603588589 0.0003
          <InformationKey name="L2_NORM_RANGE" location="vtkDataArray" length="2">
            <Value index="0">
              0.0018888888889
            </Value>
            <Value index="1">
              0.010555613194
            </Value>
          </InformationKey>
        </DataArray>
      </Points>
      <Cells>
        <DataArray type="Int64" Name="connectivity" format="ascii" RangeMin="0" RangeMax="779">
          6 0 1 7 8 2
          3 9 8 2 3 9
          10 4 5 11 12 6
          7 13 14 8 9 15
          14 8 9 15 16 10
          11 17 18 12 13 19
          20 14 15 21 20 14
          15 21 22 16 17 23
          24 18 19 25 26 20
          21 27 26 20 21 27
          28 22 23 29 30 24
          25 31 32 26 27 33
          32 26 27 33 34 28
          29 35 36 30 31 37
          38 32 33 39 38 32
          33 39 40 34 35 41
          42 36 37 43 44 38
          39 45 44 38 39 45
          46 40 41 47 51 48
          0 6 52 49 2 8
          52 49 2 8 53 50
          4 10 54 51 6 12
          55 52 8 14 55 52
          8 14 56 53 10 16
          57 54 12 18 58 55
          14 20 58 55 14 20
          59 56 16 22 60 57
          18 24 61 58 20 26
          61 58 20 26 62 59
          22 28 63 60 24 30
          64 61 26 32 64 61
          26 32 65 62 28 34
          66 63 30 36 67 64
          32 38 67 64 32 38
          68 65 34 40 69 66
          36 42 70 67 38 44
          70 67 38 44 71 68
          40 46 75 72 48 51
          76 73 49 52 76 73
          49 52 77 74 50 53
          78 75 51 54 79 76
          52 55 79 76 52 55
          80 77 53 56 81 78
          54 57 82 79 55 58
          82 79 55 58 83 80
          56 59 84 81 57 60
          85 82 58 61 85 82
          58 61 86 83 59 62
          87 84 60 63 88 85
          61 64 88 85 61 64
          89 86 62 65 90 87
          63 66 91 88 64 67
          91 88 64 67 92 89
          65 68 93 90 66 69
          94 91 67 70 94 91
          67 70 95 92 68 71
          99 96 72 75 100 97
          73 76 100 97 73 76
          101 98 74 77 102 99
          75 78 103 100 76 79
          103 100 76 79 104 101
          77 80 105 102 78 81
          106 103 79 82 106 103
          79 82 107 104 80 83
          108 105 81 84 109 106
          82 85 109 106 82 85
          110 107 83 86 111 108
          84 87 112 109 85 88
          112 109 85 88 113 110
          86 89 114 111 87 90
          115 112 88 91 115 112
          88 91 116 113 89 92
          117 114 90 93 118 115
          91 94 118 115 91 94
          119 116 92 95 123 120
          96 99 124 121 97 100
          124 121 97 100 125 122
          98 101 126 123 99 102
          127 124 100 103 127 124
          100 103 128 125 101 104
          129 126 102 105 130 127
          103 106 130 127 103 106
          131 128 104 107 132 129
          105 108 133 130 106 109
          133 130 106 109 134 131
          107 110 135 132 108 111
          136 133 109 112 136 133
          109 112 137 134 110 113
          138 135 111 114 139 136
          112 115 139 136 112 115
          140 137 113 116 141 138
          114 117 142 139 115 118
          142 139 115 118 143 140
          116 119 147 144 120 123
          148 145 121 124 148 145
          121 124 149 146 122 125
          150 147 123 126 151 148
          124 127 151 148 124 127
          152 149 125 128 153 150
          126 129 154 151 127 130
          154 151 127 130 155 152
          128 131 156 153 129 132
          157 154 130 133 157 154
          130 133 158 155 131 134
          159 156 132 135 160 157
          133 136 160 157 133 136
          161 158 134 137 162 159
          135 138 163 160 136 139
          163 160 136 139 164 161
          137 140 165 162 138 141
          166 163 139 142 166 163
          139 142 167 164 140 143
          174 171 144 147 175 172
          145 148 175 172 145 148
          176 173 146 149 177 174
          147 150 178 175 148 151
          178 175 148 151 179 176
          149 152 180 177 150 153
          181 178 151 154 181 178
          151 154 182 179 152 155
          183 180 153 156 184 181
          154 157 184 181 154 157
          185 182 155 158 186 183
          156 159 187 184 157 160
          187 184 157 160 188 185
          158 161 189 186 159 162
          190 187 160 163 190 187
          160 163 191 188 161 164
          192 189 162 165 193 190
          163 166 193 190 163 166
          194 191 164 167 198 195
          168 171 199 196 169 172
          199 196 169 172 200 197
          170 173 201 198 171 174
          202 199 172 175 202 199
          172 175 203 200 173 176
          204 201 174 177 205 202
          175 178 205 202 175 178
          206 203 176 179 207 204
          177 180 208 205 178 181
          208 205 178 181 209 206
          179 182 210 207 180 183
          211 208 181 184 211 208
          181 184 212 209 182 185
          213 210 183 186 214 211
          184 187 214 211 184 187
          215 212 185 188 216 213
          186 189 217 214 187 190
          217 214 187 190 218 215
          188 191 219 216 189 192
          220 217 190 193 220 217
          190 193 221 218 191 194
          225 222 195 198 226 223
          196 199 226 223 196 199
          227 224 197 200 228 225
          198 201 229 226 199 202
          229 226 199 202 230 227
          200 203 231 228 201 204
          232 229 202 205 232 229
          202 205 233 230 203 206
          234 231 204 207 235 232
          205 208 235 232 205 208
          236 233 206 209 237 234
          207 210 238 235 208 211
          238 235 208 211 239 236
          209 212 240 237 210 213
          241 238 211 214 241 238
          211 214 242 239 212 215
          243 240 213 216 244 241
          214 217 244 241 214 217
          245 242 215 218 246 243
          216 219 247 244 217 220
          247 244 217 220 248 245
          218 221 252 249 222 225
          253 250 223 226 253 250
          223 226 254 251 224 227
          255 252 225 228 256 253
          226 229 256 253 226 229
          257 254 227 230 258 255
          228 231 259 256 229 232
          259 256 229 232 260 257
          230 233 261 258 231 234
          262 259 232 235 262 259
          232 235 263 260 233 236
          264 261 234 237 265 262
          235 238 265 262 235 238
          266 263 236 239 267 264
          237 240 268 265 238 241
          268 265 238 241 269 266
          239 242 270 267 240 243
          271 268 241 244 271 268
          241 244 272 269 242 245
          273 270 243 246 274 271
          244 247 274 271 244 247
          275 272 245 248 279 276
          249 252 280 277 250 253
          280 277 250 253 281 278
          251 254 282 279 252 255
          283 280 253 256 283 280
          253 256 284 281 254 257
          285 282 255 258 286 283
          256 259 286 283 256 259
          287 284 257 260 288 285
          258 261 289 286 259 262
          289 286 259 262 290 287
          260 263 291 288 261 264
          292 289 262 265 292 289
          262 265 293 290 263 266
          294 291 264 267 295 292
          265 268 295 292 265 268
          296 293 266 269 297 294
          267 270 298 295 268 271
          298 295 268 271 299 296
          269 272 300 297 270 273
          301 298 271 274 301 298
          271 274 302 299 272 275
          306 303 276 279 307 304
          277 280 307 304 277 280
          308 305 278 281 309 306
          279 282 310 307 280 283
          310 307 280 283 311 308
          281 284 312 309 282 285
          313 310 283 286 313 310
          283 286 314 311 284 287
          315 312 285 288 316 313
          286 289 316 313 286 289
          317 314 287 290 318 315
          288 291 319 316 289 292
          319 316 289 292 320 317
          290 293 321 318 291 294
          322 319 292 295 322 319
          292 295 323 320 293 296
          324 321 294 297 325 322
          295 298 325 322 295 298
          326 323 296 299 327 324
          297 300 328 325 298 301
          328 325 298 301 329 326
          299 302 333 330 303 306
          334 331 304 307 334 331
          304 307 335 332 305 308
          336 333 306 309 337 334
          307 310 337 334 307 310
          338 335 308 311 339 336
          309 312 340 337 310 313
          340 337 310 313 341 338
          311 314 342 339 312 315
          343 340 313 316 343 340
          313 316 344 341 314 317
          345 342 315 318 346 343
          316 319 346 343 316 319
          347 344 317 320 348 345
          318 321 349 346 319 322
          349 346 319 322 350 347
          320 323 351 348 321 324
          352 349 322 325 352 349
          322 325 353 350 323 326
          354 351 324 327 355 352
          325 328 355 352 325 328
          356 353 326 329 360 357
          330 333 361 358 331 334
          361 358 331 334 362 359
          332 335 363 360 333 336
          364 361 334 337 364 361
          334 337 365 362 335 338
          366 363 336 339 367 364
          337 340 367 364 337 340
          368 365 338 341 369 366
          339 342 370 367 340 343
          370 367 340 343 371 368
          341 344 372 369 342 345
          373 370 343 346 373 370
          343 346 374 371 344 347
          375 372 345 348 376 373
          346 349 376 373 346 349
          377 374 347 350 378 375
          348 351 379 376 349 352
          379 376 349 352 380 377
          350 353 381 378 351 354
          382 379 352 355 382 379
          352 355 383 380 353 356
          387 384 360 363 388 385
          361 364 388 385 361 364
          389 386 362 365 390 387
          363 366 391 388 364 367
          391 388 364 367 392 389
          365 368 393 390 366 369
          394 391 367 370 394 391
          367 370 395 392 368 371
          396 393 369 372 397 394
          370 373 397 394 370 373
          398 395 371 374 399 396
          372 375 400 397 373 376
          400 397 373 376 401 398
          374 377 402 399 375 378
          403 400 376 379 403 400
          376 379 404 401 377 380
          405 402 378 381 406 403
          379 382 406 403 379 382
          407 404 380 383 411 408
          384 387 412 409 385 388
          412 409 385 388 413 410
          386 389 414 411 387 390
          415 412 388 391 415 412
          388 391 416 413 389 392
          417 414 390 393 418 415
          391 394 418 415 391 394
          419 416 392 395 420 417
          393 396 421 418 394 397
          421 418 394 397 422 419
          395 398 423 420 396 399
          424 421 397 400 424 421
          397 400 425 422 398 401
          426 423 399 402 427 424
          400 403 427 424 400 403
          428 425 401 404 429 426
          402 405 430 427 403 406
          430 427 403 406 431 428
          404 407 435 432 408 411
          436 433 409 412 436 433
          409 412 437 434 410 413
          438 435 411 414 439 436
          412 415 439 436 412 415
          440 437 413 416 441 438
          414 417 442 439 415 418
          442 439 415 418 443 440
          416 419 444 441 417 420
          445 442 418 421 445 442
          418 421 446 443 419 422
          447 444 420 423 448 445
          421 424 448 445 421 424
          449 446 422 425 450 447
          423 426 451 448 424 427
          451 448 424 427 452 449
          425 428 453 450 426 429
          454 451 427 430 454 451
          427 430 455 452 428 431
          459 456 432 435 460 457
          433 436 460 457 433 436
          461 458 434 437 462 459
          435 438 463 460 436 439
          463 460 436 439 464 461
          437 440 465 462 438 441
          466 463 439 442 466 463
          439 442 467 464 440 443
          468 465 441 444 469 466
          442 445 469 466 442 445
          470 467 443 446 471 468
          444 447 472 469 445 448
          472 469 445 448 473 470
          446 449 474 471 447 450
          475 472 448 451 475 472
          448 451 476 473 449 452
          477 474 450 453 478 475
          451 454 478 475 451 454
          479 476 452 455 483 480
          459 462 484 481 460 463
          484 481 460 463 485 482
          461 464 486 483 462 465
          487 484 463 466 487 484
          463 466 488 485 464 467
          489 486 465 468 490 487
          466 469 490 487 466 469
          491 488 467 470 492 489
          468 471 493 490 469 472
          493 490 469 472 494 491
          470 473 495 492 471 474
          496 493 472 475 496 493
          472 475 497 494 473 476
          498 495 474 477 499 496
          475 478 499 496 475 478
          500 497 476 479 504 501
          480 483 505 502 481 484
          505 502 481 484 506 503
          482 485 507 504 483 486
          508 505 484 487 508 505
          484 487 509 506 485 488
          510 507 486 489 511 508
          487 490 511 508 487 490
          512 509 488 491 513 510
          489 492 514 511 490 493
          514 511 490 493 515 512
          491 494 516 513 492 495
          517 514 493 496 517 514
          493 496 518 515 494 497
          519 516 495 498 520 517
          496 499 520 517 496 499
          521 518 497 500 525 522
          501 504 526 523 502 505
          526 523 502 505 527 524
          503 506 528 525 504 507
          529 526 505 508 529 526
          505 508 530 527 506 509
          531 528 507 510 532 529
          508 511 532 529 508 511
          533 530 509 512 534 531
          510 513 535 532 511 514
          535 532 511 514 536 533
          512 515 537 534 513 516
          538 535 514 517 538 535
          514 517 539 536 515 518
          687 537 516 519 688 538
          517 520 688 538 517 520
          689 539 518 521 543 540
          522 525 544 541 523 526
          544 541 523 526 545 542
          524 527 546 543 525 528
          547 544 526 529 547 544
          526 529 548 545 527 530
          549 546 528 531 550 547
          529 532 550 547 529 532
          551 548 530 533 552 549
          531 534 553 550 532 535
          553 550 532 535 554 551
          533 536 690 552 534 537
          691 553 535 538 691 553
          535 538 692 554 536 539
          693 690 537 687 694 691
          538 688 694 691 538 688
          695 692 539 689 696 697
          540 543 698 699 541 544
          698 699 541 544 700 701
          542 545 702 696 543 546
          703 698 544 547 703 698
          544 547 704 700 545 548
          705 702 546 549 706 703
          547 550 706 703 547 550
          707 704 548 551 708 705
          549 552 709 706 550 553
          709 706 550 553 710 707
          551 554 711 708 552 690
          712 709 553 691 712 709
          553 691 713 710 554 692
          555 556 557 558 559 560
          561 562 559 560 561 562
          563 564 565 566 567 568
          569 570 571 572 573 574
          571 572 573 574 575 576
          577 578 579 714 580 581
          582 715 583 584 582 715
          583 584 585 716 586 587
          579 588 717 714 582 589
          718 715 582 589 718 715
          585 590 719 716 591 592
          593 594 595 596 597 598
          595 596 597 598 599 600
          601 602 594 558 557 591
          598 562 561 595 598 562
          561 595 602 566 565 599
          603 567 570 604 605 571
          574 606 605 571 574 606
          607 575 578 608 555 609
          610 611 559 612 613 614
          559 612 613 614 563 615
          616 617 594 593 720 721
          598 597 722 723 598 597
          722 723 602 601 724 725
          726 727 611 610 728 729
          614 613 728 729 614 613
          730 731 617 616 567 732
          733 568 571 734 735 572
          571 734 735 572 575 736
          737 576 604 618 619 603
          606 620 621 605 606 620
          621 605 608 622 623 607
          567 603 738 732 571 605
          739 734 571 605 739 734
          575 607 740 736 579 624
          625 588 582 626 627 589
          582 626 627 589 585 628
          629 590 625 741 717 588
          627 742 718 589 627 742
          718 589 629 743 719 590
          744 630 733 745 746 631
          735 747 746 631 735 747
          748 632 737 749 633 634
          610 609 635 636 613 612
          635 636 613 612 637 638
          616 615 634 750 726 610
          636 751 728 613 636 751
          728 613 638 752 730 616
          555 558 633 609 559 562
          635 612 559 562 635 612
          563 566 637 615 753 750
          634 754 755 751 636 756
          755 751 636 756 757 752
          638 758 639 640 625 624
          641 642 627 626 641 642
          627 626 643 644 629 628
          625 611 727 741 627 614
          729 742 627 614 729 742
          629 617 731 743 634 633
          721 754 636 635 723 756
          636 635 723 756 638 637
          725 758 580 759 687 519
          583 760 688 520 583 760
          688 520 586 761 689 521
          581 580 519 498 584 583
          520 499 584 583 520 499
          587 586 521 500 592 645
          646 593 596 647 648 597
          596 647 648 597 600 649
          650 601 651 652 300 273
          653 654 301 274 653 654
          301 274 655 656 302 275
          569 651 273 246 573 653
          274 247 573 653 274 247
          577 655 275 248 556 405
          381 557 560 406 382 561
          560 406 382 561 564 407
          383 565 570 569 246 219
          574 573 247 220 574 573
          247 220 578 577 248 221
          557 381 354 591 561 382
          355 595 561 382 355 595
          565 383 356 599 604 570
          219 192 606 574 220 193
          606 574 220 193 608 578
          221 194 640 555 611 625
          642 559 614 627 642 559
          614 627 644 563 617 629
          618 604 192 165 620 606
          193 166 620 606 193 166
          622 608 194 167 657 618
          165 141 658 620 166 142
          658 620 166 142 659 622
          167 143 660 661 117 93
          662 663 118 94 662 663
          118 94 664 665 119 95
          661 657 141 117 663 658
          142 118 663 658 142 118
          665 659 143 119 762 738
          603 619 763 739 605 621
          763 739 605 621 764 740
          607 623 429 639 624 453
          430 641 626 454 430 641
          626 454 431 643 628 455
          666 568 733 630 667 572
          735 631 667 572 735 631
          668 576 737 632 669 660
          93 69 670 662 94 70
          670 662 94 70 671 664
          95 71 592 327 300 645
          596 328 301 647 596 328
          301 647 600 329 302 649
          721 633 558 594 723 635
          562 598 723 635 562 598
          725 637 566 602 744 720
          593 646 746 722 597 648
          746 722 597 648 748 724
          601 650 477 453 624 672
          478 454 626 673 478 454
          626 673 479 455 628 674
          327 592 591 354 328 596
          595 355 328 596 595 355
          329 600 599 356 669 675
          765 766 670 676 767 768
          670 676 767 768 671 677
          769 770 639 429 405 556
          641 430 406 560 641 430
          406 560 643 431 407 564
          581 672 624 579 584 673
          626 582 584 673 626 582
          587 674 628 585 678 619
          618 657 679 621 620 658
          679 621 620 658 680 623
          622 659 42 43 765 675
          44 45 767 676 44 45
          767 676 46 47 769 677
          646 645 300 652 648 647
          301 654 648 647 301 654
          650 649 302 656 619 678
          771 762 621 679 772 763
          621 679 772 763 623 680
          773 764 744 646 652 630
          746 648 654 631 746 648
          654 631 748 650 656 632
          678 681 774 771 679 682
          775 772 679 682 775 772
          680 683 776 773 681 678
          657 661 682 679 658 663
          682 679 658 663 683 680
          659 665 666 630 652 651
          667 631 654 653 667 631
          654 653 668 632 656 655
          651 569 568 666 653 573
          572 667 653 573 572 667
          655 577 576 668 681 684
          766 774 682 685 768 775
          682 685 768 775 683 686
          770 776 759 580 714 777
          760 583 715 778 760 583
          715 778 761 586 716 779
          672 581 498 477 673 584
          499 478 673 584 499 478
          674 587 500 479 639 556
          555 640 641 560 559 642
          641 560 559 642 643 564
          563 644 675 669 69 42
          676 670 70 44 676 670
          70 44 677 671 71 46
          684 681 661 660 685 682
          663 662 685 682 663 662
          686 683 665 664 660 669
          766 684 662 670 768 685
          662 670 768 685 664 671
          770 686
        </DataArray>
        <DataArray type="Int64" Name="offsets" format="ascii" RangeMin="8" RangeMax="3632">
          8 16 24 32 40 48
          56 64 72 80 88 96
          104 112 120 128 136 144
          152 160 168 176 184 192
          200 208 216 224 232 240
          248 256 264 272 280 288
          296 304 312 320 328 336
          344 352 360 368 376 384
          392 400 408 416 424 432
          440 448 456 464 472 480
          488 496 504 512 520 528
          536 544 552 560 568 576
          584 592 600 608 616 624
          632 640 648 656 664 672
          680 688 696 704 712 720
          728 736 744 752 760 768
          776 784 792 800 808 816
          824 832 840 848 856 864
          872 880 888 896 904 912
          920 928 936 944 952 960
          968 976 984 992 1000 1008
          1016 1024 1032 1040 1048 1056
          1064 1072 1080 1088 1096 1104
          1112 1120 1128 1136 1144 1152
          1160 1168 1176 1184 1192 1200
          1208 1216 1224 1232 1240 1248
          1256 1264 1272 1280 1288 1296
          1304 1312 1320 1328 1336 1344
          1352 1360 1368 1376 1384 1392
          1400 1408 1416 1424 1432 1440
          1448 1456 1464 1472 1480 1488
          1496 1504 1512 1520 1528 1536
          1544 1552 1560 1568 1576 1584
          1592 1600 1608 1616 1624 1632
          1640 1648 1656 1664 1672 1680
          1688 1696 1704 1712 1720 1728
          1736 1744 1752 1760 1768 1776
          1784 1792 1800 1808 1816 1824
          1832 1840 1848 1856 1864 1872
          1880 1888 1896 1904 1912 1920
          1928 1936 1944 1952 1960 1968
          1976 1984 1992 2000 2008 2016
          2024 2032 2040 2048 2056 2064
          2072 2080 2088 2096 2104 2112
          2120 2128 2136 2144 2152 2160
          2168 2176 2184 2192 2200 2208
          2216 2224 2232 2240 2248 2256
          2264 2272 2280 2288 2296 2304
          2312 2320 2328 2336 2344 2352
          2360 2368 2376 2384 2392 2400
          2408 2416 2424 2432 2440 2448
          2456 2464 2472 2480 2488 2496
          2504 2512 2520 2528 2536 2544
          2552 2560 2568 2576 2584 2592
          2600 2608 2616 2624 2632 2640
          2648 2656 2664 2672 2680 2688
          2696 2704 2712 2720 2728 2736
          2744 2752 2760 2768 2776 2784
          2792 2800 2808 2816 2824 2832
          2840 2848 2856 2864 2872 2880
          2888 2896 2904 2912 2920 2928
          2936 2944 2952 2960 2968 2976
          2984 2992 3000 3008 3016 3024
          3032 3040 3048 3056 3064 3072
          3080 3088 3096 3104 3112 3120
          3128 3136 3144 3152 3160 3168
          3176 3184 3192 3200 3208 3216
          3224 3232 3240 3248 3256 3264
          3272 3280 3288 3296 3304 3312
          3320 3328 3336 3344 3352 3360
          3368 3376 3384 3392 3400 3408
          3416 3424 3432 3440 3448 3456
          3464 3472 3480 3488 3496 3504
          3512 3520 3528 3536 3544 3552
          3560 3568 3576 3584 3592 3600
          3608 3616 3624 3632
        </DataArray>
        <DataArray type="UInt8" Name="types" format="ascii" RangeMin="12" RangeMax="12">
          12 12 12 12 12 12
          12 12 12 12 12 12
          12 12 12 12 12 12
          12 12 12 12 12 12
          12 12 12 12 12 12
          12 12 12 12 12 12
          12 12 12 12 12 12
          12 12 12 12 12 12
          12 12 12 12 12 12
          12 12 12 12 12 12
          12 12 12 12 12 12
          12 12 12 12 12 12
          12 12 12 12 12 12
          12 12 12 12 12 12
          12 12 12 12 12 12
          12 12 12 12 12 12
          12 12 12 12 12 12
          12 12 12 12 12 12
          12 12 12 12 12 12
          12 12 12 12 12 12
          12 12 12 12 12 12
          12 12 12 12 12 12
          12 12 12 12 12 12
          12 12 12 12 12 12
          12 12 12 12 12 12
          12 12 12 12 12 12
          12 12 12 12 12 12
          12 12 12 12 12 12
          12 12 12 12 12 12
          12 12 12 12 12 12
          12 12 12 12 12 12
          12 12 12 12 12 12
          12 12 12 12 12 12
          12 12 12 12 12 12
          12 12 12 12 12 12
          12 12 12 12 12 12
          12 12 12 12 12 12
          12 12 12 12 12 12
          12 12 12 12 12 12
          12 12 12 12 12 12
          12 12 12 12 12 12
          12 12 12 12 12 12
          12 12 12 12 12 12
          12 12 12 12 12 12
          12 12 12 12 12 12
          12 12 12 12 12 12
          12 12 12 12 12 12
          12 12 12 12 12 12
          12 12 12 12 12 12
          12 12 12 12 12 12
          12 12 12 12 12 12
          12 12 12 12 12 12
          12 12 12 12 12 12
          12 12 12 12 12 12
          12 12 12 12 12 12
          12 12 12 12 12 12
          12 12 12 12 12 12
          12 12 12 12 12 12
          12 12 12 12 12 12
          12 12 12 12 12 12
          12 12 12 12 12 12
          12 12 12 12 12 12
          12 12 12 12 12 12
          12 12 12 12 12 12
          12 12 12 12 12 12
          12 12 12 12 12 12
          12 12 12 12 12 12
          12 12 12 12 12 12
          12 12 12 12 12 12
          12 12 12 12 12 12
          12 12 12 12 12 12
          12 12 12 12 12 12
          12 12 12 12 12 12
          12 12 12 12 12 12
          12 12 12 12 12 12
          12 12 12 12
        </DataArray>
      </Cells>
    </Piece>
  </UnstructuredGrid>
</VTKFile>
