<?xml version="1.0"?>
<VTKFile type="UnstructuredGrid" version="0.1" byte_order="LittleEndian" header_type="UInt32" compressor="vtkZLibDataCompressor">
  <UnstructuredGrid>
    <Piece NumberOfPoints="795" NumberOfCells="454">
      <PointData>
        <DataArray type="Int32" Name="libmesh_node_id" format="ascii" RangeMin="2220" RangeMax="4979">
          2220 2221 2222 2223 2224 2225
          2226 2227 2228 2229 2230 2231
          2388 2389 2390 2391 2392 2393
          2394 2395 2396 2397 2398 2399
          2402 2405 2408 2409 2410 2411
          2463 2464 2465 2466 2467 2468
          2469 2470 2471 2472 2473 2474
          2475 2476 2477 2478 2479 2480
          2499 2500 2501 2502 2503 2504
          2505 2506 2507 2508 2509 2510
          2511 2512 2513 2514 2515 2516
          2517 2518 2519 2520 2521 2522
          2613 2614 2616 2617 2618 2620
          2621 2622 2624 2652 2653 2654
          2655 2656 2657 2658 2659 2660
          2661 2662 2663 2697 2701 2705
          2721 2722 2723 2724 2725 2726
          2736 2737 2738 2739 2740 2741
          2742 2743 2744 2745 2746 2747
          2748 2749 2750 2751 2752 2753
          2754 2755 2756 2757 2758 2759
          2760 2761 2762 2763 2764 2765
          2778 2779 2780 2781 2782 2783
          2784 2785 2786 2862 2863 2864
          2865 2866 2867 2868 2869 2870
          2871 2872 2873 2922 2923 2924
          2925 2926 2927 2940 2941 2942
          2943 2944 2945 2946 2947 2948
          2958 2959 2960 2961 2962 2963
          2964 2965 2966 2967 2968 2969
          2992 2993 2996 2997 3000 3001
          3018 3019 3020 3021 3022 3023
          3036 3039 3040 3043 3044 3047
          3060 3061 3062 3063 3064 3065
          3066 3067 3068 3069 3070 3071
          3072 3073 3074 3075 3076 3077
          3180 3181 3182 3183 3184 3185
          3204 3205 3206 3207 3208 3209
          3240 3242 3244 3258 3260 3262
          3273 3274 3275 3276 3277 3278
          3279 3280 3281 3282 3283 3284
          3285 3286 3287 3288 3289 3290
          3291 3292 3293 3294 3295 3296
          3297 3298 3299 3348 3349 3350
          3351 3352 3353 3354 3355 3356
          3357 3358 3359 3360 3361 3362
          3363 3364 3365 3369 3370 3371
          3372 3373 3374 3399 3400 3401
          3402 3403 3404 3405 3406 3407
          3408 3409 3410 3411 3412 3413
          3414 3415 3416 3417 3418 3419
          3420 3421 3422 3462 3463 3464
          3486 3487 3488 3489 3490 3491
          3507 3508 3509 3510 3511 3512
          3527 3530 3533 3534 3535 3536
          3555 3556 3557 3558 3559 3560
          3561 3562 3563 3579 3580 3581
          3594 3595 3596 3597 3598 3599
          3603 3604 3605 3606 3607 3608
          3621 3622 3623 3624 3625 3626
          3627 3628 3629 3642 3643 3644
          3645 3646 3647 3648 3649 3650
          3651 3652 3653 3669 3670 3671
          3672 3673 3674 3675 3676 3677
          3678 3679 3680 3681 3682 3683
          3750 3751 3752 3753 3754 3755
          3756 3757 3758 3759 3760 3761
          3780 3781 3782 3783 3784 3785
          3909 3910 3911 3912 3913 3914
          3915 3916 3917 3918 3919 3920
          3951 3952 3953 3966 3967 3968
          3975 3976 3977 3978 3979 3980
          3981 3982 3983 3984 3985 3986
          3987 3988 3989 3990 3991 3992
          4008 4009 4010 4011 4012 4013
          4014 4015 4016 4017 4018 4019
          4020 4021 4022 4023 4024 4025
          4026 4027 4028 4029 4030 4031
          4041 4042 4043 4044 4045 4046
          4047 4048 4049 4050 4051 4052
          4068 4069 4070 4080 4081 4082
          4092 4093 4094 4095 4096 4097
          4098 4099 4100 4101 4102 4103
          4122 4123 4124 4125 4126 4127
          4146 4147 4148 4149 4150 4151
          4152 4153 4154 4155 4156 4157
          4158 4159 4160 4173 4174 4175
          4176 4177 4178 4179 4180 4181
          4182 4183 4184 4188 4189 4190
          4194 4195 4196 4197 4198 4199
          4200 4201 4202 4203 4204 4205
          4218 4219 4220 4221 4222 4223
          4230 4231 4232 4266 4267 4268
          4281 4282 4283 4299 4300 4301
          4305 4306 4307 4308 4309 4310
          4311 4312 4313 4335 4336 4337
          4341 4342 4343 4395 4396 4397
          4455 4456 4457 4473 4474 4475
          4476 4477 4478 4515 4516 4517
          4578 4579 4580 4581 4582 4583
          4614 4615 4616 4704 4705 4706
          4707 4708 4709 4710 4711 4712
          4713 4714 4715 4737 4738 4739
          4740 4741 4742 4821 4822 4823
          4842 4843 4844 4845 4846 4847
          4854 4855 4856 4857 4858 4859
          4860 4861 4862 4863 4864 4865
          4866 4867 4868 4875 4876 4877
          4878 4879 4880 4908 4909 4910
          4914 4915 4916 4932 4933 4934
          4941 4942 4943 4977 4978 4979
          2400 2401 2403 2404 2406 2407
          2615 2619 2623 2698 2699 2700
          2702 2703 2704 2706 2707 2708
          2991 2994 2995 2998 2999 3002
          2331 2330 2335 2334 2339 2338
          3241 3243 3245 3259 3186 3188
          3261 3189 3191 3263 3192 3194
          3448 3450 3452 3525 3526 3528
          3529 3531 3532 3537 3538 3539
          3540 3541 3542 3654 3657 3660
          2328 2332 2336 3852 3853 3854
          3993 3994 3995 4338 4339 4340
          3513 3514 3515 4458 4321 4459
          4324 4460 4327 4584 4585 4586
          4587 4588 4589 4791 4792 4793
          4794 4795 4796 4797 4798 4799
          4431 4432 4433 3495 3187 3499
          3190 3503 3193 3954 3957 3958
          3961 3962 3965 4899 4900 4901
          4968 4969 4970 4911 4912 4913
          3498 3502 3506 4902 4903 4904
          4434 4436 4438
        </DataArray>
        <DataArray type="Float64" Name="resid_x" format="ascii" RangeMin="-0.03401306476704136" RangeMax="0.019575768003980087">
          -0.00007442817804559354 0.00014743390780402876 0.000043120758046022445 -0.00037765479974183336 -0.0003848186730772696 -0.0007211801786173311
          -0.0019238254860809434 -0.0029951005110362416 -0.004566275514544138 -0.0035949072109877633 -0.004664165086671446 -0.006295958594769502
          0.00007175095949829569 -0.00300365359492627 -0.00264284091292577 -0.0011851508422004997 -0.001274065401322133 -0.010757016620457804
          -0.007472443849994903 -0.008766448890220602 -0.014297046025191662 -0.016040702826363606 -0.014362555654589215 -0.01788197673335734
          -0.017045571408178972 -0.025836195302218812 -0.017973917958062913 -0.01715221422109625 -0.021705064059998946 -0.015054982973051523
          -0.0013396349592426082 -0.0047763714254907 0.0008963418955548752 -0.004186255682155582 -0.001441053558599359 -0.005379770215891755
          0.0005022511070793545 0.0013069564250587362 0.000967946331901004 0.0009774159331641386 0.00018829595710911917 -0.00046489087135048734
          -0.003707541019675631 -0.002903731937955234 -0.00854445101150425 -0.01165671416509717 -0.009900425939376234 -0.006485693802665615
          0.00013746702533179445 -0.00011675001708688626 0.00046217613882149067 0.0014158123740921624 -0.0005052559501912413 -0.0010331434999590883
          -0.0026249611398281303 0.000026702752448315437 -0.005671683936552263 -0.006101610469470664 -0.005641687469509549 -0.0042693271151597045
          0.00014889136572282524 -0.0002153108366966805 0.00022590096898511547 0.00042900432827597257 -0.0011652284356924447 -0.0038364895734135374
          -0.001667969661040658 -0.0025360844237756197 -0.00705080322495899 -0.009849647121937366 -0.007745001246301619 -0.00796028890427003
          -0.0021474708543713916 -0.007463570175420653 0.0003224388308327164 -0.006173379863938067 -0.015666241542886095 -0.009234662013219541
          -0.01315440799231471 -0.013841859689504687 -0.019279385124280957 -0.0012832586315720818 0.0006262452539607111 0.00041468193405252984
          0.0013369998733896438 -0.0038143416775717753 -0.0030210923668434475 -0.0014381543929508633 -0.003842998420831023 -0.015596494602849731
          -0.010672556012679024 -0.016574091466905472 -0.018290368913028487 -0.018045406369679995 -0.027149851387591628 -0.020505124147430553
          -0.0034101382992961504 -0.0007222962511850284 -0.003660450994096953 0.001225750963849137 -0.004785809663788054 -0.002412138810349518
          -0.0007307919650587635 -0.0014941217500563653 0.000686536987868358 -0.0008634317785221057 -0.0010219908224726737 0.0015979036463660279
          -0.00322302733482438 -0.0035640239738290447 -0.003305615834653608 0.000005954299710064781 0.0016192648914374885 0.0011936137606101127
          -0.0001305995798686066 -0.0010558523377717233 0.0014814941742926635 -0.0004123858006934711 -0.003964248723502928 -0.0057670611533322536
          -0.0056369561198126306 -0.00871386944710828 -0.009414549782596593 -0.0005043832050164454 -0.0013276281368339582 -0.0013910481069601133
          -0.0009475688128040005 -0.0004902553872900839 -0.0028329437382090816 -0.004488335870858506 -0.002520471019963111 -0.005979339911850623
          -0.001637244238764879 -0.0025650212283974128 -0.0009337686179780036 -0.0005999980303030839 -0.0013595041614951064 -0.0005359485756519788
          -0.0015311087214753272 -0.002651406436732451 -0.005418495283327829 -0.0035848639335012145 -0.0018794525675498441 0.000334197654150048
          -0.005365035823805986 -0.002796445236767031 -0.0025326357516441966 0.00024063715785824225 -0.00624388873789683 -0.009124278724170765
          -0.005831883702594354 -0.006388855296630247 -0.0138903301136859 -0.00025393261717443494 -0.002198224420347117 -0.0006441938739865094
          -0.005308311665654486 -0.01403231056257681 -0.01659340115695862 -0.002390282634133989 -0.0015332554537250687 -0.00786897456574831
          -0.0030127806669639767 -0.003828441953054096 -0.005304333567957897 -0.011260875551377225 -0.008775801240283876 -0.007285596340813605
          -0.001240556660901504 0.0006428095408459455 -0.0017880660136624371 -0.007185593606854113 -0.001595699837344533 0.0002392929759134077
          -0.0027094096036943682 -0.005568063844743065 -0.002785542814701447 -0.0034367776235715297 -0.006847163498242992 -0.008086315115605203
          0.00897305786252911 -0.0020001678084970997 -0.010943375055703086 -0.005142750988085698 0.0037172797862270457 -0.0014323866041019429
          -0.0011859170871213465 -0.00303436944335278 -0.00031363562607023 -0.0025842337591797104 -0.005375975694282609 -0.004491525084004522
          -0.009592892385354546 -0.008013221586667285 -0.012048775097287745 -0.010725494162139526 -0.008360887314056598 -0.008178477620088387
          -0.008018590157393923 -0.009229956425625296 -0.006493757886822493 -0.0040766135763077305 -0.01599916364653886 -0.018462475906447118
          -0.005759857335603691 -0.0019931154699290854 -0.005980013729129041 -0.006429614367960745 -0.0018189058465534202 0.000022574094147298496
          -0.003020230370613497 -0.001350830796414293 -0.0021793503450835416 -0.0044488084489895385 -0.014266427007015636 -0.016062202085595167
          -0.006537060801025396 -0.009667046448138095 -0.0035820149857214156 -0.016776949693744214 -0.011977847949912412 -0.018053423451433126
          -0.006453343678328949 -0.009948659445932151 0.0000963666064395241 -0.01778864164433358 -0.010001637533523233 -0.017854256175962924
          -0.010010086505589655 -0.00734618996125036 -0.003383336873863385 -0.0077387940843935965 -0.015434468391749334 -0.011407588309734429
          -0.014537614591062287 -0.010035386795543388 -0.012049222032287865 -0.005100707283337336 -0.011969436431844116 -0.018882663469423022
          -0.007850060020886396 -0.0008921777529407038 -0.00929655529633866 -0.008763003287675986 -0.005623983573175728 -0.003934731536546998
          -0.0043543082046721415 -0.002510223090208541 -0.006143848296583876 -0.002992848625287814 -0.0012077366436740178 -0.0045619327173822555
          -0.005415386770556085 -0.006909724462334843 -0.011105656978305234 -0.006212509174901126 -0.0047333656130943425 -0.004010925613646299
          -0.0022369426145472104 -0.008509561604693072 -0.01110539035419933 -0.006997044198011615 -0.00009829700989616441 -0.002950888664149609
          0.00020157166555723194 0.0003863045919709762 -0.002630923261062179 -0.0035175833579979 -0.00008460347771777066 0.00005431796657617838
          -0.0058294582788187554 -0.0038260671197205554 -0.00481550933716246 -0.006785040521174679 -0.010734823654104275 -0.008641532981936706
          -0.012239192704064372 -0.004430062425211823 -0.011173109838163775 -0.011712327775358133 -0.000588282648328331 -0.004375804901255442
          -0.025585067434048092 -0.029705386564555347 -0.01758739713039148 -0.007981023911753482 -0.0025705378579763405 -0.003565483674877079
          -0.0008421985952375977 -0.005944195224444115 -0.0016044390830094457 -0.006423756634783118 -0.005453621737641079 -0.004349296996512209
          0.0003190873642981984 -0.0037242062699416323 -0.0019946659540037714 -0.006824410848884632 -0.008559210442586895 -0.0017833584724877838
          -0.002278273592744462 -0.009588561134627582 -0.009479479712491301 -0.007115003204622106 -0.005455665333519377 -0.0051077646974011515
          -0.0035891106078587143 -0.005347954583932335 -0.004537097955460645 -0.00523971621870678 -0.0009617678812945396 -0.008870025618715083
          -0.008148323857048112 -0.005623927712790744 -0.0022122326038847007 0.0019406394846812614 -0.0029798309540787216 0.0004903300633234409
          -0.004080018466611879 -0.0033931310106956047 -0.0007627596455229702 -0.0017462553867910735 -0.003355577268489951 -0.002840818951039825
          -0.012493298278561493 -0.021076264011569812 -0.017625295697109244 -0.011835111438509571 -0.0032734658457007626 -0.012384585304078932
          -0.002454381466148625 -0.0016368250473339785 0.0005578002878392496 -0.00047693699379713905 -0.0020567012017551622 -0.0009284318404692016
          -0.010130876543321676 0.00007155611137488194 -0.009372037793709431 -0.00969202587855289 -0.003741195977762679 -0.004995059888759812
          -0.019962455548149904 -0.022031276595703808 -0.00039602100008906405 -0.002260092537117231 -0.011446510572598712 -0.010077214871327733
          -0.009988166294462086 -0.0047049636928173655 -0.0022740059831045656 -0.0023580326546417396 -0.009248753177858227 -0.011033243329421794
          -0.0023379060810695407 -0.0024380323227797263 -0.002909604143743749 -0.00008635767041198505 -0.0011128614226008082 -0.0014188152986651659
          -0.0016329754563519927 -0.00207604408076012 -0.002402159476073251 -0.0032817093692365518 0.0003098532616379046 -0.002378616524167043
          -0.006702853655453644 -0.00293018124393285 -0.00023314205086322204 -0.001707260326373472 -0.00983569553720276 -0.012347216346333845
          -0.007263502882903339 -0.010081950242405213 -0.017647223523272082 -0.00039158104693548523 0.0001566707801785583 -0.0024575584061485856
          0.0015678082607708532 -0.0026080598360396223 -0.00007577762329979976 -0.009445026855335215 -0.0016912152756667354 -0.013100561309513203
          -0.01352200689699945 -0.01520097169244572 -0.013798712024777338 -0.01772060580045931 -0.004549702802647992 -0.013397398093973223
          -0.003546557769936065 -0.00529261443677953 -0.0011903716059697977 -0.0030508011222440956 -0.01271473707687143 -0.012803934866570721
          -0.0073901541131524695 -0.011400070013580788 -0.011163903929897856 -0.02330189397290816 -0.015994973068360174 -0.015620884935583668
          -0.0036343836939289886 -0.007253008999465377 -0.0012835633644425748 -0.0040125856032176 -0.012225885789149515 -0.015987239031929334
          -0.00744404144102262 -0.013719818770674408 -0.0015893853384518764 -0.008078172202722556 -0.013352400453914726 -0.015520790009488472
          -0.005788686373874974 -0.003612691880311214 -0.0013263665463059127 -0.0009445301462296385 -0.01328416388027609 -0.010035407147533704
          -0.01856239788209102 -0.00803966007135859 -0.012193649955065666 -0.01409463457895166 -0.00473768488038484 -0.012779385777462515
          -0.0009868416919194267 -0.003991450210692804 -0.0064775744340495045 -0.005475466000932627 -0.000546835335156981 -0.004082265938355256
          -0.006710269273636715 -0.0037049133020037317 -0.009106643586932694 -0.0054269357323422085 -0.011037822107974993 -0.011750094910578213
          -0.015746217055226275 -0.005699487992565366 -0.0240816322101991 0.0018348654270914366 -0.018325699864172318 -0.00739917968588788
          -0.008449194168468566 -0.006047725420428307 -0.00017190010611844997 -0.005421009522615705 -0.0181543208325472 -0.013332765032117777
          -0.00032400146676714314 -0.011347181426985209 -0.011753938565779443 -0.011551602350987622 -0.004197307849305609 -0.008301382766177312
          -0.014391904316418902 -0.0108285283271492 -0.01120275574322882 -0.017607202352580842 -0.01799341922227171 -0.01457506849779655
          -0.013263856649093242 -0.010927523119822702 -0.010291825671297161 -0.01678566485681543 -0.008776929466061123 -0.02244490271363464
          -0.009938758835310146 -0.007268046158736552 -0.006267731540957833 -0.0012898270551636726 -0.006494857804474563 -0.002694178653798396
          -0.013124674664373615 -0.008589888205879248 -0.0050459274704506285 -0.0030920079221097296 -0.01477470035452022 -0.010152830931849266
          -0.012152189369349031 -0.0035381582572142634 -0.012832927135886685 -0.021359267379527758 -0.002168257520105854 -0.006675067158949943
          -0.009407436669611524 -0.004925286867294432 -0.002115527287704033 -0.003656009559873219 -0.009509710286668138 -0.005797232348657921
          -0.010949553915877708 -0.00956470253879349 -0.005434900863551917 -0.013224200904565109 -0.006965552758231297 -0.008967819776664498
          -0.007348382290035538 -0.006336544025127289 -0.01106465110657684 -0.010545577313203935 -0.008009204343236931 -0.007848070704078225
          -0.005159880549805429 -0.004872737121914383 -0.002654399288582354 -0.007838085481115975 -0.0029565876543067304 -0.00429936805872444
          -0.006700427359898065 -0.006449181146300553 -0.004135862050206107 -0.0111952937607116 -0.009922895349514071 -0.0076523792374274535
          -0.005929349736257805 -0.009553288347188271 -0.009848706043775302 -0.008766006870587262 -0.0060252354268182096 -0.004970092711919172
          -0.0035430459696792482 -0.008330909550452681 -0.007832150289533324 -0.00411624657542653 -0.00198633989958541 0.0002892049207652292
          -0.0007975283955445889 -0.004010841397132481 -0.0020359005616663595 -0.010322872799839011 -0.010958356040180917 -0.011349455724866786
          -0.0006253188494746986 -0.00035955619626992785 0.00869660053476462 0.008322109839635772 -0.0006124321319505022 -0.001622172896822427
          0.016613750010597172 0.016313660494053472 -0.0026756661276499116 -0.0032292150246400197 0.006906935071921971 0.006489759764722436
          0.007327811162210374 -0.0015197961413013772 0.016342970200945217 -0.0006185560458451533 0.0081791323998619 -0.0006366158408672717
          -0.003061600842611867 0.0002036282915653942 -0.0021592471040943195 -0.0002528892201443256 0.0019395020223509363 -0.0010698305554885934
          -0.006678800597061496 -0.0008914851514454369 -0.009109475743695583 -0.014690645806648917 -0.011441092985197798 -0.016286161901208906
          -0.010148276585671745 -0.003068556169615544 -0.009342401974564929 -0.005543795027548093 -0.004809589444131568 -0.0009944791293969857
          -0.002206980126808755 -0.005881010964112754 -0.004814849196869808 -0.0063431067688775045 -0.00026433353434107687 -0.004857672570636851
          -0.014001631201365328 -0.012508754765762298 -0.0015348020484085012 -0.01737208200227336 -0.023315880616422646 -0.017451081107381583
          -0.016906218724114908 -0.010959830417650807 -0.00988942184297592 -0.02132250714424444 -0.01709848230850941 -0.027312257378517835
          -0.021675143624126036 -0.021018397722996518 -0.018353662120441427 -0.021893587289288696 -0.005645741208983424 -0.009540022664559444
          -0.009541515263712164 -0.0048170851853504 -0.010630220268726731 -0.006263890769113267 -0.002125611635616309 -0.0029920731582269156
          -0.010711425904506022 0.0007279506718669282 -0.00591081450485742 -0.014510671455184365 -0.015292053533765504 -0.006335194053448845
          -0.015154378651745404 -0.013629997693898943 -0.0046199991997024625 0.0010997170256548117 0.007195142307129032 -0.0001575322874654006
          0.015839204244080918 0.002762819462692079 0.008752899373494216 -0.002613923415802688 0.002019652545860673 -0.0014498229146844288
          0.005189345274157375 -0.0033486651043830307 0.0014396578616109323 -0.0050591895339282544 -0.0017252041137512109 -0.0035850149648473106
          -0.00884931018832269 -0.010508988427492483 -0.007172110158718326 -0.020973773706170817 -0.03401306476704136 -0.0186988488118347
          0.01190342021498303 0.0007648863553795238 -0.00388423830181317 -0.000465225197042507 0.005349492581657955 -0.0025480017142127664
          0.005293434575564859 -0.0015692288876927307 0.006824655222442466 0.010870307844333293 -0.0016245298727382007 0.013876212264499088
          0.004392705381851325 -0.0022469518295480384 0.005140573184768904 0.006306241954300074 -0.003452253236522651 0.014737835681485567
          -0.0018384169985123933 0.00630166224734463 -0.0024056543551616016 -0.005771814975499723 -0.002094496154875003 -0.0025096468092762336
          -0.0014207677063118318 0.0003546787540864571 -0.001578583406664169 0.0036923753045945418 0.00906326120628087 0.0037462544825093147
          -0.022830334591031676 -0.025567469576050605 -0.01588240408767483 -0.006186947240293783 0.00013536552105497535 -0.0029979065645258096
          -0.01657996154487762 -0.003300647561681913 -0.022863098166475027 -0.005041165937475611 -0.017831893716056868 -0.00926038520046113
          -0.012985342327220373 -0.01516357314262784 -0.021528319442614574 -0.008268755625469026 -0.009975813848578596 -0.004017595184610201
          -0.01613614288310572 -0.005858080323527304 -0.0007522701558047018 -0.01590059023083512 -0.013437261039499049 -0.007967614268437728
          -0.007272793121812171 -0.000716933332436831 0.0038391214801656304 0.0010771462894432204 -0.0002577169440431959 -0.003478647671344426
          -0.010297410792290185 -0.0004489241620870832 -0.027871268384046743 -0.00527874035265441 -0.022023900300810473 -0.014650354205080873
          0.0036333946685891405 0.007480679604777052 0.0021700677272793456 -0.019743728313709852 -0.016127956352338657 -0.019064812934709963
          -0.018549640043818982 -0.011118802487313673 -0.03387345574207323 -0.010957259067004621 -0.018920913419400165 -0.017175395166102447
          -0.009827302327092724 -0.006102810590256524 -0.014830003802619451 -0.00910225578952506 -0.015539606908101078 -0.02081537256426813
          -0.024694658423857874 -0.017170651920134006 -0.017118471954304937 -0.01964684726887711 -0.016988979788210123 -0.020750670367842616
          -0.011018707292738128 -0.011042055029323983 -0.009189352128041506 -0.0064755826333176 -0.01451324627730699 -0.014431747436152165
          -0.008494860034690355 -0.01905266756822499 -0.016855648905659493 0.012261574957677546 0.019575768003980087 -0.0051351059004201005
          -0.0117660163919453 -0.011790776331906727 -0.013198749527981946 -0.0050952466222273785 -0.0061281703415678734 -0.012403642818066274
          -0.013820235267247405 -0.008109496301178964 -0.013143680730227203 -0.014096060960283374 -0.01090285044372763 -0.02820670163701955
          -0.024228677294974688 -0.02214853926551008 -0.02158470024838266 -0.005605262374945852 -0.005281742225872854 -0.008383493954699617
          -0.0062689992459752375 -0.0022567641624977597 -0.004261878350946269 -0.004217089473846691 -0.008033324019708132 -0.012496161100954417
          0.007957856168189004 -0.006352848921141074 0.014791651037540987 -0.008859146938871021 0.007253440745640383 0.0015495293844427493
          -0.014790583476757657 -0.014570665663582894 -0.010779041021621971 -0.00924810591421732 -0.021455655574177612 -0.020760172019912204
          -0.025564137109119756 -0.014658500310625655 -0.013644665668764766 -0.012141176604300696 -0.016434040431736907 -0.02620106952111101
          -0.02341219593941979 -0.017491285584755545 -0.012164470098280589 -0.025357750770151455 0.002891041665847638 -0.007379163442639225
          -0.015797071674232832 -0.02131455828723805 -0.01400482711608575 -0.01064508796542718 -0.010817278120956786 -0.00628131384691244
          -0.005004114501826251 -0.015229083277496613 -0.011784961058289412 -0.019836646466456997 -0.025316557199801082 -0.016383216428613068
          -0.01214444942816506 -0.024423889317425562 -0.01856094356044835
        </DataArray>
        <DataArray type="Float64" Name="resid_y" format="ascii" RangeMin="-0.019562864464487503" RangeMax="0.021673257656682862">
          0.000021931137903656583 0.0003899121140863125 0.0005204037628907116 0.00039014774670992347 0.00025672911756743563 0.0008987816972994419
          0.0018864888175222604 -0.00023785256800624294 0.001388961140004032 0.0015159633215153442 0.0008851890573629423 -0.0004435561973901393
          0.0000447793856189066 0.0033473060597717097 0.005946850032378381 0.004718626150138405 -0.00004272555742898532 0.007330966742789713
          0.014418269881828816 0.0156896855379417 0.00586569128561179 0.007785246545025701 0.011904485411652233 0.013563981096514244
          0.011520500916906207 0.021673257656682862 0.013567030801486551 0.012273253681800239 0.015582998150056981 0.008963574203344232
          0.00041901497379204233 0.00035588281660621154 -0.0017648346670800785 -0.0035128025449576096 -0.00212409363596415 -0.004482256461321128
          -0.00009555607243492623 -0.0003343741784692794 -0.0003973243124926473 -0.0006248702627120292 0.0006606903667842404 -0.0005871065550996923
          0.0013403196527218553 0.0007309322845034235 0.00364189828352314 0.003932715382982191 0.002949265720993327 0.00259381559170321
          -0.0001555204873840907 0.000036998815174271726 -0.000011430271325163499 -0.0006353538745616505 0.000978326095843557 0.0010436151564292076
          0.0013974992551887971 0.00012539883480029018 0.003380975114895421 0.0035871726306484428 0.002895779299372153 0.0024029649675324644
          -0.000010278579266109755 -0.00014840660148442847 -0.00039019202372340966 -0.00031607513936324216 0.0012262357571720534 0.0011020325095106864
          0.0010649754673135448 0.003103621394801928 0.0045916410467777 0.004793661745571651 0.004572878936519545 0.006203137824783558
          0.003423706945091082 0.0025969635394469948 0.0042091855037163645 0.006763096178885422 0.0063701008640915935 0.008985065198637121
          0.006011654498431385 0.006661607567136768 0.007864349049289107 0.00041410067929627953 -0.0004941224082293805 -0.0003750684789221026
          -0.000595363731197493 0.0019201733642706317 0.00018307129776298087 0.00035049611119436497 0.0038026772653296237 0.008010689423326334
          0.00496455125921972 0.00970812208288327 0.011181073630818439 0.010913311758078192 0.02069485564125323 0.013653749840274731
          -0.000553045314263749 -0.0022834313125982553 -0.00007096024160724995 -0.0023269428351406773 0.00033369301246671985 -0.0019127563639709522
          0.0007164608599109501 0.0006851887787599001 0.0007076063095264595 0.0010113713924630174 0.00170294929283904 -0.00019130468715122806
          0.0021085141852843214 0.002593462894003605 0.0012255930273869509 -0.0005811014797766252 0.00022897349116696164 0.0004982454702545207
          -0.00022710678725515465 -0.0009565148640153232 0.0024430069987209733 0.001629467078887989 0.0007991535340656115 0.0014312775504472216
          0.005443822832960305 0.006397434112148007 0.003584602669332958 0.0008177490575289985 0.0006861186567521174 0.002369191667331412
          0.0007392265322706051 0.0013197965108616566 0.00215635307317847 0.002466003904591764 0.002351236440369525 0.003234265353204903
          0.0017889644082586809 0.0006895601169276643 0.0002859043872038697 0.00150052747142769 0.0005282100375675735 -0.00014160690989806213
          0.0015967324015527529 0.0018599815010158192 0.002971474473354982 0.007176622685107897 0.0010092300958202093 -0.0004895666607425131
          0.0032327484566183826 0.004674641160153169 0.0002284385242413249 -0.0003146967290804381 0.0037591852920095467 0.005667659607231301
          0.002362495759208709 0.003945667414243376 0.008385273581343586 0.0038702030168923443 0.0063970174433115035 0.0017952153413655705
          0.0026467903022039246 0.008067695282294875 0.007422070052529539 0.003374496057181403 0.002502632589848619 0.000589604826826684
          0.002535348758441913 0.001879050658776027 0.0001758695407522437 0.004365247144802992 0.0026463945969763536 0.0026007359503917304
          -0.0004815989153028333 -0.0008405748916614081 -0.0017559842471668724 -0.00006315445476715031 0.00031676281317537247 -0.00010539513842361403
          -0.002204528727302646 0.0003475291989948337 0.0018047043894774684 0.001433700856788539 0.0004644743536955237 0.002387318038773234
          -0.003754619148261848 -0.0013125517227625255 0.0032619212650880636 -0.004737100653823441 -0.006062437252797717 -0.0066544196321980525
          -0.00016217457187554796 0.00015369202887124955 -0.00006738140576362239 0.0014490243459318597 0.0013115957860675917 0.001312828671517564
          0.007269437146355837 0.0034265420493634763 0.0031368531877524683 0.0025097624865703973 0.00319422801953605 0.003827855604662837
          0.002095139191887585 -0.0005054839950971125 -0.002519737804604405 0.0002103401662151838 0.003739344118114163 0.0004961517952552347
          -0.0070023421139071215 -0.001298123806078244 0.000048809987506254204 -0.0015692593373220483 -0.007774345330788274 -0.0020133413762213476
          0.0044793046309339266 0.0001691027251854993 0.0008014265594661757 -0.0006352578803724973 0.004117778896551676 0.005197656313593535
          0.007440688885005486 0.005550975296763555 0.005019368414026795 0.003116558919292342 0.0084993478655285 0.0063850630617968696
          0.0057966346944030855 0.002680165662919917 -0.00008777049912642165 -0.0032411918536883457 0.006339782885300786 0.0031380873040166464
          -0.004059024523105654 -0.0029666226040870325 -0.001861715475571138 0.0018740835975677994 0.0036490247929870656 0.0017784163539283915
          0.00293924588221163 0.002777394834552027 0.00484943025661283 0.0030929423353072694 0.005798460146897763 0.007525831082642695
          0.005221018365489938 0.0018324893940577236 0.0060043594461838545 0.004344965128234957 0.0024789986851246892 0.002037763027536721
          0.0035352995118479204 0.0026487161102775308 0.003136260777965881 0.002057829319547677 0.001262058384688982 0.0014132873410488966
          0.0021505405433524345 0.00285810904136304 0.004547933534742073 0.002326643946873888 0.0005182783399620694 0.0030303614491901942
          0.0004053165974310935 0.0053676774755878585 0.006883998802284005 0.0014324651980620329 0.0016254491117629888 0.0021432934621093414
          0.00005835616386832415 -0.0003464987721229981 -0.0005119493031774357 0.0007424306969996009 0.0013215161528441679 0.0027561471753879668
          0.0012386844194900472 0.0025619674812885525 0.005812807395886124 0.008272009340166683 0.006549352153976153 0.0072463791597114895
          0.0034946372001903314 -0.0008028372976641718 0.004389350753165322 0.0028780668410221533 -0.0008919609160629172 -0.00032226130968260325
          0.006501495515674471 0.009573827593544026 0.005828836002323756 -0.00020679824225674874 0.0008067153853019426 0.0012107113744764338
          0.0003339895436977741 0.0006828466051213011 -0.0002472458731041516 -0.001512396186327758 0.0001814001943456489 -0.0005753461095476253
          0.0014470477591296271 0.00011118404218324329 0.001163784358454767 0.0034978972689750643 0.0016428480922952848 0.0020653076502058013
          0.0008756129032959636 0.006557744539214205 0.0065070125083316055 -0.0021568086537880338 -0.0015904103637129443 -0.00045011031451336943
          0.00041867220519968714 0.0016611826471560412 0.0008598612561015019 0.006124976673872386 0.003004937650461191 0.006590810814595678
          0.00020036490274208396 -0.0015277418836338597 -0.00035501162664178243 0.000031351201980313326 0.0004519929110356688 0.0003412413271119963
          0.0013609953987670457 0.0013131594494647254 0.0013971331776864646 0.0012151178378728804 0.0028506828639443677 0.00156624954197653
          0.0028192605661750275 -0.0008282172092187734 0.004155883989852137 0.005079796138194259 0.0003500009068694854 0.0044234995986806025
          0.0028627076164306105 0.0005142992756454173 0.00012780484860554914 -0.00013955399549786182 0.0016398521310785757 0.00046943504888845907
          0.006668251715299445 0.0002977929053984002 0.005204354620823609 0.00172729767916463 0.0014553386548005753 -0.0004771469281784624
          0.006786892920032067 0.006055772585722624 0.00045581308581948976 0.0012795306563210644 0.006478343808338949 0.005220277457293136
          0.006255249017129698 0.004730962753400222 0.0018807888311853198 0.0026442455962144285 0.00637611508832589 0.008160905874413663
          0.0014096728018721978 0.0015068704038382254 0.00209070828041278 0.0008756326476853206 -0.0007022018031684549 0.0009801447392941507
          0.0014279045839672207 0.000685908107866836 0.0012682792617323135 0.0026904977233753458 0.00011308441942249614 0.005432201044832413
          0.005027650047551624 0.0005752337434281329 -0.00037742606320573246 0.005046022159444982 0.006322723109857403 0.003988561520960027
          0.002561898380403535 0.007255689343261998 0.011040409566862308 0.00015211096503717214 0.0026389026689643894 0.00002200424857472824
          -0.001061387961286412 0.0008829891000318724 0.005334576339506444 0.0023404731141396865 0.0016925970216708185 0.006742706698895359
          0.013174222192349238 0.008977863390528123 0.008530577867599294 0.010481667623773498 0.0022720002695994293 0.006369029125330494
          0.006656269595883779 0.0057638541924810716 0.0027023299110214005 0.002518035819256595 0.0075989821410133995 0.0068459318753562835
          0.00748046104028989 0.004538977776063852 0.015297438553567456 0.010059866868300904 0.01021013314029627 0.006534808904948994
          0.005671724833063413 0.006176702892297561 0.0007318639635807977 0.0002781712033763095 0.00562232092188969 0.0065585405537963715
          0.0091308767831281 0.014054209598931139 0.0037283158334073807 0.0045475923701044085 0.008007013826255877 0.006213108679091112
          0.0067204408960283915 0.001515517552515555 0.0036513827933258095 0.0026499038248813944 0.009281499944902377 0.006764887273476669
          0.005313221419239025 0.00240533467669006 0.00615936880164121 0.004367752880675951 -0.0009302669356400506 0.0036160238083083884
          0.002999514251808791 0.0030888808635676293 0.0048352235480592885 0.00009136957222866116 0.0017373550583007769 0.0043297245453728025
          0.004814480863991982 -0.0015323407117061455 0.005222516761760956 0.005054213143305404 0.007756167655341586 0.003417840975422401
          0.004584634725606697 0.007261339063256683 -0.0005043252942477233 -0.00034719816520317054 0.0024010452273663593 0.0026944094330953183
          -0.0005659110671677675 0.0008090222522167956 0.000019354160270698695 -0.00022145436616852372 0.0003453060748399954 0.0014527245971535374
          0.00004495846331796158 0.003920385397183857 0.002804994663039014 0.003358499854463813 0.0032840638724064806 0.006382953305104489
          0.011171795494016694 0.010668488459694439 0.0005796503795661295 0.01650300763809956 0.021448988926691614 -0.00017534496616450346
          0.01241942167349451 0.012797397321722859 0.002384134205218033 0.005718459039437546 0.00027062093794860687 0.009893603124046801
          0.005135988748855699 0.003675452991533667 0.0022485077590616957 0.003422384682395748 0.0024343047674972775 0.0027640266007686026
          0.008278800016695337 0.0021631930382136483 0.002084297708993084 0.00007708119468322061 0.007682990437376466 0.0052106042517933784
          0.010711939721022967 0.0017134911295431238 0.0048305600228918805 0.009021185161084147 0.0007308748266698223 0.004110916937155706
          0.004534331527201285 0.00305583403881253 0.0019581257872128555 0.002381671773311833 0.005225965755400991 0.002728459404791106
          0.0026995349474418333 0.0014588748920236119 0.0009367416306000596 0.003295625727620837 0.004098755677287267 0.004667528992146272
          0.004386612478456869 0.0043819418949295336 0.0018995654646946428 0.002432615458339754 0.0021761058716456387 0.002323642029383448
          0.002408652029296611 0.0008742026450798135 -0.0004994544134571538 0.0006913241505911438 -0.000058244023546830115 -0.0002159172442311036
          0.0018508882025830564 0.002148598041504489 0.0011529754751119087 0.004117743876238256 0.0027199846377052445 0.0035581829505327983
          0.0010030224072684057 0.005252017900130065 0.003983790082136521 0.007390281151818407 0.005024358997796129 0.005036638723099847
          0.002569164910724604 0.005663951144425958 0.0054446086293323225 0.0031549227718134856 0.0004127661599279131 0.0017294812636250018
          0.0001651225861112049 0.0023515150852824462 0.0005603666033913157 0.004298152095879432 -0.001027854353186003 0.0038121418175233977
          -0.00021692366909760452 -0.00019351514370861272 -0.00008613707996802875 0.0002547603877418002 -0.000033912341317943184 -7.248732286010973e-7
          -0.001223889379701821 0.00002924008811248241 -0.00007865800658959227 -0.0002488304893261545 -0.0012375760673186617 -0.0004633611857080312
          -0.0007614153677862751 -0.0001419417929870853 -0.001611984677195949 -0.00042652661124315677 -0.0014264628628846213 -0.001660315261244348
          0.002799781632084171 -0.000003306362990531525 0.0014912990796588557 0.0012905948664772016 -0.00011744958399542704 0.0006554913835715437
          0.0052904552651844294 0.0006382110028339549 0.004339362500918889 0.010927077030883497 0.013728110589351195 0.01058909160731833
          0.007244429624139098 -0.0004024998852138473 0.0033045192262247253 0.0035402947268771724 0.004523749460795867 0.0008908517470293184
          0.0027746303651007623 0.0037016227898764922 0.003712586282925534 0.0070891415655263655 0.002472699162840198 0.003479429147304796
          -0.0015388426800568844 0.00031358240468837284 -0.0011495951987072761 0.012386831229695985 0.011262633392096044 0.00799915963670296
          0.004647613972993292 0.003900198919990411 0.003208316431773911 0.008149049060276192 0.0033348227655264906 0.01039045858891563
          0.0005099654133030596 0.009349162300509944 0.003541713505800431 0.006009175492142731 -0.001859958304931155 0.0021955387182028482
          0.00706705589239498 0.0001426226883814441 0.0032655863117689587 0.005610415549748032 0.002838246535397007 0.002431117494680869
          0.008475585602967406 0.0030100474858963944 0.0029540209081393987 -0.0021809610953514857 -0.004087975809847155 -0.0023805070906350867
          -0.0022190023806421544 -0.0016605852160554713 -0.0008074608996977983 0.00041876860309560116 -0.0001598074554068074 -0.0031346865449655703
          -0.001993479171912782 -0.002143436493565201 -0.0027499050718447493 0.0026492596636313037 0.00023332747716262037 0.001714257189825652
          -0.00022672290073674772 0.002019850174340282 0.00012678232874413498 -0.001523947161570026 -0.0012259650849578176 -0.0008088232125551299
          0.005697297650118652 0.003547329295412599 0.003560586805219961 0.008361040652156492 0.017175289701226167 0.01026591140513071
          -0.0016872949432795992 -0.003148970925131181 -0.014692940797494863 -0.004103553832132789 -0.0018749499077891502 -0.003635259545567718
          0.0007643084881829021 0.001042847547927439 0.0007097040743982014 0.0009686682637462529 0.0009147901706244577 0.0005494474922031062
          0.0007531067330311392 0.0010707178574894949 0.0009055281811142582 0.0006225368395486493 0.0007689560925820613 0.0006103168467960825
          0.0008534706319519372 0.00046983526887955235 0.0007257632870260201 -0.0016469132484309978 -0.0005405498228063452 -0.001465126174893569
          0.0019098731789093937 0.00005657738142075819 0.0010732723685185491 0.0008218622559311439 -0.0002632705733624924 0.00013320494355920087
          0.005063939785650909 0.0011090255472350902 0.0021467953743375956 0.00868769564801208 0.0035173627833440142 0.0038739785560958674
          0.011552696179111172 0.006585236992217525 0.015010473969891192 0.013109059851443755 0.009558804424035644 0.008032264974204173
          0.002390271447115247 0.013234602782197513 0.010320455708105997 -0.0010689711764310383 0.010925858267194583 0.009126877156164184
          0.00011966508355243377 0.007324364424347862 0.008643070312091133 0.006293584515468492 0.0075865228774923965 0.00626994033838274
          -0.0023752259342547655 0.004546183014288024 0.01927118879519707 0.0073879298757748985 0.006639409748909475 0.011670433245731665
          0.004888957079183992 0.0030139705506197143 0.01240513256677303 0.003103606943687276 0.009068619059880975 0.0026237726743773004
          -0.001699550863293972 -0.006338285832843238 -0.004366396540896385 0.0030815776506173953 -0.0019110227567944449 0.000689427291193076
          0.0051819933251977535 -0.0022172084926718183 -0.0008754607986964091 0.0005493065034609113 -0.003998966242930835 -0.0030464430901772366
          0.004455130318581503 0.016161090587577406 0.01019726657742917 0.0013426930729143402 0.007880214373360308 0.004195287942897405
          0.007021080543325536 0.006692852863151549 0.006725596232336664 0.0009220542824816477 0.0010949266374219169 0.007232572924789495
          0.007176335741894635 0.004588757608361121 0.004345354441238625 0.0005000123389763342 0.0032872157629792037 0.00589161164239288
          0.010174010450463206 0.02109825799651427 0.0121766923750787 -0.0011845720889309581 -0.007600356943430968 -0.019562864464487503
          0.010557600571980685 0.014691332496523879 0.008301670690792268 0.009913169283327888 0.011620914735422372 0.008030127142034521
          0.004450918401089993 0.007134869694179757 0.001794177215638515 0.010148828324001297 0.002355937769627142 0.017738574396714835
          0.008512180810469894 0.010857943948214821 0.010524136245442628 0.0020068095723935198 -0.00008718233501012196 0.0038668787305116414
          0.003255765235154362 0.0016009227367581869 0.002867289701367376 -0.00692721587313587 -0.0022115844420084324 -0.0038838803245448555
          0.0021023579296506195 0.004418121539337919 0.005610244231512934 0.0070522429798113295 0.0012521500213994036 0.009370264972055092
          0.009027105678594258 0.015179571156633015 0.008902582259444652 -0.0016068870767541876 -0.006316190340317315 -0.004308962320156262
          -0.007491156904981464 -0.005407132074414872 -0.005630692928269551 0.005039967312077273 0.009588308377870905 0.009942153483492422
          0.012782069986613076 0.00823496869991798 0.007906693915170626 -0.007317402946936155 0.0035245091416958724 0.011089187363009206
          0.01088384847302748 0.014692473448721322 0.008454041014150142 -0.0027751323152240825 0.0018041691498881796 -0.0018204620983414133
          -0.0007823247310896897 -0.0009268651443274378 -0.002818335302115643 0.006953250552405317 0.0003040662027302826 0.0022337078058387028
          0.0016526884343044668 0.001588680109312568 0.004158091354239515
        </DataArray>
        <DataArray type="Float64" Name="resid_z" format="ascii" RangeMin="0" RangeMax="0">
          0 0 0 0 0 0
          0 0 0 0 0 0
          0 0 0 0 0 0
          0 0 0 0 0 0
          0 0 0 0 0 0
          0 0 0 0 0 0
          0 0 0 0 0 0
          0 0 0 0 0 0
          0 0 0 0 0 0
          0 0 0 0 0 0
          0 0 0 0 0 0
          0 0 0 0 0 0
          0 0 0 0 0 0
          0 0 0 0 0 0
          0 0 0 0 0 0
          0 0 0 0 0 0
          0 0 0 0 0 0
          0 0 0 0 0 0
          0 0 0 0 0 0
          0 0 0 0 0 0
          0 0 0 0 0 0
          0 0 0 0 0 0
          0 0 0 0 0 0
          0 0 0 0 0 0
          0 0 0 0 0 0
          0 0 0 0 0 0
          0 0 0 0 0 0
          0 0 0 0 0 0
          0 0 0 0 0 0
          0 0 0 0 0 0
          0 0 0 0 0 0
          0 0 0 0 0 0
          0 0 0 0 0 0
          0 0 0 0 0 0
          0 0 0 0 0 0
          0 0 0 0 0 0
          0 0 0 0 0 0
          0 0 0 0 0 0
          0 0 0 0 0 0
          0 0 0 0 0 0
          0 0 0 0 0 0
          0 0 0 0 0 0
          0 0 0 0 0 0
          0 0 0 0 0 0
          0 0 0 0 0 0
          0 0 0 0 0 0
          0 0 0 0 0 0
          0 0 0 0 0 0
          0 0 0 0 0 0
          0 0 0 0 0 0
          0 0 0 0 0 0
          0 0 0 0 0 0
          0 0 0 0 0 0
          0 0 0 0 0 0
          0 0 0 0 0 0
          0 0 0 0 0 0
          0 0 0 0 0 0
          0 0 0 0 0 0
          0 0 0 0 0 0
          0 0 0 0 0 0
          0 0 0 0 0 0
          0 0 0 0 0 0
          0 0 0 0 0 0
          0 0 0 0 0 0
          0 0 0 0 0 0
          0 0 0 0 0 0
          0 0 0 0 0 0
          0 0 0 0 0 0
          0 0 0 0 0 0
          0 0 0 0 0 0
          0 0 0 0 0 0
          0 0 0 0 0 0
          0 0 0 0 0 0
          0 0 0 0 0 0
          0 0 0 0 0 0
          0 0 0 0 0 0
          0 0 0 0 0 0
          0 0 0 0 0 0
          0 0 0 0 0 0
          0 0 0 0 0 0
          0 0 0 0 0 0
          0 0 0 0 0 0
          0 0 0 0 0 0
          0 0 0 0 0 0
          0 0 0 0 0 0
          0 0 0 0 0 0
          0 0 0 0 0 0
          0 0 0 0 0 0
          0 0 0 0 0 0
          0 0 0 0 0 0
          0 0 0 0 0 0
          0 0 0 0 0 0
          0 0 0 0 0 0
          0 0 0 0 0 0
          0 0 0 0 0 0
          0 0 0 0 0 0
          0 0 0 0 0 0
          0 0 0 0 0 0
          0 0 0 0 0 0
          0 0 0 0 0 0
          0 0 0 0 0 0
          0 0 0 0 0 0
          0 0 0 0 0 0
          0 0 0 0 0 0
          0 0 0 0 0 0
          0 0 0 0 0 0
          0 0 0 0 0 0
          0 0 0 0 0 0
          0 0 0 0 0 0
          0 0 0 0 0 0
          0 0 0 0 0 0
          0 0 0 0 0 0
          0 0 0 0 0 0
          0 0 0 0 0 0
          0 0 0 0 0 0
          0 0 0 0 0 0
          0 0 0 0 0 0
          0 0 0 0 0 0
          0 0 0 0 0 0
          0 0 0 0 0 0
          0 0 0 0 0 0
          0 0 0 0 0 0
          0 0 0 0 0 0
          0 0 0 0 0 0
          0 0 0 0 0 0
          0 0 0 0 0 0
          0 0 0 0 0 0
          0 0 0 0 0 0
          0 0 0 0 0 0
          0 0 0 0 0 0
          0 0 0 0 0 0
          0 0 0 0 0 0
          0 0 0
        </DataArray>
        <DataArray type="Float64" Name="stress_zz" format="ascii" RangeMin="-2281100.9557972667" RangeMax="3241547.533142422">
          -441798.73248185386 -469187.85401439597 1008167.7291296581 981006.3669532541 -402330.8275319745 -481428.3548152892
          1023374.3863584957 986367.4671405181 -362862.92258209514 -493668.8556161825 1038581.0435873328 991728.5673277819
          -1037765.5414162563 -928312.2999502622 -993152.484192132 -574684.5608119615 -1082804.5378266769 -964363.8611725329
          -999797.0044105268 -617300.8995226714 -1127843.5342370975 -1000415.422394804 -1006441.5246289216 -659917.238233381
          -805258.4402669943 -805248.4860638765 -805238.5318607589 -921933.6975611916 -885568.4146722644 -849203.1317833373
          1106726.068284558 1201624.508215369 1099069.7123575495 1196742.2107199852 1091413.3564305406 1191859.9132246012
          1373371.1852501647 1232258.156105135 1012271.8695561191 1409271.2199208003 1332367.2766197484 1198526.285668338
          994631.9970114849 1408602.58756846 1291363.367989332 1164794.4152315406 976992.1244668507 1407933.9552161198
          -281922.47256850405 150207.74602051542 1119089.7397290748 1461933.0476251203 -296582.42559418106 166957.35194904797
          1192848.3013247862 1570632.3617829937 -311242.37861985806 183706.95787758057 1266606.8629204978 1679331.6759408673
          -1605785.304166634 -1004886.448026255 -272773.511534305 -130377.68814878569 -1606162.474488893 -1015302.8801091288
          -264729.702603465 -143652.64526389516 -1606539.644811152 -1025719.3121920024 -256685.89367262507 -156927.60237900462
          2105754.8364175493 2432560.0286929514 212725.75983928406 2164347.4816033747 2490515.7511096722 213022.99046054544
          2222940.1267892 2548471.473526393 213320.221081807 1135175.7873748553 1685302.2251046717 906994.6884694174
          408948.3895047307 1184313.2985489466 1760074.1025906464 957632.3066250548 410577.9991025644 1233450.8097230382
          1834845.980076621 1008269.924780692 412207.6087003982 755160.6553063497 761495.9168662339 767831.1784261181
          671411.2173126454 1115232.4960473266 649510.0691227634 1056519.7322743388 627608.9209328815 997806.9685013512
          -536061.2383003824 -335408.2604661856 -298023.1605356116 -529650.4850016877 -318060.5238404404 -237671.9724185284
          -523239.7317029929 -300712.7872146951 -177320.78430144515 477559.3716573629 145906.166145019 1131137.360935801
          1218009.2089670906 471326.17127602536 167418.4432806706 1133456.7936201254 1197777.1904027862 465092.97089468775
          188930.72041632218 1135776.2263044494 1177545.171838482 642613.345432676 1595893.28985708 -95636.51490775729
          689754.010975606 1680907.9197829864 -199555.50309581577 736894.6765185359 1765922.5497088926 -303474.4912838744
          2985173.5244455193 1175342.1633661264 1180577.14052776 3113360.5287939706 1120917.0982422894 1139163.674119015
          3241547.533142422 1066492.0331184524 1097750.2077102696 -156979.49494600607 -1252146.095841526 -883258.5253291425
          82909.19612669863 -126851.08868535355 -1377123.8583095116 -916772.7315357728 74879.33744965124 -96722.68242470102
          -1502101.6207774975 -950286.9377424032 66849.4787726038 67604.01439967453 602069.0694300383 179802.1894885613
          565039.3340663682 292000.364577448 528009.5987026979 806133.7959531539 665196.3311014472 1523111.446419803
          772614.0896225268 691113.4330992026 1550747.7013326471 739094.3832918998 717030.5350969579 1578383.9562454913
          1537556.9852392806 366445.39283831604 1058908.7615604773 1719109.591935898 1507336.776047253 367225.7820003303
          1036804.6862569659 1746924.8989004064 1477116.5668552252 368006.1711623444 1014700.6109534544 1774740.205864915
          168657.5920722014 222198.41334702604 84350.24748752028 192686.82965617083 42.902902839162074 163175.24596531567
          315238.9587865092 -465875.16324798454 308192.5401674828 -481875.9590267474 301146.12154845643 -497876.7548055104
          347477.24559876823 190885.43189016072 363613.78785687615 213968.64110872807 379750.3301149841 237051.85032729543
          -107265.63800863069 -85007.70037622706 458172.1017682227 545672.913413271 -104598.26300572883 -113498.94141606391
          434026.8780105015 598152.0234296741 -101930.888002827 -141990.18245590077 409881.65425278025 650631.1334460774
          970802.5958373845 16494.07413150638 963888.8197784998 -8329.263741828996 956975.0437196151 -33152.60161516437
          1305199.3406156958 1341921.2205439531 1289167.268611217 1285463.913111863 1273135.1966067387 1229006.605679773
          1107781.9143838158 861032.3346198782 1065373.9594952953 803358.3592042888 1022966.0046067749 745684.3837886995
          784708.222983062 766267.7055464908 747827.1881099198 72075.91841456312 60448.152169802495 48820.38592504188
          -328951.17618921027 -248363.17758945847 127396.43525447049 59793.07327585756 -331672.8001498337 -232499.58621559598
          141098.98685156074 91814.83467575247 -334394.4241104572 -216635.99484173354 154801.538448651 123836.5960756474
          1442011.377388019 1953832.9023809596 1903259.5865099418 1395507.3665890747 1972298.8091115516 1943770.5800097685
          1349003.3557901308 1990764.7158421446 1984281.573509595 287419.0800482237 235436.09419729045 78543.5956167915
          162992.46629129964 -130331.88881464077 90548.8383853088 1791040.3734141903 1775526.3481610722 1760012.322907954
          56130.632669896775 -66107.85136544908 -527167.6254302437 -46211.28577136612 61649.30419779948 -61909.97466336275
          -470864.2389266188 -39485.54713075306 67167.97572570217 -57712.09796127648 -414560.85242299375 -32759.80849014003
          226982.5611990839 191486.77210970386 155990.98302032377 780818.2129324563 786296.0893140053 791773.9656955546
          -939428.653667721 -975524.6447340808 -1011620.6358004406 521465.5464930665 605508.702610496 495515.88345246186
          563175.9645759393 469566.2204118573 520843.2265413828 711447.7055502399 1135817.5406328042 708322.4309618444
          1188783.0852481567 705197.1563734487 1241748.6298635092 989632.3411339635 902367.5597309287 841484.7633210473
          834807.6112323182 693337.185508131 767247.6627337076 523859.39130205254 302625.9894157746 520357.9316419279
          280865.119273553 516856.47198180325 259104.2491313313 1431538.3100279984 1454756.5881532326 1477974.866278467
          -171738.9329854648 193770.42876706045 -227332.48639540785 178196.56106703548 -282926.0398053508 162622.69336701056
          -442316.14925048046 -352372.55285732535 -450793.49857597455 -412243.4316788197 -459270.84790146863 -472114.3105003141
          600308.4120540537 602192.9535980787 604077.4951421036 736106.6604950298 708290.0325400683 680473.404585107
          -940609.403499793 -1349136.428403759 -933594.856324608 -1450232.683577343 -926580.3091494231 -1551328.9387509266
          1351964.972864381 1346244.947153995 1340524.921443609 403972.56865527085 408354.39293631533 412736.2172173598
          1381007.3024971678 1649534.7523455406 1400025.4527170185 1682996.5154390205 1419043.602936869 1716458.2785325004
          1309647.7336915312 -335923.1486394374 1333362.4421583642 -320226.2601922747 1357077.150625197 -304529.37174511206
          693680.166083504 -12225.567955908831 -1262310.400383495 654217.8089672782 -7940.10246510827 -1335307.5014581631
          614755.4518510525 -3654.6369743077084 -1408304.6025328315 -375584.0479139043 360379.01281323354 625469.3685053325
          -624916.0680590566 -384855.49839941546 199770.99256877636 485805.4936907719 -595526.4119765131 -394126.94888492656
          39162.972324319126 346141.61887621135 -566136.7558939697 330891.62928062014 214751.6126048314 435887.2684084291
          454656.38747113483 359627.3457822958 192015.9192166669 417685.10316900763 454534.6411595974 388363.0622839716
          169280.22582850247 399482.93792958616 454412.89484806004 1480785.2968741865 1422144.683442223 1363504.070010259
          715924.7477206544 182408.97114613862 694687.5324544286 92320.08689625858 673450.3171882029 2231.2026463786024
          1936037.9945473452 755381.3050461891 1882508.5717420983 691950.0872752186 1828979.148936852 628518.8695042479
          854404.4011660535 336643.60093056504 795385.3006856437 313116.03195057577 736366.2002052339 289588.4629705864
          97421.42381929653 535869.0226163748 136995.64009786403 579668.3916098854 176569.85637643147 623467.7606033958
          -566596.1001482522 -188234.80984158628 -598267.0064613447 -202788.78345284518 -629937.9127744371 -217342.75706410408
          1507519.4328749601 1577898.885260099 1648278.3376452378 1102235.0231189486 1089035.981818525 1075836.9405181012
          -512583.6599902753 -1604031.0192539168 -359504.3647936644 54554.969546847366 -514550.69515043095 -1592677.4072900147
          -312015.48893576197 84063.4042000831 -516517.73031058663 -1581323.795326113 -264526.61307785957 113571.8388533188
          745268.1271748219 1546312.028152151 760594.4334080821 1498422.9571085274 775920.7396413421 1450533.8860649036
          326952.67227477557 375993.56291722704 155112.45468178485 246925.52086208618 309941.23466237576 369041.59978896554
          157582.93713910333 236689.46720081035 292929.79704997595 362089.63666070404 160053.41959642188 226453.41353953452
          -119589.02187268456 -431185.2052165666 -785155.4496274239 -116840.81940009816 -443685.49373050465 -816099.6254730453
          -114092.61692751174 -456185.78224444273 -847043.8013186669 -286202.4598206569 -221580.5513262038 -156958.64283175074
          926846.2446865785 132750.7898775342 871096.3183688042 133450.27634365513 815346.3920510297 134149.762809776
          222861.35360864867 484371.6179227819 242868.92094260742 527150.9017117904 262876.48827656615 569930.185500799
          538880.5689861154 519126.366955521 499372.16492492653 1593187.162567465 1656659.5165998994 1720131.8706323337
          1169291.413225291 1870804.704768142 1226711.9858475642 1735862.81165031 1284132.558469837 1600920.9185324784
          39499.98186542661 97406.19804090806 36155.77947949491 95566.09548214874 32811.5770935632 93725.9929233894
          532152.705850444 544817.5115114402 502480.8666782704 520024.6526893632 472809.02750609675 495231.79386728635
          451106.747184861 -130882.97634790587 449378.5096752501 471061.05131494836 -142241.83413837198 470212.08341982425
          491015.35544503585 -153600.6919288381 491045.6571643984 -67197.01311866764 -60.78861981496448 -63120.09875264102
          51250.592720757035 -59043.18438661442 102561.97406132898 -410274.7542359354 -384947.4781522212 -454517.50999160897
          -438394.3766168807 -498760.26574728254 -491841.2750815402 52102.48488656855 952793.8644335401 -7105.249826477695
          929362.9061611255 -66312.98453952394 905931.9478887111 202741.1277887282 208548.74652434624 214356.36525996428
          984701.6722487672 886465.3804263765 1062825.1768621868 1251164.6777842299 961109.153767491 904114.6631058762
          1060179.6070673561 1209078.742233319 937516.6352862148 921763.9457853758 1057534.0372725255 1166992.806682408
          872741.9561672579 966240.1227382184 884217.6832162761 967083.5687996182 895693.4102652946 967927.0148610179
          -317742.1629900275 -323963.2710417048 -330184.37909338204 2186234.7077783225 2164852.308992864 2143469.910207405
          -168234.50450936318 -157508.58569255786 -146782.66687575253 232746.3045396589 288556.1726377795 344366.0407359002
          135739.85075818165 169191.51698635664 202643.1832145317 -1007196.121962708 -1022395.6835044753 -937745.0352729505
          -1097749.9602669985 -868293.948583193 -1173104.2370295217 -1198928.0184710931 -1179118.2766603495 -1159308.5348496055
          -640966.2473439928 -604854.4538836161 -568742.6604232397 -1029821.0734675889 -1073221.892107989 -1116622.7107483894
          3171171.650472106 3169886.5359107405 3168601.421349376 171041.5281710382 1012876.3886566482 83263.51618986514
          948845.5761023822 -4514.4957913079415 884814.7635481163 2513244.3035327615 2512189.448723637 2511134.593914513
          1618679.3668124273 1542368.6567700505 1466057.9467276735 -2025391.2301284976 -2153246.092962882 -2281100.9557972667
          1368997.1514546152 1528595.1368761002 1688193.1222975848 16841.175981450535 40042.626481323234 63244.07698119595
          -168661.92606660962 -123108.2563480004 -77554.58662939118 433640.984413135 559373.4783323344 415866.8169288202
          566003.9417205863 398092.64944450546 572634.405108838 867950.1907859255 3025305.058135311 864295.8759900201
          3072618.116106624 860641.5611941149 3119931.1740779364 677051.6183692589 669428.7735846693 661805.9288000797
          276769.5871702094 261928.79770246692 247088.00823472443 864622.7299321425 864278.0434677097 863933.3570032768
          211005.7987200171 627245.2326566883 145965.20536998782 604821.5285135483 80924.61201995853 582397.8243704084
          895045.1027257247 939983.6245319532 693074.0236064142 817861.2304929195 866883.9756860806 714714.0856884632
          740677.3582601141 793784.3268402079 736354.147770512 808543.6043697605 725376.3035134583 805017.4947406902
          698418.3867135486 801491.3851116198 671460.4699136388 794822.2336343423 789386.6795921996 783951.1255500569
          884967.2418953701 886402.5886133101 887837.9353312503 1818257.517001701 1808256.7449179483 1798255.9728341955
          988759.8711444472 1008198.0862672984 1027636.3013901495 -133620.38525832543 -127415.41532441552 -121210.44539050554
          -958748.6254243532 -677264.6129264571 -1019755.2273824525 -643096.5449554159 -1080761.829340552 -608928.4769843746
          198597.13160813204 215973.31930972481 233349.5070113178 912050.8304304415 968037.9717979537 2036784.214245053
          875503.8571459857 907045.776274059 2146668.0816093865 838956.8838615299 846053.5807501642 2256551.94897372
          187481.99750557868 57589.97725749096 111294.81696765537 61325.54918017806 35107.63642973204 65061.121102865145
          1071750.7438550803 -550459.4998428372 1051100.8019712172 -540423.0567165969 1030450.8600873537 -530386.6135903565
          304453.9905578832 287287.14377262426 270120.2969873653 -10745.018833433976 -144928.74537827988 84557.7974139273
          11131.923443436186 -132860.11944663693 102683.84149827299 33008.86572030635 -120791.49351499401 120809.88558261865
          -475904.761014094 -482807.6758735624 -489710.5907330307 -136163.3093534433 200580.86486531596 -187511.3789784699
          212171.21932958148 -238859.44860349654 223761.57379384706 -928632.9131418855 -942122.2862636102 -916213.9108610988
          -937826.835956733 -903794.908580312 -933531.385649856 1155303.662483719 1195884.0787223657 1236464.4949610122
          541570.5619245701 502725.54753818654 463880.5331518028 -487005.30684112053 -463161.4247663058 -439317.542691491
          34451.61981199938 32341.634103424774 30231.64839485017 273890.67065184924 251824.17238734782 229757.67412284642
          -728992.9465785342 -714095.1509849824 -699197.3553914304 446012.8963443729 365783.8494249743 501635.0380650163
          369884.12530921213 557257.1797856597 373984.40119345003 92424.37250631655 363852.64404919464 81590.75027688267
          383503.80378778727 70757.12804744879 403154.96352637996 -141156.66949907938 -88565.37230459749 -35974.075110115635
          210367.9894942555 204584.2571020755 162823.12802879664 134541.27564108645 115278.26656333779 64498.29418009744
          972068.0188840192 957716.4154096816 943364.8119353441 -480564.9014029787 -73729.16654160833 -498059.9907466859
          -59128.515364564395 -515555.0800903931 -44527.86418752045 535902.6906767637 660476.6573763744 583079.7044415504
          628036.6559693627 630256.7182063371 595596.6545623511 17322.74356740585 -109850.46536198 -237023.6742913658
          2370949.246996247 2586170.586294898 2801391.925593548 -1258962.0611103273 -1284632.3400686136 -1310302.6190269003
          -1414116.721834956 -1459356.7481268547 -1504596.7744187533 43230.269035333185 74921.71178483183 106613.15453433042
          -69022.03612915502 -6701.358823244489 55619.31848266604
        </DataArray>
        <DataArray type="Float64" Name="peeq" format="ascii" RangeMin="0.000963582914014289" RangeMax="0.003732536841099691">
          0.0024967687877281743 0.002745573165166611 0.002750435993328563 0.002569795651845058 0.002496083823585255 0.0027440679462969685
          0.002749193610492068 0.002568870147804498 0.002495398859442336 0.0027425627274273254 0.0027479512276555734 0.002567944643763937
          0.0015390969523039178 0.0012863275054346588 0.0012828136987656147 0.0015847068355604303 0.0015393115583121574 0.001286143042745361
          0.0012830747578239214 0.0015849959262327214 0.001539526164320397 0.0012859585800560635 0.0012833358168822281 0.0015852850169050126
          0.0010104882108954738 0.001011000648560269 0.0010115130862250639 0.0010520497817344556 0.0010525824863663403 0.0010531151909982253
          0.0026187278327519984 0.0024536203102938255 0.0026178881103037315 0.0024528879493170563 0.0026170483878554646 0.0024521555883402868
          0.003512009869156521 0.0035709642125523284 0.003373795462417012 0.003393645892848064 0.0035098137957336 0.00356908798757516
          0.0033717224541527356 0.003391384067079419 0.0035076177223106802 0.003567211762597991 0.0033696494458884604 0.0033891222413107744
          0.0019042116050423281 0.002139470853579072 0.0023017349033570595 0.0020939490651212564 0.0019038703954100472 0.0021385728020347824
          0.0023011145092906938 0.0020937704002705936 0.0019035291857777664 0.0021376747504904922 0.0023004941152243285 0.002093591735419931
          0.0014503656878165955 0.0015863563387379456 0.0013833467403194099 0.0013057945827350162 0.001451296260524439 0.0015867715929878078
          0.001384223740849139 0.0013066422453843888 0.001452226833232283 0.0015871868472376702 0.0013851007413788682 0.0013074899080337613
          0.0032361846326828536 0.0031207048921810436 0.00297847509534955 0.003236119451263492 0.0031209030846343693 0.002978268349651804
          0.0032360542698441305 0.003121101277087695 0.002978061603954058 0.0032476701539273034 0.003481930624006446 0.003469843577707666
          0.0031500186569924818 0.0032465418034118066 0.003480282443974797 0.003467933863511764 0.0031489574785388314 0.00324541345289631
          0.003478634263943147 0.0034660241493158625 0.0031478963000851796 0.0028863510742289686 0.0028855414520417033 0.002884731829854438
          0.0029538622139505307 0.002836525497414559 0.002951934423907605 0.002834910012146288 0.0029500066338646793 0.0028332945268780166
          0.0022260941396561353 0.002492858132527341 0.002223481229301772 0.002225546705535873 0.0024918440058754403 0.0022234570568383334
          0.00222499927141561 0.0024908298792235394 0.0022234328843748945 0.003271558452997136 0.0031465302889291374 0.00325233702551316
          0.0033930272617381735 0.003269532804224424 0.0031453929708217857 0.0032513424299242116 0.0033913010783512146 0.0032675071554517116
          0.0031442556527144327 0.003250347834335263 0.0033895748949642557 0.0026390080538284404 0.0024244829730855613 0.0025208122193148066
          0.0026387007099517045 0.0024240441787862976 0.0025195000868052297 0.002638393366074969 0.0024236053844870343 0.0025181879542956523
          0.0022607541314399516 0.0022414350868729003 0.0018812514569018003 0.0022602538784740867 0.002240451634349556 0.0018811598852633443
          0.002259753625508221 0.0022394681818262117 0.0018810683136248878 0.0028925202650267774 0.002684912996645081 0.0027482235028013146
          0.0030213590594898917 0.002891833178852911 0.0026831998268645966 0.0027469890587544245 0.0030202442008248715 0.0028911460926790444
          0.0026814866570841127 0.0027457546147075336 0.003019129342159852 0.003293034067148159 0.0030590737575913805 0.0032916455240096926
          0.003057204035941314 0.0032902569808712263 0.003055334314291247 0.00332964734285164 0.0030067415073682666 0.0030992955804021944
          0.0033278750775853462 0.0030060860259364373 0.0030980126439234036 0.0033261028123190515 0.003005430544504609 0.0030967297074446128
          0.002929619663237738 0.0031175590203838827 0.0033480141555284775 0.0032191483433188957 0.0029283585897867475 0.003115708633195057
          0.0033457168525067903 0.0032173467050241236 0.0029270975163357567 0.0031138582460062316 0.0033434195494851026 0.0032155450667293514
          0.001976542709170541 0.0021543114216352787 0.0019762052289463285 0.002153528699259501 0.001975867748722117 0.0021527459768837243
          0.002203722915373949 0.0024006577726043937 0.002203414852229963 0.002399910892687713 0.0022031067890859774 0.0023991640127710317
          0.0012257608805797495 0.0012371279298398579 0.0012257661840469124 0.001237255999744701 0.0012257714875140747 0.001237384069649544
          0.0019762137081633757 0.001879966009015073 0.0021920636175474396 0.0023317658351359994 0.0019767190851067867 0.0018802222407023012
          0.00219178000062195 0.002331868857781563 0.0019772244620501972 0.0018804784723895293 0.0021914963836964603 0.0023319718804271274
          0.003407716059982602 0.003139794010170763 0.0034068494016717236 0.0031389617644051195 0.0034059827433608443 0.003138129518639476
          0.0036553374651293546 0.0035202064774871667 0.003652664533961321 0.003517806319213123 0.0036499916027932875 0.003515406160939079
          0.003728881948295721 0.003638967797193114 0.0037260846839969938 0.0036358810467084068 0.0037232874196982666 0.0036327942962237
          0.0023057575984265204 0.002304799254926209 0.0023038409114258967 0.0022737608099843093 0.0022748752360790083 0.0022759896621737073
          0.002838169813719416 0.0025386338287897393 0.002588069922418122 0.0029219301735558018 0.0028379690349274503 0.002539341269265786
          0.002588755611872249 0.002921675537642686 0.002837768256135485 0.0025400487097418326 0.0025894413013263762 0.00292142090172957
          0.0035126438517953822 0.0034859345938663953 0.003572768113057609 0.003510419308645717 0.0034845372841672 0.0035716254688263533
          0.0035081947654960516 0.0034831399744680047 0.0035704828245950978 0.0036083592402692158 0.0034854390918909275 0.003604894095383804
          0.0034829698808969056 0.003601428950498392 0.003480500669902884 0.002762959637806677 0.0027626235135274576 0.002762287389248238
          0.0012534006416147865 0.0013368182167135933 0.0013774981287005324 0.0012665010811355702 0.0012536523912274387 0.001337063245577128
          0.0013785887107755476 0.0012672087515618088 0.0012539041408400906 0.0013373082744406626 0.001379679292850563 0.0012679164219880472
          0.00325584505826474 0.0032545109302651457 0.00325317680226555 0.002655099901210553 0.0026555387971780985 0.0026559776931456437
          0.002729376528073129 0.002729283738914631 0.0027291909497561325 0.0024098611934438414 0.0023198712542871775 0.0024087699112338894
          0.0023186537632397374 0.002407678629023937 0.002317436272192297 0.0025629431351935792 0.0023754522388515784 0.002562959906494558
          0.0023764746305657723 0.0025629766777955365 0.0023774970222799653 0.0037309930969053463 0.0036285766849499476 0.0037278440929031514
          0.0036264633064098254 0.003724695088900956 0.003624349927869702 0.0031303291949259467 0.003057671859465628 0.003128128489710006
          0.0030556207444692486 0.003125927784494066 0.0030535696294728696 0.0033519808834336358 0.003351039013103348 0.0033500971427730592
          0.0028384030973026787 0.002549034396633487 0.0028370507034643495 0.002548685421172894 0.0028356983096260203 0.0025483364457123013
          0.003048709034060379 0.0029294663064921107 0.003046950132693271 0.0029273403951657335 0.0030451912313261623 0.0029252144838393555
          0.0036266060922790543 0.0036237790768869045 0.003620952061494754 0.0035348018622462004 0.0035334190954633333 0.003532036328680466
          0.0028795264620169593 0.0028554106839370074 0.002878610802384223 0.002853478017185131 0.002877695142751486 0.002851545350433254
          0.003656039324952212 0.003653914418989651 0.003651789513027089 0.0023020716101122825 0.002303247905434563 0.0023044242007568424
          0.0037228967549114574 0.003586377375963805 0.0037209743966904844 0.003585221175112626 0.00371905203846951 0.0035840649742614485
          0.0034803575984037995 0.0033165112562768863 0.003479140577156365 0.0033149918758897706 0.0034779235559089304 0.003313472495502656
          0.0024809993453148143 0.0026869912735527557 0.0027068452490988395 0.0024798709701161882 0.0026863191488708422 0.0027053108042033903
          0.002478742594917562 0.0026856470241889284 0.0027037763593079412 0.0029256077295475888 0.0027524586363382115 0.0029370412918500316
          0.003143590048152521 0.0029235776012063075 0.002749455433071852 0.0029341762071713627 0.0031417182349933914 0.0029215474728650267
          0.002746452229805492 0.002931311122492693 0.0031398464218342624 0.0016232951867479542 0.0014377995786945467 0.0013811908078253568
          0.0015075794440960284 0.0016243588769278559 0.0014380929146856213 0.0013809574605002756 0.0015078793414948508 0.001625422567107758
          0.0014383862506766958 0.0013807241131751948 0.0015081792388936736 0.003732536841099691 0.003729333555437114 0.0037261302697745363
          0.002621063805649769 0.0024534017838913702 0.0026192431185400704 0.0024518127107326457 0.002617422431430371 0.002450223637573921
          0.0033518437862545903 0.0032348908576694357 0.003350149875592778 0.003233261634669996 0.0033484559649309673 0.0032316324116705556
          0.002282660728799217 0.0021097544829395977 0.0022815584556130446 0.0021100149005309453 0.002280456182426873 0.0021102753181222924
          0.0016545988702402078 0.0018340207445205802 0.0016557155268910855 0.001835167042966859 0.0016568321835419633 0.0018363133414131382
          0.001462485966029442 0.001366323377804256 0.0014624711675114014 0.0013660634661323261 0.0014624563689933606 0.0013658035544603967
          0.003662952435348047 0.003661874947305018 0.0036607974592619895 0.003580024751785458 0.0035783893397393325 0.0035767539276932063
          0.0017818066388650866 0.0015566481232575167 0.001515305497862974 0.0017184069360714602 0.0017820211105083555 0.0015576706230901597
          0.0015165599973867593 0.0017193088336712977 0.0017822355821516245 0.0015586931229228022 0.001517814496910545 0.0017202107312711352
          0.0035389686206656534 0.0035406960919045958 0.0035368602111182394 0.0035387297772608546 0.0035347518015708245 0.0035367634626171135
          0.0012457615507568116 0.0012366517881720234 0.0012533579250933401 0.0012485269466801876 0.001245272322112028 0.0012363204931547475
          0.0012530868113817314 0.0012482658134824666 0.0012447830934672445 0.0012359891981374715 0.0012528156976701229 0.0012480046802847457
          0.0012683181021846985 0.0011465271677324072 0.0012226232768547897 0.0012681832674135349 0.001146739923998445 0.0012225265664712601
          0.001268048432642371 0.0011469526802644831 0.0012224298560877308 0.0018768185816112066 0.0018783675402359607 0.0018799164988607144
          0.0034216139744865015 0.0032535901045826067 0.0034191835978641307 0.003251394280103511 0.00341675322124176 0.003249198455624416
          0.0030870221456584983 0.0027236807636287167 0.003085931386046034 0.0027227658104707095 0.00308484062643357 0.0027218508573127027
          0.001982374473599623 0.0019823325651793303 0.001982290656759038 0.0037299863332819127 0.003728496556313431 0.0037270067793449494
          0.00230148104149873 0.0025894401308765927 0.0023019901051546114 0.002587594859917159 0.0023024991688104924 0.002585749588957726
          0.001253365924281703 0.0012305535495758606 0.0012531997365255426 0.0012305673450370594 0.0012530335487693817 0.0012305811404982581
          0.0012150703858184236 0.0012309536431750273 0.0012155853271354307 0.0012317599973805816 0.0012161002684524373 0.0012325663515861361
          0.0012797562708156498 0.0015065746941327106 0.001382865226966611 0.0012808085469156083 0.0015070815572100576 0.0013835520721759554
          0.0012818608230155668 0.0015075884202874045 0.0013842389173853002 0.0017495917831700898 0.0019778220981301496 0.001749566212048501
          0.001977495984763449 0.0017495406409269128 0.001977169871396748 0.0012991786057032129 0.0013231980458280508 0.0012987257353336338
          0.0013227569874497266 0.0012982728649640549 0.001322315929071402 0.0016579925336022427 0.0015322051437284033 0.0016580476131041984
          0.0015322576117634762 0.0016581026926061546 0.0015323100797985491 0.00128614709830398 0.0012860025718559602 0.0012858580454079404
          0.002267681660116909 0.0022615222903062566 0.002249530797776919 0.0022385530440677207 0.002266415858779756 0.0022599012445888352
          0.0022477970493025223 0.002237233130205446 0.002265150057442603 0.002258280198871414 0.002246063300828125 0.0022359132163431716
          0.0021808696512113776 0.002182390459752715 0.002179535904851099 0.0021810872068362894 0.00217820215849082 0.0021797839539198635
          0.0012759094865586235 0.001275707379717497 0.0012755052728763705 0.0016678767414390469 0.001668063550040872 0.0016682503586426972
          0.002095061805019715 0.0020947824914173893 0.002094503177815064 0.0019114361185421308 0.0019126954100523344 0.0019139547015625384
          0.0023951463726072835 0.002394612251492028 0.0023940781303767723 0.0022085211545802004 0.002355627387331769 0.0022083820357063984
          0.002354417028806108 0.0022082429168325964 0.002353206670280447 0.0024699505041978877 0.002469417092964317 0.0024688836817307463
          0.0021177531949789657 0.0021187438855160305 0.0021197345760530944 0.0012689482895030543 0.0012686718750967922 0.0012683954606905298
          0.003336326364659668 0.003335470578206009 0.0033346147917523504 0.002845456742551224 0.0027528053343147682 0.0028441856816070333
          0.00275139242882107 0.0028429146206628425 0.0027499795233273706 0.0034461741129633095 0.0034452465371632582 0.003444318961363207
          0.002651961091310396 0.0026505258521673427 0.002649090613024291 0.002512137655637648 0.002510602323030173 0.0025090669904226977
          0.0022829956379784226 0.0022842523211347395 0.002285509004291056 0.001973867022748288 0.001975127373284969 0.0019763877238216498
          0.0020012004247962597 0.0020025685243100955 0.0020039366238239313 0.0020327568224840996 0.0020437885180850995 0.0020319178936861267
          0.0020428752183808594 0.0020310789648881537 0.0020419619186766197 0.0019131032403173816 0.0017549969735915535 0.001913181528372896
          0.0017554118154746749 0.0019132598164284102 0.0017558266573577967 0.0023298260275904153 0.0023286711620782354 0.0023275162965660555
          0.0012162888385837164 0.0012165495332418274 0.0012168102278999383 0.0032536179299067934 0.0032521790689533088 0.003250740207999824
          0.0020044180745209866 0.002182016529082177 0.0020038236504931924 0.002180918078820188 0.002003229226465398 0.002179819628558198
          0.0019415945304795163 0.001998713309109194 0.002054886253372132 0.001941624081056493 0.0019988506727085086 0.0020548710713027317
          0.0019416536316334697 0.0019989880363078237 0.0020548558892333306 0.0021526138635601707 0.0021994995757382064 0.002152264860243525
          0.0021990069846725647 0.0021519158569268788 0.002198514393606923 0.0022908557208829346 0.0022895054403816173 0.0022881551598803
          0.001959466726259175 0.001959704839401236 0.001959942952543297 0.0018271610713371193 0.0018273646672392944 0.0018275682631414695
          0.0034114481061849533 0.003409749532377575 0.0034080509585701965 0.0012651928487322664 0.0012649273330952418 0.0012646618174582175
          0.000963582914014289 0.0012630602296740518 0.0009639162978248412 0.001263806159717623 0.0009642496816353932 0.001264552089761194
          0.0027717273163897376 0.0027722183309004654 0.0027727093454111918 0.0025474858086283283 0.0025939678374951474 0.002912335947009939
          0.002546412963079174 0.00259294143571816 0.0029117574711134894 0.00254534011753002 0.002591915033941173 0.0029111789952170402
          0.0017315334223416353 0.0018760177868833443 0.001731637044708203 0.001876066756365351 0.00173174066707477 0.001876115725847358
          0.003067342839437164 0.002744577377767166 0.003067064406756025 0.002745313903255547 0.003066785974074886 0.002746050428743928
          0.0020405799810242027 0.0020402916022814873 0.0020400032235387716 0.002264255222989859 0.002036036790671138 0.001988139455696489
          0.0022654381490636037 0.0020370848491382226 0.00198928056302101 0.002266621075137349 0.0020381329076053075 0.001990421670345531
          0.0025872808289576416 0.002587476588596487 0.0025876723482353326 0.0034634799834708306 0.0035087376861340875 0.0034609936727612567
          0.0035056696048935466 0.0034585073620516825 0.003502601523653006 0.0024914523986504385 0.002433520682793098 0.002492145099310018
          0.0024340473071238168 0.002492837799969598 0.002434573931454536 0.0033103502299733547 0.0033089242666645043 0.003307498303355654
          0.003000910410110676 0.0030002644303592264 0.002999618450607776 0.0017334163976449868 0.0017341697950687715 0.001734923192492556
          0.0016101298688808168 0.0016107060488591142 0.001611282228837411 0.0019865376167139317 0.001987029450349549 0.001987521283985167
          0.0022828425932944134 0.002283961936027203 0.0022850812787599925 0.002378796320524028 0.0024769368555789505 0.00237904404065075
          0.0024762617085973184 0.002379291760777472 0.0024755865616156864 0.001655690990843552 0.0016599444818904173 0.0016566355065281717
          0.0016609650616062142 0.0016575800222127914 0.0016619856413220108 0.0015009720005817702 0.0015023618579494908 0.0015037517153172108
          0.001858288462849759 0.0018393301147042545 0.0018577527209064247 0.0018389091878816047 0.0018572169789630908 0.001838488261058955
          0.0030672173403719855 0.0030663603484300875 0.003065503356488189 0.0016921134405871539 0.0017420965530467296 0.0016927574034154309
          0.0017426955196965567 0.001693401366243708 0.0017432944863463836 0.0032316416047940616 0.0030726902501398996 0.0032300979316879836
          0.0030713590596733917 0.0032285542585819066 0.003070027869206884 0.0017969067854757778 0.001796716352054735 0.001796525918633692
          0.003142399098800698 0.00314173483251436 0.0031410705662280225 0.0016650463944928562 0.0016658986657021758 0.0016667509369114953
          0.001678620727048183 0.0016792968125525598 0.0016799728980569362 0.0034701935556325637 0.003467629562360073 0.0034650655690875824
          0.0033670309059525565 0.0033651972385323908 0.0033633635711122255
        </DataArray>
        <DataArray type="Float64" Name="pe11" format="ascii" RangeMin="0.0009634692959907699" RangeMax="0.003732241173545722">
          0.002496533113359063 0.002745402810465079 0.002750317799978044 0.002569700388763478 0.0024958451331517514 0.002743897615831305
          0.002749066796083031 0.002568764192068182 0.002495157152944439 0.0027423924211975315 0.002747815792188019 0.0025678279953728856
          0.001538946249861066 0.001286220513832428 0.0012826798412961305 0.0015845236227638962 0.0015391540337307305 0.0012860320688541794
          0.0012829370582073671 0.0015848044915939966 0.0015393618176003949 0.0012858436238759308 0.001283194275118604 0.0015850853604240977
          0.0010103857715491205 0.0010108949310832427 0.0010114040906173648 0.0010519655734950025 0.0010524947780283511 0.0010530239825616997
          0.002618606153683623 0.002453513604626611 0.0026177591592804646 0.002452773051371396 0.0026169121648773066 0.002452032498116182
          0.003511849754860225 0.003570775537771102 0.0033734922677510107 0.003393405701303389 0.0035096570973032447 0.0035689025286581334
          0.0033714261043945384 0.0033911514801418245 0.003507464439746264 0.003567029519545165 0.003369359941038067 0.003388897258980259
          0.0019039609514129115 0.002139241414906849 0.0023014798999618797 0.0020936331190344612 0.0019036200418272977 0.002138344289700681
          0.0023008591249551098 0.002093452990433865 0.0019032791322416837 0.002137447164494513 0.0023002383499483394 0.002093272861833269
          0.0014502383557336018 0.0015861565184340553 0.001383128096719157 0.0013056754759036358 0.0014511615929858226 0.0015865673754210858
          0.0013840001944104962 0.001306517839150229 0.0014520848302380432 0.0015869782324081166 0.0013848722921018352 0.0013073602023968224
          0.0032351754371788208 0.0031193954144823834 0.0029769296531814943 0.003235108923522769 0.0031195906899926917 0.0029767047970357613
          0.0032350424098667174 0.003119785965503 0.002976479940890029 0.003247292644402379 0.003481546083476327 0.003469464221805939
          0.0031496908460373766 0.003246162319663623 0.0034799032465213536 0.003467559272830886 0.0031486343997110715 0.0032450319949248684
          0.0034782604095663808 0.003465654323855834 0.0031475779533847673 0.0028860382917487086 0.0028852296001379008 0.002884420908527094
          0.0029537572013981998 0.0028363890345362466 0.0029518224936399572 0.002834765330024099 0.002949887785881715 0.0028331416255119517
          0.0022256456640508135 0.0024925707564921384 0.002223108908122425 0.0022250977884076513 0.0024915590499889344 0.0022230801683846817
          0.002224549912764489 0.002490547343485731 0.0022230514286469385 0.003271461566355197 0.0031463769214916367 0.0032521958030188353
          0.0033929309739655234 0.003269431877939728 0.0031452392046460637 0.0032511996043552826 0.003391199927042285 0.0032674021895242587
          0.0031441014878004904 0.0032502034056917308 0.0033894688801190467 0.0026387759941790476 0.0024242655642143264 0.0025205828312259556
          0.002638468059873621 0.002423822689673357 0.002519275455758343 0.002638160125568194 0.0024233798151323876 0.0025179680802907304
          0.0022604443660771737 0.002241059193091374 0.001880637897380724 0.0022599398498093486 0.0022400744633815973 0.0018805449624535893
          0.0022594353335415236 0.0022390897336718213 0.0018804520275264541 0.002892293977785233 0.0026846972830505012 0.002747946700114346
          0.0030211364791104 0.002891608996404623 0.002682991340753748 0.002746718206361906 0.0030200239924917634 0.0028909240150240133
          0.002681285398456996 0.002745489712609466 0.0030189115058731277 0.00329269968939472 0.0030587796630849613 0.003291314411349348
          0.0030569168478686956 0.003289929133303976 0.0030550540326524304 0.0033291763678984054 0.003006151513353854 0.0030989370828763134
          0.003327407416346459 0.0030054940872381994 0.003097657390119512 0.0033256384647945125 0.003004836661122544 0.0030963776973627097
          0.0029293455525953153 0.0031173765384485633 0.0033478466337355283 0.0032189070800501905 0.002928086862273822 0.0031155277369517447
          0.003345552821550528 0.003217110236231253 0.0029268281719523285 0.0031136789354549266 0.003343259009365527 0.0032153133924123153
          0.001976428327672754 0.0021541852212915123 0.0019760904558396787 0.0021533986879965932 0.001975752584006603 0.002152612154701674
          0.0022035376576543934 0.0024005107649592433 0.0022032228459630777 0.0023997564040858974 0.002202908034271762 0.0023990020432125524
          0.0012257378192940755 0.0012370880407122184 0.001225739829756867 0.0012372120892586806 0.001225741840219658 0.001237336137805143
          0.0019760440664296796 0.0018798335137999182 0.0021919384469280528 0.0023316307561479944 0.0019765471883393263 0.0018800896905986262
          0.002191652322556332 0.0023317302608191716 0.0019770503102489734 0.001880345867397334 0.0021913661981846112 0.0023318297654903483
          0.003406945551619792 0.0031387753405119428 0.0034060740282372947 0.0031379252948774694 0.003405202504854797 0.0031370752492429974
          0.003654978242010245 0.0035198142249410497 0.003652312930812409 0.0035174164234621514 0.003649647619614573 0.003515018621983252
          0.0037285127553926467 0.003638598423075787 0.003725725136333943 0.003635522095857815 0.003722937517275239 0.0036324457686398425
          0.0023056303021611406 0.0023046649360790672 0.0023036995699969942 0.0022730147446003504 0.002274117846398295 0.0022752209481962404
          0.0028370982980369408 0.0025376588852443144 0.0025872287761067292 0.002921069615353239 0.002836876112895125 0.0025383495836612995
          0.0025879034853989865 0.0029208050143940774 0.002836653927753309 0.0025390402820782846 0.002588578194691244 0.0029205404134349166
          0.0035125334849074835 0.0034858292178903023 0.0035726439795960778 0.0035103069884927854 0.0034844283454581893 0.0035714998691738103
          0.0035080804920780873 0.0034830274730260763 0.0035703557587515432 0.003607969711087572 0.0034850807926168547 0.0036045135590088775
          0.0034826197163811937 0.003601057406930184 0.003480158640145533 0.0027625706307130384 0.0027622325837325513 0.0027618945367520633
          0.0012533710459747517 0.0013367738478781256 0.0013774302958897366 0.0012664470690381983 0.001253621441764955 0.0013370165448855602
          0.0013785166396350055 0.0012671515652653458 0.0012538718375551584 0.0013372592418929947 0.0013796029833802745 0.0012678560614924933
          0.0032551093241808336 0.0032537688048224914 0.0032524282854641496 0.002654493313232981 0.002654924727097026 0.002655356140961071
          0.0027278657010272236 0.002727741806126638 0.002727617911226053 0.0024097912418301606 0.0023198186607546914 0.002408690192729449
          0.002318591982409751 0.002407589143628738 0.0023173653040648103 0.002562589075398046 0.0023750264885165338 0.0025626083707649136
          0.0023760472147219417 0.0025626276661317813 0.002377067940927349 0.003730744569289983 0.0036283325057167772 0.00372759991842312
          0.003626225420781032 0.0037244552675562573 0.003624118335845286 0.0031302381625168186 0.003057552561825921 0.0031280315441595255
          0.0030554946546147072 0.0031258249258022328 0.0030534367474034933 0.0033518305743151333 0.003350887602633163 0.0033499446309511924
          0.0028381455342840365 0.0025487977218109498 0.0028367926323650482 0.002548445663451859 0.0028354397304460608 0.0025480936050927675
          0.003048577460123273 0.0029293489251532865 0.0030468191961366344 0.002927223883843646 0.0030450609321499957 0.002925098842534005
          0.003626247509033718 0.0036234267883072367 0.003620606067580756 0.0035343249353137203 0.0035329393704989797 0.0035315538056842396
          0.0028793237471691005 0.0028552791241719376 0.0028784107981554554 0.0028533509844701453 0.0028774978491418104 0.002851422844768352
          0.0036556029989757116 0.0036534837441551658 0.00365136448933462 0.0023014660748840233 0.002302635998684599 0.002303805922485174
          0.00372258959862493 0.0035858493302286473 0.0037206681363724293 0.0035846961000970436 0.003718746674119927 0.00358354286996544
          0.0034801577495731256 0.003316171404622035 0.0034789423729041824 0.0033146576641474063 0.0034777269962352393 0.0033131439236727786
          0.002480796095700384 0.0026867861917151585 0.0027066604202546814 0.0024796650724678852 0.002686113761261478 0.002705130783949922
          0.0024785340492353867 0.0026854413308077976 0.0027036011476451616 0.002925174356127798 0.002752166665314647 0.00293675928720198
          0.003143231955865458 0.002923152466410081 0.0027491712080542708 0.0029339046529070242 0.0031413682691343457 0.002921130576692365
          0.002746175750793895 0.002931050018612068 0.003139504582403233 0.001623142045823229 0.0014377219170411191 0.0013811202028445038
          0.0015074774427065465 0.0016241961901657439 0.0014380099415259226 0.0013808823241644012 0.0015077710048769588 0.0016252503345082587
          0.0014382979660107265 0.0013806444454842986 0.001508064567047371 0.003732241173545722 0.003729042314863055 0.003725843456180388
          0.0026206371234380015 0.0024530623714250606 0.002618819981872036 0.0024514763429437647 0.002617002840306071 0.002449890314462469
          0.0033509844476364305 0.0032338062576760095 0.0033492817180255487 0.003232168654001041 0.0033475789884146673 0.0032305310503260715
          0.0022823006427282627 0.002109442608374502 0.0022811990258898096 0.0021097007293661846 0.0022800974090513566 0.0021099588503578673
          0.0016544554774380379 0.001833796743089078 0.0016555644890446093 0.0018349340136905863 0.0016566735006511807 0.0018360712842920945
          0.0014623855166001132 0.0013662376098140538 0.0014623661785881372 0.001365973478811115 0.0014623468405761612 0.001365709347808177
          0.0036628166885584222 0.0036617377415529575 0.003660658794547493 0.0035797543834216127 0.0035781208443072064 0.0035764873051928013
          0.0017815940887150401 0.0015565117120425363 0.0015151896374274631 0.0017182036684707815 0.0017818049709426606 0.0015575270860542102
          0.0015164382556437086 0.00171909816827001 0.0017820158531702812 0.0015585424600658843 0.0015176868738599539 0.0017199926680692387
          0.0035385772581184405 0.003540096617218374 0.0035364682339772925 0.0035381287399189917 0.003534359209836144 0.003536160862619609
          0.001245746974103015 0.00123663504452017 0.0012533437558922569 0.0012485177224375514 0.0012452558993493908 0.0012363013071863154
          0.0012530694706384016 0.0012482541522022019 0.0012447648245957662 0.0012359675698524612 0.0012527951853845464 0.0012479905819668523
          0.0012682466704718996 0.0011464725729945836 0.001222560076793619 0.001268107726310653 0.0011466812705923889 0.0012224591920609266
          0.0012679687821494064 0.0011468899681901946 0.0012223583073282343 0.0018766166681312725 0.00187815895275033 0.0018797012373693868
          0.0034215091960450687 0.003253485927393508 0.003419076634217323 0.003251287426897518 0.003416644072389577 0.0032490889264015286
          0.0030866697186604187 0.002723287403874095 0.0030855831926032812 0.0027223764295842903 0.0030844966665461446 0.002721465455294486
          0.001982095892372384 0.001982049619695996 0.0019820033470196075 0.003729821412412342 0.0037283289419984054 0.003726836471584469
          0.0023012759555438704 0.0025892347777604313 0.0023017825010404926 0.002587391269832868 0.0023022890465371156 0.0025855477619053046
          0.001253347159989692 0.0012305409149254288 0.0012531788665460983 0.0012305530300122582 0.0012530105731025042 0.0012305651450990876
          0.0012150197757331699 0.0012308434649046483 0.0012155323170905522 0.0012316454120462265 0.0012160448584479346 0.0012324473591878047
          0.0012795342678366005 0.001506256180744717 0.001382489625923741 0.0012805813128995782 0.0015067595205388565 0.0013831697399294197
          0.001281628357962556 0.0015072628603329955 0.0013838498539350983 0.0017493563569401854 0.0019775954060339616 0.0017493307301882433
          0.0019772691431925483 0.0017493051034363015 0.001976942880351136 0.0012991490016540767 0.0013231555288454467 0.0012986927885804103
          0.0013227102575226178 0.0012982365755067437 0.0013222649861997892 0.0016575969533055453 0.0015316933247719305 0.0016576480392425247
          0.0015317362905431882 0.001657699125179504 0.001531779256314446 0.0012860920757401307 0.0012859433267233458 0.0012857945777065608
          0.0022676385281989436 0.002261501373082822 0.0022495180075909754 0.002238520542659734 0.0022663651763018076 0.002259875977588735
          0.002247781266426628 0.0022371921933541806 0.002265091824404671 0.0022582505820946484 0.0022460445252622803 0.0022358638440486273
          0.0021808513222554126 0.002182370899782886 0.00217951429579152 0.002181064099982837 0.002178177269327628 0.002179757300182788
          0.0012758714560658227 0.0012756651927262577 0.0012754589293866928 0.0016670056581840416 0.001667186609753466 0.0016673675613228906
          0.002094775855560926 0.002094495600336639 0.0020942153451123514 0.001911250188260106 0.001912501248746901 0.0019137523092336958
          0.0023948105612140126 0.0023942781713594693 0.0023937457815049264 0.002208271458767585 0.0023553985757528255 0.00220813268011147
          0.0023541931382926114 0.002207993901455355 0.0023529877008323973 0.00246968606852025 0.0024691567296613575 0.0024686273908024656
          0.002117449727329473 0.0021184400849937114 0.002119430442657949 0.0012688690126558947 0.001268588653968619 0.0012683082952813433
          0.0033354404900505044 0.003334581495312364 0.0033337225005742248 0.002845181475336945 0.0027525516016020947 0.002843915983260168
          0.0027511443611088478 0.0028426504911833912 0.002749737120615601 0.0034454184721806266 0.0034444922712301906 0.003443566070279755
          0.002651745904015457 0.002650313878889958 0.002648881853764458 0.00251191505067191 0.002510387759513004 0.0025088604683540985
          0.002282830255572105 0.0022840823628706825 0.00228533447016926 0.001973364871944349 0.001974623131485061 0.0019758813910257726
          0.002000820216591175 0.0020021887097740687 0.002003557202956962 0.002032735354680084 0.0020437685134356183 0.002031894761104944
          0.002042852779269403 0.002031054167529804 0.0020419370451031874 0.001912312432738296 0.0017539757192346064 0.0019123870268591863
          0.0017543829568524832 0.001912461620980077 0.00175479019447036 0.002329768786414824 0.0023286062222168135 0.002327443658018803
          0.001216264430457727 0.001216524088803086 0.001216783747148445 0.0032528373881555144 0.0032513940383196768 0.0032499506884838395
          0.002004387999723716 0.0021819885161266333 0.002003793088931444 0.0021808863673479567 0.002003198178139172 0.00217978421856928
          0.0019412895329937534 0.00199841872936831 0.0020546901982914957 0.001941310641140762 0.0019985472038225637 0.0020546704103969714
          0.0019413317492877702 0.0019986756782768168 0.002054650622502447 0.002152475322748212 0.002199383586856456 0.002152117370450971
          0.0021988823252455706 0.00215175941815373 0.002198381063634685 0.002290821765809887 0.0022894644299478106 0.002288107094085734
          0.0019589390397471615 0.0019591671210124556 0.0019593952022777493 0.0018265074604232633 0.0018266981229200744 0.0018268887854168854
          0.0034109726451458005 0.0034092674869828613 0.003407562328819922 0.0012651686235853905 0.001264899104297094 0.0012646295850087979
          0.0009634692959907699 0.0012629132065589055 0.0009638002050794928 0.0012636553366747103 0.0009641311141682155 0.001264397466790515
          0.0027698602823357644 0.002770334576503263 0.002770808870670761 0.002547191465640619 0.00259362524939764 0.0029119032687564585
          0.002546121947052656 0.002592601372957767 0.002911323407301813 0.002545052428464694 0.002591577496517894 0.0029107435458471677
          0.0017313737928664763 0.0018757691956363793 0.0017314773262493942 0.0018758182285659166 0.0017315808596323125 0.001875867261495454
          0.0030658434603058125 0.002742795665352861 0.0030655531138942373 0.002743513439934144 0.0030652627674826616 0.0027442312145154277
          0.0020403900719128116 0.0020401012215748625 0.0020398123712369134 0.0022634233591746406 0.002035412125588762 0.0019875761772644813
          0.00226459147385301 0.0020364470454572077 0.0019887080298015593 0.002265759588531379 0.0020374819653256535 0.0019898398823386372
          0.00258568011011336 0.002585842969771512 0.002586005829429664 0.0034631129344012655 0.0035084009602191317 0.003460629998517108
          0.0035053325505411607 0.003458147062632951 0.0035022641408631893 0.002490451407262894 0.002432531654969835 0.0024911163791383464
          0.0024330257209665205 0.002491781351013799 0.0024335197869632067 0.0033098984461045304 0.003308470618650531 0.003307042791196531
          0.0029994205406736986 0.0029987629813975785 0.0029981054221214576 0.0017332150391714315 0.001733969235070338 0.0017347234309692443
          0.0016099387730481598 0.0016105077745388185 0.0016110767760294771 0.0019863169977605392 0.0019868035830973995 0.0019872901684342597
          0.0022820486992119315 0.0022831500270461763 0.0022842513548804225 0.002378571195308284 0.002476669238991357 0.0023788190471291143
          0.0024759973935355927 0.0023790668989499444 0.0024753255480798285 0.001655497085845447 0.001659803224348908 0.0016564397164924231
          0.0016608231156020855 0.0016573823471393993 0.0016618430068552628 0.0015007934366728908 0.0015021826440578113 0.0015035718514427318
          0.0018582651536690475 0.0018393063410548924 0.0018577283268648966 0.0018388846447782057 0.0018571915000607456 0.001838462948501519
          0.0030661026937906597 0.003065247246013328 0.003064391798235997 0.0016917751962729343 0.0017417243505937288 0.0016924151457500393
          0.0017423164908097655 0.0016930550952271438 0.0017429086310258024 0.0032311415762805995 0.003071881434413153 0.003229592461952036
          0.003070550797216843 0.0032280433476234724 0.0030692201600205325 0.0017968685954639263 0.0017966778978741654 0.0017964872002844048
          0.0031419239757135495 0.00314125075524418 0.003140577534774811 0.0016647861743543427 0.0016656365159149439 0.001666486857475545
          0.0016783257751687363 0.001678999354562386 0.0016796729339560357 0.003469874392025217 0.003467308023332931 0.003464741654640645
          0.0033666647804602877 0.0033648263546395734 0.003362987928818859
        </DataArray>
        <DataArray type="Float64" Name="pe22" format="ascii" RangeMin="-0.0018698761331734433" RangeMax="-0.0004798570941388115">
          -0.0012459419349445885 -0.0013674955855919224 -0.0013788938644020289 -0.0012894425143063124 -0.0012460989375258143 -0.0013676963052378036
          -0.001379188171445245 -0.0012896814485644447 -0.0012462559401070399 -0.0013678970248836853 -0.0013794824784884615 -0.0012899203828225774
          -0.000763847007089343 -0.0006383030446650605 -0.0006369535541972921 -0.0007862977041414518 -0.0007636865570801647 -0.0006380959926211907
          -0.0006368376897312549 -0.0007860445864832275 -0.0007635261070709865 -0.000637888940577321 -0.0006367218252652176 -0.0007857914688250031
          -0.0005028987100732551 -0.0005028634561213912 -0.0005028282021695273 -0.0005238991431099731 -0.0005239076041083507 -0.0005239160651067283
          -0.0013169841246530234 -0.0012360454508105623 -0.0013172718756698173 -0.0012363159236547263 -0.0013175596266866113 -0.00123658639649889
          -0.0017557330439262903 -0.0017847527444499712 -0.001683727125097066 -0.001693042812763667 -0.0017561175192793953 -0.001785117650044609
          -0.0016839243630425928 -0.0016932697256489295 -0.0017565019946325002 -0.001785482555639247 -0.00168412160098812 -0.0016934966385341915
          -0.0009463717188316974 -0.0010633729433297445 -0.0011488878163146148 -0.0010465344025112795 -0.00094628023771031 -0.0010628345893037392
          -0.001148559243516958 -0.001046553697606879 -0.0009461887565889228 -0.0010622962352777338 -0.0011482306707193018 -0.0010465729927024781
          -0.000723375351542427 -0.0007904148327950714 -0.0006921657248653357 -0.0006537771681869894 -0.0007235126863659898 -0.0007905266041467977
          -0.0006926378273928019 -0.0006540878333184735 -0.0007236500211895526 -0.0007906383754985241 -0.000693109929920268 -0.0006543984984499575
          -0.00164170874634971 -0.0015923547423615425 -0.0015042263843019136 -0.0016419326639418252 -0.0015924889339367179 -0.0015042930069659656
          -0.0016421565815339409 -0.0015926231255118935 -0.0015043596296300176 -0.0016054647852126146 -0.0017192476580939703 -0.00171067148648229
          -0.0015537616952478108 -0.0016053235410057067 -0.0017193604145645215 -0.001710790882223906 -0.0015537453674362351 -0.0016051822967987992
          -0.0017194731710350733 -0.0017109102779655223 -0.0015537290396246597 -0.0014290113196816314 -0.0014289990141508468 -0.001428986708620062
          -0.0014808731593661164 -0.0014265920695562446 -0.001481164019065524 -0.001426838342717308 -0.001481454878764932 -0.0014270846158783712
          -0.0011102298722277788 -0.0012426546794057243 -0.0011077345040285706 -0.001110442509372468 -0.0012426340892109772 -0.0011079863509775838
          -0.0011106551465171572 -0.00124261349901623 -0.0011082381979265967 -0.0016393070252619904 -0.0015713103456677915 -0.0016278100415306248
          -0.0017026371834306707 -0.0016395382747166425 -0.001571582609502455 -0.0016280263432909244 -0.0017029408921199977 -0.0016397695241712948
          -0.0015718548733371187 -0.0016282426450512245 -0.0017032446008093248 -0.0013146089009149278 -0.001213012361087215 -0.001250969145297946
          -0.0013149844725031052 -0.0012130261029991217 -0.0012510624121758818 -0.0013153600440912823 -0.001213039844911028 -0.0012511556790538178
          -0.0011343042377474335 -0.0011210399739601134 -0.00093985631163216 -0.0011343501667244874 -0.0011211540076592758 -0.0009405543285228189
          -0.0011343960957015408 -0.0011212680413584383 -0.0009412523454134777 -0.0014373023105313531 -0.0013274222186198412 -0.001359373808497427
          -0.0015026503938556394 -0.0014376922001106602 -0.0013276221101754678 -0.0013594486515268458 -0.001502722071946885 -0.001438082089689967
          -0.0013278220017310949 -0.0013595234945562643 -0.0015027937500381307 -0.0016232565010702526 -0.0015094574154683787 -0.001623569570439418
          -0.0015094285830803292 -0.0016238826398085827 -0.0015093997506922794 -0.001664843622694285 -0.001507833586881823 -0.0015510855170233191
          -0.0016650145293800028 -0.001507977600368969 -0.0015512855476050949 -0.0016651854360657207 -0.0015081216138561149 -0.0015514855781868704
          -0.001468207200701638 -0.0015607555698689362 -0.0016750443533043871 -0.0016093006911108547 -0.0014683621385553627 -0.0015611584103370866
          -0.001675422197141275 -0.001609579609458931 -0.0014685170764090873 -0.0015615612508052372 -0.0016758000409781634 -0.001609858527807007
          -0.0009907659437723235 -0.0010822831035698932 -0.0009911254911321402 -0.00108256659867631 -0.0009914850384919566 -0.001082850093782727
          -0.0011003578306412322 -0.0011991694887317956 -0.0011008589537448061 -0.0011993753187639455 -0.0011013600768483803 -0.0011995811487960954
          -0.0006136743651020095 -0.000618226677795595 -0.0006137369593726802 -0.0006183062949333743 -0.0006137995536433506 -0.0006183859120711536
          -0.0009892183348930365 -0.0009414317313742638 -0.001103372612684686 -0.0011728316585172993 -0.0009893280950636467 -0.0009414735014223524
          -0.0011035500402791416 -0.0011731532007445565 -0.0009894378552342566 -0.000941515271470441 -0.001103727467873597 -0.0011734747429718137
          -0.0017182158532680124 -0.0015797084431636783 -0.0017187357509177697 -0.0015799778003248294 -0.0017192556485675268 -0.0015802471574859805
          -0.0018152905959610273 -0.0017501372319237926 -0.0018155320675250772 -0.0017501494162891862 -0.0018157735390891272 -0.0017501616006545802
          -0.0018583678096187619 -0.0018123575931450371 -0.0018587796684812685 -0.0018127392428084256 -0.0018591915273437746 -0.0018131208924718138
          -0.0011614406595766363 -0.0011616230656215799 -0.0011618054716665232 -0.00115078542881378 -0.0011508972191818518 -0.001151009009549924
          -0.0014259787909376021 -0.0012787313830438301 -0.0013049771527298604 -0.0014671675985207283 -0.0014260957110817153 -0.0012787823856193483
          -0.0013050571234139838 -0.0014672616466090199 -0.0014262126312258284 -0.0012788333881948667 -0.0013051370940981078 -0.0014673556946973114
          -0.0017613817954823478 -0.0017482509167405656 -0.001788163954401155 -0.0017618091420777114 -0.0017486248103870158 -0.0017887598153212842
          -0.0017622364886730752 -0.0017489987040334668 -0.0017893556762414134 -0.001778870712079961 -0.0017182028165082359 -0.001779059022855053
          -0.001718460045647914 -0.0017792473336301449 -0.0017187172747875922 -0.0013893708173546866 -0.0013894133849575074 -0.001389455952560328
          -0.0006268232733113365 -0.0006677410981885606 -0.0006892658365523158 -0.0006343014624994162 -0.0006269607882102336 -0.0006678163314126191
          -0.0006894977016143624 -0.0006345630991741542 -0.0006270983031091307 -0.0006678915646366779 -0.0006897295666764089 -0.0006348247358488922
          -0.00163286024915485 -0.001633118561745253 -0.001633376874335656 -0.0013386393822326843 -0.0013387412021962325 -0.0013388430221597807
          -0.0013732627308119273 -0.001373341878416825 -0.001373421026021723 -0.0012081676347303395 -0.0011631187316884194 -0.001208424382408659
          -0.0011634456645582783 -0.0012086811300869784 -0.001163772597428137 -0.0012882116496520306 -0.001199350593816797 -0.0012884737505834422
          -0.0011995018836360035 -0.0012887358515148535 -0.0011996531734552104 -0.0018554131132737229 -0.001802512806714137 -0.0018559321206295942
          -0.0018031514698323599 -0.0018564511279854658 -0.001803790132950583 -0.0015691771461674357 -0.0015356298419186077 -0.0015694042635642288
          -0.0015359680331056228 -0.0015696313809610218 -0.001536306224292638 -0.0016745759996248273 -0.0016746733057687864 -0.0016747706119127454
          -0.001425860407287577 -0.0012832640693281674 -0.0014261757857254361 -0.0012836179910452297 -0.0014264911641632947 -0.0012839719127622918
          -0.0015189555060041793 -0.0014585397290268881 -0.0015191194178630788 -0.0014586785802943605 -0.0015192833297219786 -0.0014588174315618328
          -0.0018093143845538133 -0.0018097461042535187 -0.0018101778239532245 -0.0017736662047931615 -0.0017743094843860345 -0.0017749527639789077
          -0.0014296112798220634 -0.0014161504044469346 -0.001429868742362696 -0.0014162004889620606 -0.0014301262049033292 -0.0014162505734771874
          -0.0018268769105645485 -0.0018273188056892001 -0.0018277607008138515 -0.0011667261110919513 -0.001166856393562823 -0.0011669866760336946
          -0.0018628772430151238 -0.0018020107339291396 -0.001863549871737506 -0.001802600126726437 -0.001864222500459887 -0.0018031895195237341
          -0.0017328804656187207 -0.00164160140005063 -0.001733088808167229 -0.001641677269217165 -0.0017332971507157372 -0.0016417531383837005
          -0.0012387672538815885 -0.0013374191749866494 -0.0013435857792177138 -0.0012386690258157508 -0.0013375904110889503 -0.0013436471257816463
          -0.0012385707977499133 -0.0013377616471912514 -0.0013437084723455783 -0.0014498595265276086 -0.0013641967500285597 -0.001449172838701436
          -0.0015534538985918426 -0.001450021909772387 -0.0013639793088564799 -0.0014491825914100616 -0.0015538251879422182 -0.0014501842930171654
          -0.0013637618676844 -0.0014491923441186875 -0.0015541964772925944 -0.0008129267222497989 -0.0007184944131118933 -0.000689059279107889
          -0.0007534168627107551 -0.0008130783047120107 -0.0007185206150782466 -0.0006888829769401327 -0.0007533519819629116 -0.0008132298871742225
          -0.0007185468170446 -0.0006887066747723764 -0.0007532871012150682 -0.001855595741488136 -0.0018558004868304686 -0.0018560052321728016
          -0.001298942356292855 -0.0012198374165833066 -0.0012986993556283295 -0.0012195882224429403 -0.001298456354963804 -0.001219339028302574
          -0.0017021335394470614 -0.0016455669018729923 -0.0017023553133321185 -0.0016459376027421712 -0.0017025770872171754 -0.0016463083036113496
          -0.001128586040813043 -0.0010477070691492481 -0.0011282389792826725 -0.0010477610632836825 -0.0011278919177523017 -0.001047815057418117
          -0.0008248499581663253 -0.0009147404602208013 -0.0008249849560958309 -0.0009148785706339528 -0.0008251199540253366 -0.0009150166810471042
          -0.000726586634116975 -0.0006795615602272971 -0.0007264238008252928 -0.0006793431043276468 -0.0007262609675336108 -0.0006791246484279964
          -0.0018329101508834098 -0.001833790455716518 -0.0018346707605496257 -0.0017916881477637715 -0.0017921488612274929 -0.0017926095746912147
          -0.0008858388246851708 -0.0007740439801353563 -0.0007562649159704393 -0.0008568173780802696 -0.000885672484252031 -0.0007740828257981826
          -0.0007564551465833985 -0.0008568415098682523 -0.0008855061438188914 -0.0007741216714610092 -0.0007566453771963573 -0.0008568656416562349
          -0.001775569597514131 -0.001781769931039534 -0.0017759299339403923 -0.0017820697726433515 -0.0017762902703666536 -0.001782369614247169
          -0.0006232162244019233 -0.0006191130723248523 -0.0006269922497990832 -0.0006248413153281665 -0.0006230412108098263 -0.0006190149467045391
          -0.0006269648237824572 -0.0006248008689800982 -0.0006228661972177293 -0.0006189168210842257 -0.0006269373977658313 -0.0006247604226320299
          -0.0006312363393537633 -0.0005710104467017202 -0.0006077874278099692 -0.0006310650249834159 -0.0005709946958033184 -0.0006076649037408651
          -0.0006308937106130686 -0.0005709789449049167 -0.0006075423796717608 -0.0009337307008128263 -0.00093398163289569 -0.0009342325649785536
          -0.0017157203179520466 -0.0016303089187706945 -0.001716103159406831 -0.001630726557340364 -0.0017164860008616156 -0.0016311441959100338
          -0.0015331123568184113 -0.0013496563415432209 -0.0015331365482093378 -0.0013496798145950764 -0.001533160739600264 -0.0013497032876469315
          -0.000985035960036379 -0.0009847966873105171 -0.0009845574145846553 -0.0018681182556637363 -0.00186899719441859 -0.0018698761331734433
          -0.0011484470819387999 -0.0012883418562706706 -0.0011484742366979165 -0.0012879317015504392 -0.0011485013914570327 -0.0012875215468302079
          -0.0006263088839015716 -0.000615585673104773 -0.0006263290571515787 -0.0006156681100408605 -0.0006263492304015859 -0.0006157505469769481
          -0.0006092006427973141 -0.000617862925118622 -0.0006094813135195732 -0.0006182468168581259 -0.0006097619842418324 -0.0006186307085976298
          -0.0006428136271392326 -0.0007539708018457085 -0.0006960544224498829 -0.0006434104810715174 -0.000754522024083885 -0.0006967322310094694
          -0.0006440073350038023 -0.0007550732463220614 -0.000697410039569056 -0.0008720408399456082 -0.0009836187280543806 -0.0008721281522580761
          -0.0009833632488865935 -0.0008722154645705438 -0.0009831077697188065 -0.0006477402045259084 -0.0006593662362826487 -0.0006476876653782159
          -0.000659281257815684 -0.0006476351262305236 -0.0006591962793487193 -0.0008280289578253265 -0.0007718004120784408 -0.0008285856319468679
          -0.0007724638432604942 -0.0008291423060684094 -0.0007731272744425477 -0.0006412693263580667 -0.0006411667245335475 -0.000641064122709028
          -0.001136518690640426 -0.0011312328514445848 -0.0011254171843817309 -0.001120620828257583 -0.0011368975402243353 -0.001131183130985221
          -0.0011251835976825652 -0.0011210540911781891 -0.0011372763898082447 -0.0011311334105258567 -0.0011249500109833995 -0.001121487354098795
          -0.0010910821156343404 -0.0010918699633719572 -0.0010909554046905987 -0.0010918843535298668 -0.0010908286937468571 -0.0010918987436877767
          -0.0006367634599567983 -0.0006368169784335742 -0.0006368704969103499 -0.0008374311826002193 -0.000838414428453455 -0.0008393976743066908
          -0.0010378623108243416 -0.0010376164492455072 -0.0010373705876666728 -0.0009509053420537732 -0.000950830269465168 -0.0009507551968765628
          -0.0011842156340040517 -0.0011841697538219511 -0.0011841238736398506 -0.0010934708003566816 -0.0011654267510642952 -0.0010934522418074091
          -0.0011653178959895641 -0.0010934336832581365 -0.001165209040914833 -0.00122090685834705 -0.001221105015225633 -0.0012213031721042156
          -0.0010645939145994495 -0.0010649244563979711 -0.0010652549981964923 -0.0006297405445154732 -0.0006295488674294303 -0.0006293571903433873
          -0.0016995748612316666 -0.001699726696352711 -0.0016998785314737551 -0.0014091399992137389 -0.0013639993998426937 -0.0014093094712098729
          -0.0013640268884766759 -0.0014094789432060064 -0.0013640543771106584 -0.0017446671129982764 -0.0017449962779168228 -0.0017453254428353691
          -0.0013157068043109911 -0.001315527433791785 -0.0013153480632725795 -0.00123935407924776 -0.0012395158272727471 -0.0012396775752977344
          -0.0011392205158701312 -0.0011393377179460618 -0.0011394549200219924 -0.0010005274590929886 -0.001000624816859535 -0.0010007221746260817
          -0.0010117771040475993 -0.001011960716293284 -0.001012144328538969 -0.0010165420806580632 -0.001022347859777655 -0.001016667772671094
          -0.0010223623041009048 -0.0010167934646841247 -0.0010223767484241544 -0.0009531378317881783 -0.0008779172573004237 -0.0009539381636382881
          -0.000878999804907751 -0.000954738495488398 -0.0008800823525150782 -0.0011666288750442312 -0.0011669950110939653 -0.0011673611471436994
          -0.0006088548242497526 -0.0006090413834613101 -0.0006092279426728674 -0.0016512287606635905 -0.0016516827765554827 -0.0016521367924473749
          -0.0010022625754650821 -0.001092395081607674 -0.001002583886275271 -0.0010926801507051918 -0.0010029051970854598 -0.0010929652198027094
          -0.0009693226285251806 -0.000996144822241097 -0.0010225483165451407 -0.0009699509567594035 -0.000996652817773189 -0.0010234078171328983
          -0.0009705792849936262 -0.0009971608133052807 -0.001024267317720656 -0.0010731280538781981 -0.0011004021470374867 -0.0010742843865528561
          -0.0011013601342102386 -0.0010754407192275143 -0.0011023181213829904 -0.0011457646698816238 -0.0011460521370170139 -0.0011463396041524036
          -0.0009755620193183174 -0.0009761726987599219 -0.000976783378201526 -0.0009126390954290091 -0.0009134477924483868 -0.0009142564894677644
          -0.001722312631935675 -0.0017226762301331263 -0.0017230398283305777 -0.0006320308736269341 -0.0006320573026294834 -0.0006320837316320326
          -0.000480135092480903 -0.000627673922813498 -0.0004799960933098572 -0.0006276051251528096 -0.0004798570941388115 -0.0006275363274921212
          -0.001403487814880759 -0.0014034653249180456 -0.0014034428349553314 -0.0012665549480242613 -0.0012908593739526574 -0.0014426328871013352
          -0.001266612082429628 -0.0012907004735466764 -0.0014424241543738972 -0.001266669216834995 -0.0012905415731406954 -0.0014422154216464588
          -0.0008682231199022547 -0.0009425587952162653 -0.0008683875461330193 -0.000942777204017744 -0.0008685519723637839 -0.0009429956128192229
          -0.0015664473311477324 -0.0013927611905222193 -0.0015667447832605297 -0.0013929678120014302 -0.0015670422353733274 -0.0013931744334806416
          -0.0010261945977260427 -0.0010263649701213293 -0.0010265353425166156 -0.001142640974124171 -0.0010247554423320298 -0.0010047718462736347
          -0.0011426630974703026 -0.0010247639197338277 -0.0010048328165558798 -0.0011426852208164346 -0.0010247723971356251 -0.0010048937868381246
          -0.0013039550347253564 -0.0013038616446567255 -0.0013037682545880946 -0.0017271888376496456 -0.0017524727263007042 -0.0017276236020564403
          -0.0017527994232475134 -0.001728058366463235 -0.0017531261201943226 -0.0012538261694677987 -0.0012247766967890695 -0.0012539198683042727
          -0.0012248071842479022 -0.0012540135671407465 -0.001224837671706735 -0.001646706753177448 -0.0016467801286585441 -0.0016468535041396402
          -0.001531857235006772 -0.001532202704193257 -0.0015325481733797417 -0.0008684647048573155 -0.0008687279484537604 -0.0008689911920502053
          -0.0007992658657696259 -0.0007990107293662295 -0.0007987555929628331 -0.0009887801633164483 -0.0009886212050654857 -0.0009884622468145229
          -0.0011500516759631353 -0.001150071473496136 -0.0011500912710291369 -0.0011853961845325585 -0.0012316102405756832 -0.0011856344752040455
          -0.001231913031342092 -0.0011858727658755326 -0.0012322158221085005 -0.0008283371835262547 -0.0008289981965461148 -0.000828389094026185
          -0.0008291391337032305 -0.0008284410045261152 -0.0008292800708603462 -0.0007509214459450614 -0.0007512514356536802 -0.0007515814253622991
          -0.0009292679621458583 -0.0009194279936831181 -0.0009293101516010171 -0.0009195660507262129 -0.000929352341056176 -0.0009197041077693076
          -0.0015661391461638916 -0.0015666382953981393 -0.001567137444632387 -0.0008526544979385108 -0.0008745889756015435 -0.0008525752067415795
          -0.0008744192771842459 -0.0008524959155446483 -0.0008742495787669483 -0.0016373361163291573 -0.001569873604132336 -0.0016375889824145097
          -0.001570144799222289 -0.0016378418484998619 -0.0015704159943122423 -0.0008983374463848546 -0.0008985888720706311 -0.0008988402977564076
          -0.0015550589021033035 -0.0015548457460098275 -0.0015546325899163512 -0.0008365381806042487 -0.0008365458892009089 -0.0008365535977975691
          -0.0008462854899143995 -0.0008462677914938909 -0.0008462500930733821 -0.0017406291812467165 -0.001740951186429144 -0.0017412731916115717
          -0.0016962658270760075 -0.0016965882702847357 -0.0016969107134934644
        </DataArray>
        <DataArray type="Float64" Name="pe33" format="ascii" RangeMin="-0.0018766454320575858" RangeMax="-0.00048333420350986676">
          -0.0012505911784144747 -0.0013779072248731564 -0.001371423935576014 -0.0012802578744571652 -0.001249746195625937 -0.0013762013105935015
          -0.0013698786246377859 -0.0012790827435037366 -0.0012489012128373994 -0.0013744953963138469 -0.0013683333136995577 -0.0012779076125503082
          -0.0007750992427717227 -0.0006479174691673673 -0.0006457262870988384 -0.0007982259186224442 -0.0007754674766505655 -0.0006479360762329885
          -0.0006460993684761123 -0.0007987599051107691 -0.0007758357105294083 -0.0006479546832986098 -0.0006464724498533862 -0.0007992938915990941
          -0.0005074870614758652 -0.0005080314749618512 -0.0005085758884478374 -0.0005280664303850295 -0.0005285871739200004 -0.0005291079174549715
          -0.001301622029030599 -0.001217468153816048 -0.001300487283610647 -0.0012164571277166695 -0.0012993525381906948 -0.001215446101617291
          -0.0017561167109339346 -0.001786022793321131 -0.001689765142653944 -0.001700362888539722 -0.001753539578023849 -0.0017837848786135244
          -0.0016875017413519456 -0.0016978817544928946 -0.0017509624451137636 -0.0017815469639059177 -0.0016852383400499473 -0.0016954006204460673
          -0.0009575892325812138 -0.0010758684715771044 -0.0011525920836472645 -0.0010470987165231817 -0.0009573398041169874 -0.0010755097003969415
          -0.001152299881438151 -0.0010468992928269862 -0.0009570903756527607 -0.0010751509292167786 -0.0011520076792290376 -0.0010466998691307909
          -0.0007268630041911748 -0.0007957416856389837 -0.0006909623718538212 -0.000651898307716646 -0.0007276489066198328 -0.000796040771274288
          -0.0006913623670176943 -0.0006524300058317554 -0.0007284348090484907 -0.0007963398569095923 -0.0006917623621815672 -0.0006529617039468647
          -0.0015934666908291107 -0.0015270406721208407 -0.0014727032688795804 -0.0015931762595809442 -0.0015271017560559736 -0.0014724117900697961
          -0.001592885828332777 -0.0015271628399911063 -0.0014721203112600116 -0.001641827859189764 -0.0017622984253823561 -0.0017587927353236489
          -0.0015959291507895658 -0.0016408387786579163 -0.001760542831956832 -0.0017567683906069803 -0.0015948890322748362 -0.001639849698126069
          -0.0017587872385313073 -0.0017547440458903114 -0.0015938489137601072 -0.0014570269720670767 -0.001456230585987054 -0.0014554341999070313
          -0.0014728840420320825 -0.0014097969649800011 -0.0014706584745744328 -0.001407926987306791 -0.0014684329071167831 -0.0014060570096335802
          -0.0011154157918230345 -0.0012499160770864139 -0.0011153744040938542 -0.001114655279035183 -0.0012489249607779574 -0.001115093817407098
          -0.001113894766247332 -0.0012479338444695007 -0.0011148132307203414 -0.0016321545410932065 -0.0015750665758238452 -0.00162438576148821
          -0.0016902937905348525 -0.0016298936032230846 -0.001573656595143608 -0.0016231732610643582 -0.0016882590349222867 -0.0016276326653529632
          -0.001572246614463371 -0.001621960760640506 -0.0016862242793097212 -0.0013241670932641193 -0.0012112532031271106 -0.0012696136859280092
          -0.0013234835873705152 -0.0012107965866742351 -0.001268213043582461 -0.0013228000814769114 -0.0012103399702213596 -0.0012668124012369124
          -0.0011261401283297401 -0.001120019219131261 -0.0009407815857485641 -0.0011255896830848614 -0.0011189204557223217 -0.0009399906339307701
          -0.0011250392378399827 -0.0011178216923133828 -0.0009391996821129765 -0.0014549916672538799 -0.0013572750644306603 -0.0013885728916169188
          -0.0015184860852547606 -0.0014539167962939626 -0.0013553692305782806 -0.00138726955483506 -0.0015173019205448786 -0.0014528419253340456
          -0.0013534633967259009 -0.0013859662180532016 -0.0015161177558349966 -0.0016694431883244674 -0.0015493222476165819 -0.0016677448409099299
          -0.0015474882647883662 -0.001666046493495393 -0.0015456542819601508 -0.0016643327452041197 -0.001498317926472031 -0.001547851565852994
          -0.0016623928869664557 -0.0014975164868692304 -0.0015463718425144165 -0.001660453028728792 -0.00149671504726643 -0.001544892119175839
          -0.0014611383518936766 -0.0015566209685796268 -0.001672802280431141 -0.0016096063889393356 -0.0014597247237184588 -0.0015543693266146584
          -0.0016701306244092523 -0.0016075306267723218 -0.0014583110955432412 -0.0015521176846496894 -0.0016674589683873633 -0.0016054548646053078
          -0.0009856623839004303 -0.001071902117721619 -0.0009849649647075383 -0.0010708320893202832 -0.0009842675455146463 -0.0010697620609189475
          -0.0011031798270131612 -0.0012013412762274472 -0.0011023638922182716 -0.0012003810853219521 -0.0011015479574233817 -0.001199420894416457
          -0.0006120634541920658 -0.0006188613629166234 -0.0006120028703841865 -0.0006189057943253064 -0.0006119422865763073 -0.0006189502257339895
          -0.0009868257315366429 -0.0009384017824256542 -0.0010885658342433661 -0.0011587990976306948 -0.0009872190932756796 -0.0009386161891762735
          -0.00108810228227719 -0.0011585770600746146 -0.0009876124550147164 -0.0009388305959268928 -0.0010876387303110136 -0.0011583550225185341
          -0.0016887296983517795 -0.001559066897348264 -0.001687338277319525 -0.0015579474945526407 -0.0016859468562872707 -0.001556828091757017
          -0.0018396876460492176 -0.0017696769930172574 -0.0018367808632873313 -0.0017672670071729648 -0.0018338740805254453 -0.001764857021328672
          -0.0018701449457738841 -0.0018262408299307496 -0.001866945467852674 -0.001822782853049389 -0.0018637459899314636 -0.0018193248761680283
          -0.0011441896425845042 -0.0011430418704574876 -0.0011418940983304708 -0.00112222931578657 -0.0011232206272164434 -0.0011242119386463169
          -0.0014111195070993384 -0.0012589275022004843 -0.001282251623376869 -0.0014539020168325102 -0.0014107804018134093 -0.001259567198041951
          -0.0012828463619850023 -0.0014535433677850577 -0.0014104412965274802 -0.0012602068938834176 -0.001283441100593136 -0.0014531847187376052
          -0.001751151689425135 -0.0017375783011497365 -0.001784480025194923 -0.0017484978464150731 -0.0017358035350711729 -0.0017827400538525263
          -0.0017458440034050112 -0.0017340287689926095 -0.0017810000825101294 -0.0018290989990076111 -0.0017668779761086184 -0.0018254545361538251
          -0.0017641596707332792 -0.0018218100733000389 -0.0017614413653579404 -0.0013731998133583515 -0.0013728191987750432 -0.0013724385841917348
          -0.000626547772663415 -0.000669032749689565 -0.0006881644593374208 -0.0006321456065387818 -0.0006266606535547212 -0.0006692002134729409
          -0.000689018938020643 -0.0006325884660911913 -0.0006267735344460274 -0.0006693676772563167 -0.0006898734167038655 -0.0006330313256436008
          -0.0016222490750259827 -0.001620650243077238 -0.0016190514111284933 -0.0013158539310002965 -0.0013161835249007937 -0.001316513118801291
          -0.0013546029702152967 -0.0013543999277098133 -0.0013541968852043298 -0.001201623607099821 -0.0011566999290662716 -0.0012002658103207901
          -0.0011551463178514725 -0.0011989080135417593 -0.0011535927066366732 -0.0012743774257460152 -0.0011756758946997363 -0.0012741346201814714
          -0.0011765453310859375 -0.0012738918146169276 -0.0011774147674721387 -0.0018753314560162597 -0.0018258196990026405 -0.001871667797793526
          -0.0018230739509486717 -0.001868004139570792 -0.001820328202894703 -0.0015610610163493822 -0.0015219227199073132 -0.0015586272805952965
          -0.0015195266215090842 -0.0015561935448412103 -0.0015171305231108552 -0.0016772545746903055 -0.0016762142968643765 -0.0016751740190384468
          -0.0014122851269964592 -0.0012655336524827823 -0.0014106168466396125 -0.0012648276724066291 -0.0014089485662827656 -0.0012641216923304755
          -0.001529621954119093 -0.0014708091961263981 -0.0015276997782735554 -0.0014685453035492852 -0.0015257776024280175 -0.0014662814109721724
          -0.0018169331244799038 -0.0018136806840537173 -0.001810428243627531 -0.0017606587305205583 -0.001758629886112945 -0.0017566010417053315
          -0.0014497124673470369 -0.0014391287197250038 -0.001448542055792759 -0.0014371504955080843 -0.001447371644238481 -0.0014351722712911648
          -0.0018287260884111626 -0.001826164938465965 -0.0018236037885207678 -0.0011347399637920716 -0.0011357796051217751 -0.001136819246451479
          -0.0018597123556098056 -0.0017838385962995074 -0.001857118264634923 -0.0017820959733706066 -0.0018545241736600403 -0.0017803533504417055
          -0.001747277283954405 -0.0016745700045714051 -0.0017458535647369535 -0.0016729803949302414 -0.0017444298455195019 -0.0016713907852890782
          -0.0012420288418187953 -0.001349367016728509 -0.0013630746410369676 -0.0012409960466521343 -0.0013485233501725276 -0.0013614836581682752
          -0.0012399632514854737 -0.001347679683616546 -0.0013598926752995829 -0.0014753148296001888 -0.001387969915286087 -0.0014875864485005437
          -0.0015897780572736156 -0.001473130556637694 -0.0013851918991977907 -0.0014847220614969622 -0.0015875430811921269 -0.001470946283675199
          -0.0013824138831094947 -0.0014818576744933805 -0.0015853081051106386 -0.00081021532357343 -0.0007192275039292258 -0.0006920609237366147
          -0.0007540605799957912 -0.000811117885453733 -0.0007194893264476761 -0.0006919993472242684 -0.0007544190229140471 -0.0008120204473340358
          -0.0007197511489661264 -0.000691937770711922 -0.000754777465832303 -0.0018766454320575858 -0.001873241828032586 -0.001869838224007586
          -0.0013216947671451456 -0.0012332249548417536 -0.0013201206262437063 -0.001231888120500824 -0.001318546485342267 -0.001230551286159894
          -0.0016488509081893689 -0.0015882393558030174 -0.0016469264046934298 -0.0015862310512588693 -0.0016450019011974904 -0.0015842227467147217
          -0.0011537146019152196 -0.0010617355392252537 -0.0011529600466071372 -0.0010619396660825017 -0.0011522054912990547 -0.0010621437929397499
          -0.0008296055192717127 -0.0009190562828682767 -0.0008305795329487783 -0.0009200554430566333 -0.000831553546625844 -0.0009210546032449901
          -0.0007357988824831381 -0.0006866760495867566 -0.0007359423777628442 -0.0006866303744834684 -0.0007360858730425505 -0.0006865846993801802
          -0.0018299065376750129 -0.0018279472858364395 -0.0018259880339978663 -0.001788066235657841 -0.0017859719830797135 -0.001783877730501586
          -0.0008957552640298686 -0.00078246773190718 -0.0007589247214570239 -0.0008613862903905115 -0.0008961324866906291 -0.0007834442602560275
          -0.0007599831090603103 -0.0008622566584017574 -0.0008965097093513895 -0.0007844207886048752 -0.0007610414966635965 -0.0008631270264130036
          -0.0017630076606043087 -0.00175832668617884 -0.0017605383000368997 -0.0017560589672756396 -0.00175806893946949 -0.0017537912483724391
          -0.0006225307497010915 -0.0006175219721953171 -0.0006263515060931733 -0.0006236764071093848 -0.0006222146885395644 -0.0006172863604817763
          -0.0006261046468559443 -0.0006234532832221037 -0.0006218986273780372 -0.0006170507487682354 -0.0006258577876187153 -0.0006232301593348226
          -0.0006370103311181362 -0.0005754621262928633 -0.0006147726489836493 -0.000637042701327237 -0.0005756865747890706 -0.0006147942883200613
          -0.0006370750715363378 -0.0005759110232852778 -0.0006148159276564733 -0.0009428859673184461 -0.0009441773198546397 -0.0009454686723908331
          -0.0017057888780930219 -0.0016231770086228134 -0.0017029734748104913 -0.0016205608695571538 -0.0017001580715279609 -0.0016179447304914946
          -0.001553557361842007 -0.0013736310623308741 -0.0015524466443939439 -0.0013726966149892137 -0.0015513359269458801 -0.001371762167647554
          -0.000997059932336005 -0.0009972529323854784 -0.0009974459324349517 -0.0018617031567486058 -0.0018593317475798156 -0.001856960338411025
          -0.0011528288736050703 -0.0013008929214897603 -0.0011533082643425763 -0.0012994595682824283 -0.0011537876550800825 -0.0012980262150750963
          -0.0006270382760881201 -0.0006149552418206559 -0.0006268498093945191 -0.0006148849199713977 -0.0006266613427009182 -0.0006148145981221394
          -0.0006058191329358555 -0.0006129805397860264 -0.0006060510035709787 -0.0006133985951881007 -0.0006062828742061019 -0.0006138166505901749
          -0.0006367206406973679 -0.0007522853788990085 -0.0006864352034738578 -0.0006371708318280608 -0.0007522374964549713 -0.0006864375089199502
          -0.0006376210229587537 -0.000752189614010934 -0.0006864398143660423 -0.000877315516994577 -0.0009939766779795804 -0.0008772025779301673
          -0.0009939058943059548 -0.0008770896388657574 -0.000993835110632329 -0.000651408797128168 -0.000663789292562798 -0.0006510051232021941
          -0.000663428999706934 -0.0006506014492762201 -0.0006630687068510698 -0.0008295679954802184 -0.0007598929126934893 -0.0008290624072956565
          -0.0007592724472826937 -0.0008285568191110944 -0.0007586519818718982 -0.0006448227493820638 -0.0006447766021897983 -0.0006447304549975325
          -0.0011311198375585176 -0.0011302685216382368 -0.001124100823209244 -0.0011178997144021504 -0.0011294676360774718 -0.0011286928466035142
          -0.0011225976687440622 -0.001116138102175991 -0.001127815434596426 -0.0011271171715687913 -0.0011210945142788803 -0.0011143764899498314
          -0.0010897692066210718 -0.0010905009364109287 -0.0010885588911009212 -0.00108917974645297 -0.0010873485755807705 -0.0010878585564950112
          -0.0006391079961090245 -0.0006388482142926836 -0.0006385884324763429 -0.0008295744755838217 -0.0008287721813000107 -0.0008279698870161997
          -0.001056913544736584 -0.001056879151091131 -0.0010568447574456784 -0.0009603448462063328 -0.0009616709792817328 -0.0009629971123571331
          -0.0012105949272099607 -0.0012101084175375181 -0.0012096219078650754 -0.001114800658410903 -0.0011899718246885303 -0.0011146804383040609
          -0.0011888752423030472 -0.0011145602181972184 -0.001187778659917564 -0.0012487792101731994 -0.0012480517144357244 -0.0012473242186982496
          -0.0010528558127300236 -0.00105351562859574 -0.0010541754444614562 -0.0006391284681404212 -0.0006390397865391885 -0.0006389511049379558
          -0.0016358656288188375 -0.0016348547989596528 -0.0016338439691004688 -0.001436041476123206 -0.0013885522017594012 -0.0014346065120502951
          -0.001387117472632172 -0.0014331715479773844 -0.0013856827435049428 -0.00170075135918235 -0.0016994959933133678 -0.0016982406274443855
          -0.0013360390997044658 -0.001334786445098172 -0.0013335337904918781 -0.0012725609714241493 -0.0012708719322402564 -0.0012691828930563639
          -0.0011436097397019734 -0.0011447446449246203 -0.0011458795501472672 -0.0009728374128513602 -0.0009739983146255256 -0.0009751592163996911
          -0.0009890431125435754 -0.0009902279934807842 -0.0009914128744179932 -0.0010161932740220204 -0.0010214206536579634 -0.0010152269884338497
          -0.001020490475168498 -0.0010142607028456787 -0.001019560296679033 -0.0009591746009501172 -0.0008760584619341825 -0.0009584488632208981
          -0.000875383151944732 -0.000957723125491679 -0.0008747078419552814 -0.0011631399113705932 -0.001161611211122848 -0.0011600825108751033
          -0.0006074096062079743 -0.0006074827053417759 -0.0006075558044755774 -0.001601608627491924 -0.0015997112617641943 -0.0015978138960364647
          -0.0010021254242586334 -0.0010895934345189586 -0.0010012092026561727 -0.001088206216642765 -0.001000292981053712 -0.0010868189987665708
          -0.0009719669044685724 -0.0010022739071272131 -0.0010321418817463546 -0.0009713596843813584 -0.0010018943860493747 -0.001031262593264073
          -0.0009707524642941442 -0.0010015148649715362 -0.0010303833047817916 -0.0010793472688700135 -0.001098981439818969 -0.0010778329838981144
          -0.0010975221910353315 -0.0010763186989262152 -0.001096062942251694 -0.0011450570959282633 -0.0011434122929307971 -0.001141767489933331
          -0.0009833770204288439 -0.0009829944222525333 -0.0009826118240762226 -0.0009138683649942538 -0.0009132503304716872 -0.0009126322959491207
          -0.0016886600132101246 -0.0016865912568497343 -0.0016845225004893441 -0.0006331377499584559 -0.0006328418016676105 -0.0006325458533767652
          -0.00048333420350986676 -0.0006352392837454074 -0.0004838041117696353 -0.0006360502115219006 -0.0004842740200294039 -0.0006368611392983937
          -0.0013663724674550055 -0.0013668692515852172 -0.0013673660357154294 -0.0012806365176163573 -0.0013027658754449826 -0.0014692703816551228
          -0.001279509864623028 -0.0013019008994110902 -0.0014688992529279159 -0.0012783832116296991 -0.001301035923377198 -0.001468528124200709
          -0.0008631506729642212 -0.0009332104004201138 -0.0008630897801163749 -0.0009330410245481724 -0.0008630288872685287 -0.0009328716486762313
          -0.00149939612915808 -0.0013500344748306416 -0.001498808330633707 -0.0013505456279327137 -0.001498220532109334 -0.0013510567810347857
          -0.001014195474186769 -0.0010137362514535332 -0.0010132770287202973 -0.0011207823850504699 -0.001010656683256732 -0.000982804330990846
          -0.001121928376382707 -0.0010116831257233798 -0.0009838752132456795 -0.0011230743677149448 -0.001012709568190028 -0.0009849460955005129
          -0.001281725075388004 -0.0012819813251147868 -0.0012822375748415696 -0.0017359240967516198 -0.0017559282339184275 -0.0017330063964606677
          -0.0017525331272936469 -0.0017300886961697155 -0.0017491380206688665 -0.0012366252377950951 -0.0012077549581807655 -0.0012371965108340737
          -0.0012082185367186184 -0.0012377677838730523 -0.0012086821152564715 -0.001663191692927083 -0.0016616904899919866 -0.0016601892870568907
          -0.0014675633056669265 -0.0014665602772043211 -0.0014655572487417155 -0.0008647503343141157 -0.0008652412866165774 -0.000865732238919039
          -0.0008106729072785339 -0.000811497045172589 -0.000812321183066644 -0.000997536834444091 -0.0009981823780319137 -0.0009988279216197368
          -0.0011319970232487957 -0.0011330785535500405 -0.001134160083851285 -0.0011931750107757255 -0.0012450589984156738 -0.0011931845719250684
          -0.001244084362193501 -0.0011931941330744116 -0.0012431097259713282 -0.0008271599023191921 -0.000830805027802793 -0.0008280506224662379
          -0.0008316839818988548 -0.0008289413426132839 -0.0008325629359949167 -0.0007498719907278294 -0.0007509312084041309 -0.0007519904260804325
          -0.0009289971915231892 -0.0009198783473717742 -0.0009284181752638796 -0.0009193185940519926 -0.0009278391590045697 -0.0009187588407322113
          -0.001499963547626768 -0.0014986089506151888 -0.0014972543536036097 -0.0008391206983344234 -0.0008671353749921853 -0.0008398399390084595
          -0.0008678972136255196 -0.0008405591796824955 -0.0008686590522588539 -0.0015938054599514417 -0.0015020078302808164 -0.0015920034795375263
          -0.0015004059979945533 -0.0015902014991236108 -0.00149880416570829 -0.0008985311490790715 -0.0008980890258035342 -0.000897646902527997
          -0.0015868650736102462 -0.001586405009234353 -0.0015859449448584603 -0.000828247993750094 -0.0008290906267140347 -0.0008299332596779754
          -0.0008320402852543367 -0.000832731563068495 -0.0008334228408826533 -0.0017292452107784996 -0.0017263568369037864 -0.0017234684630290736
          -0.001670398953384279 -0.0016682380843548368 -0.0016660772153253946
        </DataArray>
        <DataArray type="Float64" Name="disp_x" format="ascii" RangeMin="0.000029635035322127476" RangeMax="0.00006475198685755375">
          0.000052232010874348674 0.000052169361993546265 0.00005442507903818569 0.00005504826837767051 0.00005223190993589715 0.000052168515289882425
          0.00005442319993786879 0.000055046998613748816 0.000052232353757682216 0.00005216526594996424 0.000054417770209708706 0.00005504322972544999
          0.0000330964702502718 0.000031717807958677984 0.00003125827813424646 0.000032614042431138874 0.00003309905765781863 0.000031720726711380343
          0.00003126178208485378 0.000032617252870566686 0.00003310687091334667 0.00003172976824325908 0.000031272302029380714 0.000032627449758721454
          0.000030118661138903954 0.000030121810908655686 0.00003013137193608508 0.000030609353013960435 0.00003061243325717205 0.00003062146563661068
          0.00005683457511135612 0.00005746467962764077 0.00005683154748660627 0.00005746226924678397 0.00005682220130615649 0.000057455191141158183
          0.000051445922161253486 0.000051003189013126025 0.00005346854036039983 0.000053352644017642173 0.000051444534934974196 0.00005100143373812929
          0.00005346562955337157 0.00005334984810639165 0.000051440418945086286 0.00005099705567618113 0.00005345658477426716 0.00005334129830197433
          0.00004383790043785974 0.00004359133298005753 0.00004509046309638253 0.00004537266716552382 0.00004383933976425156 0.00004359300534356861
          0.000045091863297232846 0.00004537417036309627 0.00004384367259514313 0.0000435983761764645 0.000045095716212246405 0.00004537812083814499
          0.000039520455866652344 0.00004082497638910507 0.00004119629699123413 0.000039882925804391444 0.00003952181573921443 0.00004082661330458757
          0.00004119732977636152 0.00003988345071526427 0.000039526181978954096 0.00004083131971096285 0.00004120065825884046 0.000039885247150368336
          0.000051035559953783355 0.000050546867042471836 0.000053581009377682185 0.00005103339536585668 0.000050544568303990255 0.000053578941818963016
          0.000051027095002604854 0.000050537736852852234 0.00005357376718187674 0.00003910188448960446 0.00004115081299157042 0.00004168816010116905
          0.000038986836964427834 0.00003910532066018044 0.00004115369817344082 0.00004169101435994244 0.00003899001276866076 0.00003911630900321854
          0.000041161359037102133 0.000041701372786852995 0.000038998195978589736 0.000036689734461617976 0.00003669365877904439 0.00003670544060408296
          0.000053747573779306835 0.000056091291777233006 0.000053745796237417974 0.00005608812544826472 0.0000537403748396964 0.00005607884648574461
          0.00004887911926099604 0.00004976260140912956 0.000050627457332915 0.00004887964933774032 0.000049762960742906145 0.0000506281252656005
          0.00004888000982563158 0.000049763553744674854 0.000050630491866530864 0.000051233801871632614 0.000049084995881671216 0.000047537875612512254
          0.00004981644839458256 0.00005123316406357044 0.00004908549030780241 0.000047538410548683406 0.00004981632026435257 0.000051231414583494066
          0.000049087076679752 0.000047540076593050874 0.000049816474905365086 0.00004669589504278714 0.00004653342040068541 0.000044957378406019555
          0.00004669676519066706 0.000046534739362548465 0.00004495862298720555 0.000046698942144936874 0.0000465389431003619 0.000044961866058263216
          0.00004638578078366505 0.000047325101773956096 0.000045959718869229665 0.00004638715732476623 0.00004732621253289787 0.00004596096010185313
          0.00004639272150073763 0.000047330103851292 0.000045965181757722017 0.00004690256461628362 0.000044539760678463986 0.00004338924361002624
          0.00004525907462134788 0.0000469032534243353 0.000044541252654190795 0.00004339126819732709 0.00004526021512243794 0.00004690495531607744
          0.00004454522223732529 0.00004339790950444179 0.00004526359320990332 0.00004110218730885632 0.00003891086694053575 0.00004110490522594058
          0.000038914084228860696 0.00004111239642547016 0.000038923182880843424 0.00005361651597637383 0.00005604218956581113 0.000055706308275577495
          0.000053613308045626215 0.000056038139491190626 0.00005570253624976847 0.000053603603547476396 0.00005602613116751986 0.00005569107047529725
          0.00005693545858778119 0.00005531629279874067 0.00005350762295454666 0.000054870112647976926 0.00005693130480034058 0.00005531309379912817
          0.000053505043651481054 0.000054866878330085935 0.00005691929514935911 0.0000553037053382101 0.00005349695376333577 0.00005485685610933914
          0.000060843441282039494 0.00005926145760118262 0.00006084077851440321 0.00005925917536028171 0.00006083385650210272 0.00005925215781504279
          0.000052479184231029876 0.000053514104441405485 0.0000524801527151758 0.00005351419231346632 0.00005248311049669572 0.00005351392901215302
          0.00003366806083399114 0.000033764304672456816 0.00003366880760917383 0.00003376532946686288 0.00003367053187885247 0.00003376819479539661
          0.00006118749864395295 0.00006151344031640185 0.00005969992389484918 0.00005913454057263773 0.00006118410608546499 0.00006150994488107277
          0.00005969694191100567 0.000059130934417695365 0.0000611747173462799 0.0000614995188843998 0.00005968798274432084 0.000059119690582027484
          0.000051010876433567195 0.000053658277403187694 0.00005100882908849144 0.00005365548567999227 0.00005100294508809129 0.000053646971434180893
          0.00004255854777360513 0.000040711223059012034 0.00004256066290590884 0.00004071439754984181 0.000042567274589496324 0.000040723366998659384
          0.00004438980532118932 0.00004208701236569995 0.000044390042570980825 0.00004208855321262109 0.000044390049763492454 0.00004209389950750867
          0.00005827769637595664 0.00005827554057168739 0.00005826878605579412 0.00006063358665639554 0.00006063056544202079 0.00006062172378445622
          0.000056093117141129634 0.00005838280754041621 0.00005845413025949385 0.00005614786836820916 0.000056090060304678575 0.00005837966990121281
          0.00005845087545649964 0.000056144207269762975 0.00005608052434467111 0.00005837045566673982 0.000058440734716413966 0.00005613312122419869
          0.00005063376139029758 0.00004884354689553224 0.00004845379882486396 0.00005063315141818891 0.00004884377622580061 0.00004845370446069119
          0.00005063159049536775 0.00004884437350180855 0.0000484535445606365 0.00004345108147115348 0.0000433227361674253 0.000043452920739648136
          0.00004332448058323025 0.00004345986819213827 0.000043330524427492846 0.000057921558656936246 0.00005791714072241121 0.000057903473775113065
          0.000037381471805261214 0.000037009498970327436 0.00003829554723172852 0.000038642199529646054 0.000037381312980799975 0.000037009718509920294
          0.000038296249111427755 0.000038642425510199016 0.00003738116532971526 0.00003701004595449121 0.00003829853145234107 0.00003864301071274104
          0.0000536802961103471 0.00005367739321862141 0.000053667426078411485 0.00005836358687409021 0.00005835981623965077 0.00005834815205933786
          0.00005609432247536443 0.0000560921268740165 0.00005608474168830542 0.000055781446495941735 0.00005735183458100197 0.00005578063529663672
          0.000057350436706246474 0.00005577793009049893 0.000057346186414276325 0.00005890383859901478 0.00005997088949006308 0.000058899147084857606
          0.00005996678318995413 0.00005888429180216549 0.0000599539319527438 0.00004524166902511656 0.00004564567503176473 0.000045241757825121296
          0.000045645956230838795 0.00004524000716178461 0.00004564568653052705 0.00005264032021652776 0.00005490311120543376 0.00005263910308907004
          0.000054900564142483155 0.00005263514748753159 0.00005489299407292844 0.000046410599054666154 0.000046411402613616064 0.00004641382116461772
          0.000057123878608534236 0.00005844867030416653 0.000057119981417066274 0.00005844431177296535 0.000057108482417254096 0.00005843023182157556
          0.000050582894121943434 0.00005166850177274271 0.00005058301804767398 0.00005166793981417253 0.00005058332771954739 0.000051665965184528934
          0.0000431479087514669 0.00004314827537046496 0.000043149143166528765 0.00005090849777105071 0.000050906438109226133 0.00005090040154031116
          0.00004914962039011378 0.00005033580596753523 0.00004915034126541532 0.00005033610840028325 0.0000491527505180599 0.00005033698953162098
          0.000045567695111801085 0.00004556696057434546 0.00004556383546000271 0.00006046584029235217 0.000060462462436797844 0.00006045206520632559
          0.000047256212781788245 0.00004824581165128379 0.00004725517319375745 0.000048244636201664966 0.00004725139391530405 0.00004824035320448456
          0.00004584742879518987 0.00004329371905024047 0.00004584810897110528 0.0000432949505838622 0.000045849325518568075 0.00004329830636293535
          0.00004803231468224141 0.00004846059111482845 0.00005020080561782473 0.00004803325887194428 0.0000484615203982968 0.00005020112416639483
          0.000048035835618269224 0.000048464788721327475 0.00005020204380704264 0.00004035649405074361 0.00003838994813398623 0.00003875695673858991
          0.00004085342254173854 0.00004035871945434717 0.00003839375576838187 0.00003876077695791477 0.0000408554998314833 0.00004036505743523531
          0.00003840476573002658 0.00003877132579665239 0.00004086190917512581 0.000036523621117314674 0.000036273575180897766 0.00003452057944068561
          0.000034845533325231785 0.00003652534240392405 0.00003627434408891637 0.0000345218939424666 0.0000348470859793351 0.000036530155454254495
          0.000036276693813114054 0.000034526171628732725 0.000034852077387383554 0.00004420368885976304 0.000044205098576760423 0.00004420865587736849
          0.00003954055172726741 0.000037712208350442836 0.000039543358860187745 0.00003771655704268944 0.0000395514355746412 0.00003772967846772586
          0.000047081163299996144 0.000046494673298162164 0.00004707949337275192 0.00004649341872290837 0.00004707444119271569 0.000046489849126102075
          0.00003886080842374954 0.000037066970634605636 0.000038863961440736795 0.00003707106581510012 0.00003887306984707551 0.00003708362238914671
          0.00003499579793697994 0.00003672573953104569 0.000034998121179411916 0.00003672885202855166 0.00003500469460748058 0.00003673807365303139
          0.00003339676087673616 0.0000333860540401469 0.000033399030002633715 0.000033388042876614944 0.00003340545219732454 0.00003339390578295615
          0.000048273670949481145 0.00004827315066304415 0.000048270691497298506 0.00005088134663626449 0.00005087976771503021 0.00005087457307822572
          0.000040053219876553675 0.00003918793263848505 0.00003810231517580477 0.000038204846800528416 0.00004005541912552271 0.00003918974462840572
          0.00003810364668152831 0.000038207141713910845 0.00004006217617405038 0.00003919560295724945 0.00003810718790288443 0.00003821406555484635
          0.000043929470772550235 0.000046260131685626746 0.00004392938902179017 0.000046258998559550514 0.0000439295415362211 0.00004625584125769678
          0.000033788656624170085 0.000033736913431622885 0.00003497824157177973 0.00003509659281475061 0.00003378868586911235 0.00003373711907325561
          0.00003497820619699837 0.000035096378713115844 0.0000337886401748768 0.00003373786625922689 0.000034978338764540084 0.00003509532691712931
          0.00003311853788599121 0.000031910335080988026 0.000032154803991801836 0.000033120456761346026 0.000031912284263441415 0.000032157208395376324
          0.00003312570574860398 0.000031918297420847236 0.000032163918033069984 0.00003501663279700141 0.00003502014893699152 0.000035030232896460135
          0.00005181276287096783 0.000053379322262297805 0.000051811716144140045 0.00005337741784558699 0.0000518078557772364 0.00005337095756074526
          0.000043280684921722615 0.000041570862409770614 0.00004328236168155385 0.00004157322452063521 0.000043287042193171565 0.0000415799522808584
          0.00003847449924173282 0.000038477677760637385 0.00003848714536445093 0.00004797944815635647 0.00004797862602309776 0.000047975264635055244
          0.00003635263154424874 0.00003721200033767592 0.00003635772302371245 0.00003721690608122962 0.00003637349406049419 0.000037233018114154004
          0.00003620038493258825 0.000036388230316230115 0.00003620047295754893 0.00003638797346940017 0.00003620030462251966 0.00003638677840717354
          0.00003892430523924146 0.000040180960362745394 0.00003892423739375145 0.000040181111590423954 0.000038923741850980744 0.000040181006915785456
          0.00004143719570796221 0.00004254624189533266 0.00004271203561839084 0.000041437862439806036 0.00004254768693469035 0.000042713255263366084
          0.00004143902304672323 0.00004255240244749565 0.000042716575504692874 0.000042272561011425064 0.000041991499364622696 0.00004227439198126045
          0.00004199364022917387 0.000042279740713076236 0.0000419996367762493 0.000035823093411785054 0.00003515596055686369 0.00003582350339938396
          0.00003515688856134394 0.00003582432979220604 0.00003515949714923374 0.00004405535421170231 0.00004404237606490787 0.000044056912354392786
          0.000044043616068797835 0.00004406133356276903 0.000044047282569841536 0.00003408240977364133 0.000034083779498807955 0.000034087711430436684
          0.00005497756956570772 0.000056918338796310545 0.00005691686961655744 0.00005509688702264667 0.000054978358030183145 0.000056917772054249556
          0.000056916446411532484 0.00005509744036302502 0.00005497942892888476 0.00005691653168005229 0.00005691534950483419 0.0000551003842540591
          0.00005872156052653548 0.000058731896921388686 0.0000587202491330739 0.000058730682593326265 0.0000587165797183344 0.000058726831827547306
          0.000034600426933479544 0.00003460135278582655 0.000034604296074084665 0.00004544246801177738 0.00004544348404512979 0.000045446014672955544
          0.000040223865121709545 0.00004022635901694035 0.00004023330757083794 0.00003409148903363058 0.00003409518785710097 0.00003410500008419843
          0.00004067310697340779 0.000040675676712818376 0.00004068282410656093 0.00004190009757441136 0.00004341829283635556 0.000041902602244432465
          0.00004342045434702901 0.000041909777260969665 0.0000434275421561253 0.00004229716061721737 0.00004229982718048592 0.000042307911598839614
          0.00006095144710750259 0.000060947626390237054 0.00006093601942234408 0.000032064654530538035 0.00003206737334422111 0.000032075366276324646
          0.000048805285951655933 0.000048803483857996896 0.00004879585854245386 0.00003678961176630149 0.00003688266240882188 0.000036793664298053216
          0.00003688708514415707 0.00003680555966572547 0.00003690074781058545 0.000048617650737872576 0.000048615924429294636 0.00004860864454614793
          0.00003705224494286364 0.00003705745742496508 0.00003707367189996629 0.00004336224081011588 0.000043364558487765535 0.00004337207651433646
          0.00003555617270071543 0.000035561199352817464 0.00003557554146042847 0.00006242135416642972 0.00006241876732107979 0.00006241053528721856
          0.00006188475555661388 0.00006188190815053302 0.00006187369722919709 0.00006050075254393347 0.00006047733466957064 0.00006049881352928948
          0.00006047553536969917 0.000060492942286721526 0.000060470303295830754 0.00004782194915121837 0.000046884215009392384 0.00004782320058732595
          0.000046885626423016746 0.000047826369942357685 0.00004688985477604637 0.00005515481092563119 0.000055154817190473826 0.000055154994499972215
          0.0000376610219245318 0.00003766096158435529 0.000037660159708946435 0.00004495067343578441 0.000044949995981786166 0.00004494843753496716
          0.0000606656599565718 0.00005890369416126848 0.000060663290324979455 0.00005890212602629705 0.00006065664789222669 0.00005889741585036562
          0.00004996767874671014 0.0000504915698063897 0.00005162372040146684 0.000049969007337839526 0.00005049294196847003 0.00005162509764302553
          0.00004997341608581378 0.00005049652072307912 0.00005162880217064306 0.00005331780211675709 0.00005369649850335765 0.00005331892177493787
          0.00005369750347504619 0.000053323427938248 0.00005370062599179666 0.000057113408384995126 0.00005711265936318042 0.00005710992474396747
          0.000049552090528380916 0.000049553065762291694 0.00004955635317476274 0.00004838878305951076 0.00004839043553221199 0.00004839608023265699
          0.000044496257827316783 0.00004449617346940024 0.00004449513818241226 0.00003476365066930983 0.0000347643814479845 0.000034766276761759254
          0.000029635035322127476 0.00003078581142519297 0.000029638419671106412 0.00003078940742824648 0.00002964795545127431 0.00003080013709511878
          0.00005344186030809076 0.00005344039055755235 0.00005343575341989935 0.00003474281816933886 0.000034724038380013484 0.00003663281768765952
          0.00003474715297371382 0.00003472826241076132 0.000036636937750403065 0.00003476030902452685 0.00003474072975234566 0.00003664644409992567
          0.00006257758540607584 0.00006145769995404364 0.00006257509310860393 0.00006145490679301042 0.000062567227948154 0.00006144661287503601
          0.00004936156313441026 0.0000513997738209012 0.000049359190078548854 0.00005139796581515092 0.00004935215942681594 0.000051392509820774036
          0.000060428012805174406 0.00006042488387542202 0.00006041526899676849 0.00006058980245282851 0.00006278455800901484 0.00006269153466706393
          0.00006058764006720516 0.00006278318237574138 0.00006268927596508754 0.000060580766903595376 0.000062778769266725 0.00006268238861698859
          0.000056416070707518674 0.000056414520351034267 0.00005640953566379001 0.000040011945909473084 0.000040918051434222824 0.00004001498445913255
          0.00004091997978291923 0.0000400233632294445 0.000040925762641956516 0.000058323535944577194 0.000058533645848968575 0.00005832116476447463
          0.00005853215716938604 0.00005831326290728264 0.0000585274923445901 0.00003891838058668613 0.00003892188161201728 0.0000389338221924181
          0.00004777734554354653 0.000047775507463919636 0.0000477702014174736 0.00006223384805365554 0.00006223062249488063 0.00006222070652670213
          0.00003211653649756779 0.00003212086230455311 0.00003213383442241893 0.00003355018075631864 0.00003355462419609198 0.00003356799966740706
          0.000060365302292222025 0.00006036346849583762 0.00006035782303154076 0.00003511538856657049 0.00003487208199496226 0.00003512005321535749
          0.00003487679343539694 0.00003513406737434525 0.000034891276660438294 0.00006294796144182963 0.0000626849552671173 0.00006294481159220563
          0.00006268186589832401 0.00006293505274587319 0.0000626714177020547 0.00006361421805298893 0.00006361173017623843 0.00006360463425507404
          0.00006215027614210338 0.0000621563338767792 0.00006214799059359004 0.00006215401346397532 0.00006214129252776533 0.0000621472187203934
          0.000045546396914908995 0.000045545354738917527 0.0000455415355246521 0.00006434126655637334 0.00006475198685755375 0.00006433933538338738
          0.00006475055461699106 0.00006433382973711789 0.00006474613976180793 0.00004297101750360263 0.00004367180983788564 0.00004297086034136187
          0.00004367108238103972 0.00004297032475394583 0.000043668872930553426 0.00006223250516294007 0.00006223034354988788 0.00006222291190506483
          0.00003813989139476815 0.00003814377080311584 0.000038156201622789074 0.0000633275728948001 0.00006332476032479213 0.00006331604844751624
          0.00006379240755156883 0.00006378994958029986 0.00006378269900121855 0.00004172791735573734 0.00004172885449759226 0.00004173068981072375
          0.00004240195603437868 0.00004240204008409351 0.00004240256853507455
        </DataArray>
        <DataArray type="Float64" Name="disp_y" format="ascii" RangeMin="-0.000023114210145201776" RangeMax="-0.000005776032354533988">
          -0.000019754855548007765 -0.000019007832890906806 -0.000017949080002390218 -0.000018266618049927708 -0.000019757286944821742 -0.000019010076327945177
          -0.000017950451705427327 -0.00001826774066474485 -0.00001976440367054626 -0.00001901697184675932 -0.000017955159483725824 -0.00001827090234663258
          -0.0000170872529470858 -0.000016674292237351214 -0.000016130404067179408 -0.000016419475280673833 -0.00001708803948921075 -0.00001667451701423769
          -0.000016130712191855037 -0.000016420144771745893 -0.000017090448660946713 -0.000016675235602796165 -0.00001613148177305992 -0.000016422392246068393
          -0.000015873560190269916 -0.000015873640462786326 -0.00001587409896460391 -0.000016353696803631766 -0.000016353705033174705 -0.00001635355229877027
          -0.00001669679569367025 -0.00001695656428545969 -0.000016697169751264456 -0.000016956745179324843 -0.000016698218787983768 -0.00001695698817982771
          -0.00001447740964842999 -0.000013392571851113273 -0.000012795460561802182 -0.000013578930229748692 -0.0000144777303765522 -0.000013392443691093003
          -0.000012794907961782504 -0.000013578623971662978 -0.00001447854697425288 -0.000013392131256672457 -0.000012793200405485608 -0.000013578026279290324
          -0.000021916134754998743 -0.00002129779830920765 -0.000021174908323870543 -0.00002176188859007139 -0.00002191925552372311 -0.000021300982428972615
          -0.000021178194283059495 -0.0000217651763000107 -0.000021928141633975 -0.000021310874189083512 -0.000021189213321611406 -0.000021774012567477822
          -0.00002136699354075768 -0.00002167158563765038 -0.000022216588714832955 -0.000021849881162358635 -0.000021369003485788947 -0.000021674154716415494
          -0.000022219442306926848 -0.000021851888779697643 -0.00002137501878194346 -0.000021681971049069863 -0.00002222810491970619 -0.000021857955651070476
          -0.00000829764572788632 -0.000007296030202343603 -0.000008025184905748338 -0.000008295432524238389 -0.000007294003294202675 -0.000008023215578648458
          -0.000008288360555117891 -0.000007288231376206521 -0.000008017120411397975 -0.000013558537166660006 -0.00001354947149365288 -0.000014405366668069854
          -0.00001470170080763844 -0.000013559575028408075 -0.00001355034050274314 -0.000014406522631240877 -0.000014702620480642705 -0.000013562132863714207
          -0.000013554274989124005 -0.00001441008682791098 -0.00001470565851208078 -0.000014015969460915602 -0.000014016799932403287 -0.000014018277783321177
          -0.000017552388381406968 -0.000016365429152748338 -0.00001755384283130234 -0.000016365910018851758 -0.000017558364462421387 -0.000016367691843981445
          -0.000021316544505782897 -0.000020459789978802058 -0.000020945410655849505 -0.00002131969796983068 -0.00002046268545011248 -0.00002094811133492159
          -0.0000213287343028045 -0.000020472391755663533 -0.000020956152284870807 -0.00001701178109288699 -0.000018094809592444296 -0.00001767609352924841
          -0.00001668597951885142 -0.000017013280551194592 -0.000018096751845771134 -0.000017677942310685157 -0.000016687473400277622 -0.00001701805783678514
          -0.000018102916481348857 -0.000017683660753060478 -0.00001669202167288183 -0.000020264336675992838 -0.00002096491452419107 -0.00002053150892359462
          -0.00002026731058813954 -0.00002096800783777125 -0.0000205348489671227 -0.00002027610946328735 -0.000020977630883305733 -0.00002054525897604521
          -0.000021434470692458922 -0.000021484621544444743 -0.000022310768120891062 -0.000021437636704439285 -0.00002148783883823481 -0.000022314529508599785
          -0.000021447148712766578 -0.00002149716454467009 -0.00002232555424659095 -0.0000192974103289725 -0.000019902434858674427 -0.000019359809421662713
          -0.000018601238243939534 -0.000019299906504253216 -0.000019905258712684478 -0.00001936231324114543 -0.00001860346987307643 -0.000019307433279682837
          -0.000019913074125743088 -0.000019369717996576463 -0.000018609813496382447 -0.000015648003082005452 -0.000015690344705341206 -0.000015649498889384707
          -0.00001569167619197857 -0.0000156530974929923 -0.000015694945383299628 -0.000011647127054230034 -0.000011468786032400112 -0.000012563544029689993
          -0.000011646202731675619 -0.000011467812000749075 -0.000012562721619191046 -0.000011643264323812002 -0.000011464782404235793 -0.000012560145122558778
          -0.000013649139915699999 -0.000014770244828111542 -0.00001465114117644733 -0.000013611375322489014 -0.000013648516431697835 -0.000014770143985504588
          -0.000014651202929826904 -0.000013610841707921598 -0.000013646701694071227 -0.000014769888853460568 -0.000014651297760034573 -0.000013608998406256892
          -0.000016339915493475117 -0.000016871114514664087 -0.000016338632469945796 -0.000016870352009060206 -0.000016334670338546695 -0.000016867767229802577
          -0.00002053782198862183 -0.00001959390984444454 -0.00002054011241116438 -0.000019595518605906365 -0.00002054673896112991 -0.000019601132500558855
          -0.00001908067698606176 -0.00001893691637488012 -0.00001908055182486235 -0.000018936887061764886 -0.000019079823756436048 -0.00001893665298337095
          -0.000014459859289102236 -0.00001480702217124247 -0.00001574378123148111 -0.000015472513099061845 -0.00001445915086607406 -0.000014806149285448619
          -0.000015743071900511876 -0.00001547219110195166 -0.000014456864639322818 -0.000014803302090914292 -0.0000157405862035077 -0.000015470933458278745
          -0.00000949954554131143 -0.000009228619348353523 -0.000009497602402972454 -0.000009226910057289887 -0.00000949099372082634 -0.00000922189489825976
          -0.000012717253073494544 -0.00001243134642899027 -0.000012717647368508077 -0.000012432155714420113 -0.000012719295140414845 -0.000012434761708764614
          -0.000011413855853895394 -0.000011298344111675806 -0.000011413513545675691 -0.000011298403676227939 -0.000011412130364461852 -0.000011297873497294838
          -0.00001701047265749796 -0.000017010029046223358 -0.00001700930475287088 -0.000010455161713977994 -0.000010454946929145249 -0.000010454020997661485
          -0.000009147684091011175 -0.000009270513548594601 -0.000010352835092506937 -0.000010279691370701951 -0.000009146667099569444 -0.00000926994363391711
          -0.00001035219579579196 -0.000010278715296994596 -0.000009143957773418098 -0.000009268284105035697 -0.000010350232391377818 -0.000010275627168659113
          -0.000015490575608713406 -0.00001613824532066472 -0.000015296855764558094 -0.000015491571219856966 -0.00001613963173143442 -0.000015297972032792987
          -0.0000154943254733805 -0.000016143806957476505 -0.00001530149444810363 -0.000014712002750301034 -0.000015542749761608736 -0.000014713028062367562
          -0.00001554444289997699 -0.00001471643293062609 -0.000015550999285849257 -0.000012563430119201184 -0.000012562668347165727 -0.000012560111259943033
          -0.00002093157680365333 -0.000020489268054205758 -0.000020966872809106702 -0.000021419557477146625 -0.000020932541209213705 -0.000020490252091832908
          -0.000020968281124666575 -0.000021420941889628366 -0.000020935410891395177 -0.000020493387983399106 -0.000020972420447228376 -0.000021424777727297175
          -0.000010410235204770642 -0.00001040901586591046 -0.000010405126084655232 -0.000011472638318832485 -0.000011471888906125096 -0.000011469485074532157
          -0.000008069986152612326 -0.00000806875838860346 -0.00000806485986553618 -0.00001849119998211121 -0.00001792875912850427 -0.000018491907750428624
          -0.00001792881525765443 -0.000018493765411362564 -0.0000179286678134685 -0.000013700632612095554 -0.000012587581055216957 -0.00001369985830448911
          -0.00001258698765341153 -0.000013697067408685543 -0.000012585316482539598 -0.000014067268617202579 -0.000015062877548383667 -0.00001406814468458803
          -0.000015064602492042142 -0.000014070246621411038 -0.000015070102174087799 -0.000017259378607556898 -0.000016093786769139523 -0.000017260757296317897
          -0.000016094416815002654 -0.000017264847209322885 -0.000016096353718835675 -0.000016970595108016148 -0.00001697255898752418 -0.00001697797276938086
          -0.000014875564659643132 -0.00001511793578474656 -0.00001487534066596824 -0.000015117703071199229 -0.000014874603349815474 -0.000015117361908567779
          -0.000018314157122406423 -0.000018557765167259518 -0.000018316130575123473 -0.00001855984339876974 -0.00001832176339146903 -0.00001856600140287275
          -0.00001011580145050616 -0.000010114872641086284 -0.000010111833225686481 -0.000010851591591951155 -0.000010850429114261927 -0.000010847175515860536
          -0.00001921510345466553 -0.000019167874464544814 -0.000019217619683155774 -0.00001917026129613563 -0.00001922522547851335 -0.00001917719158514414
          -0.000010064449273939316 -0.000010063333375323414 -0.000010059506685100145 -0.000011515959985680464 -0.000011515748748767266 -0.000011515569967421825
          -0.000011642793214534927 -0.000009889769924067443 -0.000011642155548681665 -0.000009888260382810798 -0.000011639930917816935 -0.000009883817141366318
          -0.000016091105688561864 -0.000016582897956001878 -0.00001609310708605181 -0.000016585174402229198 -0.000016099206791566292 -0.000016591878228429993
          -0.00002077362952630069 -0.000020027253082323697 -0.00001969748356458187 -0.00002077669346201466 -0.00002003007462750648 -0.000019700227322234964
          -0.00002078527749380313 -0.000020038278342671798 -0.000019708856022960014 -0.000017633663115801224 -0.00001734626723555302 -0.000016587950270372877
          -0.000016690025836468847 -0.000017636169421710773 -0.00001734852873456134 -0.000016589681759272697 -0.00001669187945212968 -0.000017644263702966512
          -0.00001735556117558688 -0.00001659453334286144 -0.000016696988789068226 -0.00001941025336149372 -0.00001980517265504256 -0.000018860974274392386
          -0.00001865878992573522 -0.000019411599328828168 -0.000019806127985629608 -0.00001886142531482601 -0.00001865956722607091 -0.000019415505885159856
          -0.0000198090374233016 -0.00001886294598090688 -0.00001866176920142608 -0.000013237731897241964 -0.0000132384647284476 -0.000013239578094806234
          -0.000018439909399739108 -0.000017945875405352386 -0.000018442723258710647 -0.000017948315304496916 -0.0000184511442872656 -0.00001795562156741073
          -0.000007496060062187939 -0.0000067368335748459535 -0.000007493781251749521 -0.0000067343542364095665 -0.000007487196714845893 -0.000006727047117914254
          -0.000019077589147178566 -0.000018465038791280182 -0.000019080335398442435 -0.00001846737602540642 -0.00001908855468403548 -0.00001847440063071601
          -0.000018266793633915026 -0.0000189705660897006 -0.000018267930804784828 -0.00001897259471711179 -0.000018271135695344062 -0.000018978250167208997
          -0.000017640187703346302 -0.000017988544833982334 -0.00001764093607142438 -0.00001798904204581206 -0.000017643071049704342 -0.00001799065776372205
          -0.000014230554466821377 -0.000014231257041199338 -0.00001423286203576083 -0.000012199873698804898 -0.000012199522098751366 -0.000012198518909421743
          -0.000020910836375902636 -0.00002095362504387385 -0.000020527041527019625 -0.00002012577101209002 -0.00002091333649064276 -0.000020955738465868887
          -0.000020528785867814116 -0.00002012792143718795 -0.00002092085935497339 -0.000020961955543571875 -0.00002053391415651281 -0.000020134433583807818
          -0.00000894402624342271 -0.00000881977028476738 -0.000008942485170403952 -0.000008818134892491634 -0.000008937641695640385 -0.000008813174803334454
          -0.000019594498083809554 -0.000019333543921418183 -0.000019902186971487162 -0.00002017601768491204 -0.00001959387821985674 -0.00001933315243182659
          -0.000019902305217781588 -0.000020175868185228565 -0.000019592099312198888 -0.0000193319424338755 -0.000019902655275763494 -0.000020175847171643074
          -0.00001814663476880375 -0.000017532939205934942 -0.000017426239208960198 -0.000018146924293255186 -0.00001753281244442421 -0.000017426403819891326
          -0.000018147599145438135 -0.00001753259153713136 -0.000017427042912951415 -0.000017606587755839848 -0.000017608013657193877 -0.000017612054536681513
          -0.000015675320820170422 -0.000015904680858424638 -0.000015676197110413068 -0.000015905403077872106 -0.00001567885927569185 -0.00001590754125728872
          -0.00001783959944371131 -0.0000188856543306617 -0.000017841963208119056 -0.000018888286076332832 -0.000017848879365298897 -0.000018896180026614398
          -0.000019642649993386354 -0.000019645297362940006 -0.00001965318655340101 -0.000013049528573913625 -0.00001304961721312874 -0.000013049891530952277
          -0.000017344294751409805 -0.000017096512154379816 -0.00001734620205049066 -0.000017098657120084747 -0.000017351115427633415 -0.0000171054071309134
          -0.000020441014642078954 -0.000020751304045262242 -0.00002044176177310946 -0.00002075189703108882 -0.000020443900991854882 -0.000020753818006144337
          -0.000021814870204179723 -0.00002227852960451535 -0.000021816312802621474 -0.000022280727985557236 -0.000021820619987098144 -0.00002228708646055361
          -0.000022667697287265154 -0.000022454145916577834 -0.000022949528001123712 -0.000022670905642510544 -0.00002245757866042829 -0.000022953467253486288
          -0.000022680420442331005 -0.000022467946357879153 -0.000022965810913797223 -0.000021869880286959042 -0.000021222048789709324 -0.000021872883308033223
          -0.000021225007414458707 -0.00002188150927729478 -0.000021233807778011355 -0.00002004019628214515 -0.000019532313262424602 -0.000020040867751020387
          -0.000019532805816153298 -0.000020042967572054913 -0.00001953387324756716 -0.000022530332820802357 -0.00002309633137704478 -0.000022534061763819975
          -0.00002310056748595886 -0.000022545151278801215 -0.000023114210145201776 -0.000018898018315893515 -0.00001889827569008074 -0.00001889860185994824
          -0.000019635079068830257 -0.000018733099003086313 -0.00001903544569559404 -0.000019889394939784888 -0.000019636380650999724 -0.00001873328688626533
          -0.000019035280995909856 -0.000019890064863041632 -0.000019639350756040928 -0.000018733880855714248 -0.0000190350785063275 -0.000019892710904184473
          -0.000018171490717067566 -0.000017874218442793597 -0.00001817079410870353 -0.000017873690634049454 -0.000018169105826171358 -0.000017872149163169488
          -0.000019372962511430306 -0.0000193732683803329 -0.000019373897498529403 -0.000023066934028042538 -0.0000230715949436405 -0.000023086159015926632
          -0.00002019974558054767 -0.00002020251388967981 -0.00002021072907995508 -0.000016637503563435664 -0.000016639108775337456 -0.000016643720682144065
          -0.000019573483536054082 -0.000019576399846134654 -0.000019585013609858625 -0.000020559382155796307 -0.00002066395246014115 -0.000020562512266151546
          -0.000020667199307032182 -0.000020571685221938984 -0.00002067737511159948 -0.000019956539588811048 -0.000019959536768518657 -0.00001996830139654082
          -0.000013746559505994924 -0.000013746003629130637 -0.000013744372193223913 -0.000017130975764772744 -0.000017131379142846688 -0.000017131987839965754
          -0.000007815762821739557 -0.000007813879960506723 -0.000007806989121320027 -0.000014890951354283671 -0.00001577313695680327 -0.000014892206185845704
          -0.000015774873706007443 -0.000014895955495445822 -0.00001578021176303956 -0.0000086306604163574 -0.000008628810489028113 -0.000008623206335570276
          -0.000016560064351703884 -0.00001656233024550962 -0.000016568055236220482 -0.00002017956626499352 -0.000020182582497928965 -0.000020191487488764888
          -0.00001664296300233698 -0.000016644914738174186 -0.0000166511774994255 -0.000011466163149831776 -0.00001146630174989185 -0.000011466818701071165
          -0.000012483415795570694 -0.000012483181603899667 -0.000012482593929070137 -0.00001703415114391649 -0.000017328605326622026 -0.000017033134452931476
          -0.00001732747940392323 -0.000017030135341932958 -0.00001732427793926905 -0.000022135822002857004 -0.00002287723161804553 -0.00002213977818408419
          -0.000022882237032252298 -0.00002215221241892305 -0.00002289870231475972 -0.000019241671559653492 -0.000019242690321165234 -0.00001924586769198809
          -0.000021301412187411175 -0.000021302549006306 -0.000021305693893925273 -0.000006844184217512479 -0.000006841819834912657 -0.000006834967569122519
          -0.00001665999884738673 -0.00001747326673386141 -0.00001665895611632132 -0.00001747260905783731 -0.000016655712055623945 -0.00001747069663358919
          -0.00002202427271763238 -0.000021527513619888668 -0.000021399248473303513 -0.00002202716584188178 -0.000021530568641876522 -0.000021402182883617056
          -0.000022038693753642314 -0.000021539341906865096 -0.000021410503555057928 -0.0000206990811341791 -0.00002027612567761831 -0.000020701333164841832
          -0.000020278037294484363 -0.000020711298786005376 -0.00002028415643925482 -0.000018318446890000354 -0.000018318540105441447 -0.00001831958381163899
          -0.000021753134183039242 -0.000021756496174118905 -0.000021765574133395542 -0.00002249695447192803 -0.00002250109304933502 -0.00002251379625846782
          -0.000007838876317795284 -0.000007837102890886666 -0.000007831260571808432 -0.000019597589738744678 -0.000019597950095506117 -0.000019598458570484866
          -0.000015390892115647255 -0.00001556084329338235 -0.000015391133076342584 -0.00001556120492545261 -0.000015391746105951986 -0.000015562089225171903
          -0.000006693994621064204 -0.000006692047711622279 -0.000006686349505048825 -0.000014266611128135839 -0.000013484147511488591 -0.00001319580940040925
          -0.000014267656019569251 -0.000013485149864843333 -0.000013196819000578372 -0.000014271586963399666 -0.000013487371433249607 -0.00001319942479282278
          -0.00001542306263030735 -0.00001565722127438401 -0.000015421453676727537 -0.000015655924629818415 -0.00001541675954223596 -0.00001565161933861582
          -0.000006522274605017017 -0.00000578496496433249 -0.000006519977420004661 -0.000005782787070118813 -0.000006513463486313749 -0.000005776032354533988
          -0.000015823903502425525 -0.00001582289768139782 -0.00001581982906098974 -0.00000940834867529155 -0.000009480675106110666 -0.000010487891417949667
          -0.00000940827589156126 -0.00000948116742223414 -0.000010488289274055014 -0.00000940795601320092 -0.000009482709881016044 -0.000010489437515096303
          -0.0000071080370952539176 -0.000007106719727804851 -0.0000071026061657748494 -0.000011282350303018206 -0.000010222990466326304 -0.000011282793057844631
          -0.000010222542348173598 -0.000011284152646063869 -0.000010220922047381232 -0.000008302111671360992 -0.000007495314407279555 -0.000008301567649387128
          -0.000007494903505434577 -0.000008300033650964998 -0.000007493844527513377 -0.000012281101562301624 -0.000012281944399327066 -0.000012285820041349617
          -0.0000058348247790483595 -0.0000058319644055601045 -0.000005822848443872733 -0.000014831205289046458 -0.000014830150795323665 -0.000014827020674919251
          -0.00001574761896848692 -0.0000157485842439106 -0.00001575117998373382 -0.000015861248912976283 -0.000015862968074752517 -0.00001586805872012088
          -0.000008442481975241349 -0.00000844263162169573 -0.000008443344737243625 -0.000015853886182479953 -0.000015048531635094616 -0.00001585588564950675
          -0.000015050165719224586 -0.00001586283062801295 -0.000015054890484246613 -0.0000137803978703758 -0.000014219270663737612 -0.000013779997766456568
          -0.00001421842432014755 -0.000013778774980852677 -0.000014216403537410575 -0.000014001774394647701 -0.00001400079447915133 -0.000013997780306110245
          -0.000016535839523705294 -0.000016260151008158154 -0.000016534153336835214 -0.00001625867978721018 -0.000016529715258155384 -0.000016253994603477687
          -0.0000059240039175731746 -0.0000059212191181571384 -0.0000059126246525292965 -0.000011326788006104053 -0.000010419645529456115 -0.000011327094929792026
          -0.000010420404478810244 -0.000011327614255939683 -0.000010422914359648527 -0.00000704101322169086 -0.000006001982965768436 -0.000007039016343446974
          -0.000005999617577664947 -0.000007033259365797724 -0.000005992484686775051 -0.00001594311843360776 -0.00001594142003389541 -0.00001593687346089137
          -0.00001298460169499577 -0.00001298566348714606 -0.000012988521887890922 -0.000013072162864922023 -0.000013072023663502742 -0.000013071801801272726
          -0.000012225626830511007 -0.000012225775335981645 -0.000012226211353392795 -0.000009129454267078655 -0.000009128446730708054 -0.00000912469530333543
          -0.00000806669822384901 -0.000008064964342290057 -0.000008059842931967733
        </DataArray>
        <DataArray type="Float64" Name="disp_z" format="ascii" RangeMin="-6.955980969305807e-7" RangeMax="0">
          0 0 0 0 -2.471464730603829e-7 -2.667941603140329e-7
          -2.6474265728092163e-7 -2.5051923756259694e-7 -4.939865375731906e-7 -5.330733445433732e-7 -5.290370393054528e-7 -5.005146880208543e-7
          0 0 0 0 -1.748550723560417e-7 -1.5611688513917665e-7
          -1.5526981898301672e-7 -1.7953163601636613e-7 -3.497790507224372e-7 -3.1201173247542904e-7 -3.1060641798750926e-7 -3.5904722230755365e-7
          0 -1.33803568449263e-7 -2.6790765413314604e-7 0 -1.3691009167138241e-7 -2.7427072856174587e-7
          0 0 -2.54603964677417e-7 -2.42214487027816e-7 -5.087541255198255e-7 -4.842402012487601e-7
          0 0 0 0 -3.246260761862515e-7 -3.2833677072808694e-7
          -3.140599119676736e-7 -3.141155799438576e-7 -6.482053972471556e-7 -6.560213994465023e-7 -6.273143241167978e-7 -6.272966236883218e-7
          0 0 0 0 -2.0275706666543403e-7 -2.199121521286368e-7
          -2.3016780291191736e-7 -2.1191039604977619e-7 -4.052204614226927e-7 -4.398950635313579e-7 -4.604936793161726e-7 -4.23791141253676e-7
          0 0 0 0 -1.6688919849915226e-7 -1.7778864455136052e-7
          -1.610361419037192e-7 -1.5500314611361274e-7 -3.3403499839818506e-7 -3.556438355876965e-7 -3.222472487228673e-7 -3.102103009421134e-7
          0 0 0 -2.9244326502115637e-7 -2.826729814331888e-7 -2.7947377271545164e-7
          -5.850564786986382e-7 -5.655779567713104e-7 -5.588632401035211e-7 0 0 0
          0 -3.0724462591822663e-7 -3.223967216007346e-7 -3.206991273395549e-7 -2.9813858275498745e-7 -6.144561765762585e-7
          -6.440167537179109e-7 -6.409499111300111e-7 -5.961770485113495e-7 0 -2.7810715472029865e-7 -5.560768341009353e-7
          0 0 -2.8154737123579674e-7 -2.7240527455178034e-7 -5.623272779063743e-7 -5.43988840803972e-7
          0 0 0 -2.2609333094429778e-7 -2.4540292129477103e-7 -2.216344351143058e-7
          -4.517261619469243e-7 -4.907361936151124e-7 -4.432066147094837e-7 0 0 0
          0 -3.059688180245649e-7 -2.9504013261634e-7 -3.024477375077998e-7 -3.133685625501722e-7 -6.110395380416429e-7
          -5.89720550820961e-7 -6.045674001654121e-7 -6.261116747382314e-7 0 0 0
          -2.5561482860727957e-7 -2.388163035013886e-7 -2.51586328394477e-7 -5.109883632062017e-7 -4.776550024973854e-7 -5.02369060455828e-7
          0 0 0 -2.2372066951434825e-7 -2.2816701371984208e-7 -2.0146537290533117e-7
          -4.4682375599369034e-7 -4.5577519929133134e-7 -4.025297508953361e-7 0 0 0
          0 -2.774492703633851e-7 -2.660038211937171e-7 -2.6825361564082936e-7 -2.887505526763477e-7 -5.545881671172034e-7
          -5.310913216383268e-7 -5.358756829930288e-7 -5.770476196757197e-7 0 0 -3.0731964703731627e-7
          -2.9412826669786045e-7 -6.142840513374847e-7 -5.877592007993069e-7 0 0 0
          -3.0978690092836987e-7 -2.823491105890711e-7 -2.8984561180568893e-7 -6.187444985155714e-7 -5.644998019631734e-7 -5.790786104393395e-7
          0 0 0 0 -2.7840581049187776e-7 -2.92892993958114e-7
          -3.114243928895448e-7 -2.996087045866557e-7 -5.562021884075007e-7 -5.850304324064541e-7 -6.219337732051331e-7 -5.985941215723792e-7
          0 0 -2.0724535658713494e-7 -2.1989166213384797e-7 -4.1471439951315036e-7 -4.39129889665813e-7
          0 0 -2.2449058540113919e-7 -2.43782986202741e-7 -4.48085678969815e-7 -4.880248156919303e-7
          0 0 -1.493303655126772e-7 -1.502625355398923e-7 -2.9866111024771977e-7 -3.0056749766182456e-7
          0 0 0 0 -2.0371408192742672e-7 -1.9973452777090794e-7
          -2.2156870716060233e-7 -2.2886285159367316e-7 -4.0735141296831207e-7 -3.996472426097341e-7 -4.429058163233961e-7 -4.578910929555045e-7
          0 0 -3.1297593268411643e-7 -2.9325642767591644e-7 -6.253132797940649e-7 -5.860364579635342e-7
          0 0 -3.3657182415220145e-7 -3.280964935365147e-7 -6.719074957488429e-7 -6.555461094720679e-7
          0 0 -3.4473995827698296e-7 -3.3698224686466975e-7 -6.882803670854959e-7 -6.726066121769952e-7
          0 -2.322174533016832e-7 -4.6406189636438387e-7 0 -2.2448942625365117e-7 -4.4920325667041957e-7
          0 0 0 0 -2.695016987756562e-7 -2.45833189169232e-7
          -2.486636777622378e-7 -2.750095782314371e-7 -5.388021831476242e-7 -4.919713673744884e-7 -4.975788119353859e-7 -5.500937981881839e-7
          0 0 0 -3.217613387023196e-7 -3.1833523361662516e-7 -3.2703138246822125e-7
          -6.42651244540329e-7 -6.360531342123544e-7 -6.5353824798713e-7 0 0 -3.4165020901663563e-7
          -3.258168414755145e-7 -6.821015270429783e-7 -6.502505567095296e-7 0 -2.630434997410935e-7 -5.259658535493227e-7
          0 0 0 0 -1.515124380575388e-7 -1.5745894093001272e-7
          -1.5936298616480558e-7 -1.5213029417055462e-7 -3.030951113851041e-7 -3.1494417615324006e-7 -3.1906449527811125e-7 -3.0447765415661845e-7
          0 -3.028421666073867e-7 -6.050429990343801e-7 0 -2.5338602338676884e-7 -5.070264324987014e-7
          0 -2.6357994015326175e-7 -5.268868675065932e-7 0 0 -2.398193253238698e-7
          -2.350283539928684e-7 -4.789031658446951e-7 -4.700854561506141e-7 0 0 -2.48240868833704e-7
          -2.2796988085030227e-7 -4.964585011082934e-7 -4.565656349943511e-7 0 0 -3.4499923111414986e-7
          -3.3588714645247346e-7 -6.882283028843151e-7 -6.708296928609225e-7 0 0 -2.9485885327763834e-7
          -2.883205671079135e-7 -5.888603083245188e-7 -5.757376152131271e-7 0 -3.1009675025637514e-7 -6.199748816658375e-7
          0 0 -2.7326940916401505e-7 -2.4894681918072037e-7 -5.456508005486914e-7 -4.978372309137295e-7
          0 0 -2.898928200264022e-7 -2.8162817346783965e-7 -5.789747359525395e-7 -5.621902419775954e-7
          0 -3.344670254567858e-7 -6.677442094230342e-7 0 -3.261462924710426e-7 -6.516329348006026e-7
          0 0 -2.767493637902248e-7 -2.763971211152886e-7 -5.53350677151021e-7 -5.52049781536909e-7
          0 -3.3382879118190453e-7 -6.669232040010744e-7 0 -2.2584974728445207e-7 -4.52077619197249e-7
          0 0 -3.407165730863655e-7 -3.250247772664052e-7 -6.805626741420681e-7 -6.496401122861685e-7
          0 0 -3.1950444650358947e-7 -3.119663144211063e-7 -6.386762426736113e-7 -6.237439235072223e-7
          0 0 0 -2.456968672470441e-7 -2.6006345760556774e-7 -2.662177908496552e-7
          -4.909729862065786e-7 -5.199349662259636e-7 -5.314925093533439e-7 0 0 0
          0 -2.8146721803039987e-7 -2.6993677794779096e-7 -2.848382992168837e-7 -3.0043834623731623e-7 -5.622055635254696e-7
          -5.384387923098142e-7 -5.681383036991892e-7 -5.999752744101512e-7 0 0 0
          0 -1.7843393981899278e-7 -1.6613925896557292e-7 -1.6183662653863142e-7 -1.712294307784459e-7 -3.574000235474341e-7
          -3.322969916212798e-7 -3.23440044650872e-7 -3.426065627914324e-7 0 -3.484772774841952e-7 -6.955980969305807e-7
          0 0 -2.5768007923362305e-7 -2.4551453998290204e-7 -5.147639708874155e-7 -4.902082746732381e-7
          0 0 -3.070645934390784e-7 -2.981003180256583e-7 -6.131904724900803e-7 -5.955044691347083e-7
          0 0 -2.3255805845513027e-7 -2.1796120391733125e-7 -4.64482299104818e-7 -4.361714642763177e-7
          0 0 -1.8040068026046507e-7 -1.9362679815589866e-7 -3.610933953228134e-7 -3.878506692237844e-7
          0 0 -1.6959952538593207e-7 -1.6108627188567323e-7 -3.3926801803036995e-7 -3.219788351867687e-7
          0 -3.331893075073719e-7 -6.658451559870804e-7 0 -3.286950032263669e-7 -6.566753939094881e-7
          0 0 0 0 -1.9325268826286765e-7 -1.7526734258780188e-7
          -1.703804980417332e-7 -1.84739111990416e-7 -3.8657428519041627e-7 -3.511162350245593e-7 -3.413788594267915e-7 -3.697936832792587e-7
          0 0 -3.2394024526587286e-7 -3.244536750233657e-7 -6.472607501666958e-7 -6.480078110614241e-7
          0 0 0 0 -1.531679878235365e-7 -1.5043679814595436e-7
          -1.5167026653007832e-7 -1.514427861848236e-7 -3.06250355548297e-7 -3.007319103200628e-7 -3.03317838815659e-7 -3.0276432812992725e-7
          0 0 0 -1.535223281547149e-7 -1.4408992376585998e-7 -1.5101751910691283e-7
          -3.0715103175029885e-7 -2.882928794929902e-7 -3.020856159551025e-7 0 -1.9645204066139994e-7 -3.936803858438129e-7
          0 0 -3.1698234239616874e-7 -3.042391948879634e-7 -6.327670119893452e-7 -6.076152160874644e-7
          0 0 -2.9185274440929724e-7 -2.643421230792659e-7 -5.833424995400777e-7 -5.28578514490325e-7
          0 -2.0869753967066743e-7 -4.1739781427623897e-7 0 -3.37153382871245e-7 -6.738208451434967e-7
          0 0 -2.2792401454732058e-7 -2.5489318286936675e-7 -4.561979741085001e-7 -5.096598190403156e-7
          0 0 -1.517309545621651e-7 -1.4804951080926348e-7 -3.0338457132557047e-7 -2.9611522957124086e-7
          0 0 -1.4385135566067418e-7 -1.424860538230276e-7 -2.876297250088233e-7 -2.850558976997843e-7
          0 0 0 -1.4238478571269863e-7 -1.7136047856051326e-7 -1.4671823569808219e-7
          -2.849135108504135e-7 -3.426530452595759e-7 -2.9325285420436415e-7 0 0 -1.895079611990959e-7
          -2.0675241124786948e-7 -3.787763626897482e-7 -4.134362390553688e-7 0 0 -1.565880638085859e-7
          -1.5894479429309957e-7 -3.128645385594138e-7 -3.177921295273369e-7 0 0 -1.8468370320361271e-7
          -1.5584743726748597e-7 -3.69339456984131e-7 -3.110261278663843e-7 0 -1.545450055027913e-7 -3.0909748567367137e-7
          0 0 0 0 -2.2822571501246064e-7 -2.281678884367306e-7
          -2.2681307816009725e-7 -2.246105731023589e-7 -4.5565221809983525e-7 -4.5607497979527716e-7 -4.5301403551206914e-7 -4.4859526724409374e-7
          0 0 -2.2172127830872512e-7 -2.2256955588471529e-7 -4.4301087307453576e-7 -4.446397803765766e-7
          0 -1.5413578065935884e-7 -3.0808340029676883e-7 0 -1.628674305360348e-7 -3.25210843343969e-7
          0 -2.1791421804563382e-7 -4.3582099638173536e-7 0 -2.0075381493183446e-7 -4.0211970758886996e-7
          0 -2.3962399348403095e-7 -4.79159113596588e-7 0 0 -2.2485387872646598e-7
          -2.3857948235782376e-7 -4.4981072350823507e-7 -4.7657379427839827e-7 0 -2.455931826190695e-7 -4.909774753285457e-7
          0 -2.109972118825722e-7 -4.2247092327784445e-7 0 -1.5503796940793192e-7 -3.098978549447937e-7
          0 -3.025822679590108e-7 -6.049510896264895e-7 0 0 -2.774700935596407e-7
          -2.6788554718426354e-7 -5.540135880100963e-7 -5.350658258671183e-7 0 -3.142387235110264e-7 -6.28064085002249e-7
          0 -2.6006160002017955e-7 -5.196985225538444e-7 0 -2.520776478883991e-7 -5.035256445690272e-7
          0 -2.239938069714638e-7 -4.4872071421013236e-7 0 -2.0080890198397636e-7 -4.0211655784310823e-7
          0 -2.018224593816387e-7 -4.04151845708398e-7 0 0 -2.1110208813181157e-7
          -2.1201768948296355e-7 -4.2190189026002536e-7 -4.2369320726592884e-7 0 0 -2.055452380335166e-7
          -1.685611372087807e-7 -4.1099382226351174e-7 -3.3655267548418605e-7 0 -2.3268421971818854e-7 -4.6465080269447333e-7
          0 -1.4552751518511253e-7 -2.9102872825391186e-7 0 -2.9767676872267716e-7 -5.944995428669186e-7
          0 0 -2.0914286560576085e-7 -2.2193317716127712e-7 -4.1805875838202575e-7 -4.431876355565773e-7
          0 0 0 -1.9437424911841703e-7 -2.1256406352524755e-7 -2.032595659145678e-7
          -3.87095913346125e-7 -4.2680087476801947e-7 -4.0649267193486697e-7 0 0 -2.1218711487933654e-7
          -2.2666367185135847e-7 -4.2246762488847134e-7 -4.5410991441538235e-7 0 -2.307676747540686e-7 -4.607963567080271e-7
          0 -2.067441238983838e-7 -4.130504938201316e-7 0 -1.8067969549526766e-7 -3.609141066397073e-7
          0 -3.1277092611070756e-7 -6.249973447077719e-7 0 -1.5283014219311233e-7 -3.0553007653599606e-7
          0 0 -1.3166269037287014e-7 -1.5238470815659818e-7 -2.63460569805142e-7 -3.051036578147772e-7
          0 -2.605008775324426e-7 -5.212415243875132e-7 0 0 0
          -2.5153423339668197e-7 -2.573945000154711e-7 -2.767093311990427e-7 -5.02424806536967e-7 -5.143722563260881e-7 -5.53849297707647e-7
          0 0 -1.8688229154826912e-7 -1.971967110898565e-7 -3.738029628313704e-7 -3.945766382543177e-7
          0 0 -2.82897726318923e-7 -2.597242853863797e-7 -5.655728787696345e-7 -5.197639353819786e-7
          0 -2.1033994232360615e-7 -4.2042536154501654e-7 0 0 0
          -2.2295119251639936e-7 -2.077498928673521e-7 -2.0283151408226054e-7 -4.464150247196941e-7 -4.158542301643895e-7 -4.061335647327514e-7
          0 -2.4853844098230753e-7 -4.971478884404749e-7 0 0 -3.20384693858918e-7
          -3.261579159708825e-7 -6.390328240609301e-7 -6.510688648988695e-7 0 0 -2.4276896666985796e-7
          -2.3782720928303947e-7 -4.857986616912183e-7 -4.7574369161310224e-7 0 -3.0942490838545446e-7 -6.18833835078914e-7
          0 -2.792109917984869e-7 -5.579124262213125e-7 0 -1.8555834130498524e-7 -3.7144603950765923e-7
          0 -1.7914480919993752e-7 -3.5870484800672376e-7 0 -2.0802935859406353e-7 -4.1624133579323635e-7
          0 -2.256499647619118e-7 -4.5174592958180015e-7 0 0 -2.3707017566603446e-7
          -2.459822476760391e-7 -4.742149760470195e-7 -4.914816764649674e-7 0 0 -1.815607626075247e-7
          -1.8097755607791607e-7 -3.638192595647703e-7 -3.622937113245858e-7 0 -1.6692146839927883e-7 -3.3445752092217387e-7
          0 0 -1.9891983752467307e-7 -1.9644079341955323e-7 -3.974188056357644e-7 -3.928757200761346e-7
          0 -2.838657201825767e-7 -5.673693181475545e-7 0 0 -1.810647736366247e-7
          -1.8508826954415307e-7 -3.623417867074945e-7 -3.704241605275589e-7 0 0 -2.969302323782736e-7
          -2.8457303253601886e-7 -5.933535965213158e-7 -5.6845345444262e-7 0 -1.9251669714800928e-7 -3.848214431547733e-7
          0 -2.894576162236659e-7 -5.778913970526642e-7 0 -1.8020821274930668e-7 -3.60716503216511e-7
          0 -1.8311527780511115e-7 -3.6640577377657323e-7 0 -3.1859714935406527e-7 -6.360772637411264e-7
          0 -3.094574959535592e-7 -6.18445468894619e-7
        </DataArray>
      </PointData>
      <CellData>
        <DataArray type="Int32" Name="libmesh_elem_id" format="ascii" RangeMin="1380" RangeMax="3259">
          1380 1381 1412 1413 1414 1415
          1416 1417 1428 1429 1430 1431
          1438 1439 1440 1441 1464 1465
          1472 1473 1480 1481 1484 1485
          1488 1489 1490 1491 1492 1493
          1496 1497 1516 1517 1534 1535
          1538 1539 1544 1545 1548 1549
          1556 1557 1562 1563 1568 1569
          1574 1575 1576 1577 1604 1605
          1610 1611 1620 1621 1626 1627
          1632 1633 1640 1641 1642 1643
          1644 1645 1646 1647 1660 1661
          1664 1665 1666 1667 1668 1669
          1670 1671 1674 1675 1676 1677
          1688 1689 1690 1691 1692 1693
          1694 1695 1706 1707 1716 1717
          1720 1721 1724 1725 1732 1733
          1736 1737 1738 1739 1742 1743
          1744 1745 1756 1757 1758 1759
          1768 1769 1776 1777 1780 1781
          1784 1785 1786 1787 1788 1789
          1792 1793 1796 1797 1800 1801
          1806 1807 1808 1809 1812 1813
          1820 1821 1822 1823 1826 1827
          1842 1843 1844 1845 1860 1861
          1870 1871 1886 1887 1898 1899
          1912 1913 1934 1935 1938 1939
          1940 1941 1954 1955 1958 1959
          1962 1963 1964 1965 1966 1967
          1974 1975 1976 1977 1978 1979
          1980 1981 1984 1985 1990 1991
          1992 1993 1994 1995 2002 2003
          2012 2013 2016 2017 2022 2023
          2032 2033 2034 2035 2036 2037
          2042 2043 2056 2057 2066 2067
          2072 2073 2076 2077 2080 2081
          2086 2087 2090 2091 2094 2095
          2098 2099 2104 2105 2108 2109
          2114 2115 2118 2119 2122 2123
          2142 2143 2152 2153 2156 2157
          2168 2169 2172 2173 2174 2175
          2182 2183 2188 2189 2190 2191
          2192 2193 2194 2195 2198 2199
          2210 2211 2240 2241 2272 2273
          2280 2281 2300 2301 2322 2323
          2326 2327 2338 2339 2376 2377
          2378 2379 2380 2381 2384 2385
          2386 2387 2388 2389 2394 2395
          2428 2429 2438 2439 2446 2447
          2454 2455 2492 2493 2508 2509
          2514 2515 2516 2517 2528 2529
          2536 2537 2538 2539 2544 2545
          2548 2549 2552 2553 2576 2577
          2604 2605 2606 2607 2614 2615
          2618 2619 2626 2627 2630 2631
          2632 2633 2652 2653 2654 2655
          2674 2675 2676 2677 2686 2687
          2692 2693 2698 2699 2706 2707
          2712 2713 2718 2719 2728 2729
          2730 2731 2732 2733 2744 2745
          2752 2753 2758 2759 2770 2771
          2784 2785 2786 2787 2792 2793
          2812 2813 2816 2817 2818 2819
          2820 2821 2842 2843 2856 2857
          2866 2867 2882 2883 2894 2895
          2900 2901 2906 2907 2914 2915
          2942 2943 2970 2971 2976 2977
          2992 2993 3010 3011 3012 3013
          3016 3017 3046 3047 3056 3057
          3058 3059 3070 3071 3078 3079
          3084 3085 3094 3095 3098 3099
          3118 3119 3122 3123 3128 3129
          3134 3135 3152 3153 3180 3181
          3192 3193 3196 3197 3200 3201
          3202 3203 3214 3215 3244 3245
          3248 3249 3258 3259
        </DataArray>
        <DataArray type="Int32" Name="subdomain_id" format="ascii" RangeMin="107" RangeMax="107">
          107 107 107 107 107 107
          107 107 107 107 107 107
          107 107 107 107 107 107
          107 107 107 107 107 107
          107 107 107 107 107 107
          107 107 107 107 107 107
          107 107 107 107 107 107
          107 107 107 107 107 107
          107 107 107 107 107 107
          107 107 107 107 107 107
          107 107 107 107 107 107
          107 107 107 107 107 107
          107 107 107 107 107 107
          107 107 107 107 107 107
          107 107 107 107 107 107
          107 107 107 107 107 107
          107 107 107 107 107 107
          107 107 107 107 107 107
          107 107 107 107 107 107
          107 107 107 107 107 107
          107 107 107 107 107 107
          107 107 107 107 107 107
          107 107 107 107 107 107
          107 107 107 107 107 107
          107 107 107 107 107 107
          107 107 107 107 107 107
          107 107 107 107 107 107
          107 107 107 107 107 107
          107 107 107 107 107 107
          107 107 107 107 107 107
          107 107 107 107 107 107
          107 107 107 107 107 107
          107 107 107 107 107 107
          107 107 107 107 107 107
          107 107 107 107 107 107
          107 107 107 107 107 107
          107 107 107 107 107 107
          107 107 107 107 107 107
          107 107 107 107 107 107
          107 107 107 107 107 107
          107 107 107 107 107 107
          107 107 107 107 107 107
          107 107 107 107 107 107
          107 107 107 107 107 107
          107 107 107 107 107 107
          107 107 107 107 107 107
          107 107 107 107 107 107
          107 107 107 107 107 107
          107 107 107 107 107 107
          107 107 107 107 107 107
          107 107 107 107 107 107
          107 107 107 107 107 107
          107 107 107 107 107 107
          107 107 107 107 107 107
          107 107 107 107 107 107
          107 107 107 107 107 107
          107 107 107 107 107 107
          107 107 107 107 107 107
          107 107 107 107 107 107
          107 107 107 107 107 107
          107 107 107 107 107 107
          107 107 107 107 107 107
          107 107 107 107 107 107
          107 107 107 107 107 107
          107 107 107 107 107 107
          107 107 107 107 107 107
          107 107 107 107 107 107
          107 107 107 107 107 107
          107 107 107 107 107 107
          107 107 107 107 107 107
          107 107 107 107 107 107
          107 107 107 107 107 107
          107 107 107 107 107 107
          107 107 107 107 107 107
          107 107 107 107 107 107
          107 107 107 107
        </DataArray>
        <DataArray type="Int32" Name="processor_id" format="ascii" RangeMin="3" RangeMax="3">
          3 3 3 3 3 3
          3 3 3 3 3 3
          3 3 3 3 3 3
          3 3 3 3 3 3
          3 3 3 3 3 3
          3 3 3 3 3 3
          3 3 3 3 3 3
          3 3 3 3 3 3
          3 3 3 3 3 3
          3 3 3 3 3 3
          3 3 3 3 3 3
          3 3 3 3 3 3
          3 3 3 3 3 3
          3 3 3 3 3 3
          3 3 3 3 3 3
          3 3 3 3 3 3
          3 3 3 3 3 3
          3 3 3 3 3 3
          3 3 3 3 3 3
          3 3 3 3 3 3
          3 3 3 3 3 3
          3 3 3 3 3 3
          3 3 3 3 3 3
          3 3 3 3 3 3
          3 3 3 3 3 3
          3 3 3 3 3 3
          3 3 3 3 3 3
          3 3 3 3 3 3
          3 3 3 3 3 3
          3 3 3 3 3 3
          3 3 3 3 3 3
          3 3 3 3 3 3
          3 3 3 3 3 3
          3 3 3 3 3 3
          3 3 3 3 3 3
          3 3 3 3 3 3
          3 3 3 3 3 3
          3 3 3 3 3 3
          3 3 3 3 3 3
          3 3 3 3 3 3
          3 3 3 3 3 3
          3 3 3 3 3 3
          3 3 3 3 3 3
          3 3 3 3 3 3
          3 3 3 3 3 3
          3 3 3 3 3 3
          3 3 3 3 3 3
          3 3 3 3 3 3
          3 3 3 3 3 3
          3 3 3 3 3 3
          3 3 3 3 3 3
          3 3 3 3 3 3
          3 3 3 3 3 3
          3 3 3 3 3 3
          3 3 3 3 3 3
          3 3 3 3 3 3
          3 3 3 3 3 3
          3 3 3 3 3 3
          3 3 3 3 3 3
          3 3 3 3 3 3
          3 3 3 3 3 3
          3 3 3 3 3 3
          3 3 3 3 3 3
          3 3 3 3 3 3
          3 3 3 3 3 3
          3 3 3 3 3 3
          3 3 3 3 3 3
          3 3 3 3 3 3
          3 3 3 3 3 3
          3 3 3 3 3 3
          3 3 3 3 3 3
          3 3 3 3 3 3
          3 3 3 3 3 3
          3 3 3 3 3 3
          3 3 3 3 3 3
          3 3 3 3
        </DataArray>
      </CellData>
      <Points>
        <DataArray type="Float64" Name="Points" NumberOfComponents="3" format="ascii" RangeMin="0.013166738443807365" RangeMax="0.02374822585851783">
          0.016451229180203 0.011589607556601 0 0.016255198485848 0.011015934042219 0
          0.016728572005863 0.010757201031786 0 0.017039955631379 0.011194422572054 0
          0.016451229180203 0.011589607556601 0.00015 0.016255198485848 0.011015934042219 0.00015
          0.016728572005863 0.010757201031786 0.00015 0.017039955631379 0.011194422572054 0.00015
          0.016451229180203 0.011589607556601 0.0003 0.016255198485848 0.011015934042219 0.0003
          0.016728572005863 0.010757201031786 0.0003 0.017039955631379 0.011194422572054 0.0003
          0.011186406523754 0.0095188731742926 0 0.010689703280164 0.0094649590365737 0
          0.010634679710187 0.008964429555675 0 0.011131650337527 0.0089687060727404 0
          0.011186406523754 0.0095188731742926 0.00015 0.010689703280164 0.0094649590365737 0.00015
          0.010634679710187 0.008964429555675 0.00015 0.011131650337527 0.0089687060727404 0.00015
          0.011186406523754 0.0095188731742926 0.0003 0.010689703280164 0.0094649590365737 0.0003
          0.010634679710187 0.008964429555675 0.0003 0.011131650337527 0.0089687060727404 0.0003
          0.010158980545183 0.0089928081418126 0 0.010158980545183 0.0089928081418126 0.00015
          0.010158980545183 0.0089928081418126 0.0003 0.010234809282542 0.0094751596931164 0
          0.010234809282542 0.0094751596931164 0.00015 0.010234809282542 0.0094751596931164 0.0003
          0.017215305681839 0.010421173498473 0 0.017538322616078 0.010852535251392 0
          0.017215305681839 0.010421173498473 0.00015 0.017538322616078 0.010852535251392 0.00015
          0.017215305681839 0.010421173498473 0.0003 0.017538322616078 0.010852535251392 0.0003
          0.015522227276376 0.0083950727535023 0 0.015339273065407 0.0078314073000753 0
          0.015832583415208 0.0077039482324782 0 0.015871156677641 0.0080932538621961 0
          0.015522227276376 0.0083950727535023 0.00015 0.015339273065407 0.0078314073000753 0.00015
          0.015832583415208 0.0077039482324782 0.00015 0.015871156677641 0.0080932538621961 0.00015
          0.015522227276376 0.0083950727535023 0.0003 0.015339273065407 0.0078314073000753 0.0003
          0.015832583415208 0.0077039482324782 0.0003 0.015871156677641 0.0080932538621961 0.0003
          0.014182404182597 0.012030933394166 0 0.014112697634716 0.011586899500601 0
          0.01453762000082 0.011541498939039 0 0.014647727851392 0.011956202120878 0
          0.014182404182597 0.012030933394166 0.00015 0.014112697634716 0.011586899500601 0.00015
          0.01453762000082 0.011541498939039 0.00015 0.014647727851392 0.011956202120878 0.00015
          0.014182404182597 0.012030933394166 0.0003 0.014112697634716 0.011586899500601 0.0003
          0.01453762000082 0.011541498939039 0.0003 0.014647727851392 0.011956202120878 0.0003
          0.012718807262617 0.012100913225318 0 0.01318790653826 0.012081424726463 0
          0.013223560157694 0.012548837560718 0 0.012721969255655 0.012547975923311 0
          0.012718807262617 0.012100913225318 0.00015 0.01318790653826 0.012081424726463 0.00015
          0.013223560157694 0.012548837560718 0.00015 0.012721969255655 0.012547975923311 0.00015
          0.012718807262617 0.012100913225318 0.0003 0.01318790653826 0.012081424726463 0.0003
          0.013223560157694 0.012548837560718 0.0003 0.012721969255655 0.012547975923311 0.0003
          0.015037276113604 0.0053883886132418 0 0.014872829902632 0.0048660088618751 0
          0.015610482342583 0.0052949834846695 0 0.015037276113604 0.0053883886132418 0.00015
          0.014872829902632 0.0048660088618751 0.00015 0.015610482342583 0.0052949834846695 0.00015
          0.015037276113604 0.0053883886132418 0.0003 0.014872829902632 0.0048660088618751 0.0003
          0.015610482342583 0.0052949834846695 0.0003 0.012853333735139 0.0071862564407273 0
          0.013298874998351 0.0073010052974168 0 0.013468505581478 0.0077481198485017 0
          0.012879769579272 0.0077824950988095 0 0.012853333735139 0.0071862564407273 0.00015
          0.013298874998351 0.0073010052974168 0.00015 0.013468505581478 0.0077481198485017 0.00015
          0.012879769579272 0.0077824950988095 0.00015 0.012853333735139 0.0071862564407273 0.0003
          0.013298874998351 0.0073010052974168 0.0003 0.013468505581478 0.0077481198485017 0.0003
          0.012879769579272 0.0077824950988095 0.0003 0.012310751390795 0.0073009210446318 0
          0.012310751390795 0.0073009210446318 0.00015 0.012310751390795 0.0073009210446318 0.0003
          0.016440539131042 0.010340248821358 0 0.016895401758078 0.0099970418145034 0
          0.016440539131042 0.010340248821358 0.00015 0.016895401758078 0.0099970418145034 0.00015
          0.016440539131042 0.010340248821358 0.0003 0.016895401758078 0.0099970418145034 0.0003
          0.015674284513358 0.012057735082989 0 0.015799992883172 0.011590312491375 0
          0.01620648935985 0.012173309797103 0 0.015674284513358 0.012057735082989 0.00015
          0.015799992883172 0.011590312491375 0.00015 0.01620648935985 0.012173309797103 0.00015
          0.015674284513358 0.012057735082989 0.0003 0.015799992883172 0.011590312491375 0.0003
          0.01620648935985 0.012173309797103 0.0003 0.015719396244314 0.0096761034796614 0
          0.015317179218416 0.010039615829248 0 0.014916285335657 0.0096823062625427 0
          0.015356151892906 0.0093633130446295 0 0.015719396244314 0.0096761034796614 0.00015
          0.015317179218416 0.010039615829248 0.00015 0.014916285335657 0.0096823062625427 0.00015
          0.015356151892906 0.0093633130446295 0.00015 0.015719396244314 0.0096761034796614 0.0003
          0.015317179218416 0.010039615829248 0.0003 0.014916285335657 0.0096823062625427 0.0003
          0.015356151892906 0.0093633130446295 0.0003 0.014911939516014 0.011080222539295 0
          0.01492908374418 0.011511002202991 0 0.014470673144967 0.011122308960465 0
          0.014911939516014 0.011080222539295 0.00015 0.01492908374418 0.011511002202991 0.00015
          0.014470673144967 0.011122308960465 0.00015 0.014911939516014 0.011080222539295 0.0003
          0.01492908374418 0.011511002202991 0.0003 0.014470673144967 0.011122308960465 0.0003
          0.014927498433442 0.011816834084778 0 0.015214955739546 0.01195124117686 0
          0.014868481741766 0.012398226678167 0 0.014927498433442 0.011816834084778 0.00015
          0.015214955739546 0.01195124117686 0.00015 0.014868481741766 0.012398226678167 0.00015
          0.014927498433442 0.011816834084778 0.0003 0.015214955739546 0.01195124117686 0.0003
          0.014868481741766 0.012398226678167 0.0003 0.014887382940214 0.010512753679506 0
          0.01433465747601 0.010724165901292 0 0.014030150330029 0.010370439204794 0
          0.01444626395613 0.010022024912649 0 0.014887382940214 0.010512753679506 0.00015
          0.01433465747601 0.010724165901292 0.00015 0.014030150330029 0.010370439204794 0.00015
          0.01444626395613 0.010022024912649 0.00015 0.014887382940214 0.010512753679506 0.0003
          0.01433465747601 0.010724165901292 0.0003 0.014030150330029 0.010370439204794 0.0003
          0.01444626395613 0.010022024912649 0.0003 0.013388886812482 0.0083497293814167 0
          0.012899574253998 0.0083038014764745 0 0.013388886812482 0.0083497293814167 0.00015
          0.012899574253998 0.0083038014764745 0.00015 0.013388886812482 0.0083497293814167 0.0003
          0.012899574253998 0.0083038014764745 0.0003 0.015784016264429 0.0071345425111119 0
          0.016328429431772 0.0071626451349231 0 0.016328043288569 0.0077322573762078 0
          0.015784016264429 0.0071345425111119 0.00015 0.016328429431772 0.0071626451349231 0.00015
          0.016328043288569 0.0077322573762078 0.00015 0.015784016264429 0.0071345425111119 0.0003
          0.016328429431772 0.0071626451349231 0.0003 0.016328043288569 0.0077322573762078 0.0003
          0.016727166785252 0.0084386331054829 0 0.01644772366367 0.0089064975551763 0
          0.016002189190704 0.0086574712541786 0 0.016221340977963 0.0082297464535469 0
          0.016727166785252 0.0084386331054829 0.00015 0.01644772366367 0.0089064975551763 0.00015
          0.016002189190704 0.0086574712541786 0.00015 0.016221340977963 0.0082297464535469 0.00015
          0.016727166785252 0.0084386331054829 0.0003 0.01644772366367 0.0089064975551763 0.0003
          0.016002189190704 0.0086574712541786 0.0003 0.016221340977963 0.0082297464535469 0.0003
          0.018901908985383 0.011783468628847 0 0.018328257152057 0.011560564570719 0
          0.018901908985383 0.011783468628847 0.00015 0.018328257152057 0.011560564570719 0.00015
          0.018901908985383 0.011783468628847 0.0003 0.018328257152057 0.011560564570719 0.0003
          0.016817438697449 0.012401495631919 0 0.016895899239308 0.011880939878953 0
          0.016817438697449 0.012401495631919 0.00015 0.016895899239308 0.011880939878953 0.00015
          0.016817438697449 0.012401495631919 0.0003 0.016895899239308 0.011880939878953 0.0003
          0.010475172867508 0.012102844227475 0 0.010669582432454 0.011743114144408 0
          0.010475172867508 0.012102844227475 0.00015 0.010669582432454 0.011743114144408 0.00015
          0.010475172867508 0.012102844227475 0.0003 0.010669582432454 0.011743114144408 0.0003
          0.018198082784875 0.0097658337520035 0 0.018455934862008 0.010221918525687 0
          0.018019877493881 0.01050989807829 0 0.017698489924893 0.010066971919266 0
          0.018198082784875 0.0097658337520035 0.00015 0.018455934862008 0.010221918525687 0.00015
          0.018019877493881 0.01050989807829 0.00015 0.017698489924893 0.010066971919266 0.00015
          0.018198082784875 0.0097658337520035 0.0003 0.018455934862008 0.010221918525687 0.0003
          0.018019877493881 0.01050989807829 0.0003 0.017698489924893 0.010066971919266 0.0003
          0.015096658749896 0.0059763609132825 0 0.015666288430535 0.0059190759170471 0
          0.015096658749896 0.0059763609132825 0.00015 0.015666288430535 0.0059190759170471 0.00015
          0.015096658749896 0.0059763609132825 0.0003 0.015666288430535 0.0059190759170471 0.0003
          0.013546901289865 0.0069836782833127 0 0.013134929749538 0.0067248500217048 0
          0.013546901289865 0.0069836782833127 0.00015 0.013134929749538 0.0067248500217048 0.00015
          0.013546901289865 0.0069836782833127 0.0003 0.013134929749538 0.0067248500217048 0.0003
          0.013831418153218 0.0064982603089606 0 0.013338214474932 0.0062766362868091 0
          0.013831418153218 0.0064982603089606 0.00015 0.013338214474932 0.0062766362868091 0.00015
          0.013831418153218 0.0064982603089606 0.0003 0.013338214474932 0.0062766362868091 0.0003
          0.017908784385217 0.011229685010797 0 0.017908784385217 0.011229685010797 0.00015
          0.017908784385217 0.011229685010797 0.0003 0.017460830811305 0.0067242961174433 0
          0.017460830811305 0.0067242961174433 0.00015 0.017460830811305 0.0067242961174433 0.0003
          0.016232724398465 0.0059010997942707 0 0.016810957053741 0.0059693958220605 0
          0.016865945400018 0.0066157033945985 0 0.016287343165999 0.0065221003589061 0
          0.016232724398465 0.0059010997942707 0.00015 0.016810957053741 0.0059693958220605 0.00015
          0.016865945400018 0.0066157033945985 0.00015 0.016287343165999 0.0065221003589061 0.00015
          0.016232724398465 0.0059010997942707 0.0003 0.016810957053741 0.0059693958220605 0.0003
          0.016865945400018 0.0066157033945985 0.0003 0.016287343165999 0.0065221003589061 0.0003
          0.015434451036398 0.0088351663483508 0 0.015091649000167 0.0090065479673052 0
          0.0149386527618 0.008562942865766 0 0.015434451036398 0.0088351663483508 0.00015
          0.015091649000167 0.0090065479673052 0.00015 0.0149386527618 0.008562942865766 0.00015
          0.015434451036398 0.0088351663483508 0.0003 0.015091649000167 0.0090065479673052 0.0003
          0.0149386527618 0.008562942865766 0.0003 0.013851103268646 0.0079817773379183 0
          0.013864053371773 0.0083733293390323 0 0.013851103268646 0.0079817773379183 0.00015
          0.013864053371773 0.0083733293390323 0.00015 0.013851103268646 0.0079817773379183 0.0003
          0.013864053371773 0.0083733293390323 0.0003 0.016873832756735 0.0078915607150548 0
          0.016873832756735 0.0078915607150548 0.00015 0.016873832756735 0.0078915607150548 0.0003
          0.011740832768399 0.012550565772382 0 0.011781425344485 0.012080160842703 0
          0.012267797740114 0.012087686226532 0 0.012238354096222 0.012547223275944 0
          0.011740832768399 0.012550565772382 0.00015 0.011781425344485 0.012080160842703 0.00015
          0.012267797740114 0.012087686226532 0.00015 0.012238354096222 0.012547223275944 0.00015
          0.011740832768399 0.012550565772382 0.0003 0.011781425344485 0.012080160842703 0.0003
          0.012267797740114 0.012087686226532 0.0003 0.012238354096222 0.012547223275944 0.0003
          0.015724816214821 0.0065169349202822 0 0.015724816214821 0.0065169349202822 0.00015
          0.015724816214821 0.0065169349202822 0.0003 0.016904663245172 0.0072759580116152 0
          0.016904663245172 0.0072759580116152 0.00015 0.016904663245172 0.0072759580116152 0.0003
          0.016212759806586 0.0053000490100875 0 0.016212759806586 0.0053000490100875 0.00015
          0.016212759806586 0.0053000490100875 0.0003 0.017422284858474 0.011679101640391 0
          0.017908527792884 0.011814582379248 0 0.017422284858474 0.011679101640391 0.00015
          0.017908527792884 0.011814582379248 0.00015 0.017422284858474 0.011679101640391 0.0003
          0.017908527792884 0.011814582379248 0.0003 0.017261702763099 0.0086939606584207 0
          0.017434489396122 0.0080779876667089 0 0.017261702763099 0.0086939606584207 0.00015
          0.017434489396122 0.0080779876667089 0.00015 0.017261702763099 0.0086939606584207 0.0003
          0.017434489396122 0.0080779876667089 0.0003 0.014181033506022 0.0077713348891544 0
          0.014325604474543 0.0082610969383043 0 0.014181033506022 0.0077713348891544 0.00015
          0.014325604474543 0.0082610969383043 0.00015 0.014181033506022 0.0077713348891544 0.0003
          0.014325604474543 0.0082610969383043 0.0003 0.016099115219063 0.0099899847281115 0
          0.016520689982407 0.0096278486407962 0 0.016099115219063 0.0099899847281115 0.00015
          0.016520689982407 0.0096278486407962 0.00015 0.016099115219063 0.0099899847281115 0.0003
          0.016520689982407 0.0096278486407962 0.0003 0.014613026918956 0.0092413149543641 0
          0.014613026918956 0.0092413149543641 0.00015 0.014613026918956 0.0092413149543641 0.0003
          0.016937453954769 0.0092095292918499 0 0.017364558514239 0.0096012653805297 0
          0.016937453954769 0.0092095292918499 0.00015 0.017364558514239 0.0096012653805297 0.00015
          0.016937453954769 0.0092095292918499 0.0003 0.017364558514239 0.0096012653805297 0.0003
          0.015712843676617 0.010331364913168 0 0.016032046384524 0.010629553115583 0
          0.015712843676617 0.010331364913168 0.00015 0.016032046384524 0.010629553115583 0.00015
          0.015712843676617 0.010331364913168 0.0003 0.016032046384524 0.010629553115583 0.0003
          0.01346343572409 0.0057857389411653 0 0.01346343572409 0.0057857389411653 0.00015
          0.01346343572409 0.0057857389411653 0.0003 0.015150761096164 0.0066142159223768 0
          0.015150761096164 0.0066142159223768 0.00015 0.015150761096164 0.0066142159223768 0.0003
          0.015453261139866 0.010697023165802 0 0.015761290368715 0.010819971207646 0
          0.015453261139866 0.010697023165802 0.00015 0.015761290368715 0.010819971207646 0.00015
          0.015453261139866 0.010697023165802 0.0003 0.015761290368715 0.010819971207646 0.0003
          0.013975551316416 0.0059398855735222 0 0.013975551316416 0.0059398855735222 0.00015
          0.013975551316416 0.0059398855735222 0.0003 0.017479032913359 0.0074088673936633 0
          0.017479032913359 0.0074088673936633 0.00015 0.017479032913359 0.0074088673936633 0.0003
          0.014439802315681 0.0067889662935499 0 0.014530319307898 0.006021518089632 0
          0.014439802315681 0.0067889662935499 0.00015 0.014530319307898 0.006021518089632 0.00015
          0.014439802315681 0.0067889662935499 0.0003 0.014530319307898 0.006021518089632 0.0003
          0.014431521900925 0.0087663339265048 0 0.013899975831329 0.0088854517032459 0
          0.014431521900925 0.0087663339265048 0.00015 0.013899975831329 0.0088854517032459 0.00015
          0.014431521900925 0.0087663339265048 0.0003 0.013899975831329 0.0088854517032459 0.0003
          0.015334349753872 0.011547922560075 0 0.015363465895193 0.011114260619116 0
          0.015801980011793 0.011137474992711 0 0.015334349753872 0.011547922560075 0.00015
          0.015363465895193 0.011114260619116 0.00015 0.015801980011793 0.011137474992711 0.00015
          0.015334349753872 0.011547922560075 0.0003 0.015363465895193 0.011114260619116 0.0003
          0.015801980011793 0.011137474992711 0.0003 0.01326617738197 0.0093680808515997 0
          0.012793423392144 0.00921210926252 0 0.012882512800283 0.0087881474090036 0
          0.013365259810227 0.0088714473068585 0 0.01326617738197 0.0093680808515997 0.00015
          0.012793423392144 0.00921210926252 0.00015 0.012882512800283 0.0087881474090036 0.00015
          0.013365259810227 0.0088714473068585 0.00015 0.01326617738197 0.0093680808515997 0.0003
          0.012793423392144 0.00921210926252 0.0003 0.012882512800283 0.0087881474090036 0.0003
          0.013365259810227 0.0088714473068585 0.0003 0.011993243876189 0.010936510200926 0
          0.011726815341297 0.011491075647124 0 0.011222013645511 0.011097826594996 0
          0.011481744371717 0.010688234667639 0 0.011993243876189 0.010936510200926 0.00015
          0.011726815341297 0.011491075647124 0.00015 0.011222013645511 0.011097826594996 0.00015
          0.011481744371717 0.010688234667639 0.00015 0.011993243876189 0.010936510200926 0.0003
          0.011726815341297 0.011491075647124 0.0003 0.011222013645511 0.011097826594996 0.0003
          0.011481744371717 0.010688234667639 0.0003 0.013923252507151 0.0073329122207352 0
          0.013923252507151 0.0073329122207352 0.00015 0.013923252507151 0.0073329122207352 0.0003
          0.013063793506476 0.0098271989985527 0 0.012601634550352 0.009590277262082 0
          0.013063793506476 0.0098271989985527 0.00015 0.012601634550352 0.009590277262082 0.00015
          0.013063793506476 0.0098271989985527 0.0003 0.012601634550352 0.009590277262082 0.0003
          0.014102855237989 0.0047969187863067 0 0.013905759673286 0.0043612537888552 0
          0.014102855237989 0.0047969187863067 0.00015 0.013905759673286 0.0043612537888552 0.00015
          0.014102855237989 0.0047969187863067 0.0003 0.013905759673286 0.0043612537888552 0.0003
          0.012852488428802 0.010265076045094 0 0.012374691983482 0.010000797580735 0
          0.012852488428802 0.010265076045094 0.00015 0.012374691983482 0.010000797580735 0.00015
          0.012852488428802 0.010265076045094 0.0003 0.012374691983482 0.010000797580735 0.0003
          0.011668611956603 0.010219239111219 0 0.012182731119778 0.010462377133106 0
          0.011668611956603 0.010219239111219 0.00015 0.012182731119778 0.010462377133106 0.00015
          0.011668611956603 0.010219239111219 0.0003 0.012182731119778 0.010462377133106 0.0003
          0.011158560753842 0.010029990414111 0 0.011017968815575 0.010465683342369 0
          0.011158560753842 0.010029990414111 0.00015 0.011017968815575 0.010465683342369 0.00015
          0.011158560753842 0.010029990414111 0.0003 0.011017968815575 0.010465683342369 0.0003
          0.014820390261339 0.0080402105998384 0 0.014820390261339 0.0080402105998384 0.00015
          0.014820390261339 0.0080402105998384 0.0003 0.015228397699353 0.0072512250897894 0
          0.015228397699353 0.0072512250897894 0.00015 0.015228397699353 0.0072512250897894 0.0003
          0.0130361735465 0.011522072885309 0 0.012689359184487 0.011761634268536 0
          0.012340499111532 0.011632501505239 0 0.012497431968462 0.011183651982421 0
          0.0130361735465 0.011522072885309 0.00015 0.012689359184487 0.011761634268536 0.00015
          0.012340499111532 0.011632501505239 0.00015 0.012497431968462 0.011183651982421 0.00015
          0.0130361735465 0.011522072885309 0.0003 0.012689359184487 0.011761634268536 0.0003
          0.012340499111532 0.011632501505239 0.0003 0.012497431968462 0.011183651982421 0.0003
          0.013528941600065 0.0052742966774397 0 0.014027103455945 0.0053875982273864 0
          0.013528941600065 0.0052742966774397 0.00015 0.014027103455945 0.0053875982273864 0.00015
          0.013528941600065 0.0052742966774397 0.0003 0.014027103455945 0.0053875982273864 0.0003
          0.010128205128219 0.013 0 0.010310686327751 0.012539165738252 0
          0.010788384596096 0.012564579045747 0 0.01064102564104 0.013 0
          0.010128205128219 0.013 0.00015 0.010310686327751 0.012539165738252 0.00015
          0.010788384596096 0.012564579045747 0.00015 0.01064102564104 0.013 0.00015
          0.010128205128219 0.013 0.0003 0.010310686327751 0.012539165738252 0.0003
          0.010788384596096 0.012564579045747 0.0003 0.01064102564104 0.013 0.0003
          0.010783127360108 0.010836567412064 0 0.010385522435479 0.010608007769118 0
          0.010601303654319 0.010290632654442 0 0.010783127360108 0.010836567412064 0.00015
          0.010385522435479 0.010608007769118 0.00015 0.010601303654319 0.010290632654442 0.00015
          0.010783127360108 0.010836567412064 0.0003 0.010385522435479 0.010608007769118 0.0003
          0.010601303654319 0.010290632654442 0.0003 0.011818930007254 0.009602160287834 0
          0.011818930007254 0.009602160287834 0.00015 0.011818930007254 0.009602160287834 0.0003
          0.015715008716269 0.0090308288850156 0 0.01610853428864 0.0093166480881369 0
          0.015715008716269 0.0090308288850156 0.00015 0.01610853428864 0.0093166480881369 0.00015
          0.015715008716269 0.0090308288850156 0.0003 0.01610853428864 0.0093166480881369 0.0003
          0.013952831965685 0.0095243725467762 0 0.013572358856734 0.010071658883703 0
          0.013952831965685 0.0095243725467762 0.00015 0.013572358856734 0.010071658883703 0.00015
          0.013952831965685 0.0095243725467762 0.0003 0.013572358856734 0.010071658883703 0.0003
          0.012677817340078 0.010719835797972 0 0.012677817340078 0.010719835797972 0.00015
          0.012677817340078 0.010719835797972 0.0003 0.014678664229456 0.0074733115324236 0
          0.014678664229456 0.0074733115324236 0.00015 0.014678664229456 0.0074733115324236 0.0003
          0.012261506677236 0.0092701804285872 0 0.012499922412859 0.0090879994978671 0
          0.012261506677236 0.0092701804285872 0.00015 0.012499922412859 0.0090879994978671 0.00015
          0.012261506677236 0.0092701804285872 0.0003 0.012499922412859 0.0090879994978671 0.0003
          0.011270478587413 0.012561768236337 0 0.011153846153863 0.013 0
          0.011270478587413 0.012561768236337 0.00015 0.011153846153863 0.013 0.00015
          0.011270478587413 0.012561768236337 0.0003 0.011153846153863 0.013 0.0003
          0.012179487179506 0.013 0 0.012692307692328 0.013 0
          0.012179487179506 0.013 0.00015 0.012692307692328 0.013 0.00015
          0.012179487179506 0.013 0.0003 0.012692307692328 0.013 0.0003
          0.013205128205151 0.013 0 0.013721380024409 0.012538570920528 0
          0.013717948717973 0.013 0 0.013205128205151 0.013 0.00015
          0.013721380024409 0.012538570920528 0.00015 0.013717948717973 0.013 0.00015
          0.013205128205151 0.013 0.0003 0.013721380024409 0.012538570920528 0.0003
          0.013717948717973 0.013 0.0003 0.013680323008888 0.01206206640945 0
          0.0136362676363 0.011582155921186 0 0.013680323008888 0.01206206640945 0.00015
          0.0136362676363 0.011582155921186 0.00015 0.013680323008888 0.01206206640945 0.0003
          0.0136362676363 0.011582155921186 0.0003 0.011306940297591 0.012129646322267 0
          0.011212076662234 0.01173976422044 0 0.011306940297591 0.012129646322267 0.00015
          0.011212076662234 0.01173976422044 0.00015 0.011306940297591 0.012129646322267 0.0003
          0.011212076662234 0.01173976422044 0.0003 0.014247558447628 0.012512499343239 0
          0.014230769230793 0.013 0 0.014247558447628 0.012512499343239 0.00015
          0.014230769230793 0.013 0.00015 0.014247558447628 0.012512499343239 0.0003
          0.014230769230793 0.013 0.0003 0.010925822172272 0.011428925131881 0
          0.010925822172272 0.011428925131881 0.00015 0.010925822172272 0.011428925131881 0.0003
          0.017598702187272 0.012594388856786 0 0.018138509806267 0.012585421267124 0
          0.018333333333352 0.013 0 0.017820512820533 0.013 0
          0.017598702187272 0.012594388856786 0.00015 0.018138509806267 0.012585421267124 0.00015
          0.018333333333352 0.013 0.00015 0.017820512820533 0.013 0.00015
          0.017598702187272 0.012594388856786 0.0003 0.018138509806267 0.012585421267124 0.0003
          0.018333333333352 0.013 0.0003 0.017820512820533 0.013 0.0003
          0.01884615384617 0.013 0 0.018647619061649 0.012577247456601 0
          0.01884615384617 0.013 0.00015 0.018647619061649 0.012577247456601 0.00015
          0.01884615384617 0.013 0.0003 0.018647619061649 0.012577247456601 0.0003
          0.010939820280367 0.01187760398484 0 0.010939820280367 0.01187760398484 0.00015
          0.010939820280367 0.01187760398484 0.0003 0.014743589743616 0.013 0
          0.014743589743616 0.013 0.00015 0.014743589743616 0.013 0.0003
          0.013168261777023 0.010955167755454 0 0.013168261777023 0.010955167755454 0.00015
          0.013168261777023 0.010955167755454 0.0003 0.011620435633551 0.0089440866322713 0
          0.011620435633551 0.0089440866322713 0.00015 0.011620435633551 0.0089440866322713 0.0003
          0.01333281098878 0.010501143990949 0 0.01333281098878 0.010501143990949 0.00015
          0.01333281098878 0.010501143990949 0.0003 0.013640766026071 0.011115210745046 0
          0.014063261910082 0.011165191959691 0 0.013640766026071 0.011115210745046 0.00015
          0.014063261910082 0.011165191959691 0.00015 0.013640766026071 0.011115210745046 0.0003
          0.014063261910082 0.011165191959691 0.0003 0.013761635093034 0.010714997264381 0
          0.013761635093034 0.010714997264381 0.00015 0.013761635093034 0.010714997264381 0.0003
          0.01790845301636 0.0090613468730877 0 0.01790845301636 0.0090613468730877 0.00015
          0.01790845301636 0.0090613468730877 0.0003 0.010691300612525 0.0099168298135774 0
          0.010691300612525 0.0099168298135774 0.00015 0.010691300612525 0.0099168298135774 0.0003
          0.014509683505008 0.0050450954358061 0 0.014509683505008 0.0050450954358061 0.00015
          0.014509683505008 0.0050450954358061 0.0003 0.012373637985884 0.0077974643404521 0
          0.012419274731686 0.0083019280664676 0 0.012373637985884 0.0077974643404521 0.00015
          0.012419274731686 0.0083019280664676 0.00015 0.012373637985884 0.0077974643404521 0.0003
          0.012419274731686 0.0083019280664676 0.0003 0.014523119140279 0.0054383897453177 0
          0.014523119140279 0.0054383897453177 0.00015 0.014523119140279 0.0054383897453177 0.0003
          0.012468015808598 0.0087643938641043 0 0.012468015808598 0.0087643938641043 0.00015
          0.012468015808598 0.0087643938641043 0.0003 0.014041697947841 0.010862771985015 0
          0.014041697947841 0.010862771985015 0.00015 0.014041697947841 0.010862771985015 0.0003
          0.012067821946234 0.0088387705315247 0 0.012067821946234 0.0088387705315247 0.00015
          0.012067821946234 0.0088387705315247 0.0003 0.018063704813091 0.0075049932447581 0
          0.018063704813091 0.0075049932447581 0.00015 0.018063704813091 0.0075049932447581 0.0003
          0.01801805728244 0.008218173104411 0 0.01801805728244 0.008218173104411 0.00015
          0.01801805728244 0.008218173104411 0.0003 0.019162849649621 0.012571706415164 0
          0.019358974358988 0.013 0 0.019162849649621 0.012571706415164 0.00015
          0.019358974358988 0.013 0.00015 0.019162849649621 0.012571706415164 0.0003
          0.019358974358988 0.013 0.0003 0.015469042768348 0.012527612124711 0
          0.015256410256436 0.013 0 0.015469042768348 0.012527612124711 0.00015
          0.015256410256436 0.013 0.00015 0.015469042768348 0.012527612124711 0.0003
          0.015256410256436 0.013 0.0003 0.017482035345823 0.012218317378284 0
          0.017482035345823 0.012218317378284 0.00015 0.017482035345823 0.012218317378284 0.0003
          0.011666666666685 0.013 0 0.011666666666685 0.013 0.00015
          0.011666666666685 0.013 0.0003 0.013552812333296 0.0042895499786344 0
          0.013552812333296 0.0042895499786344 0.00015 0.013552812333296 0.0042895499786344 0.0003
          0.019003973493589 0.012129001566083 0 0.018491681451249 0.012137078785851 0
          0.019003973493589 0.012129001566083 0.00015 0.018491681451249 0.012137078785851 0.00015
          0.019003973493589 0.012129001566083 0.0003 0.018491681451249 0.012137078785851 0.0003
          0.016282051282076 0.013 0 0.016335894010033 0.012686725241599 0
          0.016794871794894 0.013 0 0.016282051282076 0.013 0.00015
          0.016335894010033 0.012686725241599 0.00015 0.016794871794894 0.013 0.00015
          0.016282051282076 0.013 0.0003 0.016335894010033 0.012686725241599 0.0003
          0.016794871794894 0.013 0.0003 0.017307692307713 0.013 0
          0.017281329535555 0.012689387511733 0 0.017307692307713 0.013 0.00015
          0.017281329535555 0.012689387511733 0.00015 0.017307692307713 0.013 0.0003
          0.017281329535555 0.012689387511733 0.0003 0.017996855365792 0.012159940978259 0
          0.017996855365792 0.012159940978259 0.00015 0.017996855365792 0.012159940978259 0.0003
          0.016023960213719 0.012601258532672 0 0.016023960213719 0.012601258532672 0.00015
          0.016023960213719 0.012601258532672 0.0003 0.015769230769256 0.013 0
          0.015769230769256 0.013 0.00015 0.015769230769256 0.013 0.0003
          0.013549428097692 0.0047645614477775 0 0.013549428097692 0.0047645614477775 0.00015
          0.013549428097692 0.0047645614477775 0.0003 0.010881954871342 0.01216105032025 0
          0.010881954871342 0.01216105032025 0.00015 0.010881954871342 0.01216105032025 0.0003
          0.010057653370411 0.0084974472595183 0 0.01054988842507 0.0084422245958245 0
          0.010057653370411 0.0084974472595183 0.00015 0.01054988842507 0.0084422245958245 0.00015
          0.010057653370411 0.0084974472595183 0.0003 0.01054988842507 0.0084422245958245 0.0003
          0.015535554193674 0.0045828394817383 0 0.015535554193674 0.0045828394817383 0.00015
          0.015535554193674 0.0045828394817383 0.0003 0.011832021157187 0.0073476785459853 0
          0.011779780861271 0.0068646395959748 0 0.012243708910156 0.0068324173193727 0
          0.011832021157187 0.0073476785459853 0.00015 0.011779780861271 0.0068646395959748 0.00015
          0.012243708910156 0.0068324173193727 0.00015 0.011832021157187 0.0073476785459853 0.0003
          0.011779780861271 0.0068646395959748 0.0003 0.012243708910156 0.0068324173193727 0.0003
          0.019357361519954 0.01157618305141 0 0.01884046117173 0.011223113854601 0
          0.019357361519954 0.01157618305141 0.00015 0.01884046117173 0.011223113854601 0.00015
          0.019357361519954 0.01157618305141 0.0003 0.01884046117173 0.011223113854601 0.0003
          0.014554004584986 0.0044253882271801 0 0.015005639561329 0.0040763460944633 0
          0.014554004584986 0.0044253882271801 0.00015 0.015005639561329 0.0040763460944633 0.00015
          0.014554004584986 0.0044253882271801 0.0003 0.015005639561329 0.0040763460944633 0.0003
          0.018384253973557 0.010894663204421 0 0.018384253973557 0.010894663204421 0.00015
          0.018384253973557 0.010894663204421 0.0003 0.017413401850906 0.0060417176080878 0
          0.018057579772584 0.0060827128421873 0 0.018070157245618 0.0068021820766994 0
          0.017413401850906 0.0060417176080878 0.00015 0.018057579772584 0.0060827128421873 0.00015
          0.018070157245618 0.0068021820766994 0.00015 0.017413401850906 0.0060417176080878 0.0003
          0.018057579772584 0.0060827128421873 0.0003 0.018070157245618 0.0068021820766994 0.0003
          0.016291762387835 0.0047307906783276 0 0.016291762387835 0.0047307906783276 0.00015
          0.016291762387835 0.0047307906783276 0.0003 0.012879713087233 0.0060908484912964 0
          0.012982043505355 0.0056371881930815 0 0.012879713087233 0.0060908484912964 0.00015
          0.012982043505355 0.0056371881930815 0.00015 0.012879713087233 0.0060908484912964 0.0003
          0.012982043505355 0.0056371881930815 0.0003 0.01678493258985 0.0053840721103251 0
          0.016848637368385 0.0048798435935376 0 0.01678493258985 0.0053840721103251 0.00015
          0.016848637368385 0.0048798435935376 0.00015 0.01678493258985 0.0053840721103251 0.0003
          0.016848637368385 0.0048798435935376 0.0003 0.012723582323863 0.006509831652106 0
          0.012723582323863 0.006509831652106 0.00015 0.012723582323863 0.006509831652106 0.0003
          0.014128459199836 0.0039835282877348 0 0.014128459199836 0.0039835282877348 0.00015
          0.014128459199836 0.0039835282877348 0.0003 0.018817000838468 0.010560792840001 0
          0.018817000838468 0.010560792840001 0.00015 0.018817000838468 0.010560792840001 0.0003
          0.011043213382792 0.0084269911709333 0 0.011043213382792 0.0084269911709333 0.00015
          0.011043213382792 0.0084269911709333 0.0003 0.011511795106494 0.0083968566041475 0
          0.011511795106494 0.0083968566041475 0.00015 0.011511795106494 0.0083968566041475 0.0003
          0.017341722495578 0.0054175123203669 0 0.017341722495578 0.0054175123203669 0.00015
          0.017341722495578 0.0054175123203669 0.0003 0.01196380743939 0.0083394019710021 0
          0.011894488312007 0.0078344841271679 0 0.01196380743939 0.0083394019710021 0.00015
          0.011894488312007 0.0078344841271679 0.00015 0.01196380743939 0.0083394019710021 0.0003
          0.011894488312007 0.0078344841271679 0.0003 0.018719100515555 0.0096191331103102 0
          0.018769006148643 0.010016813571171 0 0.018719100515555 0.0096191331103102 0.00015
          0.018769006148643 0.010016813571171 0.00015 0.018719100515555 0.0096191331103102 0.0003
          0.018769006148643 0.010016813571171 0.0003 0.019142781766586 0.010156284019367 0
          0.019142781766586 0.010156284019367 0.00015 0.019142781766586 0.010156284019367 0.0003
          0.019871794871807 0.013 0 0.019671681078705 0.012567114388191 0
          0.019871794871807 0.013 0.00015 0.019671681078705 0.012567114388191 0.00015
          0.019871794871807 0.013 0.0003 0.019671681078705 0.012567114388191 0.0003
          0.013590285783394 0.0038446716816234 0 0.013590285783394 0.0038446716816234 0.00015
          0.013590285783394 0.0038446716816234 0.0003 0.018696511924608 0.0075816988835645 0
          0.018734278863615 0.0068564365277259 0 0.018696511924608 0.0075816988835645 0.00015
          0.018734278863615 0.0068564365277259 0.00015 0.018696511924608 0.0075816988835645 0.0003
          0.018734278863615 0.0068564365277259 0.0003 0.013091675611077 0.0041736873632184 0
          0.013121586466294 0.0036708577033715 0 0.013091675611077 0.0041736873632184 0.00015
          0.013121586466294 0.0036708577033715 0.00015 0.013091675611077 0.0041736873632184 0.0003
          0.013121586466294 0.0036708577033715 0.0003 0.019497075330812 0.012129782091497 0
          0.019497075330812 0.012129782091497 0.00015 0.019497075330812 0.012129782091497 0.0003
          0.012592651705639 0.0068198098450163 0 0.012592651705639 0.0068198098450163 0.00015
          0.012592651705639 0.0068198098450163 0.0003 0.018655444813331 0.0089912542068827 0
          0.018655444813331 0.0089912542068827 0.00015 0.018655444813331 0.0089912542068827 0.0003
          0.018643245907353 0.0082916041839039 0 0.018643245907353 0.0082916041839039 0.00015
          0.018643245907353 0.0082916041839039 0.0003 0.013048655853798 0.0051555709380823 0
          0.013048655853798 0.0051555709380823 0.00015 0.013048655853798 0.0051555709380823 0.0003
          0.013084530633285 0.0046685927017207 0 0.013084530633285 0.0046685927017207 0.00015
          0.013084530633285 0.0046685927017207 0.0003
          <InformationKey name="L2_NORM_RANGE" location="vtkDataArray" length="2">
            <Value index="0">
              0.013166738444
            </Value>
            <Value index="1">
              0.023748225859
            </Value>
          </InformationKey>
        </DataArray>
      </Points>
      <Cells>
        <DataArray type="Int64" Name="connectivity" format="ascii" RangeMin="0" RangeMax="794">
          0 1 2 3 4 5
          6 7 4 5 6 7
          8 9 10 11 12 13
          14 15 16 17 18 19
          16 17 18 19 20 21
          22 23 666 667 14 24
          668 669 18 25 668 669
          18 25 670 671 22 26
          24 14 13 27 25 18
          17 28 25 18 17 28
          26 22 21 29 30 31
          3 2 32 33 7 6
          32 33 7 6 34 35
          11 10 36 37 38 39
          40 41 42 43 40 41
          42 43 44 45 46 47
          48 49 50 51 52 53
          54 55 52 53 54 55
          56 57 58 59 60 61
          62 63 64 65 66 67
          64 65 66 67 68 69
          70 71 72 73 672 74
          75 76 673 77 75 76
          673 77 78 79 674 80
          81 82 83 84 85 86
          87 88 85 86 87 88
          89 90 91 92 93 675
          676 677 94 678 679 680
          94 678 679 680 95 681
          682 683 2 96 97 30
          6 98 99 32 6 98
          99 32 10 100 101 34
          102 103 0 104 105 106
          4 107 105 106 4 107
          108 109 8 110 111 112
          113 114 115 116 117 118
          115 116 117 118 119 120
          121 122 123 124 50 125
          126 127 54 128 126 127
          54 128 129 130 58 131
          132 133 134 51 135 136
          137 55 135 136 137 55
          138 139 140 59 141 142
          143 144 145 146 147 148
          145 146 147 148 149 150
          151 152 112 141 144 113
          116 145 148 117 116 145
          148 117 120 149 152 121
          84 83 153 154 88 87
          155 156 88 87 155 156
          92 91 157 158 159 160
          161 38 162 163 164 42
          162 163 164 42 165 166
          167 46 168 169 170 171
          172 173 174 175 172 173
          174 175 176 177 178 179
          684 180 181 685 686 182
          183 687 686 182 183 687
          688 184 185 689 186 104
          0 187 188 107 4 189
          188 107 4 189 190 110
          8 191 690 691 672 73
          692 693 673 76 692 693
          673 76 694 695 674 79
          198 199 200 201 202 203
          204 205 202 203 204 205
          206 207 208 209 210 72
          74 211 212 75 77 213
          212 75 77 213 214 78
          80 215 216 82 81 217
          218 86 85 219 218 86
          85 219 220 90 89 221
          222 216 217 223 224 218
          219 225 224 218 219 225
          226 220 221 227 171 39
          38 161 175 43 42 164
          175 43 42 164 179 47
          46 167 228 696 685 181
          229 697 687 183 229 697
          687 183 230 698 689 185
          231 699 700 701 232 702
          703 704 232 702 703 704
          233 705 706 707 31 30
          201 200 33 32 205 204
          33 32 205 204 35 34
          209 208 234 235 236 237
          238 239 240 241 238 239
          240 241 242 243 244 245
          36 246 247 248 40 249
          250 251 40 249 250 251
          44 252 253 254 83 255
          256 153 87 257 258 155
          87 257 258 155 91 259
          260 157 235 699 231 236
          239 702 232 240 239 702
          232 240 243 705 233 244
          168 171 161 261 172 175
          164 262 172 175 164 262
          176 179 167 263 171 170
          36 39 175 174 40 43
          175 174 40 43 179 178
          44 47 264 265 266 267
          268 269 270 271 268 269
          270 271 272 273 274 275
          237 276 211 234 241 277
          213 238 241 277 213 238
          245 278 215 242 279 160
          237 236 280 163 241 240
          280 163 241 240 281 166
          245 244 234 211 74 282
          238 213 77 283 238 213
          77 283 242 215 80 284
          285 228 181 286 287 229
          183 288 287 229 183 288
          289 230 185 290 291 168
          261 292 293 172 262 294
          293 172 262 294 295 176
          263 296 297 298 256 255
          299 300 258 257 299 300
          258 257 301 302 260 259
          303 304 97 96 305 306
          99 98 305 306 99 98
          307 308 101 100 309 247
          114 113 310 250 118 117
          310 250 118 117 311 253
          122 121 304 312 313 97
          306 314 315 99 306 314
          315 99 308 316 317 101
          282 74 672 708 283 77
          673 709 283 77 673 709
          284 80 674 710 318 303
          96 319 320 305 98 321
          320 305 98 321 322 307
          100 323 285 187 0 3
          287 189 4 7 287 189
          4 7 289 191 8 11
          223 711 712 324 225 713
          714 325 225 713 714 325
          227 715 716 326 327 210
          211 276 328 212 213 277
          328 212 213 277 329 214
          215 278 717 282 708 718
          719 283 709 720 719 283
          709 720 721 284 710 722
          276 237 160 159 277 241
          163 162 277 241 163 162
          278 245 166 165 330 318
          319 331 332 320 321 333
          332 320 321 333 334 322
          323 335 324 336 222 223
          325 337 224 225 325 337
          224 225 326 338 226 227
          292 261 279 339 294 262
          280 340 294 262 280 340
          296 263 281 341 342 343
          210 327 344 345 212 328
          344 345 212 328 346 347
          214 329 696 228 31 200
          697 229 33 204 697 229
          33 204 698 230 35 208
          298 348 349 256 300 350
          351 258 300 350 351 258
          302 352 353 260 336 343
          342 222 337 345 344 224
          337 345 344 224 338 347
          346 226 96 2 1 319
          98 6 5 321 98 6
          5 321 100 10 9 323
          103 354 355 356 106 357
          358 359 106 357 358 359
          109 360 361 362 339 279
          236 231 340 280 240 232
          340 280 240 232 341 281
          244 233 363 364 365 366
          367 368 369 370 367 368
          369 370 371 372 373 374
          375 376 377 378 379 380
          381 382 379 380 381 382
          383 384 385 386 169 168
          291 312 173 172 293 314
          173 172 293 314 177 176
          295 316 216 222 342 387
          218 224 344 388 218 224
          344 388 220 226 346 389
          223 217 723 711 225 219
          724 713 225 219 724 713
          227 221 725 715 160 279
          261 161 163 280 262 164
          163 280 262 164 166 281
          263 167 356 355 330 331
          359 358 332 333 359 358
          332 333 362 361 334 335
          363 390 391 364 367 392
          393 368 367 392 393 368
          371 394 395 372 396 397
          726 690 398 399 727 692
          398 399 727 692 400 401
          728 694 390 402 403 391
          392 404 405 393 392 404
          405 393 394 406 407 395
          235 234 282 717 239 238
          283 719 239 238 283 719
          243 242 284 721 313 201
          30 97 315 205 32 99
          315 205 32 99 317 209
          34 101 248 247 309 348
          251 250 310 350 251 250
          310 350 254 253 311 352
          200 199 729 696 204 203
          730 697 204 203 730 697
          208 207 731 698 408 409
          375 378 410 411 379 382
          410 411 379 382 412 413
          383 386 153 256 349 366
          155 258 351 370 155 258
          351 370 157 260 353 374
          414 408 378 415 416 410
          382 417 416 410 382 417
          418 412 386 419 420 248
          348 298 421 251 350 300
          421 251 350 300 422 254
          352 302 423 327 276 159
          424 328 277 162 424 328
          277 162 425 329 278 165
          426 427 428 429 430 431
          432 433 430 431 432 433
          434 435 436 437 336 324
          438 439 337 325 440 441
          337 325 440 441 338 326
          442 443 667 732 15 14
          669 733 19 18 669 733
          19 18 671 734 23 22
          444 445 446 447 448 449
          450 451 448 449 450 451
          452 453 454 455 415 456
          457 458 417 459 460 461
          417 459 460 461 419 462
          463 464 12 465 408 414
          16 466 410 416 16 466
          410 416 20 467 412 418
          465 403 409 408 466 405
          411 410 466 405 411 410
          467 407 413 412 376 375
          429 428 380 379 433 432
          380 379 433 432 384 383
          437 436 114 468 469 111
          118 470 471 115 118 470
          471 115 122 472 473 119
          37 423 159 38 41 424
          162 42 41 424 162 42
          45 425 165 46 474 475
          390 363 476 477 392 367
          476 477 392 367 478 479
          394 371 429 375 409 480
          433 379 411 481 433 379
          411 481 437 383 413 482
          342 483 297 387 344 484
          299 388 344 484 299 388
          346 485 301 389 348 309
          474 349 350 310 476 351
          350 310 476 351 352 311
          478 353 480 409 403 402
          481 411 405 404 481 411
          405 404 482 413 407 406
          266 265 376 428 270 269
          380 432 270 269 380 432
          274 273 384 436 486 487
          364 391 488 489 368 393
          488 489 368 393 490 491
          372 395 447 446 492 493
          451 450 494 495 451 450
          494 495 455 454 496 497
          483 420 298 297 484 421
          300 299 484 421 300 299
          485 422 302 301 498 267
          63 499 500 271 67 501
          500 271 67 501 502 275
          71 503 378 377 456 415
          382 381 459 417 382 381
          459 417 386 385 462 419
          504 62 505 506 507 66
          508 509 507 66 508 509
          510 70 511 512 513 61
          426 514 515 65 430 516
          515 65 430 516 517 69
          434 518 499 63 62 504
          501 67 66 507 501 67
          66 507 503 71 70 510
          474 363 366 349 476 367
          370 351 476 367 370 351
          478 371 374 353 519 520
          376 265 521 522 380 269
          521 522 380 269 523 524
          384 273 506 505 525 526
          509 508 527 528 509 508
          527 528 512 511 529 530
          531 377 376 520 532 381
          380 522 532 381 380 522
          533 385 384 524 534 535
          536 537 538 539 540 541
          538 539 540 541 542 543
          544 545 546 536 535 547
          548 540 539 549 548 540
          539 549 550 544 543 551
          141 330 355 123 145 332
          358 126 145 332 358 126
          149 334 361 129 327 423
          483 342 328 424 484 344
          328 424 484 344 329 425
          485 346 193 531 520 552
          195 532 522 553 195 532
          522 553 197 533 524 554
          134 555 526 525 137 556
          528 527 137 556 528 527
          140 557 530 529 480 558
          426 429 481 559 430 433
          481 559 430 433 482 560
          434 437 391 403 465 486
          393 405 466 488 393 405
          466 488 395 407 467 490
          465 12 15 561 466 16
          19 562 466 16 19 562
          467 20 23 563 402 390
          475 564 404 392 477 565
          404 392 477 565 406 394
          479 566 567 568 49 514
          569 570 53 516 569 570
          53 516 571 572 57 518
          558 567 514 426 559 569
          516 430 559 569 516 430
          560 571 518 434 564 475
          143 573 565 477 147 574
          565 477 147 574 566 479
          151 575 561 15 732 735
          562 19 733 736 562 19
          733 736 563 23 734 737
          228 285 3 31 229 287
          7 33 229 287 7 33
          230 289 11 35 576 198
          201 313 577 202 205 315
          577 202 205 315 578 206
          209 317 356 331 319 1
          359 333 321 5 359 333
          321 5 362 335 323 9
          1 0 103 356 5 4
          106 359 5 4 106 359
          9 8 109 362 558 480
          402 564 559 481 404 565
          559 481 404 565 560 482
          406 566 699 235 717 738
          702 239 719 739 702 239
          719 739 705 243 721 740
          73 582 396 690 76 583
          398 692 76 583 398 692
          79 584 400 694 741 742
          585 586 743 744 587 588
          743 744 587 588 745 746
          589 590 72 210 343 591
          75 212 345 592 75 212
          345 592 78 214 347 593
          439 591 343 336 441 592
          345 337 441 592 345 337
          443 593 347 338 576 313
          312 291 577 315 314 293
          577 315 314 293 578 317
          316 295 469 169 312 304
          471 173 314 306 471 173
          314 306 473 177 316 308
          594 365 364 487 595 369
          368 489 595 369 368 489
          596 373 372 491 591 439
          396 582 592 441 398 583
          592 441 398 583 593 443
          400 584 564 573 567 558
          565 574 569 559 565 574
          569 559 566 575 571 560
          573 597 568 567 574 598
          570 569 574 598 570 569
          575 599 572 571 747 748
          199 198 749 750 203 202
          749 750 203 202 751 752
          207 206 420 483 423 37
          421 484 424 41 421 484
          424 41 422 485 425 45
          600 486 465 561 601 488
          466 562 601 488 466 562
          602 490 467 563 561 735
          741 600 562 736 743 601
          562 736 743 601 563 737
          745 602 37 36 248 420
          41 40 251 421 41 40
          251 421 45 44 254 422
          594 487 486 600 595 489
          488 601 595 489 488 601
          596 491 490 602 468 170
          169 469 470 174 173 471
          470 174 173 471 472 178
          177 473 264 492 519 265
          268 494 521 269 268 494
          521 269 272 496 523 273
          414 579 13 12 416 580
          17 16 416 580 17 16
          418 581 21 20 154 153
          366 365 156 155 370 369
          156 155 370 369 158 157
          374 373 339 231 701 603
          340 232 704 604 340 232
          704 604 341 233 707 605
          591 582 73 72 592 583
          76 75 592 583 76 75
          593 584 79 78 606 292
          339 603 607 294 340 604
          607 294 340 604 608 296
          341 605 547 609 610 546
          549 611 612 548 549 611
          612 548 551 613 614 550
          60 427 426 61 64 431
          430 65 64 431 430 65
          68 435 434 69 576 291
          292 606 577 293 294 607
          577 293 294 607 578 295
          296 608 615 616 555 134
          617 618 556 137 617 618
          556 137 619 620 557 140
          586 594 600 741 588 595
          601 743 588 595 601 743
          590 596 602 745 83 387
          297 255 87 388 299 257
          87 388 299 257 91 389
          301 259 144 143 475 474
          148 147 477 476 148 147
          477 476 152 151 479 478
          111 469 304 303 115 471
          306 305 115 471 306 305
          119 473 308 307 753 729
          199 748 754 730 203 750
          754 730 203 750 755 731
          207 752 505 62 61 513
          508 66 65 515 508 66
          65 515 511 70 69 517
          756 610 609 757 758 612
          611 759 758 612 611 759
          760 614 613 761 216 387
          83 82 218 388 87 86
          218 388 87 86 220 389
          91 90 285 621 186 187
          287 622 188 189 287 622
          188 189 289 623 190 191
          264 624 493 492 268 625
          495 494 268 625 495 494
          272 626 497 496 726 397
          627 762 727 399 628 763
          727 399 628 763 728 401
          629 764 630 631 181 180
          632 633 183 182 632 633
          183 182 634 635 185 184
          586 154 365 594 588 156
          369 595 588 156 369 595
          590 158 373 596 765 603
          701 766 767 604 704 768
          767 604 704 768 769 605
          707 770 636 637 186 638
          639 640 188 641 639 640
          188 641 642 643 190 644
          125 50 49 568 128 54
          53 570 128 54 53 570
          131 58 57 572 645 638
          186 646 647 641 188 648
          647 641 188 648 649 644
          190 650 534 646 186 621
          538 648 188 622 538 648
          188 622 542 650 190 623
          93 585 742 675 94 587
          744 678 94 587 744 678
          95 589 746 681 48 51
          134 525 52 55 137 527
          52 55 137 527 56 59
          140 529 627 771 772 762
          628 773 774 763 628 773
          774 763 629 775 776 764
          630 180 684 777 632 182
          686 778 632 182 686 778
          634 184 688 779 154 586
          585 84 156 588 587 88
          156 588 587 88 158 590
          589 92 651 286 181 631
          652 288 183 633 652 288
          183 633 653 290 185 635
          186 637 654 104 188 640
          655 107 188 640 655 107
          190 643 656 110 474 309
          113 144 476 310 117 148
          476 310 117 148 478 311
          121 152 63 267 266 60
          67 271 270 64 67 271
          270 64 71 275 274 68
          616 615 654 657 618 617
          655 658 618 617 655 658
          620 619 656 659 627 397
          396 660 628 399 398 661
          628 399 398 661 629 401
          400 662 579 414 415 458
          580 416 417 461 580 416
          417 461 581 418 419 464
          651 631 547 535 652 633
          549 539 652 633 549 539
          653 635 551 543 723 217
          81 780 724 219 85 781
          724 219 85 781 725 221
          89 782 663 446 445 192
          664 450 449 194 664 450
          449 194 665 454 453 196
          142 597 573 143 146 598
          574 147 146 598 574 147
          150 599 575 151 783 747
          198 576 784 749 202 577
          784 749 202 577 785 751
          206 578 48 513 514 49
          52 515 516 53 52 515
          516 53 56 517 518 57
          318 330 141 112 320 332
          145 116 320 332 145 116
          322 334 149 120 651 621
          285 286 652 622 287 288
          652 622 287 288 653 623
          289 290 60 266 428 427
          64 270 432 431 64 270
          432 431 68 274 436 435
          354 124 123 355 357 127
          126 358 357 127 126 358
          360 130 129 361 303 318
          112 111 305 320 116 115
          305 320 116 115 307 322
          120 119 630 777 757 609
          632 778 759 611 632 778
          759 611 634 779 761 613
          468 246 36 170 470 249
          40 174 470 249 40 174
          472 252 44 178 615 102
          104 654 617 105 107 655
          617 105 107 655 619 108
          110 656 786 783 576 606
          787 784 577 607 787 784
          577 607 788 785 578 608
          519 492 446 663 521 494
          450 664 521 494 450 664
          523 496 454 665 637 636
          657 654 640 639 658 655
          640 639 658 655 643 642
          659 656 663 192 193 552
          664 194 195 553 664 194
          195 553 665 196 197 554
          789 438 324 712 790 440
          325 714 790 440 325 714
          791 442 326 716 102 133
          354 103 105 136 357 106
          105 136 357 106 108 139
          360 109 646 534 537 645
          648 538 541 647 648 538
          541 647 650 542 545 649
          525 505 513 48 527 508
          515 52 527 508 515 52
          529 511 517 56 660 396
          439 438 661 398 441 440
          661 398 441 440 662 400
          443 442 765 786 606 603
          767 787 607 604 767 787
          607 604 769 788 608 605
          624 264 267 498 625 268
          271 500 625 268 271 500
          626 272 275 502 468 114
          247 246 470 118 250 249
          470 118 250 249 472 122
          253 252 535 534 621 651
          539 538 622 652 539 538
          622 652 543 542 623 653
          93 81 84 585 94 85
          88 587 94 85 88 587
          95 89 92 589 438 789
          792 660 440 790 793 661
          440 790 793 661 442 791
          794 662 124 132 51 50
          127 135 55 54 127 135
          55 54 130 138 59 58
          663 552 520 519 664 553
          522 521 664 553 522 521
          665 554 524 523 609 547
          631 630 611 549 633 632
          611 549 633 632 613 551
          635 634 125 142 141 123
          128 146 145 126 128 146
          145 126 131 150 149 129
          102 615 134 133 105 617
          137 136 105 617 137 136
          108 619 140 139 142 125
          568 597 146 128 570 598
          146 128 570 598 150 131
          572 599 124 354 133 132
          127 357 136 135 127 357
          136 135 130 360 139 138
          660 792 771 627 661 793
          773 628 661 793 773 628
          662 794 775 629 81 93
          677 780 85 94 680 781
          85 94 680 781 89 95
          683 782
        </DataArray>
        <DataArray type="Int64" Name="offsets" format="ascii" RangeMin="8" RangeMax="3632">
          8 16 24 32 40 48
          56 64 72 80 88 96
          104 112 120 128 136 144
          152 160 168 176 184 192
          200 208 216 224 232 240
          248 256 264 272 280 288
          296 304 312 320 328 336
          344 352 360 368 376 384
          392 400 408 416 424 432
          440 448 456 464 472 480
          488 496 504 512 520 528
          536 544 552 560 568 576
          584 592 600 608 616 624
          632 640 648 656 664 672
          680 688 696 704 712 720
          728 736 744 752 760 768
          776 784 792 800 808 816
          824 832 840 848 856 864
          872 880 888 896 904 912
          920 928 936 944 952 960
          968 976 984 992 1000 1008
          1016 1024 1032 1040 1048 1056
          1064 1072 1080 1088 1096 1104
          1112 1120 1128 1136 1144 1152
          1160 1168 1176 1184 1192 1200
          1208 1216 1224 1232 1240 1248
          1256 1264 1272 1280 1288 1296
          1304 1312 1320 1328 1336 1344
          1352 1360 1368 1376 1384 1392
          1400 1408 1416 1424 1432 1440
          1448 1456 1464 1472 1480 1488
          1496 1504 1512 1520 1528 1536
          1544 1552 1560 1568 1576 1584
          1592 1600 1608 1616 1624 1632
          1640 1648 1656 1664 1672 1680
          1688 1696 1704 1712 1720 1728
          1736 1744 1752 1760 1768 1776
          1784 1792 1800 1808 1816 1824
          1832 1840 1848 1856 1864 1872
          1880 1888 1896 1904 1912 1920
          1928 1936 1944 1952 1960 1968
          1976 1984 1992 2000 2008 2016
          2024 2032 2040 2048 2056 2064
          2072 2080 2088 2096 2104 2112
          2120 2128 2136 2144 2152 2160
          2168 2176 2184 2192 2200 2208
          2216 2224 2232 2240 2248 2256
          2264 2272 2280 2288 2296 2304
          2312 2320 2328 2336 2344 2352
          2360 2368 2376 2384 2392 2400
          2408 2416 2424 2432 2440 2448
          2456 2464 2472 2480 2488 2496
          2504 2512 2520 2528 2536 2544
          2552 2560 2568 2576 2584 2592
          2600 2608 2616 2624 2632 2640
          2648 2656 2664 2672 2680 2688
          2696 2704 2712 2720 2728 2736
          2744 2752 2760 2768 2776 2784
          2792 2800 2808 2816 2824 2832
          2840 2848 2856 2864 2872 2880
          2888 2896 2904 2912 2920 2928
          2936 2944 2952 2960 2968 2976
          2984 2992 3000 3008 3016 3024
          3032 3040 3048 3056 3064 3072
          3080 3088 3096 3104 3112 3120
          3128 3136 3144 3152 3160 3168
          3176 3184 3192 3200 3208 3216
          3224 3232 3240 3248 3256 3264
          3272 3280 3288 3296 3304 3312
          3320 3328 3336 3344 3352 3360
          3368 3376 3384 3392 3400 3408
          3416 3424 3432 3440 3448 3456
          3464 3472 3480 3488 3496 3504
          3512 3520 3528 3536 3544 3552
          3560 3568 3576 3584 3592 3600
          3608 3616 3624 3632
        </DataArray>
        <DataArray type="UInt8" Name="types" format="ascii" RangeMin="12" RangeMax="12">
          12 12 12 12 12 12
          12 12 12 12 12 12
          12 12 12 12 12 12
          12 12 12 12 12 12
          12 12 12 12 12 12
          12 12 12 12 12 12
          12 12 12 12 12 12
          12 12 12 12 12 12
          12 12 12 12 12 12
          12 12 12 12 12 12
          12 12 12 12 12 12
          12 12 12 12 12 12
          12 12 12 12 12 12
          12 12 12 12 12 12
          12 12 12 12 12 12
          12 12 12 12 12 12
          12 12 12 12 12 12
          12 12 12 12 12 12
          12 12 12 12 12 12
          12 12 12 12 12 12
          12 12 12 12 12 12
          12 12 12 12 12 12
          12 12 12 12 12 12
          12 12 12 12 12 12
          12 12 12 12 12 12
          12 12 12 12 12 12
          12 12 12 12 12 12
          12 12 12 12 12 12
          12 12 12 12 12 12
          12 12 12 12 12 12
          12 12 12 12 12 12
          12 12 12 12 12 12
          12 12 12 12 12 12
          12 12 12 12 12 12
          12 12 12 12 12 12
          12 12 12 12 12 12
          12 12 12 12 12 12
          12 12 12 12 12 12
          12 12 12 12 12 12
          12 12 12 12 12 12
          12 12 12 12 12 12
          12 12 12 12 12 12
          12 12 12 12 12 12
          12 12 12 12 12 12
          12 12 12 12 12 12
          12 12 12 12 12 12
          12 12 12 12 12 12
          12 12 12 12 12 12
          12 12 12 12 12 12
          12 12 12 12 12 12
          12 12 12 12 12 12
          12 12 12 12 12 12
          12 12 12 12 12 12
          12 12 12 12 12 12
          12 12 12 12 12 12
          12 12 12 12 12 12
          12 12 12 12 12 12
          12 12 12 12 12 12
          12 12 12 12 12 12
          12 12 12 12 12 12
          12 12 12 12 12 12
          12 12 12 12 12 12
          12 12 12 12 12 12
          12 12 12 12 12 12
          12 12 12 12 12 12
          12 12 12 12 12 12
          12 12 12 12 12 12
          12 12 12 12 12 12
          12 12 12 12 12 12
          12 12 12 12 12 12
          12 12 12 12 12 12
          12 12 12 12 12 12
          12 12 12 12 12 12
          12 12 12 12 12 12
          12 12 12 12 12 12
          12 12 12 12
        </DataArray>
      </Cells>
    </Piece>
  </UnstructuredGrid>
</VTKFile>
