<?xml version="1.0"?>
<VTKFile type="UnstructuredGrid" version="0.1" byte_order="LittleEndian" header_type="UInt32" compressor="vtkZLibDataCompressor">
  <UnstructuredGrid>
    <Piece NumberOfPoints="756" NumberOfCells="468">
      <PointData>
        <DataArray type="Int32" Name="libmesh_node_id" format="ascii" RangeMin="120" RangeMax="2168">
          120 121 122 123 124 125
          126 127 128 129 130 131
          132 133 134 135 136 137
          138 139 140 141 142 143
          144 145 146 147 148 149
          150 151 152 153 154 155
          156 157 158 159 160 161
          162 163 164 165 166 167
          168 169 170 171 172 173
          174 175 176 177 178 179
          240 241 242 243 244 245
          246 247 248 249 250 251
          252 253 254 255 256 257
          258 259 260 261 262 263
          264 265 266 267 268 269
          330 331 332 333 334 335
          336 337 338 339 340 341
          342 343 344 345 346 347
          348 349 350 351 352 353
          354 355 356 357 358 359
          420 421 422 423 424 425
          426 427 428 429 430 431
          432 433 434 435 436 437
          438 439 440 441 442 443
          444 445 446 447 448 449
          510 511 512 513 514 515
          516 517 518 519 520 521
          522 523 524 525 526 527
          528 529 530 531 532 533
          534 535 536 537 538 539
          600 601 602 603 604 605
          606 607 608 609 610 611
          612 613 614 615 616 617
          618 619 620 621 622 623
          624 625 626 627 628 629
          690 691 692 693 694 695
          696 697 698 699 700 701
          702 703 704 705 706 707
          708 709 710 711 712 713
          714 715 716 717 718 719
          780 781 782 783 784 785
          786 787 788 789 790 791
          792 793 794 795 796 797
          798 799 800 801 802 803
          804 805 806 807 808 809
          876 877 878 879 880 881
          882 883 884 885 886 887
          888 889 890 891 892 893
          894 895 896 897 898 899
          900 901 902 903 904 905
          906 907 908 909 910 911
          912 913 914 915 916 917
          918 919 920 921 922 923
          924 925 926 927 928 929
          930 931 932 933 934 935
          936 937 938 939 940 941
          942 943 944 945 946 947
          948 949 950 951 952 953
          954 955 956 957 958 959
          960 961 962 963 964 965
          966 967 968 969 970 971
          972 973 974 975 976 977
          978 979 980 981 982 983
          984 985 986 987 988 989
          990 991 992 993 994 995
          996 997 998 999 1000 1001
          1002 1003 1004 1005 1006 1007
          1008 1009 1010 1011 1012 1013
          1014 1015 1016 1017 1018 1019
          1020 1021 1022 1023 1024 1025
          1026 1027 1028 1029 1030 1031
          1032 1033 1034 1035 1036 1037
          1038 1039 1040 1041 1042 1043
          1044 1045 1046 1047 1048 1049
          1050 1051 1052 1053 1054 1055
          1056 1057 1058 1059 1060 1061
          1062 1063 1064 1065 1066 1067
          1068 1069 1070 1071 1072 1073
          1074 1075 1076 1077 1078 1079
          1080 1081 1082 1083 1084 1085
          1086 1087 1088 1089 1090 1091
          1092 1093 1094 1095 1096 1097
          1098 1099 1100 1101 1102 1103
          1104 1105 1106 1107 1108 1109
          1110 1111 1112 1113 1114 1115
          1116 1117 1118 1119 1120 1121
          1122 1123 1124 1125 1126 1127
          1128 1129 1130 1131 1132 1133
          1134 1135 1136 1137 1138 1139
          1140 1141 1142 1143 1144 1145
          1146 1147 1148 1149 1150 1151
          1152 1153 1154 1155 1156 1157
          1158 1159 1160 1161 1162 1163
          1164 1165 1166 1167 1168 1169
          1170 1171 1172 1173 1174 1175
          1176 1177 1178 1179 1180 1181
          1182 1183 1184 1185 1186 1187
          1188 1189 1190 1191 1192 1193
          1194 1195 1196 1197 1198 1199
          1200 1201 1202 1203 1204 1205
          1206 1207 1208 1209 1210 1211
          1212 1213 1214 1215 1216 1217
          1218 1219 1220 1221 1222 1223
          1224 1225 1226 1227 1228 1229
          1230 1231 1232 1233 1234 1235
          1236 1237 1238 1239 1240 1241
          1242 1243 1244 1245 1246 1247
          1248 1249 1250 1251 1252 1253
          1254 1255 1256 1257 1258 1259
          1260 1261 1262 1263 1264 1265
          1266 1267 1268 1269 1270 1271
          1893 1894 1895 1896 1897 1898
          1920 1921 1922 1923 1924 1925
          1947 1948 1949 1974 1975 1976
          2001 2002 2003 2028 2029 2030
          2055 2056 2057 2112 2113 2114
          2115 2116 2117 2124 2125 2126
          2127 2128 2129 2130 2131 2132
          2133 2134 2135 2148 2149 2150
          2151 2152 2153 2164 2166 2168
          1926 1899 1927 1900 1928 1901
          1950 1951 1952 1953 1954 1955
          1977 1978 1979 2004 2005 2006
          2031 2032 2033 2058 2059 2060
          2142 2144 2146 2163 2143 2096
          2165 2145 2100 2167 2147 2104
        </DataArray>
        <DataArray type="Float64" Name="resid_x" format="ascii" RangeMin="-19.907644587199233" RangeMax="0.803492851496204">
          0.000625063757365929 -8.254786693055543 -0.0005107826488810474 -16.553135729040825 -0.0018269972820643687 -8.364530750004498
          -0.0009605200120459401 -8.273224362861828 -0.0016997942219880713 -16.66553759714384 -0.0014421545858773754 -8.550556297935977
          -0.002371766747876869 -8.341938057887692 -0.0032383872217618404 -16.890124100971185 -0.0030391403008795947 -8.854542204615717
          0.00005544487836051104 -8.498976236734556 -0.0014171995588716513 -17.23230501071854 -0.0020778090921655945 -9.20795360806026
          0.00006355465218543799 -8.731248379864947 -0.00009675011902654518 -17.641453525261387 -0.0020745961150661074 -9.505106441020041
          -0.00004882616236479009 -8.971503609665954 0.00006941529330628526 -18.027329553697083 -0.0012584360340124334 -9.643936740645035
          0.0013117525925157025 -9.196935505592567 0.002286918924874648 -18.403161876838617 0.00031170105369238144 -9.583805970008944
          0.005065113022412859 -9.50140390765001 0.007208161785058564 -18.909556473213144 0.001983736145409587 -9.318071473686633
          -0.00016365928162098697 -10.041183970169861 0.002148031380762916 -19.907644587199233 0.004846179254653027 -8.850399877454635
          -0.007625557335659505 -6.186945703411946 0.008785673572769326 -12.248166985277955 0.022987485119715767 -4.839422432551301
          0.0006450766536421071 -0.0011834367691800907 0.0000636178318540459 -0.0009685167954627261 -0.001682708076807593 -0.0010969190744853918
          -0.0006984757592931601 -0.0026678150257062327 -0.0011985820748536824 0.00038865700624235444 0.00012201841057901675 -0.0028552081846546784
          0.000929995868507838 0.0014790010436707135 -0.0033814285312434578 0.0011976363812831181 0.0020178796640744068 -0.0022302058424896742
          0.003414557449947786 0.005413081493407468 0.0009306254576220141 0.008957286109632534 0.014029328097203475 0.005180288732586469
          0.006835384235134079 0.009045202958368748 0.01239782045187443 -0.004875903308657392 0.0038409748352785655 0.03235887382503966
          -0.0013994919960289565 -0.006127446123278091 0.0025379520166319836 -0.0009235857425968774 -0.0026203066892991345 -0.00260229470362372
          0.0002964813114658682 -0.0008275514690554431 -0.004283694372649194 0.000576664630967727 0.00040698090425994593 -0.0052265520816900946
          0.00045892075999454107 0.0010543431276994752 -0.0051100424928156585 0.0006383016508397787 0.0014955353474572775 -0.0034300676506218153
          0.0028584915025424706 0.004916459397083628 0.001127683333266738 0.008301612173933215 0.014119643535164705 0.007839614253935867
          0.008921894768886496 0.01332367870098139 0.01628884600811098 0.02221230582180577 0.013156543295365499 0.023469299756425442
          0.00013473966529264914 0.0031866835924159176 -0.006758041709926665 -0.0006682618352078507 0.0003465621296472321 -0.0051047986679995105
          0.00009807676829343137 -0.0005620585594305894 -0.005864259061490351 0.00048438021421848276 0.000647270107442921 -0.0063234675683512265
          0.000515479647029693 0.0013720309874862835 -0.006058057873249645 0.0006595137457168221 0.0015658732802403819 -0.003860224744031804
          0.0024293336874814386 0.004493762989298489 0.0020750769936013214 0.006525628308151177 0.010904489757561642 0.011295851338181784
          0.011007506986937976 0.014412978503350438 0.019240078015484663 0.020166871314559076 0.019077138846743003 0.024995057487557926
          0.002400577804706927 0.00023560235970698784 -0.009878081765049451 0.0007905429884287329 0.0009748342226734152 -0.006460478125761782
          -0.00036048842868385833 0.00017594001245413438 -0.007074785851981957 -0.00024393894478347278 0.00034624460661270007 -0.007034131854609882
          0.00046516960757703174 0.0011748744412223289 -0.006596510537119293 0.00034075723098059285 0.0011185816046044295 -0.003777788545400007
          0.002191837089315918 0.004007745598942236 0.0028894361902764842 0.004048933028978574 0.006591583805467316 0.013785996914940313
          0.010411773366704402 0.0161333362607623 0.02541687519826441 0.007282294776560727 0.029251847184653235 0.025915144939026247
          0.0052205067769603986 -0.003517618184059046 -0.007055240011780484 0.0024090117794166588 0.0016692901114776504 -0.00972453122589556
          0.0003928906299774937 0.0023305388795478166 -0.007970907123791449 -0.0016247841703700416 -0.0004496353099794348 -0.006314517015433729
          -0.000041280565660883894 0.0006702969111982426 -0.00648146431346408 -0.00026640238582231746 0.0003812581412550031 -0.00326288623357307
          0.0024763362645749964 0.003976022924005562 0.003356883173565528 0.0024249371303932676 0.005429491195982905 0.014821729282799012
          0.0063433157277925645 0.013687272844198795 0.030547851181267127 0.04000963761594323 0.04067781671081383 0.017747471225572187
          0.0019025905373233343 -0.0030196593735141164 -0.00694921979789509 0.005808181716451699 -0.0035697572123876142 -0.010444418416461154
          0.000670513994258215 0.0012877958779418108 -0.0044274606685634765 -0.0030008013426545688 -0.0009442229947280723 -0.006574739366085325
          -0.0008116119251360132 0.0005755439723635902 -0.004493933473742828 -0.0011967530350593947 -0.0007398699170950707 -0.0027053171360580386
          0.0029451663901429725 0.004511273741536037 0.003650682672125427 0.0035740625636453416 0.008409866289157186 0.01566061137416508
          0.002906714599957283 0.012083519433022438 0.032731018265629075 -0.010390817775658867 0.005686276439668125 0.03695126264335569
          -0.003166945789823572 -0.010384141070575836 -0.009091900982668655 0.0024125887235868504 -0.020043473220631824 -0.007353239571328274
          0.0036173168134183697 -0.005578461665802337 0.00004807197255551898 -0.0013304508346427824 -0.0038772325069897917 -0.007284343010062422
          -0.0010497390629033987 0.0014267219766557204 -0.0031338119486825633 -0.0009026036448078756 -0.0011849817867819468 -0.0034009285877085738
          0.0033687567747087144 0.005662766774304551 0.004314475906810777 0.004373530949824733 0.010177211213456161 0.015011400449655987
          0.004373718371721402 0.011445961710395913 0.0252418161114214 0.003937524498185185 0.002331621911453974 0.02115029398821222
          0.006564912982190307 0.011193546950591937 -0.008851755162287755 0.008088413865199762 0.013850917238540816 -0.0057012173926240806
          -0.001758443825089273 0.005499965968783549 -0.002917910010741487 0.0004726364883245182 0.00022637625908927816 0.002116774823186951
          0.00455132099187594 0.008223827236594872 0.013133170071292888 0.0015926424169006026 0.002599908861333766 0.023223707475963806
          0.0060676510557229335 0.005986505393614117 0.04109875096533511 0.00161289790367114 0.004277471110936126 0.030511079591666324
          -0.002281972946360393 0.007714543961029108 -0.004158163367256253 -0.003096175412493074 -0.006088612557529238 -0.002155373052582621
          -0.007390622105867661 -0.00645218284639093 -0.005825615485338505 -0.0190847717509377 -0.006456306700337061 -0.0023297958333138302
          -0.0016461868870487062 -0.0030427268685435226 -0.00361554941839079 -0.0056559644962601045 -0.002801834766206962 -0.002715634776187373
          -0.001988964876392288 -0.0014619669640514622 -0.0016415299376435488 -0.00406740690012676 -0.002992377849588681 -0.004284629956171543
          -0.0008236123856175392 -0.0010939470397859676 -0.003010670952184158 -0.058109698815088096 -0.045440868953359415 0.014402850112212207
          0.029868343956446664 -0.09708764008340198 -0.18377473273411837 0.3392789989540108 0.028052461429506348 0.029700044282864657
          -0.23057020061092662 0.3726984188736464 0.051456036211390666 -0.22213408091799292 -0.0014023368649390688 -0.0141685709649918
          -0.004324773803748794 -0.23607758744634338 0.002972733258981841 0.0446091795414465 -0.11745773258022799 0.010235977556743325
          0.058560745663358116 0.10174423759004814 0.025481220090841916 -0.00030083719158535693 -0.02212816846765886 -0.053345599295183344
          -0.028297680443720274 0.002189709350759017 -0.028374209373965398 -0.01762716840329448 0.000695757445837053 0.00020925455827347506
          0.018775611822675398 0.008587160576880914 0.00793183564350719 -0.31021187301759867 -0.12524940630965087 0.09185120523836887
          0.04585791878942125 -0.6187070059673686 -0.4598626957030327 0.20329142169265774 0.2074121149727141 -0.30333363778622735
          -0.20627505224463571 0.09423788079354223 0.15188507767190984 0.055427077945206404 -0.16999091825418078 0.12673910729649696
          -0.2968754530555906 0.10845617237627558 -0.019371400303755726 0.07575660872387924 -0.016156137458412934 0.04999250283913148
          -0.04352654154069091 -0.002433323587540892 0.023764161566435682 -0.003319740333408464 -0.001338913513980456 0.0013838275430262253
          -0.0020329297367518706 -0.011010627356058539 -0.0031928008775050642 0.0016219851717951747 -0.014907399109909764 -0.01197379786388661
          -0.0019007665546763308 -0.00031991182216177527 -0.025170904239377956 -0.02165056977004942 -0.010374794782119778 0.004593347692576022
          -1.6972610101350787 -0.01829955533848515 0.004983935696193598 -0.02261393523559363 -3.2867500647276766 0.001495034515488769
          0.02087212612812639 0.011594416869843971 -1.2383806488203335 -0.03308662380708305 -0.5496613520947703 -0.18909988538938105
          -0.28211918134944475 -0.3454660140779222 0.10765972875800052 -0.004698285616217435 0.027604189672134516 -0.0019374357083474236
          -0.0028587884030866206 -0.02114120074073278 0.025587062855077503 -0.0019842521997297524 -0.008793664421399727 -0.01043864812861317
          0.0027713292801317957 -0.0092310532497058 -0.00608561730906354 -0.3712771078528737 0.16611077531836382 0.07776858733221734
          -0.16894831356899886 -0.1485500596998076 -0.03764802251628774 -0.7190473812368622 0.06307616675273175 0.004025602507350401
          -0.09483167168948292 -0.46219430160206443 0.038054296685317124 -0.0000497272796754801 -0.000421119274944131 0.0003754285409264674
          0.000801152368796583 -0.00024706884273301144 -0.0003862628314394599 -0.0015062710459149906 0.0002742829470952085 -0.0008344512338398224
          0.0013123638507157032 -0.0018234817947218318 -0.0005742271521245075 0.12934379045580835 0.3512195145058109 0.39965076215758333
          0.58950247949792 0.17715299694180175 0.25807357920335616 0.031706890127469745 0.012294056173537848 0.01768292907854696
          -0.00848613537083548 -0.021416465942300733 -0.029980064335475398 -0.025912123396253817 -0.03343855551947994 -0.024386078477063422
          0.030840899966451674 -0.006589029742871566 -0.007452738539206805 -0.010919298986703074 -0.04225587245116569 -0.015569452362872438
          0.0014120496445759745 -0.044684692086857325 -0.02086545017650454 0.027278090230787477 0.09042596428244243 0.07025837015782499
          0.007206561125879335 0.029008455874805272 0.09029682745749025 0.06906746188778556 -0.01254508704976473 -0.02711165047243358
          0.041565435893120506 0.03387982051133864 0.004237955968152712 -1.229083096385915 0.02118532831641029 -1.5403766467089077
          -2.4923144743005348 0.02545550874896302 -2.9263008155353707 -1.0025557742197415 0.01764574682714709 -1.1387750519629902
          -0.05993374993380338 0.1820105814445956 -0.04030360396294732 0.3263254361624793 0.07050117672429981 0.05324132810537807
          -0.03617489128411289 -0.02536050464990708 0.01179482626274636 -0.02135740570368677 0.04512360163574203 -0.0037143120843265987
          0.06799187969697305 -0.07627781661418874 0.16918126871296515 -0.2464309894556638 0.12421038661324424 -0.13976896042985867
          -1.5653452763650626 0.15868897543150118 0.3034377058705363 -1.8805422586402145 -2.8466109055934252 0.185060011966675
          0.5232846566840484 -3.5218253348388693 -1.2579489129416035 -0.001253461377731191 0.126880388122284 -1.5047231934443885
          -0.043948976123045935 0.05317589935658984 0.008549404022310192 -0.03571592609137453 0.08118439856417892 0.009891658109979384
          -0.012299602980928026 -0.0060438842663601555 0.008306803054417333 0.00841380592228818 -0.032542079501574284 0.02566961369754661
          -0.025277284447829507 0.018453168154701938 -0.005406832918940729 0.0040599683164292966 -0.0054121766250749825 0.08316362755602413
          -0.002265586193931135 0.03144353854241677 0.017570347188066382 0.16253519663677654 0.01689945059456377 0.19876560244391592
          0.013242541121083862 0.06575888447076504 -0.010332884935541853 -0.032359213295202416 -0.0829266394284498 0.08937260179407458
          -0.2188207819029891 0.14291538997626252 -0.16366730766952953 -0.00022161039657328518 -0.002781300328798555 -0.0007475910719458786
          -0.0005382961414498039 -0.004243612949825577 -0.0012337094051002098 -0.00018063533416336902 -0.001275425699765076 -0.0004079847285057142
          -0.07919550075718362 0.032307986549024004 -0.10063554323118973 -0.2792198900382179 0.05921502123908455 -0.23691976482675892
          -0.14118300908577108 0.04311243306375839 -0.14865587453412055 -0.003980563419680672 -0.059538521452622506 -1.3566886916670429
          -0.0742808079149258 -0.37600398199409135 -2.4787653849367626 -0.05934650371171374 -0.04925818351578076 -1.0666845305966464
          -1.31874739625705 -2.4146954445219246 -1.1601720964931133 -0.00007594148453418659 -0.0006624386539895444 -0.0022648870610949834
          -0.0019183293380647566 -0.00024689895977961576 -0.001379925162619311 -0.004936309556193397 -0.004111348622322731 -0.00011346967724698911
          -0.0005878648085264268 -0.002634960089367061 -0.002209664821200828 0.08885472730267685 0.33780492754804203 0.02259438600207464
          0.00543890427764325 -0.016336573443780145 0.02434324233416439 -0.0015959154957277469 -0.000013818420371299045 -0.0031353736770951823
          -0.000027128580363862398 -0.0014868834912491191 0.00006272575175333278 0.3622711769787786 -0.266219362143686 0.803492851496204
          -0.44561799317318396 0.4387958975663883 -0.023530141034139695 0.03143820098116601 -0.08900452819549631 0.10604594885283669
          -0.14981792212518963 0.002143302224351995 -0.03604352798309396 -0.0020593415601059886 -0.0041856482673280765 -0.0020003289094324
          -0.06664665146409043 -0.16259991392020423 -0.10658950474796103 0.15128688854512484 0.04873749210947598 0.14549510511733812
          -0.01886446085502247 0.01968230149921779 0.015484389644918939 0.05285196436293205 0.12105115286622425 0.0831610234465816
          -0.0024998276709095046 -0.055950218979228875 -0.04072344414491426 0.000029261856914833406 -0.0004045608937684464 -0.0002227639190838862
          0.0005933510380693452 0.013198472928117155 0.01950792232116738 -0.0031852631179991597 -0.007838054137638606 -0.0034788907454013085
          -0.0017885577367260895 -0.013567807160608347 -0.030848679042192545 0.12319778843219442 -0.1872104990803114 0.013471704998995193
          -1.3842766901487258 -2.524546700242592 -1.0947257653402944 -1.599058589845492 -3.112873595963041 -1.1455372309812586
          -0.005948506154046379 -0.01139102531919614 -0.005554403918833911 -0.0020901546271999217 -0.002013815352375825 0.00006577062639221559
          0.01457049046269443 0.017469825158797914 0.0008198209557321867 -0.002980873755334734 -0.0070437388721300564 0.0005280230244704143
          0.0026913914836788067 -0.008147529534672238 -0.005693347247605729 -0.0009757418768545634 -0.004716211760546152 0.0021032275108412435
          0.0033689801594931623 0.0038558176455882887 0.00967597981683177 0.0034014622678766315 0.012362571198775818 0.02595045812241903
          0.0019919721885521824 0.003744160565193333 0.0241532324694802 0.00022297746456079182 0.006571062153424734 0.030621310235513732
          -0.010560830756934703 -0.02269287548939536 0.0062207001871719125 -0.004469471754456222 0.004816260173744369 -0.012356389383380684
          0.005262404460435438 -0.004676021577144862 0.004860737411521154 -0.028948013149949908 -0.015289620597886966 -0.034771184552783385
          -0.03821353671235306 -0.06576385368777714 -0.028375791911199322 -0.07559036484870041 -0.037677724387927825 -0.007271286186567721
          -0.012934430219187387 -0.042111401653626146 -0.034173504647812436 -0.004289659816036906 -0.009693838392371978 -0.004078970098108037
          0.007969540150865706 0.01316759514118182 0.008215475014197171 -0.014019010464589199 -0.02474108505809064 -0.012194537123852489
          -0.0040448623131084105 -0.008999244239285886 -0.006779448821081502 -0.013832612453439808 0.004149681078846612 -0.0027559044326119775
          0.003285451731991351 0.00514084937488235 0.010323681081644054 0.00242907668830572 0.006949490568871397 0.013124338118182699
          0.0050732014786216695 0.006989374700200557 0.016048302987016427 0.0031685343617358086 0.005846111091262429 0.01716343653737784
          -0.0028742249577495826 -0.00721638684930781 0.009969706472166884 -0.010976342893500579 -0.02427053723627104 -0.005875017220427381
          -0.01674522460685779 -0.034269686939314425 -0.018135124140043146 0.09611328529221064 0.0028015189957399933 0.024573279126776093
          0.18538332054876694 0.007980457213789371 0.03804421780082734 0.08492543599251068 -0.001391804818617004 0.015171605253421205
        </DataArray>
        <DataArray type="Float64" Name="resid_y" format="ascii" RangeMin="-0.2029593537687398" RangeMax="0.3107704148654511">
          -0.0010968575046592793 -0.0006749877929801765 -0.0022479442949736445 -0.0020283315891982123 -0.0009889287189665287 -0.0013033913075001131
          -0.0004243986093293295 -0.0004260931395519557 -0.0013349760083272814 -0.002627967377539578 -0.0013030655610588165 -0.0018595857856734052
          -0.0005775739656950357 -0.0009702431676214367 0.001113300333955236 -0.0018851933206608662 0.0014562002606006014 -0.0027416118420389435
          -0.00040692039425210824 -0.0005365741831982185 0.0006476618199410672 -0.0028830729260345966 0.0010165509438572473 -0.0025251161216385265
          2.411550866221468e-7 -0.0009410390301644589 0.0008234203169540932 -0.0026089654589462608 -0.0009546061251132221 -0.002538237960973022
          -0.000021635810780462617 -0.0009320060535706887 0.0008708164707241783 -0.002311769907252903 -0.0020251872239913093 -0.0028886643586533145
          -0.000743397098515175 -0.0009315300153002748 0.00002120123992610523 -0.001759899836529244 -0.002575183471354825 -0.002592222338555328
          -0.0016234369478270727 -0.001306743351868589 -0.0006594320612759441 -0.0012021892718040439 -0.0018755994320367453 -0.001101899126044359
          0.008007661521619691 0.003614224004050426 0.009457440864022226 0.005564254732805085 -0.006134720783255887 -0.003468174463123419
          0.022432703557798583 0.00815746648170268 0.02339527870189284 0.013243590512447168 -0.012262307662228022 -0.002395851140190669
          -0.0023457041170144508 -0.003352689999268091 -0.001704871494234591 -0.0027301096009824805 -0.0027369288322726393 -0.0012108865519230294
          -0.0011639266302108792 -0.0017922125767547478 -0.0019251585508660296 -0.0012556598357399522 -0.0024999002959687523 -0.0024646364956041056
          -0.0018687825825953464 -0.0023686783073385703 -0.0025591671988510756 -0.001836944836756671 -0.002057572960340426 -0.0031084953203392995
          -0.0018503402209933961 -0.001985789107923297 -0.003626707297137044 -0.0020370705969638414 -0.0021915339833632475 -0.003961547805642618
          0.004129159581224673 0.005136845121890832 -0.0013829252867881836 0.0059930460360624604 0.017204616631848135 -0.0002769269024794213
          -0.0016460233547702444 -0.0010581858503361241 -0.00016887963021174068 0.00012825052820272798 0.0014247138588619757 -0.0004438777113140585
          -0.0010348696592223094 -0.0019613292710291136 -0.0012969096961482351 -0.0010386685688904274 -0.0007701837126034769 -0.0010378298276833287
          -0.0006271769246970482 0.0004464831226547797 -0.0010919599348734599 -0.00035019387676243907 0.0004586858221802548 -0.0017317848803028724
          -0.00036775829407820204 0.00032742795581636175 -0.00265929222871103 -0.0019600564332099557 -0.0023424302604270197 -0.004578770604152849
          -0.004521184449258697 -0.005880111999153226 -0.0025266723359633203 -0.022834110516032124 -0.014724368303288604 0.002067539724299128
          -0.00003102895784309889 -0.0016908122507754489 -0.004356475442155977 0.0006442213661069507 0.002018680795224062 -0.0003514049473854544
          -0.0005722388167680864 0.0007441812868199393 -0.00031763002484462566 -0.0007477901401657661 -0.00008171894316180012 -0.0009377362137590051
          -0.000756794406764974 -0.0003160834050353889 -0.001062404032663028 -0.0004057362542438381 0.0002718007157840596 -0.0013083228072275355
          0.0002791517157316181 0.0010525585860204356 -0.0021036863320244292 -0.0011856588594877648 -0.0017492407382690423 -0.004522685647868729
          -0.0034211491009009665 -0.0031596843009843723 -0.002269156640530026 0.013139466802729594 0.02065061430331938 0.0026843252472753543
          -0.0005302267202665356 -0.0037555396872211433 -0.0039178271997639125 -0.001381255424316441 -0.0008905965541353145 -0.0013471117030848245
          -0.0009269210659792054 -0.0004874668591301756 -0.0008669163644735925 -0.0009295818295911445 -0.0004376879865229666 -0.00030766069859760464
          -0.0004714427166839022 -0.0002702591827890878 -0.0006346104784883295 -0.00026413830561461404 0.00039723423355927934 -0.0008509423652784537
          0.0002741083444313397 0.001043524921568506 -0.001461178065125121 -0.0000873505548737441 -0.0004496110824002697 -0.00419305099341459
          -0.00518029989302124 -0.00452493846515549 -0.0015147396062258692 -0.011473373795820446 0.004165126572037048 0.003823656119003982
          -0.005817094270961887 -0.007550328761637415 -0.004787426728963928 -0.0005518968801040414 -0.0013599988675317004 0.0001752630180199416
          -0.0005643774551888775 -0.0011169458418306133 -0.0005135217262956723 -0.001983528553448518 -0.001346040666898321 -0.00017396915357618947
          -0.00040070736190594286 -0.0006628015241015792 -0.0005056988089872441 -0.00005986057388571164 0.0005430295373958435 -0.0005038187292490323
          0.00004178064363406786 0.0004984814236499435 -0.0013370010919337427 0.0006519484024358063 0.0007216721221961209 -0.0031730173985130075
          -0.00013391738847694235 -0.0006313518411394728 -0.0037484580195040057 -0.02238133955543503 -0.04003900699972879 -0.007031472507915415
          -0.0018910257335497949 -0.0048785436412500105 -0.0032390477546682672 0.005879132683557289 0.002181667592889673 -0.0010792019570835532
          0.0003478524637909458 -0.0009331314782465155 -0.0016005324688822542 -0.0028366332666967375 -0.0022084782017621277 0.0006170486332323366
          0.0007760677838972458 0.001177357795692481 -0.0002517754577387177 0.00015463506907323343 0.00013967881954551767 -0.000819049493805804
          0.0003250072899721873 0.0011238081601923147 -0.0011991936068821846 0.0003396166428168562 -0.0000836696991322397 -0.0029922501693198517
          0.013792864345013173 0.021362066578131195 0.0010800729742102486 -0.023112205265317043 -0.007983825041174841 0.01011368532670065
          -0.006395671286400062 -0.009392776581372941 -0.006261461709672622 -0.009155588614417898 -0.005043058039109427 -0.004026946068257264
          -0.008068610619209604 -0.006925744473574635 -0.001116086906588265 0.00026382632087520053 0.0033234022821860216 0.001834973315358368
          -0.000027747353990491275 0.0007838059577941967 0.0003072183084869562 0.0008884447361611897 0.0014075403280223234 -0.0006934903043245011
          0.0012807335296592115 0.002897786050181844 -0.0010368005118983475 -0.0012408901192271886 -0.0015158443368699093 -0.0038601040071474385
          -0.00652611472096494 -0.015040902960282713 -0.0103156099893085 0.016616407864826876 0.0027575126613522682 -0.011548707888079018
          0.006352270050199671 -0.002890248003744822 -0.005468440673932873 0.00019690334591970782 -0.002107242997710923 -0.002531382720896591
          -0.0006431810375712721 -0.0010665629185779846 -0.004409849751571826 0.000774166351454969 0.004835837457291575 -0.0007945890837527392
          0.00120041499942658 0.001699832305092741 -0.0019476338027862306 0.002675841299305648 0.004869496761726766 -0.0001630815122259932
          -0.008409068244794704 -0.01248542737805347 -0.0026736040722299403 -0.017424254802420158 -0.028288220140157305 -0.006549256859074037
          -0.0005442991235503521 0.002255934934053787 0.0064587748697503555 -0.002313647568203653 -0.0017482033470700847 -0.0033619570173106794
          0.010761479042852878 -0.003872887842691769 -0.0037753178959832774 -0.015736339686255207 0.004569505703696103 -0.001173653156709406
          -0.0014480642380242104 -0.0006573748566660385 -0.002984712050343896 -0.0012112529563305368 -0.0018557566578296936 -0.00023386836967690533
          -0.0008095893245115993 -0.00039855785049891946 -0.0008191166124587174 -0.0015001889547983024 -0.0010616051433547796 -0.0018616333876599056
          0.000835830540616516 -0.0007206874209592373 -0.0011223127085980833 -0.04042765626218159 -0.03881677116530169 -0.01368641278329584
          0.02758374324378199 -0.057897978675528594 -0.10984439877523933 0.035101285330217474 0.03785094814880258 -0.020495331952556817
          -0.07232687403645677 0.03435878346490839 0.008000951280645291 -0.07910445079022432 -0.016077993620268904 -0.017957909488382925
          -0.015353820131619678 -0.11864525186404307 0.006987172594989821 0.010007257880903855 -0.090600932492943 0.017848900561816983
          0.03462965637864174 0.05817595824609212 -0.028233973412862184 -0.017663265953049512 -0.005364703306946328 -0.02205639381023794
          -0.03544019516453292 -0.020767874486908977 0.004344347400934978 -0.008835758305831387 -0.014969138649559233 -0.00871800751348556
          -0.001384914893420519 0.007223404559883795 0.0029439516660057785 -0.031195731985927733 -0.07899320140211041 0.0871492394238928
          -0.04452067260387227 -0.00008291912179464456 -0.19363546639704654 0.1546780448270484 -0.014386309663680708 0.03615036793344273
          -0.12712246142338623 -0.0011557707349928656 -0.002261927526989227 -0.03970840864788294 -0.0839733388850337 -0.0772185389110903
          -0.19731928991265743 -0.03297481905524226 -0.03746924400113627 0.05289181857785391 -0.008920902598881536 0.01742227366707734
          -0.03133437579817028 -0.013623323543318716 -0.004031209769359334 -0.0026522818984057554 -0.0030775245410517016 0.0009014492868563567
          0.00043016037585419387 -0.009918977011141056 -0.0063577103248764755 -0.0004494118215161158 -0.006005091598438123 -0.008624189394523973
          -0.0034895459981650334 -0.0021991816575358814 -0.019994886363405767 0.0028626620368609 0.0016587184902718821 0.00236152739266546
          0.01715340820473829 0.0005137302628365377 -0.00029250093817079215 0.0017223883673141063 0.01475911827841453 -0.006136984137542401
          -0.008820997794270313 -0.0053287680787238775 -0.0014646565982306889 -0.00021410953722122983 -0.05696319461389676 -0.013530914914173131
          0.05104840662706872 -0.012635267076549772 0.030831796016326962 0.0013357340668370132 0.03349968351933196 -0.0030885322435011964
          -0.0021353099856449426 0.0026162182623333807 0.059771598101612824 -0.008763505939271748 -0.0016737603683672775 0.004441172949853189
          0.026738026148618366 -0.0022878709757324645 0.0027245076132434987 0.15798411536875068 0.2169890954249678 -0.04704110928447597
          -0.2029593537687398 0.3107704148654511 0.1519049780118219 -0.00536051113742389 -0.051582290925425336 -0.03461345043042452
          0.050296933670666566 0.00903612287761478 0.04209803621467985 -0.00013335776260544469 -0.0006115508150109864 -0.0018652781276864011
          0.00007564959618918711 -0.0004535684992347522 -0.0008746480949226604 -0.0015907105627928388 -0.00046830978038641183 -0.00032090264418629943
          0.00044441897216601634 0.001181406970225174 -0.001133730247228855 0.004598861115891584 0.0634330530190112 0.03455845352056619
          0.14253859244904343 -0.04608900072311256 0.08001338485425928 -0.0003482128857990596 0.008565225146393851 -0.010995974347740467
          -0.0027110376816640303 -0.0022471941167227782 -0.014532510711253277 -0.006853830825255203 -0.023028052645133912 -0.001585883251156106
          -0.002966339167677634 0.006988415036081275 0.0022608989865500057 -0.00007561402708117226 0.004216465696041005 -0.011225433485769112
          0.02248566752854872 -0.04439858249754819 -0.014862863956246086 0.015367157904952099 -0.05947693729177747 -0.0026075088066392915
          -0.035099488974673354 0.010297327493450803 -0.00016291546251623323 -0.008969360800087811 -0.08453444526484545 0.010016864333756703
          0.00017666222189088865 0.03315874364162097 0.00513987966405903 0.0062366170549182365 0.015895821224942458 -0.006474107052737592
          0.01314290655002659 0.035952059530283464 -0.01470015178864545 0.0013809262756014212 0.009611095509274428 -0.023274754729853565
          0.05969840482235293 0.06726431665602561 0.1066313922810889 0.09730255309159785 0.0220937224910287 0.01515186068281138
          -0.008850193128619288 0.015112174302761128 -0.0035949882121012466 0.060074507478158234 0.03967907609342969 0.058348688253577974
          0.05015355534244903 -0.017169742272905075 0.10570462597436103 -0.02772164916540293 0.0177726267036441 0.002999827229005811
          0.00011723634422929757 -0.009003345054784617 0.01879483488383482 0.005060970259457273 0.00010546679670836445 -0.012444564958795146
          -0.012291206594349013 0.025028785972819795 0.006706735606849423 0.0004024724276218139 -0.05926563275782193 0.007814007221029005
          -0.020454186181227282 0.02212469329911404 0.010455853105454951 -0.012843985579243933 0.014711357542673276 0.010979287595671905
          -0.0032513087163842103 0.0017756320159297012 0.01543106578086792 0.011380819024344346 -0.009730482417443564 0.029052905908808824
          -0.00864758327264381 0.012553896868633424 0.0041279383968378935 0.024627395607931313 -0.028955557191000958 0.011699844373710522
          -0.08915126800462153 -0.005992219528235976 -0.0193951271039417 0.11939315400389428 0.0033380098559565308 0.15462163682264976
          -0.010041157199359815 0.07037905534718575 -0.02930899182548602 -0.01400744337979698 0.011848858877839819 -0.07381429753610103
          0.01599044190760024 -0.019479444583801547 -0.012837312999780276 -0.00042824803349999184 0.00006509473709430218 -0.0002915282682976611
          -0.0009610568695257674 -0.0005581567075909344 -0.00048443396464730587 -0.00043626968424174354 -0.0007265853262138321 -0.00012528960878951598
          -0.014498922507563017 -0.014401880805271494 -0.01739249985493596 -0.06958076614984554 -0.013190064964344161 0.021838129664454975
          -0.02598933109831625 -0.006305720045278518 0.011502075153037694 -0.002414544831657983 -0.013880848574702093 -0.013194078478369557
          -0.014576500543606652 -0.00007167764414145461 -0.03653862561285844 -0.019976418407898253 0.0007903281279531826 -0.0022264738417046813
          0.018324150922456463 0.08037352131286045 0.010344574080913566 0.000025370155038496184 -0.00023139225891778692 -0.00014216208849403972
          -0.0009165054835769668 -0.0001560237355251893 -0.0005021370042231632 -0.00005465458407095253 -0.0019891080791555483 -0.00018124571719899812
          -0.00014219135692895152 0.0001760415949506669 -0.0011330995201672446 0.00376987574537678 0.04341736962303033 0.008103827830723331
          0.00785994325809658 -0.00808718956018846 0.0027585530918398105 -0.0001517254386475854 -0.001240687766217146 -0.00043236911085568763
          -0.002524167069377959 -0.00023829038558702276 -0.0013441855908305836 0.025864702477513823 -0.0716333882019009 -0.028435855071181404
          -0.14409048945762395 -0.04112822865806515 -0.05170606925617505 -0.009676418088139793 -0.057774912614196594 -0.02850092765956075
          -0.15858747455073988 -0.007288959659431521 -0.00689565235653028 -0.002188939691833775 -0.004228400030663383 -0.0020544605010864997
          -0.0585833402097482 -0.16341363074835558 -0.11062932920325097 0.14119523208079165 0.09753431503885468 0.047522441398334836
          0.05518517097296516 -0.04446364920027779 -0.021989996888459595 -0.011210496178246543 -0.027866827678053874 -0.0011234022973259927
          0.004231108513651327 -0.012340240231773035 -0.04434095134587315 -0.000612304829817912 -0.0013141529032461366 -0.000671823049417989
          0.008682432034993692 0.0082690985961405 0.001223433038829047 -0.0014657253121185265 -0.000051020415374962436 -0.000030818919321023985
          0.0018238522900732024 0.012279021360004264 0.02527170050684835 -0.001905070703613121 0.14437388431540554 -0.041213863984789156
          0.010349420247792849 0.05287706481581161 0.027257626310793696 -0.002100189027753524 0.000589357217134101 -0.0005174869952264943
          -0.0019429403075316848 -0.0038045474722312594 -0.002052894793211274 0.0004431148073609798 0.0000359034690680278 -0.0009687067493431394
          -0.009753261732551088 -0.023030624218989715 -0.0166329655339022 -0.010470319487012242 -0.021981175769493516 -0.013276989881948573
          -0.001533750786366847 -0.0013066459887835155 -0.005459145566013596 -0.006055884929222433 -0.009608847569054002 -0.0035284709709826334
          -0.00663712825137619 -0.010423727626008572 -0.00626006430620768 0.0017392668177602655 0.00511972797966509 0.0026782604208420713
          0.0026048259150039943 0.006621696931162102 0.002857733775278204 0.00040178960199543923 0.0017002999731026147 0.0016517343114508254
          -0.005101746087421533 -0.0075983504895970055 -0.004835726206793178 -0.000761961649659193 0.0038764780226738793 -0.00004866506593309561
          0.011012292593752804 0.0007614765109106997 0.005525895516361179 -0.020560582087922274 -0.005194192415057641 0.04409565446828173
          -0.04632080743422318 -0.05148994656115796 -0.008693489361526363 0.0967968886688998 -0.10863612154691227 -0.01698758399334066
          -0.010986405900372198 0.03486147621698438 -0.04202490792553293 0.0011154546233858587 0.0029788807319036936 0.0017298177074908105
          -0.014307174279812956 -0.018957336878031333 -0.003994768991979036 -0.0015084136295286377 -0.001970904336736662 -0.0029749961050316576
          -0.00012945160482605994 0.001577334887090165 0.0013690995368299264 -0.002718702974039533 0.0013462645887836744 -0.006126757794615745
          -0.007395062950404818 -0.0172221954734062 -0.009706275774995388 -0.006119157425682142 -0.010295189694089935 -0.005819014203542416
          0.003415610023958432 0.004814637146264955 0.002223839501167668 0.0037127810060910704 0.007419192714674838 0.004428813076026383
          0.001733828178866359 0.0026814368880416772 0.00008631854438934106 -0.0027133265166559006 -0.004310161017182512 -0.005217374733854641
          -0.012139505564767061 -0.02329957483898637 -0.011471901387001049 -0.028572832253705216 -0.0015184942071205243 -0.03665911330194971
          -0.05607073021075182 -0.002213343281706054 -0.06769126039916773 -0.0286484643775482 -0.005132704940004869 -0.03567481361709024
        </DataArray>
        <DataArray type="Float64" Name="resid_z" format="ascii" RangeMin="0" RangeMax="0">
          0 0 0 0 0 0
          0 0 0 0 0 0
          0 0 0 0 0 0
          0 0 0 0 0 0
          0 0 0 0 0 0
          0 0 0 0 0 0
          0 0 0 0 0 0
          0 0 0 0 0 0
          0 0 0 0 0 0
          0 0 0 0 0 0
          0 0 0 0 0 0
          0 0 0 0 0 0
          0 0 0 0 0 0
          0 0 0 0 0 0
          0 0 0 0 0 0
          0 0 0 0 0 0
          0 0 0 0 0 0
          0 0 0 0 0 0
          0 0 0 0 0 0
          0 0 0 0 0 0
          0 0 0 0 0 0
          0 0 0 0 0 0
          0 0 0 0 0 0
          0 0 0 0 0 0
          0 0 0 0 0 0
          0 0 0 0 0 0
          0 0 0 0 0 0
          0 0 0 0 0 0
          0 0 0 0 0 0
          0 0 0 0 0 0
          0 0 0 0 0 0
          0 0 0 0 0 0
          0 0 0 0 0 0
          0 0 0 0 0 0
          0 0 0 0 0 0
          0 0 0 0 0 0
          0 0 0 0 0 0
          0 0 0 0 0 0
          0 0 0 0 0 0
          0 0 0 0 0 0
          0 0 0 0 0 0
          0 0 0 0 0 0
          0 0 0 0 0 0
          0 0 0 0 0 0
          0 0 0 0 0 0
          0 0 0 0 0 0
          0 0 0 0 0 0
          0 0 0 0 0 0
          0 0 0 0 0 0
          0 0 0 0 0 0
          0 0 0 0 0 0
          0 0 0 0 0 0
          0 0 0 0 0 0
          0 0 0 0 0 0
          0 0 0 0 0 0
          0 0 0 0 0 0
          0 0 0 0 0 0
          0 0 0 0 0 0
          0 0 0 0 0 0
          0 0 0 0 0 0
          0 0 0 0 0 0
          0 0 0 0 0 0
          0 0 0 0 0 0
          0 0 0 0 0 0
          0 0 0 0 0 0
          0 0 0 0 0 0
          0 0 0 0 0 0
          0 0 0 0 0 0
          0 0 0 0 0 0
          0 0 0 0 0 0
          0 0 0 0 0 0
          0 0 0 0 0 0
          0 0 0 0 0 0
          0 0 0 0 0 0
          0 0 0 0 0 0
          0 0 0 0 0 0
          0 0 0 0 0 0
          0 0 0 0 0 0
          0 0 0 0 0 0
          0 0 0 0 0 0
          0 0 0 0 0 0
          0 0 0 0 0 0
          0 0 0 0 0 0
          0 0 0 0 0 0
          0 0 0 0 0 0
          0 0 0 0 0 0
          0 0 0 0 0 0
          0 0 0 0 0 0
          0 0 0 0 0 0
          0 0 0 0 0 0
          0 0 0 0 0 0
          0 0 0 0 0 0
          0 0 0 0 0 0
          0 0 0 0 0 0
          0 0 0 0 0 0
          0 0 0 0 0 0
          0 0 0 0 0 0
          0 0 0 0 0 0
          0 0 0 0 0 0
          0 0 0 0 0 0
          0 0 0 0 0 0
          0 0 0 0 0 0
          0 0 0 0 0 0
          0 0 0 0 0 0
          0 0 0 0 0 0
          0 0 0 0 0 0
          0 0 0 0 0 0
          0 0 0 0 0 0
          0 0 0 0 0 0
          0 0 0 0 0 0
          0 0 0 0 0 0
          0 0 0 0 0 0
          0 0 0 0 0 0
          0 0 0 0 0 0
          0 0 0 0 0 0
          0 0 0 0 0 0
          0 0 0 0 0 0
          0 0 0 0 0 0
          0 0 0 0 0 0
          0 0 0 0 0 0
          0 0 0 0 0 0
          0 0 0 0 0 0
          0 0 0 0 0 0
          0 0 0 0 0 0
          0 0 0 0 0 0
          0 0 0 0 0 0
        </DataArray>
        <DataArray type="Float64" Name="stress_zz" format="ascii" RangeMin="-116316975.94572854" RangeMax="176192827.51642323">
          1110667.953605926 1202232.7244684468 526217.2743645827 615323.9690707929 -58233.40487676038 28415.213673138904
          570153.3346465963 795008.9146295576 -11986.432137218071 153696.00368962652 -594126.1989210325 -487616.9072503046
          -1128776.237670422 -1001029.3863711818 -1349638.2909045808 -1296615.633887356 -1570500.34413874 -1592201.88140353
          -2722228.2256465 -2847483.6839801767 -2396058.6544326916 -2541379.372929434 -2069889.0832188828 -2235275.061878691
          -2906605.3864453277 -3133803.98647449 -2206125.424384554 -2408340.668661461 -1505645.4623237795 -1682877.3508484326
          -2190635.2676378377 -2517773.5252765315 -1445917.53442381 -1718010.2909543235 -701199.8012097818 -918247.0566321154
          -551170.2696547457 -953763.9760046935 -167087.09103358453 -565984.2779437272 216996.08758757665 -178204.57988276082
          2415689.075777225 1349069.7701440174 2078628.0718102574 712850.6550541321 1741567.0678432896 76631.53996424694
          5723737.862086227 5168535.76393518 3791821.0173895224 3138210.5240203235 1859904.1726928183 1107885.284105467
          31272954.277877413 10488899.95654116 24659880.281062853 6234531.499317235 18046806.284248296 1980163.0420933103
          771690.5948029576 221069.00480878522 -329552.5851853872 -62859.737458081705 -482063.48671162245 -901267.2359651632
          -1434177.9379549453 -1488288.5240630826 -1542399.1101712205 -2417476.1135015683 -2050586.587907607 -1683697.0623136456
          -2349166.6429453287 -1712706.585781396 -1076246.5286174628 -1275137.051405572 -676073.3408112805 -77009.63021698894
          826067.9459877072 1210442.1204371 1594816.2948864927 3777338.2043636777 4056327.1820252505 4335316.159686822
          5918477.173968663 4449260.904869881 2980044.6357710995 -1273304.7509797474 -4439660.3557511065 -7606015.960522467
          -33319.21097116615 -407779.6535108414 -782240.0960505166 -1096762.6304737173 -1203044.4742129976 -1309326.3179522778
          -1921109.2417764394 -1712432.1175902504 -1503754.993404061 -2165988.4039884135 -1698701.5916234585 -1231414.7792585036
          -1653997.2618119386 -1087525.8905850637 -521054.5193581886 144213.32002481085 539378.515866909 934543.711709007
          2873993.3543056864 3234604.903077552 3595216.4518494178 4206088.618761748 5059585.42850083 5913082.238239912
          1135678.041338618 570417.175718341 5156.310098064365 -448564.5602375133 -2439607.5920341127 -4430650.6238307115
          -1747252.6878591075 -1589946.8021008028 -1432640.916342498 -2719274.225538827 -2210968.3784333253 -1702662.5313278236
          -2762763.6647439064 -2073483.3182781248 -1384202.9718123432 -2136699.5522558885 -1452914.01907836 -769128.4859008318
          -866021.5722659765 -365494.3533987327 135032.86546851092 1763697.6572664173 1932846.5387832809 2101995.4203001442
          4885350.024762569 5129645.72879797 5373941.432833373 4261984.96909314 5449809.674350709 6637634.379608277
          -3102623.538097063 -3156136.36108207 -3209649.184067077 -5502451.834713621 -7734565.7081250325 -9966679.581536446
          -4732106.585508367 -3478079.006525496 -2224051.427542626 -5065800.514508116 -3547947.847494058 -2030095.1804800003
          -3989871.391986507 -2599885.1053401562 -1209898.8186938057 -2241050.5590661014 -1278030.5930425702 -315010.62701903866
          -31723.665131629066 395365.07858644694 822453.8223045229 3181877.234112164 3127659.6969415294 3073442.1597708953
          6379483.058255759 6367364.775195821 6355246.492135883 4786180.677685158 5690619.086237163 6595057.49478917
          -3208401.5245192638 -3629555.6873685927 -4050709.8502179217 -16781060.92606246 -19997424.973917972 -23213789.021773484
          -8680273.348011265 -5837273.1340313535 -2994272.9200514434 -7742677.9673121795 -5020002.864625651 -2297327.761939124
          -5298864.912653155 -3202852.2414545217 -1106839.5702558889 -2344087.3054796956 -1142006.3479665585 60074.60954657852
          728964.0835263846 1074961.5712329324 1420959.05893948 4191134.295841323 3885286.4439071314 3579438.5919729397
          7374806.015606415 6908780.021791777 6442754.027977138 6101675.258285367 5945277.676504296 5788880.0947232265
          -2462584.803753943 -3876627.659997747 -5290670.51624155 -7528613.697502395 -11674123.839228699 -15819633.980955007
          -11787530.771280034 -8009675.525450949 -4231820.279621866 -9436297.08386064 -6255840.06168667 -3075383.0395127023
          -5968214.511443913 -3771801.5641396972 -1575388.6168354813 -2241321.387984795 -1143993.59573084 -46665.80347688509
          1393028.0667251544 1526001.4207524154 1658974.7747796765 4867596.469645202 4240232.23521943 3612868.000793658
          7908375.399394257 6854208.8437200105 5800042.288045764 8174045.6030083895 6672637.06121031 5171228.519412234
          2457383.450859286 -170241.32653864683 -2797866.103936579 -3068502.3519065287 -5569638.937815599 -8070775.52372467
          -9394260.900437523 -9553092.654766846 -9711924.409096172 -6302984.949445802 -7233023.140244564 -8163061.331043325
          -2955027.32753212 -4505168.74652088 -6055310.165509639 311933.66299750574 -1568017.0585817373 -3447967.7801609803
          3313503.5791267813 1497723.070471083 -318057.4381846151 5859590.703904168 4527695.079659575 3195799.4554149797
          7219895.4164017765 6869782.517269915 6519669.618138052 7988436.277538497 8733380.533571627 9478324.789604757
          6507186.432270353 8451996.644290408 10396806.856310463 -1380618.152925818 2828630.2516399804 7037878.656205779
          108166.01027124136 -3673258.88123254 -7454683.77273632 2272264.775054463 -1097255.5938305792 -4466775.962715622
          4175426.878970887 1645937.606336084 -883551.6662987189 5530416.6370846685 4312000.105955848 3093583.574827025
          5479408.045709314 6137263.487823089 6795118.929936864 4905623.135016384 7431199.663060069 9956776.191103756
          9324192.542060846 14291337.000149218 19258481.45823759 6469315.212507133 12108167.764879664 17747020.317252196
          1610131.60525778 -30906142.144398075 -19298125.17633596 -102931.57177578798 -2992061.411570524 -29214762.809188254
          -16591982.55335005 -2994478.378529884 -7594254.428398827 -27523383.47397844 -13885839.930364143 -5886025.185283979
          25143991.26366532 19300127.170462538 15306276.39819897 13595896.419430068 5468561.532732622 7891665.668397601
          26450340.755861063 43629722.511674315 54762157.95731492 17566698.70270393 28676049.683022965 42166978.10090046
          8683056.649546808 13722376.854371605 29571798.24448599 21268498.68640938 11205378.046454366 62347951.86468282
          25924964.047984466 18550612.105210062 8104012.021206155 61444363.1524295 27000620.600525852 15832725.524010744
          5002645.995957946 60540774.44017619 28076277.153067235 -7540090.881054091 -36516879.3561392 -47331158.52004227
          -45332626.28813371 -1126690.2798010083 -25125006.091692127 -29262082.900689013 -24532794.844372083 5286710.321452076
          -13733132.827245066 -11193007.281335754 -3732963.4006104544 15737813.17323203 16412127.29113603 43623750.83954187
          13132750.311554896 14090329.176005144 11196327.496739153 39872246.432574816 10963730.402327029 12442845.178778257
          5980527.702342279 36120742.02560778 8794710.493099164 -37495790.965472534 17772073.90456933 -7218171.482053468
          -19318179.83360347 -27655209.57888276 26650100.16339155 -1623774.8949535235 -13336289.673250647 -17814628.192292985
          35528126.42221377 3970621.692146419 -7354399.5128978165 5713947.8149260655 75367.7301423112 11256630.545923634
          -170762.50050269172 16799313.2769212 -416892.7311476972 31421641.097318724 14879600.615638562 30890495.26937597
          10393778.912348052 30359349.44143322 5907957.20905754 -10561109.286482662 22065709.89936037 28834813.323680233
          -70495301.7403359 -4688890.13329073 13710057.62030454 3760994.113878572 -51271515.88444934 1183329.019901203
          5354405.341248709 -21312825.095923085 -32047730.028562788 35060300.407908276 48199454.3592266 21412858.61012651
          6266599.410619068 25323320.637427658 41340369.858033404 18575150.942064393 1315091.753355629 15586340.866947038
          34481285.35684021 15737443.274002274 -3636415.9039078057 -63377067.009387605 -50189623.391003005 -65193550.249428846
          -45439754.38157159 -67010033.489470094 -40689885.37214017 -16026317.20548293 -7348876.366979485 -886495.0120027999
          -767279.8676522113 -15413036.890372852 -5610436.54988128 -503689.2102694296 -2317130.1293975483 -14799756.575262774
          -3871996.7327830764 -120883.40853605932 -3866980.391142886 109353489.86850435 176192827.51642323 16590512.520753123
          47055524.42656741 83308123.53813167 151310074.3525913 21955628.615807563 41273455.31072947 57262757.20775899
          126427321.18875939 27320744.710861996 35491386.19489153 74586473.20187527 62927296.842010826 61000164.06050656
          81169058.81839587 36985422.60880638 26699761.415756732 39114854.99524574 53103222.73499696 -615627.9842625037
          -9527774.01049736 17229545.929984927 25037386.65159805 12853863.705969268 -22195173.35265519 24978640.626311436
          -12979611.164446546 37103417.546653606 -3764048.9762379024 5873612.48867723 4327440.963537244 2781269.4383972604
          -34599437.760685906 -52122803.31939232 -20910706.889102925 -42993087.04789849 -7221976.017519939 -33863370.77640466
          -58518964.19594044 -67369183.72661458 -50308774.00289975 -40032723.62043824 -51541202.25432731 -43688338.97695091
          -21546483.044936042 -35713220.78204005 -37067903.95100208 4868364.422417164 10291858.577675786 65435048.00200553
          49607938.73115519 -21480048.135354027 -21196811.528337877 55925517.22369114 37563240.0732865 -47828460.69312522
          -52685481.63435154 46415986.44537675 25518541.41541783 18648680.092900258 9215630.059139734 17558858.62403335
          15365870.302590558 5184953.949343292 11505344.543723786 12083060.512280857 1154277.8395468446 5451830.463414223
          6147064.921987782 -9940436.891128387 12684735.616153887 -12726669.62139549 19222406.310319997 -15512902.351662595
          -75294211.32882392 -42513306.294378854 -47862555.03948226 -30108696.517462414 -20430898.750140592 -17704086.74054596
          -51371303.85817698 -44722750.65927707 -27084914.10317786 -34683057.50897713 -2798524.3481787476 -24643364.358677197
          94699473.85299262 87133926.72707663 64011345.63715943 104051885.49333291 81640353.12235749 78767722.49704897
          57361619.50063424 93155431.10072048 68581232.39172235 70401518.26702131 50711893.36410906 82258976.70810805
          8672382.035306074 36887604.42816563 28554630.29333877 8914914.10588455 26503412.03403505 17645116.701656297
          9157446.176463027 16119219.63990447 6735603.10997384 -22794576.553580437 -23369889.748160157 -18840708.26897091
          -16011672.273950486 -14886839.98436138 -8653454.799740812 4357497.411600828 4569468.519109076 6182388.090501559
          4701239.3236938035 8007278.769402291 4833010.128278531 -30969569.018365905 -22662885.322229743 -25661267.127870943
          -39782707.06827226 -20352965.23737597 -56902528.81431478 -29803024.190257806 -16688921.486530025 -24730493.132072415
          -8426769.645918183 -19657962.073887017 -164617.80530633964 52758928.50340347 33648163.548994645 40141034.79890373
          33502817.89387898 21848558.49177611 25947390.372673266 14246707.2843545 10048953.434557574 11753745.946442794
          -5137522.71360881 -5064642.486408092 6960016.628430572 -2916416.575636167 -314183.6941502752 20056472.36382223
          -695310.4376635244 4436275.098107541 33152928.099213883 4300602.1473451685 5044295.666692903 -43809052.145486794
          4906046.769641387 9641465.294136662 -37004096.15395118 5511491.391937605 14238634.921580423 -30199140.16241557
          3615266.3128606454 7481044.9932849035 11346823.673709158 20451753.90205982 17620011.65561426 11124493.804058503
          10433964.995785587 12116864.817753054 10881790.75575673 6011783.789331424 3999517.678148666 3781975.733446287
          4143569.8558991994 899073.7746043442 -2434929.6394882537 45289837.422470786 -36699634.17246303 52469900.78901823
          -22375174.78100935 59649964.15556568 -8050715.389555673 25723782.6733553 30171991.189466797 16640843.334081765
          18748923.383375455 7557903.994808231 7325855.577284113 57729875.84017104 -74790334.4938988 44256985.34606638
          -56127127.55754125 30784094.85196172 -37463920.62118368 115977786.0656262 -43587069.445281975 99504113.2180836
          -48104962.883662105 83030440.37054102 -52622856.32204223 13247694.58159248 9044419.245164447 4841143.908736415
          -4693146.784502038 -2152050.9448285988 389044.89484484005 56055337.64061166 89901300.28462355 60653491.460678615
          90377428.78197151 65251645.280745536 90853557.27931948 -10606099.889888559 2562435.9507490485 15730971.791386658
          -80752767.18969646 -52001229.68379281 -23249692.17788914 68963311.48614788 47893645.54928282 26823979.61241776
          -19808157.424300417 -13612267.801842015 -7416378.179383613 6018374.137904326 2994986.6729574692 -28400.791989388315
          -116316975.94572854 -91424379.60900803 -66531783.272287525 95356938.34468578 79885084.00142984 64413229.65817389
          146628227.40025124 122784169.50300398 98940111.60575674 -11415498.571957102 -18588435.85731601 -25761373.142674915
          7375112.8841504175 2949479.356057616 -1476154.172035186 64019133.11236205 25938208.143803958 -12142716.824754136
          2339527.8346381467 2353289.3928562524 2367050.951074359 4393446.843215608 5392649.782596658 6391852.721977709
          3310430.9371442054 3415039.6318336627 3519648.3265231205 3798034.9955042955 4605327.694931808 5412620.39435932
          3706404.181686858 3877708.6362545015 4049013.0908221453 2873048.259578378 3140651.8224838413 3408255.3853893047
          1727629.4076734928 1301798.2411295876 875967.0745856822 3621850.9281036872 3138571.504965647 2655292.081827607
          6412564.119829304 5799518.381958956 5186472.644088605 306331.0136187586 -4211678.313346745 -2916078.457411866
          -6878754.141297446 -6138487.92844249 -9545829.969248144 430131.7764008427 2281404.085888276 2322346.244614738
          -1626135.5259984198 -405673.0487753889 1478462.9895391124 2909276.6239239248 -2023772.4910051564 -1241477.8739516204
          675521.8931899497 3496207.0032331096 -2421409.456011893 2972475.1528113284 1851932.2497820545 731389.34675278
          4978481.8347930685 4412368.671586107 3846255.5083791455 3981344.552023277 3049730.8894630847 2118117.226902893
          3360243.31106638 5180955.250650631 3197812.3546719067 4981117.494887994 3035381.3982774336 4781279.739125355
          2307141.0631386996 2741763.9829796217 3176386.902820544 409229.28805637866 274483.3883301191 139737.48860385956
          -522248.3868102203 -635064.8000149997 -747881.2132197792 -4254490.748043433 -5538627.522195144 -6822764.296346854
          -6687135.480924323 -8483961.594896622 -10280787.70886892 2665876.0384930596 2466142.4622925827 2266408.8860921073
          8293509.961401915 8327170.062124739 8360830.162847566 2852398.5926298527 5201063.236231044 2207082.9942095177
          2680909.988710473 4240257.538651645 1957142.6233462237 2509421.384791094 3279451.8410722474 1707202.2524829293
        </DataArray>
        <DataArray type="Float64" Name="peeq" format="ascii" RangeMin="0" RangeMax="0.08793176462169403">
          0.00006760662903306219 0.00005775877735767854 0.00008339221813426296 0.00007153600504215181 0.00009917780723546371 0.00008531323272662508
          0.00006225244339964674 0.0000368375334929626 0.00009330852520176333 0.000065899527685569 0.0001243646070038799 0.00009496152187817537
          0.0001949817905104671 0.00014525227147561552 0.0002487969261465469 0.00019744852617312723 0.0003026120617826266 0.0002496447808706389
          0.0006627788829364934 0.0005834172520510282 0.0007459381325912251 0.0006659829845920164 0.0008290973822459569 0.0007485487171330046
          0.0017668859894441244 0.0016609195388620271 0.001874637823049223 0.0017708039795070662 0.0019823896566543214 0.001880688420152105
          0.003881846241990892 0.0037653940917264156 0.003983137210482099 0.003871644725296854 0.004084428178973307 0.003977895358867293
          0.007403710681708188 0.007308008825078976 0.007436963740021547 0.007345087202843993 0.007470216798334905 0.007382165580609009
          0.01283048879543168 0.012808229447514877 0.012705888434261738 0.012680002904908892 0.012581288073091796 0.012551776362302907
          0.021705446584660847 0.022001519902658945 0.021289182837555216 0.021560475042995436 0.020872919090449592 0.02111943018333193
          0.03351243266879943 0.032792006188623435 0.03266613115312066 0.03200891348283372 0.0318198296374419 0.03122582077704399
          0.00010001199146799424 0.00012224516354660082 0.0001444783356252074 0.0001417631455091556 0.00017964651942752567 0.00021752989334589574
          0.0003468041346169343 0.0004063709730565419 0.00046593781149614956 0.0009020127774521081 0.0009869108126092964 0.0010718088477664849
          0.002082349654614827 0.002183420694323366 0.0022844917340319047 0.00422400428111661 0.004310925705116153 0.004397847129115697
          0.0076830335901665004 0.007704892793099429 0.007726751996032356 0.012883242496299137 0.012769115453966747 0.012654988411634361
          0.020854292751723513 0.020506529292963437 0.02015876583420336 0.029849658609503314 0.02921563965122538 0.028581620692947448
          0.00016490368722312632 0.0001987066402159341 0.00023250959320874189 0.0002871490630529347 0.0003374570503848124 0.00038776503771669005
          0.000611205305442575 0.0006806190405007483 0.0007500327755589216 0.0013057511621225248 0.0013917280925078912 0.0014777050228932573
          0.0025997941970947775 0.0026883077643416412 0.0027768213315885054 0.004770436862901064 0.004834653417408831 0.004898869971916596
          0.008113866939324702 0.008118032901247034 0.008122198863169365 0.012931150543375996 0.012831872370768545 0.012732594198161092
          0.019546200442839307 0.019302647722045402 0.019059095001251494 0.02646905306365819 0.026136694689835243 0.02580433631601231
          0.00028204520373669014 0.00033205136575750776 0.00038205752777832527 0.0005211766369626478 0.0005873085996456817 0.0006534405623287155
          0.001007197916209173 0.0010860907930744712 0.0011649836699397695 0.0018792789494027785 0.0019607881919220327 0.002042297434441287
          0.0033035690155718187 0.003371330091275584 0.0034390911669793496 0.005482558069147414 0.0055171114044540925 0.005551664739760772
          0.008635469600723417 0.008618952572502909 0.008602435544282399 0.012910526481380148 0.012828511039924884 0.01274649559846962
          0.01798265465652828 0.017858057351109177 0.017733460045690076 0.021422038872840374 0.021362490517302435 0.021302942161764496
          0.00048439670459926056 0.0005491901595272429 0.0006139836144552254 0.0008786775938346423 0.0009549624457235787 0.001031247297612515
          0.0015592840590260542 0.0016366659412828093 0.001714047823539564 0.002623405420596285 0.0026869237783788756 0.002750442136161466
          0.004165538315434504 0.00420150231004715 0.004237466304659796 0.006303295403766997 0.006303508213949333 0.00630372102413167
          0.009165210096920878 0.009129928129039974 0.009094646161159075 0.012749178438556372 0.012689765979083787 0.012630353519611202
          0.016314136607187918 0.016300724133863364 0.016287311660538806 0.017910634998835814 0.018059524818933914 0.018208414639032014
          0.0008187508949994218 0.0008795075974274494 0.0009402642998554772 0.0014034629946158969 0.0014646207604523684 0.0015257785262888404
          0.0022919607746952645 0.0023397049548433396 0.0023874491349914146 0.0035305371895192955 0.003552019771239698 0.0035735023529600996
          0.005143426108124052 0.005133758054255198 0.005124090000386343 0.007160993207740816 0.007125901453364366 0.007090809698987916
          0.009612424697301277 0.0095680021876255 0.009523579677949725 0.01238321215093165 0.012360518703761411 0.012337825256591176
          0.014548683428460623 0.014642994905223316 0.014737306381986014 0.014839380028937128 0.01516152024657279 0.015483660464208448
          0.0013326622150886193 0.001348350404312376 0.0013640385935361331 0.002130419938284627 0.0021307489364179462 0.002131077934551265
          0.0032138444763603526 0.0031900200154423254 0.0031661955545242973 0.004576177706050448 0.00452602611024352 0.004475874514436591
          0.006180116894744502 0.006112374960732735 0.006044633026720967 0.00797626128542127 0.00791100034076091 0.007845739396100553
          0.009895709526054777 0.009862095214348502 0.009828480902642229 0.01175594279400516 0.011797119549895482 0.011838296305785803
          0.012708974392007927 0.012915577211219387 0.013122180030430851 0.012063469606333338 0.012494948118832328 0.01292642663133132
          0.002024586371198742 0.0019872016264627004 0.0019498168817266587 0.0030351262166377815 0.0029726484937710037 0.002910170770904226
          0.00427649787132384 0.004188647904654378 0.004100797937984914 0.0056919187655458565 0.005587107704421253 0.0054822966432966505
          0.007192370351613921 0.007089086816256234 0.006985803280898546 0.008665354306707132 0.008591421857234011 0.008517489407760892
          0.009963804715732077 0.009953960955403905 0.009944117195075732 0.010870886828741997 0.010969298279916707 0.011067709731091415
          0.010835615995478162 0.011096124405833786 0.011356632816189406 0.009705793701870979 0.010106613836830059 0.01050743397178914
          0.0052886813831825395 0.005207742415289254 0.005126803447395969 0.0066446576811539405 0.006555770417211828 0.006466883153269714
          0.007946155548057223 0.00786475082382084 0.007783346099584455 0.009043969798517975 0.008991071443968136 0.008938173089418295
          0.00975251740737786 0.009752768481305678 0.009753019555233498 0.009838825099819402 0.009920771217417846 0.010002717335016289
          0.009008615096629665 0.009189009992454244 0.009369404888278818 0.007696079132041374 0.007951363749565954 0.008206648367090535
          0 0.00012827318383547048 0.00016998350437077693 0 0.0004880394165588706 0.0014943883746997761
          0.0002986293565722102 1.228827538434742e-7 0.0009760788331177412 0.002860503565564082 0.0004272752087736435 2.457655076869484e-7
          0 0 0.00012114051787522787 0 0.00024228103575045574 0
          0 0 0 0.00028028501774866475 0.00003733473050451098 0.00012099967038415829
          0.0005605700354973294 0.00007466946100902196 0.00024199934076831657 0.0446613506296453 0.041076844767125524 0.05178943773422724
          0.0520330569872895 0.043387867770743646 0.040202313535504616 0.050346770214906855 0.050397594340470406 0.04211438491184199
          0.0393277823038837 0.04890410269558648 0.0487621316936513 0.0152807783937334 0.009502949690633707 0.007471033041520242
          0.010004433296864377 0.01833029262781169 0.011679064038829855 0.00986231951364433 0.01276480769761857 0.021379806861889977
          0.013855178387026008 0.012253605985768422 0.01552518209837276 0.02661517292503167 0.02669158663781613 0.03193536823730686
          0.030911048192408364 0.02649482050823507 0.02676029740085717 0.031634383615605575 0.030515651881648242 0.02637446809143847
          0.026829008163898205 0.0313333989939043 0.030120255570888117 0.012842274897159231 0.014053838265212202 0.010011465229443295
          0.008415444424930247 0.013638923081510634 0.014666809010823696 0.010672480444419204 0.009172922041456944 0.014435571265862035
          0.015279779756435187 0.011333495659395114 0.009930399657983641 0.008212096443297222 0.010310965003830188 0.008646251600124976
          0.010871700744842309 0.009080406756952734 0.01143243648585443 0.036312468674462646 0.033499824368496085 0.035644786968685505
          0.03323432112835037 0.03497710526290838 0.03296881788820466 0.000007264178620147327 0 0
          0.00035593084216720513 0.000671571401306521 0.00047844781729246906 0.0005565711305669099 0.0020729844882233423 0.0013358786239928947
          0.0009568956345849381 0.0011131422611338198 0.0037900381342794794 0.04089686813650443 0.04028345796655559 0.047930650017298446
          0.045512557836020956 0.039794597577389276 0.039118338081155855 0.046347433473700184 0.04414943533114504 0.03869232701827413
          0.03795321819575613 0.04476421693010192 0.04278631282626913 0.04274491286492426 0.056250753670617194 0.04178574443877476
          0.05462987721131427 0.04082657601262526 0.053009000752011336 0.0003508563662125359 0.0006682596017921 0.00013580593826368985
          0.00003857868478408667 0.00044885737569981033 0.0007580729724192211 0.0001474887907300147 0.000043748083066076636 0.0005468583851870847
          0.0008478863430463422 0.00015917164319633956 0.00004891748134806661 0.07652227722459318 0.08793176462169403 0.08244924295241135
          0.0688143706398885 0.07488738359842684 0.08508166661716371 0.07958735516135693 0.06718947052112198 0.0732524899722605
          0.08223156861263338 0.0767254673703025 0.06556457040235544 0 0 0
          0 0.0007713887970630779 0.0007973612367663793 0.0005517357550557048 0.000511488572265624 0.0015427775941261558
          0.0015947224735327586 0.0011034715101114097 0.001022977144531248 0.016918792667078037 0.017123120425001564 0.01744721443414153
          0.01780167564671097 0.017975636201205028 0.018480230868420378 0.03672618701544045 0.0358667842828592 0.035007381550277945
          0.00014470565119108436 0.0005270905321593607 0.0023531451935798905 0.0041773229596665795 0.004561584735968696 0.007827555387173798
          0.003697487655758669 0.0037192592163140512 0.0009457990743369485 0.007318401271626305 0.00624769551672507 0.002866353987297256
          0.010939314887493943 0.008776131817136091 0.004786908900257564 0.02343804989664829 0.021676592262180484 0.03827356035820762
          0.033923713202138835 0.024498443748204264 0.023676762528242818 0.03930095929124486 0.033872630720822805 0.025558837599760235
          0.02567693279430516 0.0403283582242821 0.033821548239506775 0.05151731076070435 0.054336040541305274 0.05797824216697037
          0.04968436116726921 0.05240221605159005 0.05566903712772653 0.04785141157383406 0.05046839156187482 0.053359832088482696
          0.007263084826026313 0.013013083006136045 0.007746673098747952 0.013552451060299616 0.008230261371469589 0.014091819114463193
          0.00626376663728254 0.007579670373182812 0.007609624501149017 0.00938362837237318 0.008955482365015493 0.01118758637156355
          0.00809635453570069 0.004131552165610777 0.00927458479104698 0.004971017583560455 0.01045281504639327 0.005810483001510133
          0.07375485707806678 0.07110571249242344 0.07801536990406037 0.08000215931048711 0.07007824897295595 0.0678917674640431
          0.0746306896967923 0.07622471558794118 0.06640164086784511 0.06467782243566277 0.07124600948952425 0.07244727186539525
          0.021606379763985283 0.022241990338860186 0.02773902617326658 0.022002296751718477 0.022949969177697156 0.028026829351914112
          0.022398213739451667 0.02365794801653412 0.02831463253056164 0.0012470749115315284 0.0006961560828154088 0.0016217179102764173
          0.0010654270405212577 0.001996360909021306 0.0014346979982271064 0.020845728891057534 0.016415839927156804 0.021052792345060217
          0.01679811819432228 0.0212598557990629 0.01718039646148775 0.01376386507173103 0.016741022463360896 0.014782735680338997
          0.01820636575195374 0.01580160628894697 0.019671709040546586 0.00797429668530969 0.004517639302780754 0.008904792586798355
          0.0050927754370360045 0.009835288488287018 0.005667911571291254 0 0 0
          0.000005681076951731729 0 0 0.000011362153903463459 0 0
          0.004595922008670168 0.002546094275492101 0.005239944183164153 0.004876556992806006 0.0027740104548738807 0.0057028019016233215
          0.005157191976941843 0.003001926634255659 0.006165659620082489 0.0599435602281656 0.06558187663341677 0.06555183162363275
          0.0575899421520985 0.06272125020253759 0.06257113647473875 0.05523632407603141 0.05986062377165842 0.05959044132584476
          0.06869390729115596 0.0654276028193575 0.06216129834755904 0 0 0
          0 0 0 0 0 0
          0 0 0 0.05964761550606379 0.06583672062449879 0.05755722270331267
          0.06340856755288425 0.05546682990056155 0.06098041448126974 0 0 0
          0 0 0 0.08508734251623062 0.07149338968733564 0.0817627057942263
          0.06892572551101665 0.07843806907222198 0.06635806133469768 0.04960475008670685 0.05785456234947973 0.0487213640441366
          0.05777033887028533 0.04783797800156633 0.05768611539109094 0 0 0
          0.006297311393045232 0.006585027238756681 0.006872743084468133 0.030316651020767103 0.018807170722691422 0.03330722272668991
          0.022147311148548243 0.036297794432612704 0.025487451574405063 0.007169830143287589 0.007790374073216424 0.008410918003145258
          0.0025791675038290226 0.005020214261876159 0.007461261019923294 0 0.000005681076951731729 0.000011362153903463459
          0.001895373796418073 0.002214336776854406 0.0025332997572907394 0 0 0
          0.003049664385093749 0.005075307557646811 0.007100950730199873 0.051660416715001344 0.05286149036999702 0.05406256402499269
          0.08789649962274573 0.08438507651683702 0.08087365341092831 0.04022582640898209 0.03923348143604852 0.038241136463114944
          0 0 0 0 0.0005198004495949076 0.0010396008991898152
          0.00725912858409784 0.007223226337988897 0.007187324091879955 0.0075710100539299625 0.007566409349515149 0.007561808645100336
          0.008258360198343025 0.00822610331021446 0.008193846422085895 0.008164326881128125 0.00816068951850265 0.008157052155877172
          0.00895360612197648 0.008933043105606749 0.008912480089237017 0.009149724071473834 0.009150139314722066 0.0091505545579703
          0.00862221379358393 0.00865433341163406 0.00868645302968419 0.0071526687709122135 0.007217557624068096 0.007282446477223979
          0.004837639026413245 0.004928533886140027 0.0050194287458668095 0.0046908948878085985 0.0030748219149508765 0.004868371510920398
          0.0032091932319179743 0.005045848134032196 0.0033435645488850713 0.0011443536768704892 0.0004268770362573427 0.00042444094866570984
          0.0015256889853106459 0.0011578663629154922 0.00042725549109280447 0.0004406014788167224 0.0015903721404692088 0.0011713790489604951
          0.00042763394592826645 0.00045676200896773496 0.001655055295627772 0.00001911310681519629 0.00001908659128764305 0.000019060075760089815
          0.002229412604767486 0.0022661074663096314 0.0023028023278517766 0.00009142727248994415 0.00008934115811037603 0.00008725504373080792
          0.00765566926397407 0.007525868060002562 0.007654558895338477 0.007522875013154007 0.0076534485267028855 0.007519881966305451
          0.008389201061964353 0.008387810789609498 0.008386420517254647 0.007381414462305518 0.007382915125179847 0.007384415788054177
          0.008069701376105914 0.00807291283089982 0.008076124285693721 0.00703252212439959 0.007044111864532821 0.0070557016046660535
          0.00520534406688814 0.005222729546810487 0.005240115026732835 0.003056359357570819 0.0030678566692674885 0.003079353980964157
          0.0013622489740092868 0.0013664008452864192 0.001370552716563552 0.000018655243397085876 0.0003924962680550809 0.0002752198808423224
          0.000020145097528108058 0.0003911895830781434 0.00027828722442759446 0.000021634951659130246 0.00038988289810120585 0.0002813545680128665
        </DataArray>
        <DataArray type="Float64" Name="pe11" format="ascii" RangeMin="-0.0009784508235109052" RangeMax="0.08624033044267887">
          0.00006756961622575005 0.000057730954819036686 0.00008336173117531775 0.00007151318694370577 0.00009915384612488548 0.00008529541906837485
          0.000062182371641254 0.00003682426763589311 0.00009317106846750526 0.0000658356698744914 0.00012415976529375655 0.0000948470721130897
          0.000194050787125323 0.00014479136920016866 0.0002469757289929237 0.00019618592956678125 0.00029990067086052455 0.00024758048993339383
          0.0006545575842057938 0.0005767007334641825 0.0007331092545613771 0.0006547138463166013 0.0008116609249169604 0.0007327269591690204
          0.001727875312828068 0.0016242098664444222 0.0018229538997345989 0.0017211180460738305 0.00191803248664113 0.001818026225703239
          0.003756717779781992 0.0036411274674905594 0.0038368831837813236 0.0037254848517409784 0.003917048587780656 0.0038098422359913973
          0.007095896027379844 0.006994268618342105 0.007105934107126062 0.007007295759369097 0.00711597218687228 0.00702032290039609
          0.012190474241865824 0.012142601263371104 0.01204960205180072 0.011996955936620944 0.011908729861735617 0.011851310609870783
          0.020373938211636765 0.020573096736286614 0.019948490724555422 0.020122388986040712 0.019523043237474082 0.01967168123579481
          0.0313187754789435 0.030438020148063835 0.030448560193038238 0.029616669346095578 0.02957834490713297 0.02879531854412732
          0.0000999238748388223 0.00012216364993088169 0.00014440342502294108 0.0001413303891692325 0.00017908543416211319 0.0002168404791549939
          0.0003439392602171153 0.0004024188904073868 0.0004608985205976584 0.000888754512365997 0.0009689905068137 0.001049226501261403
          0.0020362424330869194 0.0021255230583369714 0.0022148036835870234 0.0040962196529591025 0.00416410368483296 0.004231987716706817
          0.007392434473348319 0.00739338178895752 0.00739432910456672 0.012313164749245153 0.012185181445744986 0.01205719814224482
          0.01975643421597945 0.019404478325753486 0.019052522435527523 0.02810093221312939 0.027488373234858674 0.02687581425658796
          0.00016460999872124575 0.00019839180145391985 0.0002321736041865939 0.00028547550290558283 0.000335518759950371 0.00038556201699515907
          0.0006038372010529041 0.0006719306931188969 0.0007400241851848896 0.0012829710040105882 0.00136437221737935 0.0014457734307481117
          0.0025415565765180177 0.0026196324603764446 0.0026977083442348716 0.004638249092689264 0.004686304682437399 0.0047343602721855345
          0.007849739574140329 0.007836112740022948 0.007822485905905572 0.012459624462232192 0.012349051674486465 0.012238478886740737
          0.018722554616775293 0.0184828692357698 0.018243183854764304 0.02513917542947423 0.024850987567643527 0.02456279970581282
          0.0002810742398977681 0.00033093443869650015 0.0003807946374952321 0.0005164891805713498 0.0005820722426153877 0.0006476553046594256
          0.0009916418738741104 0.0010688984108770676 0.0011461549478800248 0.0018420164592155472 0.0019191659348322943 0.0019963154104490413
          0.003228768991957514 0.003287702248986652 0.00334663550601579 0.005345180150623196 0.005366628321027321 0.005388076491431448
          0.008403785890709448 0.008372643587120972 0.008341501283532496 0.012548509141108017 0.012457826432136896 0.012367143723165774
          0.017424228772619545 0.017308624773340622 0.017193020774061707 0.02058627415386737 0.020569686859396884 0.020553099564926396
          0.0004814839817883002 0.0005458520701488742 0.0006102201585094483 0.0008677335392869303 0.0009430950894938744 0.0010184566397008184
          0.0015305351059363209 0.001606072606288633 0.001681610106640945 0.0025666473460654485 0.0026263399502138283 0.002686032554362208
          0.004071383622675697 0.004100340829546692 0.004129298036417687 0.006161954276621202 0.0061518924313170775 0.006141830586012953
          0.008969505630766619 0.008922437422730854 0.008875369214695089 0.012492511705504885 0.01242675196793638 0.012360992230367875
          0.01597249584422971 0.015969874697814947 0.01596725355140018 0.017377124178816615 0.017558406126626847 0.017739688074437078
          0.0008105424215925875 0.0008708498675193444 0.000931157313446101 0.0013802418665341228 0.0014407787276327852 0.0015013155887314473
          0.0022431358435846902 0.002289846134205767 0.002336556424826844 0.0034494990994641383 0.0034687022371011293 0.0034879053747381194
          0.005029532965062088 0.005015184500654246 0.005000836036246404 0.0070194482563259285 0.006976637408019736 0.006933826559713544
          0.009455182300157624 0.009401261964925594 0.009347341629693567 0.01221812676092366 0.012190419936864975 0.012162713112806294
          0.014350101051549944 0.01445378603474844 0.014557471017946941 0.014473391968067592 0.01481721447957724 0.015161036991086889
          0.0013116157218977756 0.0013281910449132912 0.001344766367928807 0.002084945467181543 0.0020868455596633542 0.002088745652145166
          0.0031361995065657296 0.0031140961519892456 0.0030919927974127617 0.004466951177653588 0.004417529082663932 0.004368106987674277
          0.006049028114915836 0.005979534539925151 0.005910040964934467 0.007840933792449 0.0077702477098834394 0.007699561627317879
          0.009778314200416752 0.009736540657475081 0.009694767114533414 0.011662496728831795 0.011698461169324935 0.011734425609818078
          0.012588621892043307 0.012800824823873387 0.013013027755703472 0.011776715485958511 0.012219238067449513 0.012661760648940515
          0.001981875356805901 0.001944025336553348 0.001906175316300795 0.0029588535104382056 0.002896233596537069 0.0028336136826359326
          0.004165227610183329 0.004077553580510571 0.003989879550837813 0.005555749100545578 0.005450965077990922 0.005346181055436265
          0.007051308944813164 0.006946741351807608 0.0068421737588020524 0.008545005396670724 0.008466905559608166 0.00838880572254561
          0.009885515411207812 0.009868155737346214 0.009850796063484617 0.010824748223438494 0.010915266229934745 0.011005784236430997
          0.010722120305352311 0.010981828096636998 0.011241535887921685 0.009361170643109328 0.009765460267979455 0.010169749892849581
          0.00518039018713822 0.0050977176509181925 0.005015045114698165 0.0065281417656993836 0.006437904218953917 0.0063476666722084496
          0.007842481220886698 0.007759752005460584 0.007677022790034469 0.008972554553748412 0.008917577651338549 0.008862600748928685
          0.009716142081307711 0.009713084279347247 0.009710026477386783 0.00979991013096267 0.009878075341294534 0.009956240551626397
          0.00885164671546576 0.009031122586848649 0.009210598458231535 0.007274387765410172 0.007529578021943664 0.0077847682784771555
          0 0.0001193803799401104 0.00015825582029175528 0 0.000017723790586506552 -0.00010132137156572865
          0.0002316883571097778 1.078594255861303e-7 0.000035447581173013104 -0.00032202312307156764 0.0003051208939278003 2.157188511722606e-7
          0 0 -0.000021921846515514053 0 -0.00004384369303102811 0
          0 0 0 0.00009343619204077435 -0.000009315137105662628 0.000013091385442511742
          0.0001868723840815487 -0.000018630274211325256 0.000026182770885023484 0.042627376708092767 0.03866217336543078 0.04952991526445755
          0.05013574255157115 0.04128812059686479 0.0378822800832714 0.04806388193129338 0.0484047887707786 0.039948864485636816
          0.03710238680111202 0.04659784859812921 0.046673834989986035 0.010380552784638524 0.006078889417022831 0.0016932536975698199
          0.00507870876198958 0.011821916085951166 0.006588150173182551 0.0026063831853863533 0.00666336941997742 0.013263279387263809
          0.007097410929342273 0.003519512673202887 0.00824803007796526 0.025336319117368035 0.025247186090398055 0.030022159864008094
          0.0291900024293313 0.02529209008945042 0.025423684552983418 0.029862296742985087 0.028881909647798264 0.025247861061532803
          0.025600183015568784 0.029702433621962083 0.028573816866265228 0.011771510310476194 0.013279306194613656 0.009195240030292682
          0.007373118205005497 0.012552209741110949 0.013898852138323491 0.009830992565984733 0.008076067184202984 0.013332909171745708
          0.014518398082033332 0.010466745101676785 0.00877901616340047 0.007663109131521373 0.009846086437488464 0.00808990092177681
          0.01041052038554918 0.008516692712032247 0.010974954333609897 0.034184418153362935 0.03120224587037533 0.03365775636443441
          0.031174239579961082 0.03313109457550588 0.03114623328954684 0.000002101684902727532 0 0
          0.00001154605175626578 0.00006406872751565058 0.0002251313492805445 0.0001214110322837945 -0.0004834523858773196 0.00012603577012857363
          0.000450262698561089 0.00024282206456758906 -0.0009784508235109052 0.03853840724426778 0.03807766279061668 0.04623270389418048
          0.04362143644709301 0.03734051230324931 0.03686523086058979 0.044512024387708335 0.04211080870949647 0.03614261736223083
          0.035652798930562904 0.04279134488123616 0.04060018097189994 0.03938231388995145 0.053179882174021184 0.03867277821506319
          0.051773922022945326 0.03796324254017495 0.050367961871869496 0.00032195006227568455 0.0006296956431719549 0.00012710536821574687
          0.000036179066571356955 0.00038784916043125997 0.0006975065820880319 0.00013576121298654217 0.00003993410858652531 0.00045374825858683545
          0.0007653175210041087 0.00014441705775733747 0.00004368915060169367 0.06533266352745207 0.08345976099170169 0.0791658713530875
          0.061679925595901165 0.06445032192926527 0.08069198758969377 0.07629336972712833 0.06066282907304273 0.06356798033107847
          0.07792421418768586 0.07342086810116917 0.05964573255018431 0 0 0
          0 -0.00021274083711403879 -0.00001805132335238416 0.000031745667513260326 -0.00016698556215529063 -0.00042548167422807757
          -0.00003610264670476832 0.00006349133502652065 -0.00033397112431058127 0.0161513792904128 0.01606731259066296 0.016720698363611574
          0.016775953716239373 0.017290017436810353 0.01748459484181579 0.03466918709998503 0.03385474189772769 0.03304029669547034
          0.000035004777889788044 0.0002773078774721213 0.00003228043237587422 -0.0002822283795034877 0.000029556086861960414 -0.0008417646364790967
          0.00039116244437454304 0.001910949402244508 0.000750990338924914 0.00025877935057157003 0.001711932480895476 0.0005256418541615093
          0.00012639625676859703 0.0015129155595464442 0.00030029336939810453 0.020941243891745714 0.01767082743429496 0.03012105859417279
          0.030201103328778792 0.022067640359609154 0.01898931233233433 0.031241408273898142 0.030575356683567742 0.02319403682747259
          0.02030779723037371 0.03236175795362349 0.030949610038356695 0.05018241623443885 0.052896779515500356 0.056861866530624805
          0.04816874848230018 0.05077176899705273 0.05433273898956082 0.046155080730161516 0.04864675847860511 0.05180361144849685
          0.0066597921039372385 0.012451425345802158 0.0071153126772029686 0.013005544340921847 0.007570833250468699 0.013559663336041538
          -0.000015372188673022055 0.0022184110660148316 0.001680619174862393 0.0037763421468824734 0.003376610538397808 0.005334273227750115
          0.006478222087401825 0.003396578233311274 0.007375738973457485 0.004033660306421866 0.008273255859513145 0.004670742379532459
          0.07273999029749531 0.0699651561541346 0.07665764136984406 0.07873571109322472 0.06886518920672112 0.06660240175766181
          0.07302694286334595 0.07473610172707684 0.06499038811594693 0.06323964736118906 0.06939624435684785 0.07073649236092897
          0.020414086291050515 0.020501228083650718 0.025866919782120405 0.020914324478983427 0.02133668638384799 0.026338996866148393
          0.021414562666916347 0.022172144684045256 0.026811073950176387 0.001090132607438741 0.0006217133214728344 0.001354315095576029
          0.0008536973283076515 0.001618497583713317 0.001085681335142469 0.01994068864064018 0.015744769195100754 0.020220136254099103
          0.016161272709247745 0.02049958386755802 0.016577776223394732 0.01214431561544455 0.014094755490759529 0.013076631498035606
          0.015194354789629643 0.014008947380626663 0.016293954088499762 0.006704373282115378 0.00386480867682822 0.007516629505751119
          0.004339928440459148 0.008328885729386861 0.004815048204090076 0 0 0
          0.000002475656330897896 0 0 0.000004951312661795792 0 0
          0.0040673981658233375 0.002230917739081211 0.004622754352728074 0.004315306826919194 0.002412318557313901 0.005020133381980416
          0.004563215488015051 0.002593719375546591 0.005417512411232757 0.058865529573701336 0.06474595469579912 0.06485214122126932
          0.05630094015049304 0.0616689014771583 0.06161041744770314 0.05373635072728477 0.05859184825851747 0.05836869367413694
          0.06785481154988714 0.06433384009807852 0.06081286864626991 0 0 0
          0 0 0 0 0 0
          0 0 0 0.05813992419075374 0.06404283378202641 0.055969785096299615
          0.06163983030015028 0.05379964600184549 0.05923682681827416 0 0 0
          0 0 0 0.08352249541207202 0.06913689514126546 0.07984012425721018
          0.06664465892190265 0.07615775310234835 0.06415242270253982 0.04395479701543372 0.044871267712103945 0.043770104026267
          0.045451081725021526 0.04358541103710027 0.046030895737939136 0 0 0
          0.0056965006886825365 0.005972155618404125 0.006247810548125711 0.018801794978942823 0.009771557418544465 0.020770024563808692
          0.011725499933999954 0.02273825414867456 0.013679442449455447 0.00638231251702764 0.0069451316176029725 0.0075079507181783035
          -0.00028435392967307235 -0.000011018269034681857 0.00026231739160370864 0 0.000002475656330897896 0.000004951312661795792
          0.0016280806140680404 0.0018667654549729847 0.002105450295877929 0 0 0
          -0.00041526965787421177 -0.00044089092714973675 -0.00046651219642526167 0.03492329960784344 0.03617468313707887 0.03742606666631428
          0.08624033044267887 0.0824316392929641 0.07862294814324933 0.03774488168868553 0.036645513967183685 0.03554614624568184
          0 0 0 0 -0.00009151054991749629 -0.00018302109983499258
          0.007208316622287676 0.007172248694188575 0.007136180766089474 0.007561317376710494 0.007556543490798298 0.007551769604886102
          0.008223286993276978 0.008190856756840881 0.008158426520404787 0.008156980187085019 0.008153303295736328 0.00814962640438764
          0.008934262746541287 0.008913603601559014 0.008892944456576742 0.009126550901232783 0.009127293761359739 0.009128036621486695
          0.008548262068460254 0.008581470881288267 0.008614679694116278 0.006963925487616723 0.007029179153114706 0.007094432818612687
          0.004562931778017328 0.004650123957442154 0.004737316136866979 0.004289626631291753 0.002824993254421395 0.004457026709870971
          0.0029442296811605824 0.0046244267884501915 0.0030634661078997693 0.001096995435832156 0.0004166926146195013 0.0004064310872779212
          0.0014238592046859019 0.001106650857377263 0.0004160975091500917 0.0004189900112364603 0.0014766449670326144 0.0011163062789223699
          0.0004155024036806821 0.0004315489351949993 0.0015294307293793265 0.000018986581196667366 0.00001893776936823012 0.00001888895753979287
          0.0021149670185128394 0.0021456371816060025 0.002176307344699166 0.00008965768802543346 0.00008754060684046943 0.0000854235256555054
          0.00763768396814325 0.0075193089620279934 0.007636637524104983 0.007516233594145485 0.007635591080066718 0.007513158226262978
          0.008371583309444265 0.008370242212948072 0.008368901116451877 0.007340501423172905 0.007342098895010262 0.007343696366847619
          0.00801980061283535 0.00802294002473174 0.008026079436628131 0.006927715392345983 0.006938484066855476 0.006949252741364969
          0.0050532756242317595 0.005067995558827669 0.00508271549342358 0.002942106877237039 0.0029506623435670274 0.0029592178098970154
          0.001320000314507954 0.0013223477842829135 0.001324695254057873 0.000018135751432168254 0.00038647167712552025 0.00027208297619228704
          0.000019567303889541875 0.0003847581754327813 0.00027488817500544003 0.000020998856346915496 0.00038304467374004235 0.0002776933738185931
        </DataArray>
        <DataArray type="Float64" Name="pe22" format="ascii" RangeMin="-0.03767809132727401" RangeMax="0.0006103692121384748">
          -0.00003542029298851788 -0.000030347284983913495 -0.00004290596805128175 -0.000037008966177219965 -0.000050391643114045625 -0.000043670647370526435
          -0.00003123341288404251 -0.000018717294495221107 -0.00004476369671570743 -0.000031828863446132384 -0.00005829398054737235 -0.00004494043239704365
          -0.00008642488681488948 -0.00006456585273216853 -0.00010340750739457608 -0.00008201994246355113 -0.0001203901279742627 -0.00009947403219493372
          -0.00025030794245881055 -0.00021936138977658493 -0.0002605871845692943 -0.00023071916711927724 -0.0002708664266797781 -0.00024207694446196955
          -0.0005660479963847569 -0.000526554299324734 -0.0005549382144442557 -0.000516210590172215 -0.0005438284325037546 -0.000505866881019696
          -0.0010627475030174952 -0.0010144359037372271 -0.0010226546916406185 -0.0009740946636741161 -0.0009825618802637417 -0.0009337534236110052
          -0.0017583260154131041 -0.0016961276963725995 -0.0016914782006965392 -0.0016277937762231784 -0.0016246303859799747 -0.0015594598560737573
          -0.0026804390903229286 -0.002583965352703964 -0.002586982588323983 -0.00248429377668779 -0.0024935260863250385 -0.002384622200671616
          -0.00379678832072233 -0.003612758816517691 -0.003662204311334098 -0.003464285368147364 -0.0035276203019458654 -0.003315811919777037
          -0.005606771187099109 -0.004792152698504026 -0.005313855624890391 -0.004517685985016109 -0.005020940062681674 -0.00424321927152819
          -0.00005183677629688796 -0.0000618166176954131 -0.00007179645909393823 -0.00006936150047892721 -0.0000842285796339403 -0.0000990956587889534
          -0.0001515257613453026 -0.00016753921998261768 -0.00018355267861993273 -0.0003426889632727404 -0.0003502896547507152 -0.00035789034622869006
          -0.000683876495069232 -0.0006708361474376698 -0.0006577957998061077 -0.0012059107567541506 -0.0011667960271031425 -0.0011276812974521347
          -0.0019432441734865834 -0.0018809924480939835 -0.0018187407227013837 -0.0029498233770814796 -0.002872190530502955 -0.0027945576839244297
          -0.004219152055014283 -0.004123813004194167 -0.004028473953374051 -0.005782973976000357 -0.005629318681654804 -0.00547566338730925
          -0.00008362686963170117 -0.00009748037044927612 -0.00011133387126685108 -0.00013579329360716077 -0.00015252985189509428 -0.00016926641018302776
          -0.00026063105435567 -0.0002752469293571645 -0.0002898628043586589 -0.0004961704009903349 -0.0005000657946022955 -0.0005039611882142558
          -0.0008775461897531783 -0.0008622314255554993 -0.0008469166613578201 -0.0014386828463719746 -0.001401804735322197 -0.0013649266242724196
          -0.002237730509560828 -0.0021831241604282426 -0.0021285178112956564 -0.0033391575050136326 -0.0032825886627981028 -0.0032260198205825725
          -0.004663471544916425 -0.00462523982152229 -0.004587008098128155 -0.006272249534944263 -0.006294387694562115 -0.006316525854179964
          -0.00013780801536992764 -0.00015572881455790425 -0.0001736496137458809 -0.00023576502098002499 -0.0002535272054338263 -0.0002712893898876275
          -0.00041585190043709995 -0.0004277318869501378 -0.00043961187346317583 -0.000708757370782754 -0.000708248963831331 -0.0007077405568799081
          -0.001141472458328642 -0.0011245137942528585 -0.0011075551301770752 -0.0017510463577445148 -0.001718047024143442 -0.0016850476905423688
          -0.0026108671634689517 -0.002566593378052322 -0.0025223195926356917 -0.003772678331945654 -0.0037398071217426415 -0.00370693591153963
          -0.005068304001319708 -0.005084191721908939 -0.005100079442498169 -0.00613450191250474 -0.006239577303958451 -0.006344652695412163
          -0.0002230819087246606 -0.00024264285263924686 -0.0002622037965538331 -0.00037497823014395634 -0.00039081339991056555 -0.00040664856967717475
          -0.0006174960210302361 -0.000624556774876677 -0.0006316175287231179 -0.0009746380360074766 -0.0009696975932600257 -0.0009647571505125747
          -0.0014660268871720165 -0.0014487929803275047 -0.0014315590734829931 -0.002125863116085125 -0.002098473594122617 -0.0020710840721601094
          -0.0030221855453230087 -0.0029904820388341573 -0.0029587785323453054 -0.0041773236100996845 -0.004167092647321292 -0.004156861684542899
          -0.0053788442485884535 -0.005429561856545112 -0.0054802794645017715 -0.006179129290472015 -0.006311575445546333 -0.006444021600620651
          -0.0003465942991862216 -0.00036183706267817737 -0.0003770798261701332 -0.0005557725379282638 -0.000565034427666639 -0.0005742963174050142
          -0.0008619061342532216 -0.0008623496324593583 -0.0008627931306654951 -0.0012844539905046523 -0.001275978314764981 -0.0012675026390253099
          -0.0018364030315332301 -0.0018208206393863083 -0.0018052382472393859 -0.0025388036161150497 -0.0025188153838477203 -0.002498827151580391
          -0.0034317741596546865 -0.0034138589858083816 -0.0033959438119620764 -0.0045008948097688475 -0.004508958369110537 -0.004517021928452228
          -0.00549578427076184 -0.005565116239894368 -0.005634448209026897 -0.006025725237703712 -0.006167453822861018 -0.006309182408018325
          -0.0005093921460287778 -0.0005128708904872099 -0.0005163496349456419 -0.0007746425847436667 -0.0007730623160176861 -0.000771482047291706
          -0.0011413697832966902 -0.0011345937386806851 -0.0011278176940646796 -0.0016255626880794095 -0.0016152662616123717 -0.001604969835145334
          -0.002232262667779256 -0.0022206332778434233 -0.0022090038879075914 -0.0029612089687435983 -0.0029505266785736597 -0.002939844388403722
          -0.0038060845246253093 -0.003802419645252738 -0.0037987547658801654 -0.004710198390892504 -0.004732488738981075 -0.0047547790870696455
          -0.005436008470338624 -0.005511158295580552 -0.0055863081208224795 -0.005641637062789542 -0.005778570137187443 -0.005915503211585344
          -0.0007063816760203895 -0.0006943241560818697 -0.00068226663614335 -0.0010264734322434522 -0.0010112548031878104 -0.0009960361741321688
          -0.0014492323003396578 -0.001433413632513176 -0.0014175949646866941 -0.0019859826688068856 -0.001972509251270286 -0.001959035833733686
          -0.0026317616060943082 -0.0026230984254025378 -0.002614435244710768 -0.0033631800215575933 -0.0033616565059571895 -0.003360132990356786
          -0.0041223867450779226 -0.004133868758547917 -0.004145350772017911 -0.004798471313586296 -0.004836070633729504 -0.004873669953872712
          -0.005208107762291438 -0.005285647974314186 -0.005363188186336936 -0.005119015434519278 -0.00523584608414273 -0.00535267673376618
          -0.0019028878548509227 -0.001887694069303386 -0.0018725002837558496 -0.002487063323009818 -0.002477124784095336 -0.0024671862451808527
          -0.0031436034355492117 -0.0031411462307991216 -0.0031386890260490315 -0.0038199751186472394 -0.0038271309651562693 -0.003834286811665299
          -0.004413906054389797 -0.004435789544813485 -0.004457673035237171 -0.004763844625721541 -0.0048065678989387545 -0.004849291172155965
          -0.004726816203520973 -0.004789323105877593 -0.0048518300082342125 -0.0043888833483255625 -0.004462522263394334 -0.004536161178463106
          0 -0.00006852518667499038 -0.00008606815336932648 0 -0.00011724943775723053 -0.00011000460009765382
          -0.00008586891751697373 -4.342799638326531e-8 -0.00023449887551446106 -0.0001514840135203172 -0.00008566968166462099 -8.685599276653062e-8
          0 0 0.000013221782208291724 0 0.000026443564416583448 0
          0 0 0 -0.00009162011010182691 0.000009692006814580848 -0.000014516965178272955
          -0.00018324022020365386 0.000019384013629161696 -0.000029033930356545907 -0.011409208602557412 -0.010368144451368775 -0.015599668850599761
          -0.015457153409402012 -0.010672552792198186 -0.010064037945208423 -0.014583990782040805 -0.014260016300380629 -0.009935896981838957
          -0.00975993143904807 -0.01356831271348185 -0.013062879191359249 -0.0022870742442706324 -0.002153707556088974 -0.0006557680409795505
          -0.001045517940416268 -0.002945002934314301 -0.001954933232722399 -0.0006801958152249361 -0.0014431093492217975 -0.00360293162435797
          -0.0017561589093558246 -0.0007046235894703217 -0.001840700758027327 -0.007277585700054129 -0.007535571328554483 -0.007633902965582992
          -0.007200868846987957 -0.007450562188411658 -0.007806849218944703 -0.007776888069757355 -0.0072628110682109925 -0.007623538676769187
          -0.008078127109334922 -0.00791987317393172 -0.007324753289434027 -0.005907852495745778 -0.006135263121677251 -0.004933967553078447
          -0.004060149936656602 -0.006197572077893818 -0.006413464324878808 -0.005105636933755249 -0.004212372563405263 -0.0064872916600418615
          -0.006691665528080365 -0.00527730631443205 -0.0043645951901539245 -0.004547655352004375 -0.005293918894872299 -0.004661934144220694
          -0.005451693165964819 -0.004776212936437011 -0.005609467437057339 -0.008417791299384482 -0.008367351776953079 -0.008361891531650177
          -0.008575735463277188 -0.008305991763915872 -0.0087841191496013 -7.993575603893091e-7 0 0
          0.00003930908779993467 -0.00011991014056542931 -0.00023258804394642917 -0.00010604925326129277 0.0000034426389586311966 -0.00023902092357046934
          -0.0004651760878928583 -0.00021209850652258554 -0.000032423809882672276 -0.007724600320442492 -0.008233332326838882 -0.012960769441181482
          -0.01093421767710514 -0.007160812406799036 -0.007697130497701916 -0.011883723022363915 -0.010040745297579987 -0.006597024493155581
          -0.007160928668564952 -0.01080667660354635 -0.009147272918054832 -0.011434065282119196 -0.019642706612527743 -0.011120298220089296
          -0.0185107103612649 -0.010806531158059398 -0.017378714110002046 -0.0001803039817733878 -0.0003592756432748558 -0.00007245421597255728
          -0.000020874212654192338 -0.0001836987691288774 -0.0003618743611467034 -0.00007243278502543436 -0.00002117894205682485 -0.000187093556484367
          -0.00036447307901855096 -0.00007241135407831144 -0.000021483671459457365 -0.02817287146869281 -0.03767809132727401 -0.035510033195605764
          -0.026211654680845697 -0.027103532772369307 -0.03499355198669607 -0.032830706020230443 -0.025261796281277654 -0.026034194076045798
          -0.03230901264611813 -0.03015137884485512 -0.024311937881709607 0 0 0
          0 0.00030267983273510053 0.00003906185159568347 -0.00004439439150358488 0.0002037162163201132 0.0006053596654702011
          0.00007812370319136694 -0.00008878878300716975 0.0004074324326402264 -0.006665939824090235 -0.007098321175673584 -0.007011644069401368
          -0.007474381878512973 -0.007357348314712503 -0.007850442581352361 -0.008012042737612919 -0.007751332074254687 -0.007490621410896454
          -0.000034644896072786185 -0.00017200259485289514 -0.0005722335954645766 -0.00037424370294558023 -0.001109822294856367 -0.0005764848110382656
          -0.0002771342831470532 -0.0008646711251559624 -0.0003621714155536077 -0.0004014777911539596 -0.00033308018906822004 -0.00014261190101853144
          -0.0005258212991608661 0.00019851074701952233 0.00007694761351654483 -0.006718375518510883 -0.004992417661042129 -0.009051661204091182
          -0.008049050188717342 -0.007247130970194758 -0.005573963829676939 -0.010047396180062774 -0.008487701140003563 -0.007775886421878634
          -0.0061555099983117475 -0.011043131156034364 -0.008926352091289782 -0.015348740436133268 -0.01701098456495262 -0.01981205959188978
          -0.0139963286166513 -0.015446997217242244 -0.017854423929103854 -0.01264391679716933 -0.013883009869531874 -0.015896788266317925
          -0.00392177519055866 -0.005875889111259674 -0.004023128904614004 -0.006058918070498396 -0.004124482618669351 -0.0062419470297371184
          0.00014636819179115364 -0.00041745081232441545 -0.0010255935961641692 -0.0010865462256679686 -0.002197555384119492 -0.001755641639011522
          -0.0027124163941962126 -0.0016886993094955604 -0.0030518958065779683 -0.0018064658781947601 -0.0033913752189597243 -0.0019242324468939597
          -0.029842812987810323 -0.028174247175665617 -0.03161912783788652 -0.031518536996416095 -0.026536193003171598 -0.02529497964505519
          -0.02835268458305544 -0.027919826099850813 -0.02322957301853288 -0.022415712114444753 -0.02508624132822436 -0.02432111520328554
          -0.007370152357809381 -0.007180369896575298 -0.007428537957509379 -0.007724819032808998 -0.007719422951205409 -0.007893931519258712
          -0.008079485707808616 -0.008258476005835519 -0.008359325081008047 -0.0005873578937688015 -0.00031791463042266354 -0.0006154832686903588
          -0.0003332420988487594 -0.0006436086436119159 -0.0003485695672748553 -0.006850069729905884 -0.006271164506811323 -0.007102655067630428
          -0.006490625688179842 -0.007355240405354973 -0.006710086869548361 -0.00532620572310901 -0.005230426710236493 -0.00571643173013792
          -0.005576035231150505 -0.006106657737166832 -0.005921643752064519 -0.0033611102713157043 -0.0023296275013264672 -0.0035258676058146205
          -0.0023974914352380846 -0.0036906249403135367 -0.0024653553691497015 0 0 0
          -0.0000021565463847992435 0 0 -0.000004313092769598487 0 0
          -0.0025779648594103644 -0.0013891548042735946 -0.0028279039981298666 -0.0026139414389511587 -0.0014088241614893615 -0.002898405061909055
          -0.002649918018491952 -0.0014284935187051282 -0.002968906125688243 -0.021305160001024816 -0.025512720191546306 -0.026075455020543682
          -0.01929407544615683 -0.022974304808371274 -0.023339423382825242 -0.01728299089128885 -0.020435889425196238 -0.020603391745106798
          -0.027688682402941766 -0.024688114326711235 -0.021687546250480704 0 0 0
          0 0 0 0 0 0
          0 0 0 -0.02084237038048013 -0.025269050367218906 -0.019148439235572298
          -0.023130712084495464 -0.017454508090664473 -0.020992373801772022 0 0 0
          0 0 0 -0.03586145325532943 -0.029664203719804272 -0.03247236571589269
          -0.02740679083352927 -0.02908327817645595 -0.02514937794725427 -0.015003540096314577 -0.01754722464571026 -0.015088318752263704
          -0.018097927567850603 -0.015173097408212835 -0.01864863048999095 0 0 0
          -0.0036448164758456927 -0.003703912756852406 -0.0037630090378591194 -0.004312331589757153 -0.0006003885030748708 -0.005928221268306391
          -0.0018501211679196536 -0.00754411094685563 -0.0030998538327644356 -0.003786186234640889 -0.003903971513899063 -0.004021756793157238
          0.00024696787429396514 -0.000649754081901869 -0.0015464760380977031 0 -0.0000021565463847992435 -0.000004313092769598487
          -0.0009599628908172105 -0.0009860424041741678 -0.0010121219175311252 0 0 0
          0.0006103692121384748 -0.00014879980788215264 -0.0009079688279027801 -0.011950377068850424 -0.013073178148345438 -0.014195979227840452
          -0.03660986585735469 -0.033073108237505915 -0.029536350617657137 -0.0070578187908507395 -0.006525489016847 -0.00599315924284326
          0 0 0 0 0.00019792723282997462 0.00039585446565994925
          -0.0031675774708177064 -0.0031710255941197907 -0.003174473717421875 -0.003708345717698361 -0.003717953275859853 -0.0037275608340213455
          -0.0037623613444303337 -0.0037709989706850434 -0.0037796365969397522 -0.00412818205505593 -0.004140802699734848 -0.004153423344413765
          -0.004272333663180604 -0.0042867649163209325 -0.00430119616946126 -0.004566450937845764 -0.0045889703365232255 -0.004611489735200686
          -0.004478861422684008 -0.004508642372997567 -0.004538423323311127 -0.0038921839355255078 -0.003918154371094069 -0.00394412480666263
          -0.0027826528451102726 -0.002790713897631778 -0.0027987749501532837 -0.002774096376082648 -0.0017627400997380159 -0.0027890334398298342
          -0.0017653072819510368 -0.0028039705035770215 -0.001767874464164058 -0.0006263453626656615 -0.0002286922674785475 -0.00023328512054347997
          -0.0008594642219185035 -0.0006160905179225639 -0.00022288372955145885 -0.00022950754773857146 -0.0008550926502631181 -0.0006058356731794665
          -0.0002170751916243702 -0.00022572997493366291 -0.0008507210786077328 -0.000009990401385558677 -0.000009780089727302112 -0.000009569778069045548
          -0.0012501222652098979 -0.0012356824093690561 -0.0012212425535282146 -0.00005035353511681719 -0.00004868059390234742 -0.00004700765268787762
          -0.004052524881233414 -0.003885127524122712 -0.004062745062367867 -0.0038934561511491687 -0.00407296524350232 -0.0039017847781756257
          -0.004367800828887401 -0.00438303383909941 -0.00439826684931142 -0.003992308838847141 -0.004003539896550517 -0.004014770954253893
          -0.004301986434978819 -0.004319310601147332 -0.004336634767315845 -0.003807573473728283 -0.0038229471147141845 -0.0038383207557000855
          -0.002851796165892837 -0.002855145670511461 -0.002858495175130085 -0.0016904243827428626 -0.0016801108832151341 -0.0016697973836874056
          -0.0007411544200768501 -0.0007305021823860993 -0.0007198499446953486 -0.00000835520217720365 -0.00020097837056228744 -0.00013641622322535296
          -0.00000892243761631058 -0.00019699867689121342 -0.00013649654531289592 -0.000009489673055417508 -0.00019301898322013946 -0.00013657686740043887
        </DataArray>
        <DataArray type="Float64" Name="pe33" format="ascii" RangeMin="-0.04963046458532402" RangeMax="0.0014182494475216906">
          -0.00003214932323723217 -0.000027383669835123188 -0.000040455763124036 -0.0000345042207664858 -0.00004876220301083983 -0.00004162477169784841
          -0.00003094895875721147 -0.000018106973140671994 -0.00004840737175179783 -0.00003400680642835901 -0.0000658657847463842 -0.00004990663971604604
          -0.0001076259003104335 -0.00008022551646800013 -0.00014356822159834767 -0.0001141659871032301 -0.00017951054288626182 -0.0001481064577384601
          -0.00040424964174698316 -0.0003573393436875975 -0.00047252206999208267 -0.00042399467919732405 -0.0005407944982371821 -0.0004906500147070507
          -0.0011618273164433106 -0.001097655567119688 -0.0012680156852903426 -0.0012049074559016154 -0.001374204054137375 -0.0013121593446835426
          -0.0026939702767644963 -0.002626691563753332 -0.0028142284921407043 -0.0027513901880668614 -0.0029344867075169123 -0.0028760888123803906
          -0.005337570011966739 -0.005298140921969504 -0.005414455906429521 -0.005379501983145917 -0.005491341800892304 -0.00546086304432233
          -0.009510035151542891 -0.009558635910667138 -0.009462619463476735 -0.00951266215993315 -0.009415203775410576 -0.009466688409199162
          -0.01657714989091443 -0.01696033791976892 -0.01628628641322132 -0.016658103617893348 -0.01599542293552821 -0.01635586931601777
          -0.02571200429184437 -0.025645867449559802 -0.025134704568147825 -0.02509898336107947 -0.024557404844451274 -0.02455209927259914
          -0.00004808709854193434 -0.00006034703223546859 -0.00007260696592900283 -0.00007196888869030526 -0.00009485685452817287 -0.00011774482036604048
          -0.00019241349887181268 -0.0002348796704247692 -0.0002773458419777257 -0.0005460655490932565 -0.0006187008520629846 -0.0006913361550327129
          -0.0013523659380176869 -0.0014546869108993013 -0.001557007883780915 -0.0028903088962049517 -0.002997307657729816 -0.00310430641925468
          -0.005449190299861735 -0.005512389340863536 -0.005575588381865335 -0.00936334137216367 -0.00931299091524203 -0.009262640458320391
          -0.01553728216096516 -0.01528066532155931 -0.01502404848215346 -0.022317958237128954 -0.021859054553203763 -0.02140015086927858
          -0.0000809831290895446 -0.0001009114310046437 -0.00012083973291974281 -0.00014968220929842199 -0.0001829889080552767 -0.0002162956068121314
          -0.0003432061466972341 -0.00039668376376173235 -0.0004501613808262307 -0.0007868006030202533 -0.0008643064227770545 -0.0009418122425338557
          -0.0016640103867648394 -0.001757401034820945 -0.0018507916828770505 -0.0031995662463172887 -0.0032844999471152003 -0.0033694336479131127
          -0.005612009064579501 -0.005652988579594707 -0.0056939680946099126 -0.00912046695721856 -0.00906646301168836 -0.00901245906615816
          -0.014059083071858854 -0.013857629414247487 -0.013656175756636121 -0.018866925894529797 -0.018556599873081173 -0.01824627385163255
          -0.00014326622452784046 -0.00017520562413859584 -0.00020714502374935117 -0.00028072415959132474 -0.00032854503718156145 -0.0003763659147717981
          -0.0005757899734370103 -0.0006411665239269297 -0.000706543074416849 -0.0011332590884327932 -0.0012109169710009633 -0.0012885748535691331
          -0.002087296533628872 -0.002163188454733793 -0.0022390803758387144 -0.0035941337928786805 -0.003648581296883879 -0.0037030288008890774
          -0.005792918727240496 -0.00580605020906865 -0.005819181690896803 -0.008775830809162359 -0.008718019310394249 -0.00866020781162614
          -0.012355924771299804 -0.012224433051431647 -0.012092941331563493 -0.014451772241362472 -0.014330109555438227 -0.014208446869513983
          -0.0002584020730636395 -0.00030320921750962726 -0.000348016361955615 -0.0004927553091429738 -0.0005522816895833087 -0.0006118080700236435
          -0.0009130390849060846 -0.0009815158314119559 -0.0010499925779178273 -0.0015920093100579718 -0.0016566423569538025 -0.001721275403849633
          -0.00260535673550368 -0.0026515478492191865 -0.002697738962934693 -0.004036091160536078 -0.00405341883719446 -0.004070746513852842
          -0.005947320085443609 -0.005931955383896697 -0.005916590682349783 -0.00831518809540519 -0.008259659320615079 -0.008204130545824967
          -0.010593651595641221 -0.010540312841269793 -0.010486974086898361 -0.011197994888344498 -0.011246830681080382 -0.011295666473816269
          -0.00046394812240636586 -0.0005090128048411668 -0.0005540774872759677 -0.0008244693286058587 -0.0008757442999661459 -0.0009270192713264332
          -0.0013812297093314684 -0.0014274965017464086 -0.0014737632941613488 -0.0021650451089594855 -0.0021927239223361473 -0.002220402735712809
          -0.003193129933528858 -0.0031943638612679376 -0.003195597789007017 -0.004480644640210878 -0.004457822024172015 -0.0044349994081331525
          -0.006023408140502934 -0.005987402979117211 -0.005951397817731487 -0.0077172319511548005 -0.0076814615677544265 -0.007645691184354054
          -0.00885431678078807 -0.008888669794854039 -0.008923022808920007 -0.008447666730363826 -0.008649760656716153 -0.008851854583068482
          -0.0008022235758689976 -0.0008153201544260813 -0.000828416732983165 -0.001310302882437876 -0.001313783243645668 -0.00131726360485346
          -0.0019948297232690385 -0.0019795024133085603 -0.0019641751033480826 -0.0028413884895741783 -0.0028022628210515603 -0.0027631371525289423
          -0.0038167654471365792 -0.0037589012620817264 -0.0037010370770268735 -0.004879724823705402 -0.004819721031309779 -0.004759717238914155
          -0.005972229675791438 -0.00593412101222234 -0.005896012348653242 -0.006952298337939278 -0.0069659724303438465 -0.006979646522748415
          -0.0071526134217046585 -0.007289666528292811 -0.007426719634880964 -0.006135078423168941 -0.0064406679302620356 -0.006746257437355132
          -0.001275493680785511 -0.001249701180471478 -0.0012239086801574448 -0.0019323800781947532 -0.0018849787933492585 -0.0018375775085037638
          -0.00271599530984367 -0.0026441399479973943 -0.002572284586151119 -0.003569766431738691 -0.003478455826720635 -0.003387145221702579
          -0.0044195473387188535 -0.004323642926405069 -0.004227738514091283 -0.005181825375113128 -0.005105249053650974 -0.0050286727321888205
          -0.005763128666129885 -0.005734286978798292 -0.005705445291466699 -0.006026276909852185 -0.006079195596205229 -0.006132114282558273
          -0.005514012543060855 -0.005696180122322792 -0.005878347701584729 -0.004242155208590038 -0.004529614183836708 -0.00481707315908338
          -0.003277502332287297 -0.003210023581614805 -0.003142544830942314 -0.004041078442689565 -0.00396077943485858 -0.003880480427027595
          -0.004698877785337485 -0.004618605774661461 -0.004538333763985438 -0.005152579435101171 -0.005090446686182278 -0.005028313937263385
          -0.00530223602691791 -0.005277294734533759 -0.005252353442149608 -0.005036065505241121 -0.005071507442355772 -0.005106949379470424
          -0.004124830511944779 -0.004241799480971045 -0.004358768449997312 -0.002885504417084605 -0.003067055758549323 -0.0032486071000140423
          0 -0.000050855193265120026 -0.00007218766692242879 0 0.00009952564716948684 0.00021132597165412101
          -0.00014581943959280405 -6.4431429202865e-8 0.0001990512943389737 0.00047350713657336207 -0.0002194512122631793 -1.2886285840573e-7
          0 0 0.00000870006430722233 0 0.00001740012861444466 0
          0 0 0 -0.0000018160819389489503 -3.768697089182098e-7 0.000001425579735761103
          -0.0000036321638778979005 -7.537394178364197e-7 0.000002851159471522206 -0.0312181681055352 -0.028294028914061565 -0.033930246413857584
          -0.03467858914216909 -0.030615567804666396 -0.02781824213806201 -0.03347989114925212 -0.03414477247039793 -0.03001296750379759
          -0.027342455362062458 -0.03302953588464666 -0.03361095579862677 -0.00809347854036495 -0.003925181860933444 -0.0010374856565884072
          -0.004033190821572051 -0.008876913151624609 -0.004633216940447808 -0.0019261873701404654 -0.005220260070745972 -0.009660347762884268
          -0.005341252019962172 -0.0028148890836925244 -0.0064073293199198925 -0.018058733417313573 -0.017711614761842978 -0.022388256898424486
          -0.021989133582342977 -0.017841527901038275 -0.017616835334037798 -0.022085408673226788 -0.021619098579586757 -0.017624322384762983
          -0.017522055906232622 -0.021782560448029092 -0.02124906357683054 -0.005863657814730319 -0.007144043072936316 -0.004261272477214214
          -0.0033129682683488816 -0.0063546376632169724 -0.007485387813444549 -0.004725355632229454 -0.0038636946207976997 -0.0068456175117036265
          -0.007826732553952782 -0.005189438787244696 -0.0044144209732465195 -0.0031154537795169907 -0.004552167542616145 -0.0034279667775561056
          -0.004958827219584333 -0.00374047977559522 -0.005365486896552521 -0.025766626853978004 -0.02283489409342122 -0.02529586483278352
          -0.022598504116682266 -0.024825102811589023 -0.022362114139943313 -0.0000013023273423382174 0 0
          -0.000050855139556199394 0.00005584141304990289 0.00000745669466588281 -0.00001536177902250174 0.00048000974691907427 0.00011298515344214399
          0.000014913389331765612 -0.00003072355804500348 0.0010108746333943478 -0.030813806923825286 -0.029844330463777755 -0.03327193445299896
          -0.032687218769987855 -0.030179699896450272 -0.02916810036288783 -0.032628301365344406 -0.0320700634119165 -0.029545592869075266
          -0.028491870261997905 -0.031984668277689865 -0.03145290805384513 -0.02794824860783125 -0.03353717556149295 -0.027552479994971218
          -0.0332632116616791 -0.02715671138211119 -0.03298924776186525 -0.0001416460805022968 -0.000270419999897099 -0.000054651152243189574
          -0.00001530485391716462 -0.00020415039130238262 -0.0003356322209413285 -0.00006332842796110782 -0.000018755166529700463 -0.0002666547021024684
          -0.0004008444419855578 -0.00007200570367902609 -0.000022205479142236305 -0.03715979205875712 -0.04578166966442743 -0.04365583815748153
          -0.035468270915054396 -0.037346789156896126 -0.04569843560302474 -0.043462663706912194 -0.03540103279176431 -0.03753378625503513
          -0.04561520154162205 -0.04326948925634286 -0.035333794668474236 0 0 0
          0 -0.00008993899562106338 -0.00002101052824330021 0.000012648723990324033 -0.000036730654164823624 -0.00017987799124212676
          -0.00004202105648660042 0.00002529744798064806 -0.00007346130832964725 -0.00948543946632243 -0.008968991414989205 -0.009709054294209986
          -0.0093015718377261 -0.009932669122097544 -0.009634152260462995 -0.026657144362371855 -0.026103409823472645 -0.025549675284573435
          -3.59881817002596e-7 -0.00010530528261922684 0.0005399531630849061 0.0006564720824512318 0.0010802662079868147 0.0014182494475216906
          -0.00011402816122667468 -0.0010462782770891492 -0.00038881892337130615 0.00014269844060551022 -0.0013788522918058983 -0.0003830299531381087
          0.0003994250424376951 -0.0017114263065226476 -0.00037724098290491115 -0.014222868373233713 -0.012678409773250368 -0.02106939739007926
          -0.022152053140060125 -0.014820509389412125 -0.013415348502651532 -0.021194012093820234 -0.022087655543560975 -0.015418150405590539
          -0.014152287232052696 -0.02131862679756121 -0.022023257947061822 -0.03483367579830557 -0.03588579495054771 -0.03704980693873502
          -0.03417241986564891 -0.03532477177981052 -0.03647831506045702 -0.033511163932992256 -0.03476374860907333 -0.03590682318217902
          -0.0027380169133785705 -0.006575536234542437 -0.003092183772588952 -0.006946626270423388 -0.0034463506317993333 -0.007317716306304338
          -0.00013099600311613471 -0.0018009602536903117 -0.000655025578690474 -0.0026897959212122996 -0.001179055154264813 -0.003578631588734288
          -0.0037658056932055907 -0.0017078789238157103 -0.0043238431668794625 -0.0022271944282271 -0.004881880640553334 -0.0027465099326384897
          -0.042897177309684995 -0.041790908978468974 -0.04503851353195755 -0.04721717409680866 -0.04232899620355286 -0.041307422112608745
          -0.044674258280299445 -0.04681627562724148 -0.041760815097420724 -0.04082393524674851 -0.04431000302864134 -0.046415377157674305
          -0.013043933933240812 -0.013320858187074876 -0.018438381824609898 -0.013189505446173904 -0.0136172634326416 -0.01844506534688798
          -0.013335076959106995 -0.013913668678208323 -0.01845174886916606 -0.0005027747136699394 -0.00030379869105017073 -0.0007388318268856701
          -0.0005204552294588921 -0.000974888940101401 -0.0007371117678676135 -0.01309061891073407 -0.009473604688289308 -0.013117481186468355
          -0.009670647021067735 -0.013144343462202635 -0.009867689353846163 -0.006818109892335371 -0.008864328780522637 -0.0073601997678973685
          -0.00961831955847814 -0.007902289643459365 -0.010372310336433646 -0.003343263010799661 -0.0015351811755017514 -0.0039907618999364776
          -0.0019424370052210608 -0.004638260789073294 -0.0023496928349403703 0 0 0
          -3.191099460986517e-7 0 0 -6.382198921973034e-7 0 0
          -0.001489433306412973 -0.0008417629348076161 -0.0017948503545982047 -0.0017013653879680351 -0.0010034943958245393 -0.0021217283200713572
          -0.0019132974695230975 -0.0011652258568414626 -0.00244860628554451 -0.03756036957267651 -0.039233234504252805 -0.03877668620072563
          -0.037006864704336256 -0.0386945966687872 -0.038270994064877946 -0.03645335983599601 -0.03815595883332158 -0.03776530192903027
          -0.040166129146945354 -0.03964572577136751 -0.03912532239578966 0 0 0
          0 0 0 0 0 0
          0 0 0 -0.037297553810273595 -0.0387737834148075 -0.036821345860727425
          -0.03850911821565544 -0.036345137911181255 -0.03824445301650338 0 0 0
          0 0 0 -0.047661042156742474 -0.03947269142146113 -0.04736775854133791
          -0.03923786808837424 -0.04707447492593334 -0.03900304475528736 -0.028951256919118422 -0.027324043066391464 -0.028681785274000036
          -0.027353154157147157 -0.028412313628881643 -0.027382265247902843 0 0 0
          -0.0020516842128368417 -0.002268242861551716 -0.00248480151026659 -0.014489463389182985 -0.009171168915468772 -0.014841803295481449
          -0.009875378766073766 -0.015194143201779916 -0.010579588616678758 -0.0025961262823867436 -0.0030411601037038986 -0.003486193925021053
          0.00003738605538030689 0.0006607723509382239 0.0012841586464961412 0 -3.191099460986517e-7 -6.382198921973034e-7
          -0.0006681177232508299 -0.0008807230507988168 -0.0010933283783468037 0 0 0
          -0.00019509955426410424 0.0005896907350322902 0.0013744810243286848 -0.02297292253899051 -0.02310150498870471 -0.023230087438418912
          -0.04963046458532402 -0.049358531055487154 -0.0490865975256503 -0.03068706289783478 -0.030120024950336687 -0.029552987002838597
          0 0 0 0 -0.00010641668291247951 -0.00021283336582495903
          -0.004040739151469968 -0.004001223100068783 -0.003961707048667598 -0.0038529716590121324 -0.0038385902149384436 -0.003824208770864755
          -0.004460925648846642 -0.004419857786155838 -0.004378789923465034 -0.004028798132029088 -0.00401250059600148 -0.0039962030599738725
          -0.0046619290833606825 -0.00462683868523808 -0.004591748287115477 -0.0045600999633870175 -0.004538323424836512 -0.004516546886286006
          -0.004069400645776243 -0.0040728285082906966 -0.00407625637080515 -0.003071741552091213 -0.0031110247820206336 -0.0031503080119500543
          -0.0017802789329070545 -0.0018594100598103747 -0.0019385411867136946 -0.0015155302552091042 -0.0010622531546833796 -0.0016679932700411368
          -0.0011789223992095454 -0.0018204562848731694 -0.0012955916437357112 -0.00047065007316649443 -0.00018800034714095375 -0.00017314596673444113
          -0.0005643949827673983 -0.0004905603394546991 -0.00019321377959863277 -0.0001894824634978887 -0.0006215523167694959 -0.0005104706057429036
          -0.00019842721205631176 -0.0002058189602613363 -0.0006787096507715935 -0.000008996179811108689 -0.000009157679640928008 -0.000009319179470747327
          -0.0008648447533029415 -0.0009099547722369466 -0.0009550647911709515 -0.00003930415290861626 -0.00003886001293812202 -0.00003841587296762777
          -0.003585159086909833 -0.00363418143790528 -0.003573892461737115 -0.0036227774429963143 -0.0035626258365643957 -0.003611373448087349
          -0.004003782480556863 -0.0039872083738486585 -0.0039706342671404545 -0.003348192584325764 -0.0033385589984597447 -0.0033289254125937248
          -0.0037178141778565284 -0.003703629423584407 -0.003689444669312285 -0.003120141918617699 -0.0031155369521412915 -0.0031109319856648834
          -0.002201479458338922 -0.002212849888316208 -0.0022242203182934947 -0.0012516824944941761 -0.0012705514603518929 -0.0012894204262096098
          -0.0005788458944311039 -0.000591845601896814 -0.0006048453093625242 -0.000009780549254964601 -0.00018549330656323276 -0.000135666752966934
          -0.000010644866273231295 -0.00018775949854156783 -0.00013839162969254406 -0.000011509183291497988 -0.00019002569051990287 -0.00014111650641815412
        </DataArray>
        <DataArray type="Float64" Name="disp_x" format="ascii" RangeMin="0" RangeMax="0.00003013575992345646">
          1.4757524476447464e-7 0 1.4911110431689424e-7 0 1.535640242561255e-7 0
          1.419945401241924e-7 0 1.4537253227785297e-7 0 1.554545181664072e-7 0
          1.4810622668633316e-7 0 1.542518495842522e-7 0 1.7301615530048687e-7 0
          1.8776706477522238e-7 0 1.963411952594676e-7 0 2.249567988773016e-7 0
          2.9357135172717453e-7 0 3.050933761248564e-7 0 3.416198210900675e-7 0
          5.093132312136792e-7 0 5.20060069778511e-7 0 5.539775529021699e-7 0
          8.772905394099506e-7 0 8.80697680691564e-7 0 8.931344162777737e-7 0
          0.0000014440802898305086 0 0.000001429425364460432 0 0.0000013916460594555981 0
          0.0000022937246982862266 0 0.000002251083038163957 0 0.0000021170604582418994 0
          0.000003912180184568427 0 0.00000381628143125047 0 0.0000034881188530467043 0
          2.9666408616528605e-7 3.0025681262931424e-7 3.107629339195784e-7 2.888192987069356e-7 2.9610007779522606e-7 3.1808298540643275e-7
          3.0689687378518854e-7 3.191657367470365e-7 3.579161145015906e-7 3.9236654754004865e-7 4.101411344639339e-7 4.6810696414215825e-7
          6.112384979328846e-7 6.337729400485425e-7 7.054363404586938e-7 0.0000010463174375580845 0.000001066769249899396 0.000001131261385512451
          0.0000017803762804166412 0.0000017859059366092658 0.000001807213294541137 0.000002901245144250393 0.000002873582286399813 0.0000027996297830159704
          0.000004577600181962346 0.000004494171155497261 0.000004242132217836039 0.000007640164773770654 0.000007455867332448438 0.0000068470161011396365
          4.493370962550804e-7 4.56128462562292e-7 4.7615423924852313e-7 4.4611573157609194e-7 4.5846642250726e-7 4.962156796067363e-7
          4.868678834280194e-7 5.062124829197614e-7 5.680503401390161e-7 6.314841975714758e-7 6.590957615948319e-7 7.476332079788975e-7
          9.764560317708599e-7 0.000001009216996571084 0.0000011127643422706317 0.0000016370910287832586 0.0000016650846015250386 0.000001753517673339664
          0.000002732103934453616 0.000002737717735395633 0.0000027615881117111567 0.000004385339766053043 0.000004345988274986884 0.0000042379987300929595
          0.000006821136396009447 0.000006703911650879788 0.000006360137121348343 0.00001101471002825696 0.00001076441558364789 0.000009961915953257048
          6.092768289625858e-7 6.21157338060436e-7 6.560211103847029e-7 6.213077792388841e-7 6.406579751809057e-7 6.99870391810124e-7
          7.004302043459596e-7 7.286596610583967e-7 8.180224193416903e-7 9.240404170001429e-7 9.618738716846737e-7 0.0000010806551576017707
          0.000001411956363786343 0.000001453343757674167 0.0000015830501235456965 0.000002304285604019489 0.000002336666778244207 0.000002439474595016974
          0.000003750354239765695 0.000003753511668490048 0.00000377181598829682 0.0000058993012064068536 0.000005849074620942413 0.000005709536655942463
          0.000008995475856908485 0.000008854992040071295 0.000008448650141808161 0.000013894224433226194 0.000013614603301678213 0.000012737134864613
          7.832107883509227e-7 8.024829723574737e-7 8.592874843228916e-7 8.252583534823443e-7 8.538198238595706e-7 9.406920544468124e-7
          9.634946877154176e-7 0.0000010020716238229639 0.0000011218039795777823 0.0000012901169019841908 0.0000013371137464466466 0.0000014827189645508145
          0.0000019386212126499752 0.000001985578810646128 0.0000021323567703571385 0.0000030656729193729794 0.0000030985608993967227 0.0000032040057007197905
          0.000004843237518562598 0.000004841098445635818 0.000004845406492280607 0.000007434556294376815 0.0000073755052233847935 0.000007207408345497028
          0.000011058873766296946 0.000010904735267603412 0.000010466431074070212 0.00001632242876147079 0.000016048408043217727 0.000015193407789405117
          9.83090839144753e-7 0.0000010112190743358298 0.0000010950897620376788 0.0000010746582985896143 0.000001112841361556322 0.0000012297456310116265
          0.000001296709317070384 0.0000013439942589098518 0.0000014910981825758907 0.000001750322483145436 0.000001802521465419117 0.0000019658510669322947
          0.000002573950876266472 0.000002621474965249366 0.0000027722622704771555 0.0000039316891407197865 0.000003960695206248631 0.000004056034323542235
          0.000006008004262946792 0.000005998876373610832 0.000005982448808524247 0.000008967964043665917 0.000008902779954153655 0.000008711710320949446
          0.000012976254307137117 0.000012822001259896154 0.000012379515475305793 0.000018316938869306517 0.000018072983571515604 0.000017314634731656833
          0.0000012288145482198659 0.000001262109740712624 0.0000013692830303374353 0.0000013939784294020648 0.0000014357882562746829 0.0000015740395202915139
          0.0000017247654990948762 0.0000017729825274081293 0.000001933033239790295 0.000002324637323931659 0.0000023737343157559052 0.0000025368060847701364
          0.000003330040246641502 0.000003371135052670767 0.0000035085271489509937 0.000004903873523700469 0.0000049248822381843984 0.000004997856363774088
          0.000007230091373321868 0.000007214734455170849 0.0000071752927226817855 0.000010466084767140943 0.000010400918706230889 0.000010198688954892813
          0.000014707599488681461 0.000014569458558506182 0.000014153238606988402 0.000019913218882186465 0.00001972578826260737 0.00001911453829079336
          0.0000015465234843013375 0.0000015733921419947077 0.000001683439069624239 0.0000018105871932704975 0.0000018431179160737966 0.0000019757670568763184
          0.0000022714423800790603 0.000002307416138044576 0.0000024499984959628173 0.000003028527309563612 0.0000030634715211618412 0.0000031980269326590107
          0.000004211110892163119 0.0000042384481643278786 0.000004341202302342567 0.00000597342273615008 0.000005984060209860606 0.0000060249222838027265
          0.00000848607956831037 0.000008468695424630902 0.000008411775197951818 0.000011886791372191694 0.000011833050839816696 0.000011642882331650925
          0.00001621453519867189 0.00001611172806051315 0.00001576366718924931 0.00002118687586820899 0.00002106630909950242 0.000020631975477989992
          0.00000294014762994244 0.0000029693200884638256 0.0000030630815197574464 0.000003858543811101844 0.000003884630151757958 0.000003967248861029855
          0.000005204880057037844 0.000005223212929528626 0.000005278786980767407 0.000007119179628978438 0.000007122897931567294 0.000007131467804095165
          0.000009750077357612886 0.000009731356538020259 0.000009669793663079728 0.000013205764204827718 0.00001315867281664453 0.000013005554462393813
          0.00001748365244833755 0.00001740269335412893 0.000017153064811360228 0.00002219417780571251 0.00002210761667066294 0.000021836502304827912
          0.000028386372905187028 0.000027820887911204608 0.000027819230578303344 0.000028387490970598322 0.000028388207443110927 0.000027803436126350716
          0.00002782178684775348 0.000028386828912814506 0.000028354038363436343 0.000027896203429046037 0.000027826089276801742 0.000028389362368250273
          0.000028921273982717735 0.00002895763821925459 0.00002891403499399561 0.00002895665719072839 0.000028942602006075393 0.000028966906579182168
          0.000028884203432250222 0.00002929683321512778 0.00002930957706979106 0.000028865472623791675 0.000029290487859647065 0.00002929407394539565
          0.00002890051458835329 0.00002930858121344535 0.0000293338438454077 0.000007551385949701875 0.000011425149922361745 0.000009130806845562072
          0.000006541472042553404 0.000007258543328616885 0.000011020712905462483 0.000008782659232883167 0.000006268942924624531 0.0000063984174384902554
          0.000009765108644547784 0.000007670879132962913 0.000005464760144092708 0.000024995988078396697 0.00002559257534926136 0.000026713848867701635
          0.000026309353329356497 0.000024828372552393625 0.000025448170560246872 0.00002683359044959374 0.000026285143980056898 0.000023982510450142243
          0.000024661386128917313 0.000027110258695975296 0.000026186701289845775 0.000014460471251336245 0.000015939139545076477 0.000013325116508533089
          0.00001186190073186929 0.000014137831275530021 0.000015551639215679842 0.000012940101740743104 0.000011563204938907312 0.000013086956695127586
          0.000014339474337980094 0.00001174977047381277 0.000010588366461203506 0.000022473378443467187 0.000020993958730456464 0.0000227368621243926
          0.00002410746641511274 0.000022235978496362634 0.00002071460368271283 0.000022558396115070656 0.000023967810222688115 0.000021416739358253166
          0.000019882600713936277 0.000021974778105930735 0.000023397425693377114 0.000022658324688355872 0.000021592841056154537 0.000022546817253556713
          0.000021432164168581206 0.00002217078154497672 0.00002089527825862427 0.000011266171921758597 0.000014531104900001077 0.000010898974405895368
          0.000014098908264947833 0.000009781857180357749 0.000012758318938977207 0.00002860897865467796 0.000029033133733302106 0.000029129967425931148
          0.000028570913040132455 0.00002860297450367195 0.00002901971484949335 0.000029109766475506937 0.000028563038393660627 0.000028520105447046244
          0.000028963735988758606 0.000029033339778456965 0.000028476166784160897 0.00000217605558121806 0.0000048135808516069195 0.000003632406644848029
          0 0.0000021325143624751534 0.000004682596600534454 0.0000034957052710716027 0 0.000001918390505700758
          0.000004204116008521522 0.0000030726387073596874 0 0.000013482327298211681 0.000011828196664111219 0.000013030128113205866
          0.000011431830408356625 0.000011516204904213715 0.00000995221020399371 0.00002769027351029513 0.000027410209720373195 0.000028197315694438603
          0.000028419433532557747 0.00002769405422394031 0.000027407612735015352 0.00002819732165424627 0.000028419181561283074 0.000027676952493161526
          0.000027387891397676695 0.000028196603421925128 0.000028420273207231655 0.000017109194563728513 0.000009263327051442442 0.000008951842164642838
          0.000014997361021007533 0.00001691954757556826 0.000009037405130050945 0.000008678915786521678 0.00001458532415385089 0.000015153339348597452
          0.000007777680718663658 0.000007306282408838005 0.00001249223144209266 0.000029700554533126903 0.000029426139074683626 0.000029362213281473562
          0.00002967561484349543 0.00002965546167332256 0.00002939047697538868 0.0000293340262677057 0.000029657192434198497 0.00002977776297041625
          0.00002942415103553059 0.00002940958196501399 0.00002960668797299989 0.000019881529087305314 0.000020644946120573692 0.00001958487103569426
          0.000020333345385196324 0.000018597887158764276 0.000019294073860054027 0.000008678080623455537 0.000008407414422346064 0.000007567289007151442
          0.000028109880737277527 0.000027577786969408815 0.00002810158826282825 0.00002758228347118408 0.000027983030699850224 0.00002794198730422943
          0.000027144856668816373 0.000026647971282641918 0.00002721508341300249 0.00002722738848393687 0.000026519259423859258 0.000027184396503140728
          0.00002779328086873382 0.000026124731462895248 0.000027039870965286007 0.00002083755482330404 0.000022640672736861918 0.00002068512416156469
          0.000017273698219139704 0.00002036210842713763 0.000022193677109955482 0.000020129282513076877 0.00001672292809588258 0.000018927249141595047
          0.000020848670838739126 0.000018365234348905754 0.000015008911938815452 0 0.000003522942142729784 0
          0 0.000003369408041075153 0 0 0.000002940338260301253 0
          0.00002381498199287803 0.00002053751158427061 0.000023709915219749992 0.000020299209983347462 0.000023345554669336175 0.000019570657805167193
          0.000027316107019321896 0.000027493743121867836 0.00002737054967814998 0.000027348196854512197 0.000027334894912813412 0.00002682065276413076
          0.000025075147091702008 0.000026158982937327153 0.000024910742423918276 0.00002605974864248731 0.0000241721864166195 0.000025688897845351105
          0 0.0000036530145023329474 0.000004478766978769919 0 0 0.000003473341010748971
          0.000004311362178283911 0 0 0.0000028845691002389256 0.0000034997691959038232 0
          0.00001860459302988911 0.000019949234132545506 0.000017283393218584972 0.00001824450042515223 0.000019568636797359096 0.000016852637641251032
          0.00001707572556672781 0.0000182917207831958 0.0000155043544138613 0.000027058913823110238 0.000027340088253233744 0.00002704787937882455
          0.000027335237441426057 0.000026956049129625597 0.000027267923551563288 0.00001729445073060778 0.000018927057749167438 0.000016973758235264704
          0.000018642963820712597 0.000015933500122840102 0.000017760490498505954 0.000023233717693811583 0.00002346950399191038 0.00002297095487313655
          0.000023124596415006596 0.00002199171008715834 0.000021965417685576807 0.000024599838235832047 0.000025713507637092883 0.00002443836039839385
          0.00002563590370679753 0.00002379170635669501 0.000025338172006227147 0.000029633010452783284 0.000029326432512786586 0.000029615130177830884
          0.000029618794309438004 0.000029321831386187958 0.000029606385468295647 0.00002962071779955773 0.00002933888808944104 0.000029615135472884843
          0.000025295873609875915 0.00002655125301496876 0.000025120435788204646 0.000025236167740005676 0.000026529531750757938 0.00002503532080729139
          0.000025060943198620214 0.000026455621145089326 0.000024733696881110935 0.0000031890103991340404 0.0000025941559127773203 0
          0.0000030471486850743067 0.0000024507248818601425 0 0.0000025810379952832434 0.000002074030397342385 0
          0 0 0 0.00002959439389809654 0.00002930667924866252 0.00002920459480011645
          0.00002958889500887496 0.000029591549198067552 0.000029305964503735053 0.00002920485209706249 0.000029587546129136055 0.00002960185009976499
          0.000029318356666026384 0.000029216370086063828 0.000029598207932187067 0.000006000954168794267 0.000007009594216230268 0.0000057403828547802435
          0.000006693959600167438 0.000004908391602610171 0.000005740708954177388 0.0000293302445733628 0.000029602138502034927 0.0000293282424892297
          0.00002959701030074928 0.00002934162823148118 0.000029607745769707636 0.000004869747033257434 0.00000947707087853958 0.0000047356820029682975
          0.000009147386151288107 0.000003947762164091085 0.000007602951351519862 0.00001654325051363933 0.000019557472884586218 0.000016011555840828114
          0.00001916829604306691 0.000014046128044068613 0.000017272884096309935 0.000028955495009198612 0.00002895564275926408 0.000028966086691224966
          0.00002380850085851035 0.000023716551277527227 0.000023467141077991853 0.00002443266080467468 0.00002607224133041156 0.000024211046872484605
          0.000026001374649126996 0.000022800209993567266 0.0000254856307532867 0.00002429049942395267 0.000024187000611569417 0.00002375377651708405
          0.000027730871313495394 0.00002774170755971599 0.000027836769408517834 0.000029654632285205737 0.00002963599082538862 0.000029617148338259564
          0.00002670361247694685 0.000026682324971144656 0.000026571076843539775 0.00002892332917034761 0.00002892541271600557 0.000028933800169827084
          0.000027830860929324047 0.000028013607411026463 0.000028173824602385397 0.000023855771523802464 0.000023674342034289838 0.00002192789885286893
          0 0 0 0 0 0
          0.000029587166757100143 0.00002958735179935637 0.000029598289288049977 0.000029712498120531496 0.000029646745753062717 0.000029822474116433366
          0.000007562342064041159 0.000007563329007140841 0.000007546407130944696 0.000011493400602413231 0.000011483180078504912 0.000011464624475377698
          0.000009462339273131784 0.000009456661800232353 0.000009423098032686877 0.000013781761013823065 0.000013766226554935321 0.000013730011811435657
          0.000011816587806602592 0.000011803227852596376 0.000011753203853062522 0.000014671050891424744 0.000014648995382146115 0.00001458394259731682
          0.0000180151777482899 0.000017983999177459867 0.000017906780322419586 0.000021673331487963697 0.000021637880466107998 0.000021561192391473503
          0.000025250828421264212 0.000025235357811561553 0.000025192664040853383 0.00002521992608237233 0.000026231733550061165 0.000025180624841950353
          0.000026223595254526764 0.00002507814650618204 0.00002616683210348744 0.000027757837062393496 0.000028527428697764025 0.000028156820970795333
          0.000027238774989285886 0.000027755486543714973 0.00002852880303490352 0.000028156920781199035 0.000027234255389926445 0.000027748274021647833
          0.000028532654919033268 0.000028160429468038018 0.000027218304984108924 0.00002890557077643817 0.00002890751829611288 0.000028917010252327407
          0.000026844704833945724 0.000026841287069611778 0.00002681492628973953 0.000029772548296428322 0.000029773884784232264 0.000029780986182276398
          0.00001797018192213642 0.000015508163387519 0.000017958046331191823 0.000015501609584249394 0.000017921186179090804 0.0000154808417694367
          0.00001636963587568362 0.000016349993393930387 0.00001629799909031518 0.000020547072307434222 0.000020530180026831575 0.000020478729420007694
          0.00001920676464144292 0.00001918539558645681 0.00001912127849945047 0.00002216577392659823 0.000022144748498342818 0.00002207544093071449
          0.000025001868250293138 0.000024989008427863134 0.00002492797301578589 0.000027193102036079254 0.000027187409464568767 0.000027162239110908704
          0.000028041793338971212 0.000028037034510128803 0.000028027695874569615 0.00003013551110816279 0.000028964783378163908 0.00002956633745489308
          0.00003013575992345646 0.00002896400888173291 0.0000295656224216757 0.00003013480524984472 0.000028960320697330386 0.00002956403369255349
        </DataArray>
        <DataArray type="Float64" Name="disp_y" format="ascii" RangeMin="-0.000021795126098240008" RangeMax="-0.0000031123860499269134">
          -0.0000031154629431895774 -0.000003115076110278388 -0.0000031143250347786066 -0.000003114158774275804 -0.0000031131681677887977 -0.000003113621977075948
          -0.0000032965375053508246 -0.0000032941203218078148 -0.0000032935101962976622 -0.000003291363146732661 -0.000003287659782485458 -0.0000032864027379527737
          -0.000003469039525274059 -0.0000034618587676186643 -0.0000034620128729748203 -0.0000034550575292399333 -0.000003444173746977891 -0.0000034384447186464786
          -0.0000036556140292513153 -0.0000036396258973935303 -0.0000036410814951495992 -0.000003625233110237133 -0.000003597723332940774 -0.0000035829102931685964
          -0.000003900124350246912 -0.000003870438019290275 -0.000003872682045859971 -0.000003842864700333722 -0.0000037848045405047233 -0.0000037550943133134452
          -0.000004270920646773109 -0.0000042223455363986825 -0.00000422430419147028 -0.00000417529111930853 -0.000004070822997253236 -0.000004020450053887584
          -0.000004852617286507981 -0.000004779883571773956 -0.000004780900527317994 -0.000004707566107791702 -0.000004544690053408284 -0.000004468048206496963
          -0.0000057397349270862504 -0.000005635172673566241 -0.000005636837156831231 -0.000005530865165297872 -0.000005299634656639177 -0.000005188021402185043
          -0.000007033916031188365 -0.000006876072979254256 -0.000006896034870982171 -0.000006730708102093183 -0.000006415651912425354 -0.000006230832960902878
          -0.000008779329463127317 -0.000008506005164451411 -0.000008597244794090395 -0.000008312278501923349 -0.00000789541030425794 -0.000007545980460459613
          -0.000003117147834733808 -0.0000031153708559376728 -0.0000031123860499269134 -0.000003304815520538138 -0.000003301047275298054 -0.000003292529343688421
          -0.0000034920922330868015 -0.0000034845827624006716 -0.000003463731076962804 -0.000003705456679494539 -0.000003690644510873304 -0.000003644812902229137
          -0.000003991406345209302 -0.000003964382179737609 -0.000003876391324460773 -0.000004418293608718091 -0.000004372945096076661 -0.000004223397603099688
          -0.000005071172331104739 -0.000005001749573753991 -0.0000047753779852314095 -0.000006054241733181662 -0.000005955416067940789 -0.000005636129224292068
          -0.000007496748900182959 -0.000007374913050144219 -0.0000069445237435196475 -0.000009556418279819977 -0.000009394790579315668 -0.000008819491802572638
          -0.00000312174461558337 -0.0000031189805906204696 -0.000003112868563337156 -0.0000033217320432581343 -0.0000033170205775557004 -0.0000033042980720818755
          -0.0000035355482568617713 -0.0000035272827882758942 -0.0000035014464478390497 -0.0000037947279848150436 -0.0000037797074874578316 -0.0000037302738664146095
          -0.000004150214240720863 -0.000004123675088009417 -0.000004035653691684123 -0.000004668289318134314 -0.000004625162581566984 -0.000004482413231490368
          -0.00000543553645980449 -0.0000053699674977673835 -0.0000051600508911702585 -0.000006575675048401469 -0.000006484854351069486 -0.0000061949013556522125
          -0.00000822428770069353 -0.000008122429679246406 -0.000007759838394078938 -0.000010425877835926717 -0.000010316853671766885 -0.00000994089315722567
          -0.0000031320683200666123 -0.0000031281866157015286 -0.0000031178388016199723 -0.000003352482778258743 -0.000003346712721246476 -0.000003328183513981351
          -0.000003606047782816789 -0.000003596753671589368 -0.0000035648260214097374 -0.00000393166342016493 -0.0000039163328144546355 -0.000003862557369906114
          -0.000004383773133327487 -0.000004358113552297111 -0.000004270750839925839 -0.000005025663316000126 -0.0000049854929946211205 -0.000004852819879321904
          -0.000005945433356808741 -0.000005885859398738828 -0.000005698389526849888 -0.000007276267152487822 -0.000007195820712748714 -0.000006945265120286493
          -0.000009141139274153367 -0.000009063317249777873 -0.000008783136873409674 -0.000011508836424125508 -0.000011456914048041312 -0.000011281985247333655
          -0.000003152633390483651 -0.0000031475612941789735 -0.0000031314566766054676 -0.0000034035859040374715 -0.000003396450668491158 -0.000003371139563270258
          -0.0000037120115498151443 -0.0000037018513892178686 -0.0000036633682369334514 -0.000004124771483676234 -0.000004109202997116252 -0.000004051651015595755
          -0.00000469827329382567 -0.000004673662639743932 -0.000004589015034946217 -0.000005492760999169968 -0.000005456157562301155 -0.000005336889916348377
          -0.000006592811678843758 -0.0000065406326190112 -0.000006380335052369803 -0.000008120858074560132 -0.000008054488041594747 -0.000007852558852962391
          -0.000010167440930709885 -0.000010115262288650233 -0.000009924202800393163 -0.000012699422345628361 -0.000012674340941175122 -0.000012628805954797702
          -0.0000031894678560060343 -0.0000031827467356936677 -0.0000031596719453366704 -0.000003482774711983584 -0.000003474306097414085 -0.0000034416122411383053
          -0.000003863149725803989 -0.00000385181332285196 -0.0000038070232838770234 -0.000004382723315586222 -0.000004366448227125515 -0.000004306111321633381
          -0.0000050977557592256655 -0.000005074198434790294 -0.000004994423018929949 -0.000006066307981299604 -0.0000060335589001474165 -0.000005930545101333062
          -0.000007359686233256476 -0.000007316046394610406 -0.000007186802479476791 -0.000009070676735460989 -0.000009020773248685009 -0.000008872212703624942
          -0.000011251821549854608 -0.000011218996825548251 -0.00001110766760485664 -0.000013779704358258066 -0.000013789580650802318 -0.000013846471641196675
          -0.000003249529745466184 -0.000003240964743244341 -0.0000032099555278996336 -0.000003599742356872759 -0.0000035892738117058627 -0.0000035487898952692854
          -0.000004068956949093291 -0.000004055395153036429 -0.0000040044612792835555 -0.000004710994286510373 -0.000004693199026605861 -0.0000046312812926941
          -0.00000558126436860542 -0.000005558442109391985 -0.000005485392389671253 -0.000006734211439425851 -0.000006705625144675126 -0.000006620854593864567
          -0.000008220322822890553 -0.000008186257895729783 -0.000008090474460906389 -0.000010084759937271133 -0.000010051591020891225 -0.00000995586365534089
          -0.00001232978247355943 -0.000012317199204328083 -0.000012278027810594929 -0.0000148043935900862 -0.0000148264513723696 -0.000014932890264213752
          -0.0000033425954428923955 -0.0000033309033728633067 -0.000003290899741315316 -0.000003765065039022352 -0.0000037504209708710706 -0.0000037009669669789613
          -0.000004336466444596488 -0.000004319076164341922 -0.000004261401150737498 -0.0000051106204243383865 -0.000005090746332066532 -0.000005027698967768686
          -0.000006141006444556161 -0.00000611938573058517 -0.000006053868902633045 -0.000007473580708304362 -0.000007451192718251902 -0.000007386166379166253
          -0.000009138226952539333 -0.0000091172338240237 -0.000009056558213848237 -0.000011123241805665756 -0.000011110392244143733 -0.00001106731525611696
          -0.000013366497145893922 -0.000013370944469186064 -0.000013387789920212497 -0.000015766492831011292 -0.000015792529402178248 -0.000015929336796247398
          -0.000004666685111422454 -0.0000046468312167494495 -0.000004584019035796479 -0.000005576732622541112 -0.000005555419861843784 -0.000005493747679624217
          -0.000006761442915157567 -0.000006740632880987579 -0.000006686323312258013 -0.000008257231186067075 -0.00000823854894383487 -0.000008197755124884498
          -0.000010072603893502153 -0.000010058830676799038 -0.00001003826199095042 -0.000012157079666824072 -0.000012155176070191062 -0.000012169016826153203
          -0.000014368191589186548 -0.000014380227156687784 -0.000014452240640876973 -0.0000165154045741561 -0.000016555510268562663 -0.00001667362705864064
          -0.000016685205873197576 -0.000016689740656193602 -0.00001714184221822308 -0.000017269176973212753 -0.000016745684072289052 -0.000016754075238312196
          -0.000017192133144806802 -0.000017314405870495328 -0.000016882409821316476 -0.000016927655734537493 -0.0000173448646149795 -0.00001741020096648009
          -0.00001688412452806293 -0.000017338743131178954 -0.000016938382928956938 -0.00001737589993472549 -0.0000170241996045355 -0.00001746145547785643
          -0.000016393931596356037 -0.00001690055374110648 -0.00001651409968475104 -0.000016453986631123653 -0.000016951623144558087 -0.00001657638011490816
          -0.00001667274146615522 -0.000017041033376050697 -0.000016733014558110614 -0.000010512234080563918 -0.0000113756241360986 -0.000011549382324138493
          -0.000011151410868360787 -0.000010258296976512887 -0.000011197014590132735 -0.0000112553088856061 -0.00001082215664700399 -0.000009304412919802715
          -0.000010397802822485275 -0.000010108503620617906 -0.000009598809901970467 -0.000014577988770495688 -0.00001522786946301785 -0.000015209295694483899
          -0.000014618443994118687 -0.000014647559064348213 -0.00001549290408930741 -0.000015394687690907565 -0.000014683067193443744 -0.000014913894628753268
          -0.0000159746147226977 -0.000015480695311348914 -0.000015143461489186193 -0.000011617138252125987 -0.000012224851403347526 -0.00001137462550877672
          -0.000010895595295258642 -0.000011556589034394807 -0.000012191396528203551 -0.000011289307761941659 -0.000010782567250513772 -0.000011327468957325978
          -0.000011995174662313715 -0.00001090174170986887 -0.000010349439037241338 -0.000015240762225112976 -0.000014767859155424294 -0.00001580165940311232
          -0.00001611013028169615 -0.000015299825889805144 -0.000014800579355233163 -0.000015841367454591057 -0.000016171245501958157 -0.00001553962139789684
          -0.00001497398642890458 -0.000016056316099635748 -0.000016436014405933633 -0.000016466269840502883 -0.000015582371931786067 -0.000016505080169849
          -0.000015610997682940072 -0.00001668800398948364 -0.00001576476072504277 -0.00001093719437999791 -0.000011758663821934445 -0.000010787944448451064
          -0.000011695814989223501 -0.000010169173074949865 -0.000011355136465437087 -0.000015911865570099456 -0.00001594439642882078 -0.00001544287600413912
          -0.000015228637967666341 -0.000016009141402735646 -0.000016017053125653998 -0.000015533113281431333 -0.000015317865706265696 -0.00001617349509089068
          -0.000016250951595939717 -0.000015834227780300634 -0.00001585217773571075 -0.000008989584366796888 -0.000009404442316564243 -0.000009894704548027049
          -0.000009299623446388531 -0.000008788001432719814 -0.000009193613826520364 -0.000009644256265749838 -0.00000906552500552167 -0.000007966559508798147
          -0.000008374512231984842 -0.000008625097402413051 -0.000008103799066282064 -0.000012205185555013956 -0.00001255212644615354 -0.000012043593691974842
          -0.00001224636917928053 -0.000011275205111410717 -0.000011020276280648268 -0.000017623589373935646 -0.000018260865545709698 -0.000018355501432641018
          -0.00001786293805725298 -0.000017666217823894853 -0.000018292981796368153 -0.000018383798253861767 -0.000017894808820176513 -0.000017792367337897183
          -0.000018386694447186513 -0.000018451760709705802 -0.000017974142670418486 -0.000017898920163314485 -0.0000192426138695664 -0.000017300474892371355
          -0.000015465698447138736 -0.000017298246345808728 -0.000018503188315636023 -0.000016616007005397782 -0.000015029734721537609 -0.000015435073536480904
          -0.000015080831307844056 -0.000013802451077560872 -0.000013629558941763077 -0.000015892532768940885 -0.000015848252308748477 -0.000016125268473077695
          -0.000016267034261202 -0.00001596606427280705 -0.000015922271872576573 -0.00001618279014224829 -0.000016329460537992936 -0.000016183668503329313
          -0.00001624133816191129 -0.000016472384796421263 -0.000016558172782579493 -0.000013944818153614372 -0.00001414936245650243 -0.00001396181188912394
          -0.000014194499016920039 -0.000014081889788113405 -0.000014371016891709843 -0.00001009883959566279 -0.00000990712320560621 -0.000009221294123684272
          -0.000016074525436283342 -0.000016225533503563756 -0.00001618250030189749 -0.000016290314793436172 -0.00001637322070368214 -0.00001630126296289231
          -0.00001581367291237012 -0.000015941647621648683 -0.000016524435932513516 -0.000015720829400173475 -0.000016000564591715 -0.000016563461716408803
          -0.000015755697106359854 -0.00001647567270793623 -0.00001688850711212723 -0.000013713581316820688 -0.000014106383659493333 -0.000013086589159559131
          -0.000012561538521311619 -0.000013827764879732986 -0.000014189121087380771 -0.000013111688121925726 -0.00001254382019949635 -0.000013999794960258418
          -0.000014411331729722933 -0.000013403027723907834 -0.00001237290288356048 -0.000010144445142721593 -0.000010912706403681877 -0.000011056140580565969
          -0.000009847238288686054 -0.00001056828328795353 -0.000010690923420338182 -0.000008672375652061133 -0.000009273376308812201 -0.000009271057814760459
          -0.000016765273249707342 -0.000014808255468937937 -0.000016809769172761048 -0.000014838198834051541 -0.000017020159105898527 -0.000014991153958564579
          -0.000015110233524958937 -0.00001446979213844115 -0.000015271879997537035 -0.000014468516967559838 -0.00001558664224172792 -0.000015317699433334424
          -0.000015590831343386098 -0.000016447336224046546 -0.000015687649101079917 -0.000016488765235489032 -0.0000160873984596298 -0.000016822051208239288
          -0.00001586939844760048 -0.000014424002659383011 -0.000016107978279039946 -0.000017647809746699376 -0.000015091196380906101 -0.00001380398486228914
          -0.000015410040016899475 -0.000016749492183554287 -0.000012093015064165313 -0.000011493702544528722 -0.000012561214350633931 -0.000013057317055468208
          -0.000013345560183798439 -0.000013619107418853095 -0.000012659514402940015 -0.000013359752382929305 -0.00001368220866475423 -0.000012642133808445913
          -0.00001336325062636236 -0.00001376620660780324 -0.000012457037839473713 -0.00001720222622236708 -0.0000169715323094761 -0.000017255248841426733
          -0.000017023081197012455 -0.000017453127835797046 -0.000017235204263546656 -0.000012834021230174651 -0.00001383031582705415 -0.000012813954298482132
          -0.0000138280634727315 -0.000012776020881271778 -0.000013896069028785408 -0.000015116394761251219 -0.000014700275325766956 -0.000015209432373454292
          -0.000014841771111977386 -0.000015517892367798122 -0.000015178157614104986 -0.000015926863494780547 -0.00001693299129470303 -0.00001599072739587766
          -0.000016983996966081366 -0.000016300099030570795 -0.000017219610093965076 -0.000016968121108025756 -0.00001723232732753991 -0.0000172937822577584
          -0.000017014770761435846 -0.000017271538262859026 -0.000017330045482205857 -0.00001709876705692707 -0.000017347785229550864 -0.000017403482496425906
          -0.000017709506134762 -0.000018104548165055358 -0.000017092667776792042 -0.000017751081993258418 -0.00001814232641054935 -0.000017142137152488283
          -0.00001789584152355436 -0.000018275971568218385 -0.00001736157616340947 -0.000011728109157154617 -0.00001298903426778003 -0.000012587163775500423
          -0.000011301142616850086 -0.000012471595166537296 -0.000012091201830550726 -0.000009757069019098632 -0.000010541861667896009 -0.000010190908133324317
          -0.000014176244940610845 -0.000013528033629645833 -0.000011134331831788305 -0.00001789695803157319 -0.000017786190633635964 -0.00001805710831452941
          -0.00001818048808308229 -0.000017922937461309785 -0.000017814833759387786 -0.000018082613308486266 -0.000018202934549885906 -0.00001798447673381922
          -0.000017880564064358384 -0.000018143266837525226 -0.000018257353198340514 -0.000012279295113155185 -0.000013532423952965373 -0.000011846902894554944
          -0.000013043929238025794 -0.000010302017073564907 -0.000011251545000992618 -0.000017528057761911267 -0.000017602056122904147 -0.000017560329243119115
          -0.000017632241631051156 -0.000017632452931733948 -0.00001769959219729134 -0.000017311046607539253 -0.000014996583428759968 -0.00001655996122988733
          -0.00001445079151434324 -0.000013331523224335257 -0.000012383868331860718 -0.000013278795275776698 -0.000014471250423763099 -0.000013077159790191263
          -0.000014276006646401926 -0.00001226283778711534 -0.000014008660250768965 -0.000017762594710725666 -0.000017793445042592264 -0.000017862324103172353
          -0.000017170263783065706 -0.000017220999831716637 -0.000017351254048396703 -0.00001354375485615618 -0.000013589434789437038 -0.00001370216102603892
          -0.000013746254397209267 -0.000014571345387869584 -0.000015347331271847546 -0.000016458798668514015 -0.000016503298184982658 -0.000016728259872294422
          -0.000015447456538777092 -0.0000155287009941623 -0.000016071730438811743 -0.000016625550107180055 -0.00001668298615757256 -0.00001680978996329335
          -0.000017529093533439313 -0.000017580281978761353 -0.00001775727449876567 -0.000018421368599183814 -0.000018444371300117065 -0.000018497321288203883
          -0.000014794960310952055 -0.000015046143223036547 -0.00001573937082139925 -0.000015537035616285302 -0.00001531524623411583 -0.00001556409800172023
          -0.0000193946901267585 -0.000018395982577225153 -0.000013992752663769901 -0.000008804177609816383 -0.000008595193570639538 -0.000007761127278771435
          -0.00001845171189258566 -0.000018471388841805048 -0.000018519088596880534 -0.00001551843989623828 -0.000015603190859186667 -0.000015837250074838903
          -0.000007682695548797788 -0.000007669836771989957 -0.000007630841389884004 -0.000010055814312277242 -0.000010049149870565161 -0.000010029056328361822
          -0.00000930376595904657 -0.000009295625430686035 -0.000009270025605263675 -0.000011897444107565826 -0.00001189522170111692 -0.000011888745759350192
          -0.0000111916711059734 -0.00001119010891367994 -0.000011183496800493589 -0.000013282351200472701 -0.000013289332526429966 -0.000013307781577373135
          -0.000015438258592002886 -0.000015459278538561518 -0.0000155131812505324 -0.000017454333773148584 -0.00001748329698410774 -0.000017585879368190033
          -0.000019120722166860403 -0.000019150958906776934 -0.00001926443170837957 -0.000018279051177577244 -0.00001874922413040372 -0.000018314243603427867
          -0.00001877582877418361 -0.00001843663591205796 -0.000018890792024440695 -0.00001983234866787792 -0.000019990549993949828 -0.00001911202387153086
          -0.000019000885391129663 -0.000019852628763012978 -0.000020005320351916227 -0.000019133239654298635 -0.000019028404298950348 -0.00001990743445470424
          -0.000020047862591123356 -0.00001919291909186622 -0.000019116922280370284 -0.000019183421200259172 -0.00001920110998401806 -0.000019245383672664707
          -0.000019626616600618418 -0.000019653320334771207 -0.00001972587689709559 -0.000020303538504032783 -0.000020314921124922084 -0.000020344091722606554
          -0.000014354756894603037 -0.000012479716587512729 -0.000014358676235200278 -0.000012479018627418527 -0.000014370007300613582 -0.000012476792647661292
          -0.000013901629839938521 -0.000013905508996135926 -0.000013917568767178389 -0.000016267982623912988 -0.000016277484754237006 -0.000016305346804416853
          -0.000015962879417304478 -0.00001597415663532506 -0.0000160095500638523 -0.00001791672590707754 -0.00001793784092202439 -0.000018000631643746863
          -0.00001955081097269521 -0.000019577137492878464 -0.00001966579826240029 -0.0000206437558038366 -0.0000206659930416209 -0.000020737589205044734
          -0.000020775937331291282 -0.000020793591895082564 -0.00002084096121561211 -0.000021486743123260177 -0.000020879918959092854 -0.00002175560947225487
          -0.00002149651681494553 -0.00002089158272579888 -0.000021765544917314087 -0.000021523971122007507 -0.000020928109505963064 -0.000021795126098240008
        </DataArray>
        <DataArray type="Float64" Name="disp_z" format="ascii" RangeMin="-0.00001629542212548258" RangeMax="5.950598329266218e-7">
          0 0 -5.852147113154158e-8 -5.785652463744918e-8 -1.210092040170061e-7 -1.1920607792419841e-7
          0 0 -5.731932580002631e-8 -5.536256258933385e-8 -1.2267462543085656e-7 -1.1819338275116532e-7
          0 0 -6.729298649059291e-8 -6.275264113527222e-8 -1.4910663465091574e-7 -1.4006722912930812e-7
          0 0 -1.0792884222541537e-7 -1.008754914147275e-7 -2.405199499961741e-7 -2.2569269683695555e-7
          0 0 -2.1469957769197225e-7 -2.0461284348914432e-7 -4.670283391117254e-7 -4.474248166095808e-7
          0 0 -4.3679687111305685e-7 -4.2588129075413113e-7 -9.166912535466922e-7 -8.964559768792089e-7
          0 0 -8.25520222758361e-7 -8.177100515895423e-7 -0.000001680879299524053 -0.0000016671180924253281
          0 0 -0.000001427837711950976 -0.0000014323189323181391 -0.0000028497374728775723 -0.000002858825322325596
          0 0 -0.0000023518980999965307 -0.000002380004195403194 -0.0000046332870927053814 -0.000004691087970643081
          0 0 -0.000004171500222267707 -0.00000435872528739251 -0.00000815495366134293 -0.000008511528192278207
          0 -6.072138620045366e-8 -1.2702267478132785e-7 0 -6.358469195351126e-8 -1.3698910111831616e-7
          0 -8.032706441896826e-8 -1.7657980919293159e-7 0 -1.2926912746513213e-7 -2.8506207574464593e-7
          0 -2.445456855119274e-7 -5.252399093092795e-7 0 -4.6903046363872065e-7 -9.762156905991547e-7
          0 -8.467962290603398e-7 -0.0000017178761760987048 0 -0.0000014177114593233514 -0.000002829063915233575
          0 -0.000002254286262055397 -0.000004437889100587694 0 -0.000003715415084180756 -0.000007279280897351645
          0 -6.541817437155131e-8 -1.3927784597383693e-7 0 -7.53616392486279e-8 -1.6397545931602448e-7
          0 -1.0298059689677988e-7 -2.2566555890451037e-7 0 -1.661170076491265e-7 -3.6053378578311836e-7
          0 -2.9367344046959464e-7 -6.203703620003495e-7 0 -5.199078142383904e-7 -0.0000010697024196829378
          0 -8.787449151306269e-7 -0.0000017736740827198396 0 -0.0000013949667866377478 -0.0000027794631107850776
          0 -0.0000021188704474830144 -0.000004178847187936687 0 -0.0000031161364527872826 -0.00000612630322093534
          0 -7.477668463283904e-8 -1.6205068732283766e-7 0 -9.524342748292923e-8 -2.0850537400648206e-7
          0 -1.382231550943778e-7 -3.005877297575908e-7 0 -2.2009543158552914e-7 -4.681361071940358e-7
          0 -3.6095728675229424e-7 -7.487337605264381e-7 0 -5.851318260740207e-7 -0.0000011890871719494595
          0 -9.148077868832778e-7 -0.000001835426153945471 0 -0.0000013611200860581787 -0.0000027091333288092674
          0 -0.000001938192406245108 -0.0000038241340531888885 0 -0.0000024716990061856336 -0.000004904300697814054
          0 -9.291102685444601e-8 -2.0318084708625662e-7 0 -1.2767894792846874e-7 -2.777584854274191e-7
          0 -1.90159888662624e-7 -4.0579783291863944e-7 0 -2.918882855289092e-7 -6.073162073296671e-7
          0 -4.437173491407344e-7 -9.038910692514032e-7 0 -6.586127853424827e-7 -0.0000013230887962170658
          0 -9.473518520293768e-7 -0.0000018899651956977503 0 -0.0000013113035331305873 -0.000002606956764520581
          0 -0.0000017214736074887874 -0.0000034062638421664308 0 -0.0000018815023922189073 -0.0000037917481147496096
          0 -1.2578868332620496e-7 -2.69442806169427e-7 0 -1.7940491696176017e-7 -3.7909820450153694e-7
          0 -2.63181032860902e-7 -5.449580574728646e-7 0 -3.8211794678357647e-7 -7.755173865723183e-7
          0 -5.378570480856669e-7 -0.0000010770155694885344 0 -7.330804914897286e-7 -0.0000014582923139616878
          0 -9.68496127105273e-7 -0.0000019243612688114443 0 -0.0000012352795175387453 -0.0000024568023239328556
          0 -0.0000014872788120785337 -0.000002964411534346439 0 -0.0000013743180482175405 -0.000002820870105306886
          0 -1.806062310065773e-7 -3.6734764558278503e-7 0 -2.5672070387975515e-7 -5.169608143518141e-7
          0 -3.6039155399259083e-7 -7.18044473933493e-7 0 -4.894566285025089e-7 -9.672242749804328e-7
          0 -6.381680524014369e-7 -0.0000012576461108577403 0 -8.008097348872053e-7 -0.0000015809160759525031
          0 -9.69288281927792e-7 -0.0000019246958067306805 0 -0.0000011287832575405032 -0.0000022564139783363384
          0 -0.0000012283978384828953 -0.000002484041711387889 0 -9.58296631505006e-7 -0.000002037970698799792
          0 -2.591994612274015e-7 -4.999316138604704e-7 0 -3.59097355774925e-7 -6.912759203006079e-7
          0 -4.785002840815075e-7 -9.211920494398302e-7 0 -6.085401352153837e-7 -0.0000011760630275613049
          0 -7.37824317216367e-7 -0.0000014357758500404225 0 -8.542530453154191e-7 -0.000001678849071304385
          0 -9.431104919723927e-7 -0.0000018788802343385417 0 -9.878419340406141e-7 -0.0000020008054922837387
          0 -9.454057319260274e-7 -0.0000019683770015321052 0 -6.197980472038297e-7 -0.0000013769922098427208
          0 -5.929162372595231e-7 -0.0000011719757282299042 0 -7.173768219948923e-7 -0.0000014151513078853808
          0 -8.194929093423784e-7 -0.000001617407724842288 0 -8.832677404319146e-7 -0.0000017481018983226928
          0 -8.902504673374393e-7 -0.0000017701223724140454 0 -8.296947779978913e-7 -0.0000016594729748811577
          0 -6.768499743378715e-7 -0.0000013763349837314983 0 -3.8743402643200995e-7 -8.109715229274805e-7
          0 0 0 0 -1.545061333319791e-8 -5.722858612572614e-8
          -6.117142714711494e-8 -2.5169956650077616e-8 -6.150976958548689e-8 -1.1860970821186574e-7 -1.3787106236624994e-7 -6.20757880217834e-8
          0 0 6.488402562458418e-9 2.741899530042935e-10 6.101426406671093e-9 -1.1386692554399888e-8
          0 0 0 1.298530088545685e-8 2.7561365391560027e-8 4.057921203140689e-8
          2.0484000119714687e-8 3.99895118844216e-8 4.2258562204484455e-8 0 0 0
          0 -0.000004736628077844559 -0.000004250081113924316 -0.000005164570017380348 -0.000005269653693571344 -0.000009278354370335298
          -0.000008354649031671592 -0.000010232603520186347 -0.000010428405603519957 0 0 0
          0 -0.00000107384320929136 -6.600881552007241e-7 2.4156571781303975e-7 -7.615478751251745e-7 -0.0000023211013908544875
          -0.0000012921212524803095 -2.964553994743738e-7 -0.0000018468642067827544 0 0 0
          0 -0.0000027235144998048245 -0.000002667695270361768 -0.0000034186577845046162 -0.0000034113524211317278 -0.000005364059722794892
          -0.000005307312176984917 -0.000006764565993868904 -0.000006730182451988287 0 0 0
          0 -8.727418789312708e-7 -0.0000010636473942506085 -6.529619280953558e-7 -5.082263574270845e-7 -0.000001837052206745569
          -0.0000021961835705235313 -0.0000015127115426746027 -0.0000012508370452385761 0 0 -4.768494777199543e-7
          -7.244321350727239e-7 -0.0000010085415094444514 -0.0000016096633060849971 0 0 -0.000003817776595183313
          -0.0000035493562050933266 -0.000007450192152626842 -0.000007077905110470889 0 0 0
          0 -7.0836308858876136e-9 2.5796172769904873e-8 1.8713589020938396e-8 2.2330381556479216e-9 -1.0085509464145028e-7
          6.622004127546565e-8 4.4843620672820576e-8 -1.0277240754360586e-7 0 0 0
          0 -0.0000046685600778019695 -0.000004493490932229564 -0.0000050411558484430804 -0.000005023165922648189 -0.000009171741623841613
          -0.000008744727984916096 -0.000009905506472647451 -0.000009909355332066086 0 0 -0.000004185678938852549
          -0.000005121299357116574 -0.000008178713792574615 -0.000010287759380319373 0 0 0
          0 -6.860987994462635e-8 -8.219758198687897e-8 -5.0096388495160286e-8 -3.24394663912592e-8 -1.5385205223587374e-7
          -1.727275919986311e-7 -1.0881376710739185e-7 -7.326088917835871e-8 0 0 0
          0 -0.000005997158558853771 -0.000007202500742159748 -0.000006396294791964104 -0.0000053452327737610645 -0.000012396965089711243
          -0.000014523420795130274 -0.000012511964761982809 -0.000010738728152357028 0 0 0
          0 7.52972409672551e-8 3.632435208776718e-8 5.120409287222711e-8 7.830785954999438e-8 -6.133338245135105e-8
          2.3556183115114313e-8 9.375276588497216e-8 1.4964927701903364e-7 0 0 -0.0000014707458183379513
          -0.0000014345228791294318 -0.000002980919175133482 -0.0000030010543352715384 0 -0.000004045951366878039 -0.000007959760404432035
          0 0 -3.0100216364359713e-8 -5.7307393950541744e-8 -1.3278356643870911e-7 5.950598329266218e-7
          0 0 0 -2.076667860645865e-8 -2.4081141636384147e-7 -9.54987395531613e-8
          2.2808707186419697e-7 -7.802935330946397e-7 -3.196224930925832e-7 0 0 0
          0 -0.0000022387034968765756 -0.000001928569051228348 -0.0000031690822731049485 -0.0000033137142607536046 -0.000004667513810792112
          -0.000004445833614957402 -0.000006370126554400138 -0.000006596406860513484 0 0 0
          -0.000005216960831205763 -0.000005448710005787034 -0.000005571687583040191 -0.000010173709264574587 -0.000010818262977492442 -0.000010972708252407403
          0 0 -3.9074050051134403e-7 -0.0000010272500349661625 -8.960362600366507e-7 -0.0000021883691829688074
          0 0 -1.9127273622306184e-8 -2.1981936947837737e-7 -3.97778258563676e-7 -9.190918377091638e-7
          0 0 -5.611794026551029e-7 -2.565924263979412e-7 -0.000001189772010251138 -6.810924808537144e-7
          0 0 0 0 -0.000006328363953206516 -0.00000615365205174081
          -0.000006783581967726817 -0.00000712606434406737 -0.000012479166625018383 -0.00001217660179971043 -0.000013497587764277902 -0.000014157246838729983
          0 0 0 -0.000002021884942041656 -0.0000020421487353574337 -0.0000027438248123419244
          -0.00000409633557385244 -0.000004154072545864307 -0.000005523834471752788 0 0 -1.0267249306444308e-7
          -8.915612449107672e-8 -2.858795326780629e-7 -2.5068269245246217e-7 0 0 -0.000002004618603054808
          -0.0000014446977938768818 -0.000004024543588685455 -0.0000029406361825073355 0 0 -9.89650900597556e-7
          -0.0000013328166726630105 -0.000002162922745398077 -0.000003011136785473999 0 0 -5.198597353613837e-7
          -2.3632114167831026e-7 -0.000001356994418427705 -5.777553208064948e-7 0 0 0
          5.226139291792799e-8 2.1428157123583125e-8 3.85587779788678e-8 6.877404029228708e-8 2.7514234683549735e-8 5.279176566645839e-8
          0 0 0 -2.3673034973279118e-7 -1.3426122065029776e-7 -2.5048770273731136e-7
          -5.580687447875482e-7 -3.129354578306315e-7 -5.780092991670856e-7 0 0 0
          -0.000005619103204144924 -0.000005875364094393469 -0.000005785453793467594 -0.000011066141897752236 -0.000011607929519261758 -0.000011457016785244116
          0 -0.000005949499762752485 -0.000011725330488231966 0 0 0
          0 1.99258243303391e-8 6.7467573526115105e-9 -3.917338860956762e-9 1.1965112918936285e-8 2.660557119005076e-8
          4.786232849071301e-9 -1.5095729888196956e-8 1.511508391479362e-8 0 0 -0.000005533550600759969
          -0.000005888612054601332 -0.000010847715792802265 -0.000011762689402355922 0 0 1.4529711142925928e-8
          2.8464732630552946e-8 1.6574443253247875e-8 3.89220696162732e-8 0 0 -0.000007092502170234105
          -0.000005982653445378756 -0.000014335279997955191 -0.000011902934789925861 0 0 -0.000004282102237377772
          -0.000004395688725863357 -0.000008442072367512088 -0.00000885800434004875 0 -8.664444984421915e-9 -2.4059937129907585e-8
          0 -3.3628320167667255e-7 -7.323056870647576e-7 0 0 -0.000002011838417133095
          -0.000001206165280031773 -0.000004005638832892351 -0.0000026913280226678035 0 -4.0522728497826723e-7 -8.564677551240584e-7
          0 -1.1120100080918058e-7 3.7802674748138043e-7 0 7.058587001905582e-8 1.0396949374631302e-7
          0 -1.2929658964743587e-7 -3.480435927857485e-7 0 -2.2446171658976356e-8 -5.3054579560562734e-8
          0 -1.2476185977711015e-7 2.917721898737444e-7 0 -0.0000035301206422005977 -0.000007200289523804326
          0 -0.00000818086360817211 -0.00001629542212548258 0 -0.000004695937426832889 -0.00000928478118009821
          0 4.860770522294961e-9 2.98090796678479e-10 0 6.585144120290077e-8 2.0326716883388626e-9
          0 -6.677617836638488e-7 -0.0000013199140856041831 0 -6.386501199181585e-7 -0.0000012769600731057196
          0 -7.300676853269388e-7 -0.0000014449001707143483 0 -6.655331941887409e-7 -0.000001329288356538132
          0 -7.60879684653402e-7 -0.0000015095845205504032 0 -7.486163105180468e-7 -0.0000014909291407083483
          0 -6.811412355010821e-7 -0.000001362408685157499 0 -5.378166637797379e-7 -0.0000010958847200424965
          0 -2.587551564032206e-7 -5.417182690878772e-7 0 0 -2.6540947796594303e-7
          -1.9388900215251154e-7 -6.278560342569968e-7 -4.2671175378215477e-7 0 0 0
          0 -1.1499713484480267e-7 -7.448381009214438e-8 -6.486999664218257e-8 -1.143926681073084e-7 -2.4319695735799994e-7
          -1.4692286159587997e-7 -1.4078545997547138e-7 -2.4450525944551637e-7 0 -3.626083025845414e-8 -6.768818497155088e-8
          0 -1.4912981335128415e-7 -2.9618167790724835e-7 0 -2.6864028519245246e-8 -5.715000232500818e-8
          0 0 -6.000253430639678e-7 -6.084839685297191e-7 -0.0000011958120797091285 -0.0000012127435068220153
          0 -6.630688986687401e-7 -0.0000013227065343893368 0 -5.626609159237497e-7 -0.000001121459997228861
          0 -6.215543722961813e-7 -0.0000012379908542853617 0 -5.308160517800733e-7 -0.0000010548329327106154
          0 -3.836862281676502e-7 -7.676415177968003e-7 0 -1.9672608760531238e-7 -3.9539024884668365e-7
          0 -1.2995980204039257e-7 -2.695926042674307e-7 0 0 0
          -3.298181606960951e-8 -7.877853293478924e-8 -6.839662535398877e-8 -6.698355829707554e-8 -1.5705902479793446e-7 -1.3789691889033491e-7
        </DataArray>
      </PointData>
      <CellData>
        <DataArray type="Int32" Name="libmesh_elem_id" format="ascii" RangeMin="40" RangeMax="1373">
          40 41 42 43 44 45
          46 47 48 49 50 51
          52 53 54 55 56 57
          98 99 100 101 102 103
          104 105 106 107 108 109
          110 111 112 113 114 115
          156 157 158 159 160 161
          162 163 164 165 166 167
          168 169 170 171 172 173
          214 215 216 217 218 219
          220 221 222 223 224 225
          226 227 228 229 230 231
          272 273 274 275 276 277
          278 279 280 281 282 283
          284 285 286 287 288 289
          330 331 332 333 334 335
          336 337 338 339 340 341
          342 343 344 345 346 347
          388 389 390 391 392 393
          394 395 396 397 398 399
          400 401 402 403 404 405
          446 447 448 449 450 451
          452 453 454 455 456 457
          458 459 460 461 462 463
          508 509 510 511 512 513
          514 515 516 517 518 519
          520 521 522 523 524 525
          526 527 528 529 530 531
          532 533 534 535 536 537
          538 539 540 541 542 543
          544 545 546 547 548 549
          550 551 552 553 554 555
          556 557 558 559 560 561
          562 563 564 565 566 567
          568 569 570 571 572 573
          574 575 576 577 578 579
          580 581 582 583 584 585
          586 587 588 589 590 591
          592 593 594 595 596 597
          598 599 600 601 602 603
          604 605 606 607 608 609
          610 611 612 613 614 615
          616 617 618 619 620 621
          622 623 624 625 626 627
          628 629 630 631 632 633
          634 635 636 637 638 639
          640 641 642 643 644 645
          646 647 648 649 650 651
          652 653 654 655 656 657
          658 659 660 661 662 663
          664 665 666 667 668 669
          670 671 672 673 674 675
          676 677 678 679 680 681
          682 683 684 685 686 687
          688 689 690 691 692 693
          694 695 696 697 698 699
          700 701 702 703 704 705
          706 707 708 709 710 711
          712 713 714 715 716 717
          718 719 720 721 722 723
          724 725 726 727 728 729
          730 731 732 733 734 735
          736 737 738 739 740 741
          742 743 744 745 746 747
          748 749 750 751 752 753
          754 755 756 757 758 759
          760 761 762 763 764 765
          766 767 768 769 770 771
          1186 1187 1188 1189 1190 1191
          1204 1205 1206 1207 1208 1209
          1222 1223 1224 1225 1240 1241
          1242 1243 1258 1259 1260 1261
          1276 1277 1278 1279 1300 1301
          1304 1305 1306 1307 1314 1315
          1316 1317 1326 1327 1328 1329
          1330 1331 1338 1339 1344 1345
          1348 1349 1356 1357 1358 1359
          1360 1361 1366 1367 1372 1373
        </DataArray>
        <DataArray type="Int32" Name="subdomain_id" format="ascii" RangeMin="103" RangeMax="143">
          103 103 103 103 103 103
          103 103 103 103 103 103
          103 103 103 103 103 103
          103 103 103 103 103 103
          103 103 103 103 103 103
          103 103 103 103 103 103
          103 103 103 103 103 103
          103 103 103 103 103 103
          103 103 103 103 103 103
          103 103 103 103 103 103
          103 103 103 103 103 103
          103 103 103 103 103 103
          103 103 103 103 103 103
          103 103 103 103 103 103
          103 103 103 103 103 103
          103 103 103 103 103 103
          103 103 103 103 103 103
          103 103 103 103 103 103
          103 103 103 103 103 103
          103 103 103 103 103 103
          103 103 103 103 103 103
          103 103 103 103 103 103
          103 103 103 103 103 103
          103 103 103 103 103 103
          103 103 103 103 103 103
          103 103 103 103 103 103
          103 103 104 104 104 104
          104 104 104 104 104 104
          104 104 104 104 104 104
          104 104 104 104 104 104
          104 104 104 104 104 104
          104 104 104 104 104 104
          104 104 104 104 104 104
          104 104 104 104 104 104
          104 104 104 104 104 104
          104 104 104 104 104 104
          104 104 104 104 104 104
          104 104 104 104 104 104
          104 104 104 104 104 104
          104 104 104 104 104 104
          104 104 104 104 104 104
          104 104 104 104 104 104
          104 104 104 104 104 104
          104 104 104 104 104 104
          104 104 104 104 104 104
          104 104 104 104 104 104
          104 104 104 104 104 104
          104 104 104 104 104 104
          104 104 104 104 104 104
          104 104 104 104 104 104
          104 104 104 104 104 104
          104 104 104 104 104 104
          104 104 104 104 104 104
          104 104 104 104 104 104
          104 104 104 104 104 104
          104 104 104 104 104 104
          104 104 104 104 104 104
          104 104 104 104 104 104
          104 104 104 104 104 104
          141 141 141 141 141 141
          141 141 141 141 141 141
          141 141 141 141 141 141
          141 141 141 141 141 141
          141 141 141 141 141 141
          141 141 141 141 141 141
          141 141 141 141 141 141
          141 141 141 141 141 141
          141 141 141 141 141 141
          105 105 105 105 105 105
          105 105 105 105 105 105
          105 105 105 105 105 105
          105 105 105 105 105 105
          105 105 105 105 106 106
          106 106 106 106 106 106
          106 106 106 106 106 106
          106 106 106 106 106 106
          106 106 106 106 106 106
          143 143 143 143 143 143
        </DataArray>
        <DataArray type="Int32" Name="processor_id" format="ascii" RangeMin="5" RangeMax="5">
          5 5 5 5 5 5
          5 5 5 5 5 5
          5 5 5 5 5 5
          5 5 5 5 5 5
          5 5 5 5 5 5
          5 5 5 5 5 5
          5 5 5 5 5 5
          5 5 5 5 5 5
          5 5 5 5 5 5
          5 5 5 5 5 5
          5 5 5 5 5 5
          5 5 5 5 5 5
          5 5 5 5 5 5
          5 5 5 5 5 5
          5 5 5 5 5 5
          5 5 5 5 5 5
          5 5 5 5 5 5
          5 5 5 5 5 5
          5 5 5 5 5 5
          5 5 5 5 5 5
          5 5 5 5 5 5
          5 5 5 5 5 5
          5 5 5 5 5 5
          5 5 5 5 5 5
          5 5 5 5 5 5
          5 5 5 5 5 5
          5 5 5 5 5 5
          5 5 5 5 5 5
          5 5 5 5 5 5
          5 5 5 5 5 5
          5 5 5 5 5 5
          5 5 5 5 5 5
          5 5 5 5 5 5
          5 5 5 5 5 5
          5 5 5 5 5 5
          5 5 5 5 5 5
          5 5 5 5 5 5
          5 5 5 5 5 5
          5 5 5 5 5 5
          5 5 5 5 5 5
          5 5 5 5 5 5
          5 5 5 5 5 5
          5 5 5 5 5 5
          5 5 5 5 5 5
          5 5 5 5 5 5
          5 5 5 5 5 5
          5 5 5 5 5 5
          5 5 5 5 5 5
          5 5 5 5 5 5
          5 5 5 5 5 5
          5 5 5 5 5 5
          5 5 5 5 5 5
          5 5 5 5 5 5
          5 5 5 5 5 5
          5 5 5 5 5 5
          5 5 5 5 5 5
          5 5 5 5 5 5
          5 5 5 5 5 5
          5 5 5 5 5 5
          5 5 5 5 5 5
          5 5 5 5 5 5
          5 5 5 5 5 5
          5 5 5 5 5 5
          5 5 5 5 5 5
          5 5 5 5 5 5
          5 5 5 5 5 5
          5 5 5 5 5 5
          5 5 5 5 5 5
          5 5 5 5 5 5
          5 5 5 5 5 5
          5 5 5 5 5 5
          5 5 5 5 5 5
          5 5 5 5 5 5
          5 5 5 5 5 5
          5 5 5 5 5 5
          5 5 5 5 5 5
          5 5 5 5 5 5
          5 5 5 5 5 5
        </DataArray>
      </CellData>
      <Points>
        <DataArray type="Float64" Name="Points" NumberOfComponents="3" format="ascii" RangeMin="0.0082758620689774" RangeMax="0.013139935358843113">
          0.00011111111111123 0.0082758620689751 0 0 0.0082758620689774 0
          0.00011111111111123 0.0082758620689751 0.00015 0 0.0082758620689774 0.00015
          0.00011111111111123 0.0082758620689751 0.0003 0 0.0082758620689774 0.0003
          0.00011111111111125 0.0086896551724226 0 0 0.0086896551724246 0
          0.00011111111111125 0.0086896551724226 0.00015 0 0.0086896551724246 0.00015
          0.00011111111111125 0.0086896551724226 0.0003 0 0.0086896551724246 0.0003
          0.00011111111111126 0.0091034482758696 0 0 0.0091034482758716 0
          0.00011111111111126 0.0091034482758696 0.00015 0 0.0091034482758716 0.00015
          0.00011111111111126 0.0091034482758696 0.0003 0 0.0091034482758716 0.0003
          0.00011111111111128 0.0095172413793168 0 0 0.0095172413793185 0
          0.00011111111111128 0.0095172413793168 0.00015 0 0.0095172413793185 0.00015
          0.00011111111111128 0.0095172413793168 0.0003 0 0.0095172413793185 0.0003
          0.00011111111111129 0.0099310344827632 0 0 0.0099310344827645 0
          0.00011111111111129 0.0099310344827632 0.00015 0 0.0099310344827645 0.00015
          0.00011111111111129 0.0099310344827632 0.0003 0 0.0099310344827645 0.0003
          0.00011111111111131 0.01034482758621 0 0 0.01034482758621 0
          0.00011111111111131 0.01034482758621 0.00015 0 0.01034482758621 0.00015
          0.00011111111111131 0.01034482758621 0.0003 0 0.01034482758621 0.0003
          0.00011111111111132 0.010758620689657 0 0 0.010758620689657 0
          0.00011111111111132 0.010758620689657 0.00015 0 0.010758620689657 0.00015
          0.00011111111111132 0.010758620689657 0.0003 0 0.010758620689657 0.0003
          0.00011111111111134 0.011172413793104 0 0 0.011172413793104 0
          0.00011111111111134 0.011172413793104 0.00015 0 0.011172413793104 0.00015
          0.00011111111111134 0.011172413793104 0.0003 0 0.011172413793104 0.0003
          0.00011111111111135 0.011586206896551 0 0 0.011586206896551 0
          0.00011111111111135 0.011586206896551 0.00015 0 0.011586206896551 0.00015
          0.00011111111111135 0.011586206896551 0.0003 0 0.011586206896551 0.0003
          0.00011111111111137 0.012 0 0 0.012 0
          0.00011111111111137 0.012 0.00015 0 0.012 0.00015
          0.00011111111111137 0.012 0.0003 0 0.012 0.0003
          0.00022222222222243 0.0082758620689727 0 0.00022222222222243 0.0082758620689727 0.00015
          0.00022222222222243 0.0082758620689727 0.0003 0.00022222222222246 0.0086896551724206 0
          0.00022222222222246 0.0086896551724206 0.00015 0.00022222222222246 0.0086896551724206 0.0003
          0.00022222222222249 0.0091034482758676 0 0.00022222222222249 0.0091034482758676 0.00015
          0.00022222222222249 0.0091034482758676 0.0003 0.00022222222222253 0.0095172413793151 0
          0.00022222222222253 0.0095172413793151 0.00015 0.00022222222222253 0.0095172413793151 0.0003
          0.00022222222222256 0.0099310344827619 0 0.00022222222222256 0.0099310344827619 0.00015
          0.00022222222222256 0.0099310344827619 0.0003 0.0002222222222226 0.010344827586209 0
          0.0002222222222226 0.010344827586209 0.00015 0.0002222222222226 0.010344827586209 0.0003
          0.00022222222222263 0.010758620689656 0 0.00022222222222263 0.010758620689656 0.00015
          0.00022222222222263 0.010758620689656 0.0003 0.00022222222222266 0.011172413793103 0
          0.00022222222222266 0.011172413793103 0.00015 0.00022222222222266 0.011172413793103 0.0003
          0.0002222222222227 0.011586206896551 0 0.0002222222222227 0.011586206896551 0.00015
          0.0002222222222227 0.011586206896551 0.0003 0.00022222222222273 0.012 0
          0.00022222222222273 0.012 0.00015 0.00022222222222273 0.012 0.0003
          0.00033333333333363 0.0082758620689704 0 0.00033333333333363 0.0082758620689704 0.00015
          0.00033333333333363 0.0082758620689704 0.0003 0.00033333333333368 0.0086896551724185 0
          0.00033333333333368 0.0086896551724185 0.00015 0.00033333333333368 0.0086896551724185 0.0003
          0.00033333333333373 0.0091034482758657 0 0.00033333333333373 0.0091034482758657 0.00015
          0.00033333333333373 0.0091034482758657 0.0003 0.00033333333333379 0.0095172413793133 0
          0.00033333333333379 0.0095172413793133 0.00015 0.00033333333333379 0.0095172413793133 0.0003
          0.00033333333333384 0.0099310344827607 0 0.00033333333333384 0.0099310344827607 0.00015
          0.00033333333333384 0.0099310344827607 0.0003 0.00033333333333389 0.010344827586208 0
          0.00033333333333389 0.010344827586208 0.00015 0.00033333333333389 0.010344827586208 0.0003
          0.00033333333333394 0.010758620689656 0 0.00033333333333394 0.010758620689656 0.00015
          0.00033333333333394 0.010758620689656 0.0003 0.000333333333334 0.011172413793103 0
          0.000333333333334 0.011172413793103 0.00015 0.000333333333334 0.011172413793103 0.0003
          0.00033333333333405 0.011586206896551 0 0.00033333333333405 0.011586206896551 0.00015
          0.00033333333333405 0.011586206896551 0.0003 0.0003333333333341 0.012 0
          0.0003333333333341 0.012 0.00015 0.0003333333333341 0.012 0.0003
          0.00044444444444486 0.0082758620689681 0 0.00044444444444486 0.0082758620689681 0.00015
          0.00044444444444486 0.0082758620689681 0.0003 0.00044444444444493 0.0086896551724165 0
          0.00044444444444493 0.0086896551724165 0.00015 0.00044444444444493 0.0086896551724165 0.0003
          0.00044444444444501 0.0091034482758637 0 0.00044444444444501 0.0091034482758637 0.00015
          0.00044444444444501 0.0091034482758637 0.0003 0.00044444444444508 0.0095172413793116 0
          0.00044444444444508 0.0095172413793116 0.00015 0.00044444444444508 0.0095172413793116 0.0003
          0.00044444444444516 0.0099310344827594 0 0.00044444444444516 0.0099310344827594 0.00015
          0.00044444444444516 0.0099310344827594 0.0003 0.00044444444444523 0.010344827586207 0
          0.00044444444444523 0.010344827586207 0.00015 0.00044444444444523 0.010344827586207 0.0003
          0.00044444444444531 0.010758620689655 0 0.00044444444444531 0.010758620689655 0.00015
          0.00044444444444531 0.010758620689655 0.0003 0.00044444444444538 0.011172413793103 0
          0.00044444444444538 0.011172413793103 0.00015 0.00044444444444538 0.011172413793103 0.0003
          0.00044444444444546 0.011586206896551 0 0.00044444444444546 0.011586206896551 0.00015
          0.00044444444444546 0.011586206896551 0.0003 0.00044444444444553 0.012 0
          0.00044444444444553 0.012 0.00015 0.00044444444444553 0.012 0.0003
          0.00055555555555597 0.0082758620689657 0 0.00055555555555597 0.0082758620689657 0.00015
          0.00055555555555597 0.0082758620689657 0.0003 0.00055555555555605 0.0086896551724145 0
          0.00055555555555605 0.0086896551724145 0.00015 0.00055555555555605 0.0086896551724145 0.0003
          0.00055555555555613 0.0091034482758618 0 0.00055555555555613 0.0091034482758618 0.00015
          0.00055555555555613 0.0091034482758618 0.0003 0.00055555555555621 0.0095172413793099 0
          0.00055555555555621 0.0095172413793099 0.00015 0.00055555555555621 0.0095172413793099 0.0003
          0.00055555555555629 0.0099310344827581 0 0.00055555555555629 0.0099310344827581 0.00015
          0.00055555555555629 0.0099310344827581 0.0003 0.00055555555555636 0.010344827586206 0
          0.00055555555555636 0.010344827586206 0.00015 0.00055555555555636 0.010344827586206 0.0003
          0.00055555555555644 0.010758620689655 0 0.00055555555555644 0.010758620689655 0.00015
          0.00055555555555644 0.010758620689655 0.0003 0.00055555555555652 0.011172413793102 0
          0.00055555555555652 0.011172413793102 0.00015 0.00055555555555652 0.011172413793102 0.0003
          0.0005555555555566 0.011586206896551 0 0.0005555555555566 0.011586206896551 0.00015
          0.0005555555555566 0.011586206896551 0.0003 0.00055555555555667 0.012 0
          0.00055555555555667 0.012 0.00015 0.00055555555555667 0.012 0.0003
          0.00066666666666675 0.0082758620689634 0 0.00066666666666675 0.0082758620689634 0.00015
          0.00066666666666675 0.0082758620689634 0.0003 0.00066666666666679 0.0086896551724125 0
          0.00066666666666679 0.0086896551724125 0.00015 0.00066666666666679 0.0086896551724125 0.0003
          0.00066666666666684 0.0091034482758598 0 0.00066666666666684 0.0091034482758598 0.00015
          0.00066666666666684 0.0091034482758598 0.0003 0.00066666666666688 0.0095172413793081 0
          0.00066666666666688 0.0095172413793081 0.00015 0.00066666666666688 0.0095172413793081 0.0003
          0.00066666666666693 0.0099310344827568 0 0.00066666666666693 0.0099310344827568 0.00015
          0.00066666666666693 0.0099310344827568 0.0003 0.00066666666666697 0.010344827586205 0
          0.00066666666666697 0.010344827586205 0.00015 0.00066666666666697 0.010344827586205 0.0003
          0.00066666666666701 0.010758620689654 0 0.00066666666666701 0.010758620689654 0.00015
          0.00066666666666701 0.010758620689654 0.0003 0.00066666666666706 0.011172413793102 0
          0.00066666666666706 0.011172413793102 0.00015 0.00066666666666706 0.011172413793102 0.0003
          0.0006666666666671 0.01158620689655 0 0.0006666666666671 0.01158620689655 0.00015
          0.0006666666666671 0.01158620689655 0.0003 0.00066666666666715 0.012 0
          0.00066666666666715 0.012 0.00015 0.00066666666666715 0.012 0.0003
          0.00077777777777787 0.0082758620689611 0 0.00077777777777787 0.0082758620689611 0.00015
          0.00077777777777787 0.0082758620689611 0.0003 0.00077777777777791 0.0086896551724104 0
          0.00077777777777791 0.0086896551724104 0.00015 0.00077777777777791 0.0086896551724104 0.0003
          0.00077777777777794 0.0091034482758578 0 0.00077777777777794 0.0091034482758578 0.00015
          0.00077777777777794 0.0091034482758578 0.0003 0.00077777777777797 0.0095172413793064 0
          0.00077777777777797 0.0095172413793064 0.00015 0.00077777777777797 0.0095172413793064 0.0003
          0.000777777777778 0.0099310344827555 0 0.000777777777778 0.0099310344827555 0.00015
          0.000777777777778 0.0099310344827555 0.0003 0.00077777777777803 0.010344827586205 0
          0.00077777777777803 0.010344827586205 0.00015 0.00077777777777803 0.010344827586205 0.0003
          0.00077777777777806 0.010758620689654 0 0.00077777777777806 0.010758620689654 0.00015
          0.00077777777777806 0.010758620689654 0.0003 0.00077777777777809 0.011172413793101 0
          0.00077777777777809 0.011172413793101 0.00015 0.00077777777777809 0.011172413793101 0.0003
          0.00077777777777813 0.01158620689655 0 0.00077777777777813 0.01158620689655 0.00015
          0.00077777777777813 0.01158620689655 0.0003 0.00077777777777816 0.012 0
          0.00077777777777816 0.012 0.00015 0.00077777777777816 0.012 0.0003
          0.0008888888888888 0.0082758620689588 0 0.0008888888888888 0.0082758620689588 0.00015
          0.0008888888888888 0.0082758620689588 0.0003 0.00088888888888881 0.0086896551724084 0
          0.00088888888888881 0.0086896551724084 0.00015 0.00088888888888881 0.0086896551724084 0.0003
          0.00088888888888882 0.0091034482758559 0 0.00088888888888882 0.0091034482758559 0.00015
          0.00088888888888882 0.0091034482758559 0.0003 0.00088888888888883 0.0095172413793047 0
          0.00088888888888883 0.0095172413793047 0.00015 0.00088888888888883 0.0095172413793047 0.0003
          0.00088888888888884 0.0099310344827542 0 0.00088888888888884 0.0099310344827542 0.00015
          0.00088888888888884 0.0099310344827542 0.0003 0.00088888888888885 0.010344827586204 0
          0.00088888888888885 0.010344827586204 0.00015 0.00088888888888885 0.010344827586204 0.0003
          0.00088888888888885 0.010758620689653 0 0.00088888888888885 0.010758620689653 0.00015
          0.00088888888888885 0.010758620689653 0.0003 0.00088888888888886 0.011172413793101 0
          0.00088888888888886 0.011172413793101 0.00015 0.00088888888888886 0.011172413793101 0.0003
          0.00088888888888887 0.01158620689655 0 0.00088888888888887 0.01158620689655 0.00015
          0.00088888888888887 0.01158620689655 0.0003 0.00088888888888888 0.012 0
          0.00088888888888888 0.012 0.00015 0.00088888888888888 0.012 0.0003
          0.001 0.0091034482758539 0 0.001 0.0091034482758539 0.00015
          0.001 0.0091034482758539 0.0003 0.001 0.0095172413793029 0
          0.001 0.0095172413793029 0.00015 0.001 0.0095172413793029 0.0003
          0.001 0.0099310344827529 0 0.001 0.0099310344827529 0.00015
          0.001 0.0099310344827529 0.0003 0.001 0.010344827586203 0
          0.001 0.010344827586203 0.00015 0.001 0.010344827586203 0.0003
          0.001 0.010758620689653 0 0.001 0.010758620689653 0.00015
          0.001 0.010758620689653 0.0003 0.001 0.0111724137931 0
          0.001 0.0111724137931 0.00015 0.001 0.0111724137931 0.0003
          0.001 0.01158620689655 0 0.001 0.01158620689655 0.00015
          0.001 0.01158620689655 0.0003 0.001 0.012 0
          0.001 0.012 0.00015 0.001 0.012 0.0003
          0.00067947077571632 0.012798245728111 0 0.00068678568032061 0.012710429785181 0
          0.00076344362314339 0.012698069087358 0 0.00078000626700894 0.012788238676479 0
          0.00067947077571632 0.012798245728111 0.00015 0.00068678568032061 0.012710429785181 0.00015
          0.00076344362314339 0.012698069087358 0.00015 0.00078000626700894 0.012788238676479 0.00015
          0.00067947077571632 0.012798245728111 0.0003 0.00068678568032061 0.012710429785181 0.0003
          0.00076344362314339 0.012698069087358 0.0003 0.00078000626700894 0.012788238676479 0.0003
          0.0007101811699723 0.012881232243155 0 0.00078737528777453 0.012884598822829 0
          0.0007101811699723 0.012881232243155 0.00015 0.00078737528777453 0.012884598822829 0.00015
          0.0007101811699723 0.012881232243155 0.0003 0.00078737528777453 0.012884598822829 0.0003
          0.00063149088332091 0.012876508075697 0 0.00071156048039536 0.012943694476106 0
          0.00064992343237843 0.012944046337553 0 0.00063149088332091 0.012876508075697 0.00015
          0.00071156048039536 0.012943694476106 0.00015 0.00064992343237843 0.012944046337553 0.00015
          0.00063149088332091 0.012876508075697 0.0003 0.00071156048039536 0.012943694476106 0.0003
          0.00064992343237843 0.012944046337553 0.0003 0.00014271480927744 0.012184528409521 0
          0.00021074182908597 0.012239195039162 0 0.00014617236906556 0.012274772666576 0
          0.00010836971036758 0.0122326927564 0 0.00014271480927744 0.012184528409521 0.00015
          0.00021074182908597 0.012239195039162 0.00015 0.00014617236906556 0.012274772666576 0.00015
          0.00010836971036758 0.0122326927564 0.00015 0.00014271480927744 0.012184528409521 0.0003
          0.00021074182908597 0.012239195039162 0.0003 0.00014617236906556 0.012274772666576 0.0003
          0.00010836971036758 0.0122326927564 0.0003 0.00040316247653445 0.012523054457121 0
          0.00050524235438491 0.012516470580574 0 0.00047556583290331 0.012611926172403 0
          0.00040677839563254 0.01259579728731 0 0.00040316247653445 0.012523054457121 0.00015
          0.00050524235438491 0.012516470580574 0.00015 0.00047556583290331 0.012611926172403 0.00015
          0.00040677839563254 0.01259579728731 0.00015 0.00040316247653445 0.012523054457121 0.0003
          0.00050524235438491 0.012516470580574 0.0003 0.00047556583290331 0.012611926172403 0.0003
          0.00040677839563254 0.01259579728731 0.0003 0.00038389728538556 0.012111104172094 0
          0.00037958632650406 0.012195366170904 0 0.00029855370140418 0.012181148574691 0
          0.00029802321336891 0.012105931916082 0 0.00038389728538556 0.012111104172094 0.00015
          0.00037958632650406 0.012195366170904 0.00015 0.00029855370140418 0.012181148574691 0.00015
          0.00029802321336891 0.012105931916082 0.00015 0.00038389728538556 0.012111104172094 0.0003
          0.00037958632650406 0.012195366170904 0.0003 0.00029855370140418 0.012181148574691 0.0003
          0.00029802321336891 0.012105931916082 0.0003 0.00062435778703091 0.012280526392523 0
          0.00063694887874418 0.012191685157308 0 0.00075163746499696 0.012211869018538 0
          0.0007101306235237 0.012330652999586 0 0.00062435778703091 0.012280526392523 0.00015
          0.00063694887874418 0.012191685157308 0.00015 0.00075163746499696 0.012211869018538 0.00015
          0.0007101306235237 0.012330652999586 0.00015 0.00062435778703091 0.012280526392523 0.0003
          0.00063694887874418 0.012191685157308 0.0003 0.00075163746499696 0.012211869018538 0.0003
          0.0007101306235237 0.012330652999586 0.0003 0.00090036231429234 0.012108977226849 0
          0.00080269198720626 0.012096984730608 0 0.00090036231429234 0.012108977226849 0.00015
          0.00080269198720626 0.012096984730608 0.00015 0.00090036231429234 0.012108977226849 0.0003
          0.00080269198720626 0.012096984730608 0.0003 0.00023865656240352 0.012177237347116 0
          0.00029061852669854 0.01224857812735 0 0.00023865656240352 0.012177237347116 0.00015
          0.00029061852669854 0.01224857812735 0.00015 0.00023865656240352 0.012177237347116 0.0003
          0.00029061852669854 0.01224857812735 0.0003 0.00056164385173704 0.012835416164401 0
          0.00056508360468666 0.012898794448667 0 0.00049240387645224 0.012913175910861 0
          0.00046984631090009 0.012828989929731 0 0.00056164385173704 0.012835416164401 0.00015
          0.00056508360468666 0.012898794448667 0.00015 0.00049240387645224 0.012913175910861 0.00015
          0.00046984631090009 0.012828989929731 0.00015 0.00056164385173704 0.012835416164401 0.0003
          0.00056508360468666 0.012898794448667 0.0003 0.00049240387645224 0.012913175910861 0.0003
          0.00046984631090009 0.012828989929731 0.0003 0.000050495613361417 0.012066083920595 0
          0.00011131843390441 0.012086989142678 0 0.000069577205110887 0.012153607960951 0
          0 0.012111111111109 0 0.000050495613361417 0.012066083920595 0.00015
          0.00011131843390441 0.012086989142678 0.00015 0.000069577205110887 0.012153607960951 0.00015
          0 0.012111111111109 0.00015 0.000050495613361417 0.012066083920595 0.0003
          0.00011131843390441 0.012086989142678 0.0003 0.000069577205110887 0.012153607960951 0.0003
          0 0.012111111111109 0.0003 0.00022470825547396 0.012306913365418 0
          0.00017103954025546 0.012340304715306 0 0.00022470825547396 0.012306913365418 0.00015
          0.00017103954025546 0.012340304715306 0.00015 0.00022470825547396 0.012306913365418 0.0003
          0.00017103954025546 0.012340304715306 0.0003 0.00085640575367095 0.012657655614724 0
          0.001 0.012571428571438 0 0.001 0.012714285714292 0
          0.00089085524488654 0.012778191533234 0 0.00085640575367095 0.012657655614724 0.00015
          0.001 0.012571428571438 0.00015 0.001 0.012714285714292 0.00015
          0.00089085524488654 0.012778191533234 0.00015 0.00085640575367095 0.012657655614724 0.0003
          0.001 0.012571428571438 0.0003 0.001 0.012714285714292 0.0003
          0.00089085524488654 0.012778191533234 0.0003 0.00017101007138246 0.012530153689505 0
          0.000086824088695593 0.01250759612347 0 0.00010015626416536 0.012463076177022 0
          0.00018026894988108 0.012457509098897 0 0.00017101007138246 0.012530153689505 0.00015
          0.000086824088695593 0.01250759612347 0.00015 0.00010015626416536 0.012463076177022 0.00015
          0.00018026894988108 0.012457509098897 0.00015 0.00017101007138246 0.012530153689505 0.0003
          0.000086824088695593 0.01250759612347 0.0003 0.00010015626416536 0.012463076177022 0.0003
          0.00018026894988108 0.012457509098897 0.0003 0.00055555555555552 0.013 0
          0.00054972466987376 0.012958523613261 0 0.00059017772624368 0.012950117696029 0
          0.00061111111111072 0.013 0 0.00055555555555552 0.013 0.00015
          0.00054972466987376 0.012958523613261 0.00015 0.00059017772624368 0.012950117696029 0.00015
          0.00061111111111072 0.013 0.00015 0.00055555555555552 0.013 0.0003
          0.00054972466987376 0.012958523613261 0.0003 0.00059017772624368 0.012950117696029 0.0003
          0.00061111111111072 0.013 0.0003 0.00056012017374448 0.012193168747791 0
          0.00054338833040714 0.012250054231166 0 0.00056012017374448 0.012193168747791 0.00015
          0.00054338833040714 0.012250054231166 0.00015 0.00056012017374448 0.012193168747791 0.0003
          0.00054338833040714 0.012250054231166 0.0003 0.00020164702899907 0.012111009853496 0
          0.00020164702899907 0.012111009853496 0.00015 0.00020164702899907 0.012111009853496 0.0003
          0.00058698867508036 0.01276393301723 0 0.00061242021253103 0.012689969395149 0
          0.00058698867508036 0.01276393301723 0.00015 0.00061242021253103 0.012689969395149 0.00015
          0.00058698867508036 0.01276393301723 0.0003 0.00061242021253103 0.012689969395149 0.0003
          0.00054704952286259 0.01264760123259 0 0.00058547756026548 0.012574831423214 0
          0.00066845126455385 0.012625352450745 0 0.00054704952286259 0.01264760123259 0.00015
          0.00058547756026548 0.012574831423214 0.00015 0.00066845126455385 0.012625352450745 0.00015
          0.00054704952286259 0.01264760123259 0.0003 0.00058547756026548 0.012574831423214 0.0003
          0.00066845126455385 0.012625352450745 0.0003 0.00040316497174951 0.012375710115571 0
          0.00038996592658543 0.012448925709731 0 0.00030251984068288 0.012451026681152 0
          0.00030273327950676 0.012339921797294 0 0.00040316497174951 0.012375710115571 0.00015
          0.00038996592658543 0.012448925709731 0.00015 0.00030251984068288 0.012451026681152 0.00015
          0.00030273327950676 0.012339921797294 0.00015 0.00040316497174951 0.012375710115571 0.0003
          0.00038996592658543 0.012448925709731 0.0003 0.00030251984068288 0.012451026681152 0.0003
          0.00030273327950676 0.012339921797294 0.0003 0 0.012166666666663 0
          0.000060257043043922 0.012213388328671 0 0 0.012222222222217 0
          0 0.012166666666663 0.00015 0.000060257043043922 0.012213388328671 0.00015
          0 0.012222222222217 0.00015 0 0.012166666666663 0.0003
          0.000060257043043922 0.012213388328671 0.0003 0 0.012222222222217 0.0003
          0.00086766031505541 0.012218873949421 0 0.00070802748250363 0.01210226547145 0
          0.00086766031505541 0.012218873949421 0.00015 0.00070802748250363 0.01210226547145 0.00015
          0.00086766031505541 0.012218873949421 0.0003 0.00070802748250363 0.01210226547145 0.0003
          0.00045681564832724 0.012667985356076 0 0.00038302222240927 0.012678606196169 0
          0.00045681564832724 0.012667985356076 0.00015 0.00038302222240927 0.012678606196169 0.00015
          0.00045681564832724 0.012667985356076 0.0003 0.00038302222240927 0.012678606196169 0.0003
          0.00057343997443155 0.012462111372123 0 0.00067467937701806 0.012497336760124 0
          0.00057343997443155 0.012462111372123 0.00015 0.00067467937701806 0.012497336760124 0.00015
          0.00057343997443155 0.012462111372123 0.0003 0.00067467937701806 0.012497336760124 0.0003
          0 0.012388888888886 0 0.00004805763346656 0.012364070531781 0
          0.000052775834931525 0.012418323433379 0 0 0.012444444444443 0
          0 0.012388888888886 0.00015 0.00004805763346656 0.012364070531781 0.00015
          0.000052775834931525 0.012418323433379 0.00015 0 0.012444444444443 0.00015
          0 0.012388888888886 0.0003 0.00004805763346656 0.012364070531781 0.0003
          0.000052775834931525 0.012418323433379 0.0003 0 0.012444444444443 0.0003
          0.0004655657017567 0.012222981448331 0 0.0004403524252846 0.012306679111378 0
          0.00036518397892919 0.012268658791136 0 0.0004655657017567 0.012222981448331 0.00015
          0.0004403524252846 0.012306679111378 0.00015 0.00036518397892919 0.012268658791136 0.00015
          0.0004655657017567 0.012222981448331 0.0003 0.0004403524252846 0.012306679111378 0.0003
          0.00036518397892919 0.012268658791136 0.0003 0.00079059026611164 0.012574208252283 0
          0.00074033738884001 0.012629472897336 0 0.00079059026611164 0.012574208252283 0.00015
          0.00074033738884001 0.012629472897336 0.00015 0.00079059026611164 0.012574208252283 0.0003
          0.00074033738884001 0.012629472897336 0.0003 0.00049134001885305 0.012124425854677 0
          0.00060162315338905 0.012101782274206 0 0.00049134001885305 0.012124425854677 0.00015
          0.00060162315338905 0.012101782274206 0.00015 0.00049134001885305 0.012124425854677 0.0003
          0.00060162315338905 0.012101782274206 0.0003 0.00055165526617401 0.012365152711649 0
          0.00046621557592763 0.012427373679685 0 0.00055165526617401 0.012365152711649 0.00015
          0.00046621557592763 0.012427373679685 0.00015 0.00055165526617401 0.012365152711649 0.0003
          0.00046621557592763 0.012427373679685 0.0003 0.00065175768920993 0.012395993188634 0
          0.00078658012555766 0.01242031863996 0 0.00065175768920993 0.012395993188634 0.00015
          0.00078658012555766 0.01242031863996 0.00015 0.00065175768920993 0.012395993188634 0.0003
          0.00078658012555766 0.01242031863996 0.0003 0.00072222222222142 0.013 0
          0.00076767785213736 0.012949407633443 0 0.00077777777777722 0.013 0
          0.00072222222222142 0.013 0.00015 0.00076767785213736 0.012949407633443 0.00015
          0.00077777777777722 0.013 0.00015 0.00072222222222142 0.013 0.0003
          0.00076767785213736 0.012949407633443 0.0003 0.00077777777777722 0.013 0.0003
          0.001 0.01228571428572 0 0.001 0.012428571428581 0
          0.00085243404696798 0.012340254950119 0 0.001 0.01228571428572 0.00015
          0.001 0.012428571428581 0.00015 0.00085243404696798 0.012340254950119 0.00015
          0.001 0.01228571428572 0.0003 0.001 0.012428571428581 0.0003
          0.00085243404696798 0.012340254950119 0.0003 0.000047305708530005 0.012255757186949 0
          0.000035989657241992 0.012305788523607 0 0 0.012277777777773 0
          0.000047305708530005 0.012255757186949 0.00015 0.000035989657241992 0.012305788523607 0.00015
          0 0.012277777777773 0.00015 0.000047305708530005 0.012255757186949 0.0003
          0.000035989657241992 0.012305788523607 0.0003 0 0.012277777777773 0.0003
          0 0.01233333333333 0 0 0.01233333333333 0.00015
          0 0.01233333333333 0.0003 0.00088888888888861 0.013 0
          0.00086852226729803 0.012945143609779 0 0.00092105077811413 0.012923509600428 0
          0.0009444444444442 0.013 0 0.00088888888888861 0.013 0.00015
          0.00086852226729803 0.012945143609779 0.00015 0.00092105077811413 0.012923509600428 0.00015
          0.0009444444444442 0.013 0.00015 0.00088888888888861 0.013 0.0003
          0.00086852226729803 0.012945143609779 0.0003 0.00092105077811413 0.012923509600428 0.0003
          0.0009444444444442 0.013 0.0003 0.000088322519872331 0.012287262323421 0
          0.000098057359918883 0.01234321954228 0 0.000088322519872331 0.012287262323421 0.00015
          0.000098057359918883 0.01234321954228 0.00015 0.000088322519872331 0.012287262323421 0.0003
          0.000098057359918883 0.01234321954228 0.0003 0.00082037799021753 0.012949927278989 0
          0.00083333333333302 0.013 0 0.00082037799021753 0.012949927278989 0.00015
          0.00083333333333302 0.013 0.00015 0.00082037799021753 0.012949927278989 0.0003
          0.00083333333333302 0.013 0.0003 0.000055423585756317 0.01245648439217 0
          0.00011750487062481 0.01240389197138 0 0.000055423585756317 0.01245648439217 0.00015
          0.00011750487062481 0.01240389197138 0.00015 0.000055423585756317 0.01245648439217 0.0003
          0.00011750487062481 0.01240389197138 0.0003 0.00022703795328819 0.012397087263253 0
          0.00024412512388832 0.012487409031957 0 0.00022703795328819 0.012397087263253 0.00015
          0.00024412512388832 0.012487409031957 0.00015 0.00022703795328819 0.012397087263253 0.0003
          0.00024412512388832 0.012487409031957 0.0003 0.00086622784349606 0.012879340816766 0
          0.00086622784349606 0.012879340816766 0.00015 0.00086622784349606 0.012879340816766 0.0003
          0.001 0.01214285714286 0 0.001 0.01214285714286 0.00015
          0.001 0.01214285714286 0.0003 0.00032807036377433 0.012530514194312 0
          0.00032139380548758 0.012616977778981 0 0.00032807036377433 0.012530514194312 0.00015
          0.00032139380548758 0.012616977778981 0.00015 0.00032807036377433 0.012530514194312 0.0003
          0.00032139380548758 0.012616977778981 0.0003 0.00078653837511981 0.012300730611142 0
          0.00078653837511981 0.012300730611142 0.00015 0.00078653837511981 0.012300730611142 0.0003
          0.00050187285486533 0.012723776617989 0 0.00050187285486533 0.012723776617989 0.00015
          0.00050187285486533 0.012723776617989 0.0003 0.00066666666666612 0.013 0
          0.00066666666666612 0.013 0.00015 0.00066666666666612 0.013 0.0003
          0.00086640285866826 0.012499721374928 0 0.00086640285866826 0.012499721374928 0.00015
          0.00086640285866826 0.012499721374928 0.0003 0.001 0.012857142857146 0
          0.001 0.012857142857146 0.00015 0.001 0.012857142857146 0.0003
          0.00043301270230906 0.012750000000722 0 0.00043301270230906 0.012750000000722 0.00015
          0.00043301270230906 0.012750000000722 0.0003 0.00025000000019401 0.01256698729822 0
          0.00025000000019401 0.01256698729822 0.00015 0.00025000000019401 0.01256698729822 0.0003
          0 0.0125 0 0 0.0125 0.00015
          0 0.0125 0.0003 0 0.012055555555554 0
          0 0.012055555555554 0.00015 0 0.012055555555554 0.0003
          0.001 0.013 0 0.001 0.013 0.00015
          0.001 0.013 0.0003 0.0005 0.013 0
          0.0005 0.013 0.00015 0.0005 0.013 0.0003
          0.0014444444444451 0.0095172413793029 0 0.0014444444444451 0.0095172413793029 0.00015
          0.0014444444444451 0.0095172413793029 0.0003 0.0018888888888902 0.0095172413793029 0
          0.0018888888888902 0.0095172413793029 0.00015 0.0018888888888902 0.0095172413793029 0.0003
          0.0014444444444452 0.0099310344827529 0 0.0014444444444452 0.0099310344827529 0.00015
          0.0014444444444452 0.0099310344827529 0.0003 0.0018888888888903 0.0099310344827529 0
          0.0018888888888903 0.0099310344827529 0.00015 0.0018888888888903 0.0099310344827529 0.0003
          0.0014444444444452 0.010344827586203 0 0.0014444444444452 0.010344827586203 0.00015
          0.0014444444444452 0.010344827586203 0.0003 0.0014444444444453 0.010758620689653 0
          0.0014444444444453 0.010758620689653 0.00015 0.0014444444444453 0.010758620689653 0.0003
          0.0014444444444453 0.0111724137931 0 0.0014444444444453 0.0111724137931 0.00015
          0.0014444444444453 0.0111724137931 0.0003 0.0014444444444454 0.01158620689655 0
          0.0014444444444454 0.01158620689655 0.00015 0.0014444444444454 0.01158620689655 0.0003
          0.0014444444444455 0.012 0 0.0014444444444455 0.012 0.00015
          0.0014444444444455 0.012 0.0003 0.0011659770658264 0.012184916069452 0
          0.0011978981211319 0.012291694091132 0 0.0011659770658264 0.012184916069452 0.00015
          0.0011978981211319 0.012291694091132 0.00015 0.0011659770658264 0.012184916069452 0.0003
          0.0011978981211319 0.012291694091132 0.0003 0.0014134281085546 0.012468353283698 0
          0.001412897365997 0.01265802692797 0 0.0011710921098332 0.012660749606473 0
          0.0011928404820732 0.012464476127519 0 0.0014134281085546 0.012468353283698 0.00015
          0.001412897365997 0.01265802692797 0.00015 0.0011710921098332 0.012660749606473 0.00015
          0.0011928404820732 0.012464476127519 0.00015 0.0014134281085546 0.012468353283698 0.0003
          0.001412897365997 0.01265802692797 0.0003 0.0011710921098332 0.012660749606473 0.0003
          0.0011928404820732 0.012464476127519 0.0003 0.0011801499871676 0.012824831216028 0
          0.0011801499871676 0.012824831216028 0.00015 0.0011801499871676 0.012824831216028 0.0003
          0.0014335559245349 0.012265987585326 0 0.0014335559245349 0.012265987585326 0.00015
          0.0014335559245349 0.012265987585326 0.0003 0.0014444444444455 0.013 0
          0.0014444444444455 0.013 0.00015 0.0014444444444455 0.013 0.0003
          0.0023333333333355 0.0099310344827529 0 0.0023333333333353 0.0095172413793029 0
          0.0023333333333355 0.0099310344827529 0.00015 0.0023333333333353 0.0095172413793029 0.00015
          0.0023333333333355 0.0099310344827529 0.0003 0.0023333333333353 0.0095172413793029 0.0003
          0.0018888888888904 0.010344827586203 0 0.0018888888888904 0.010344827586203 0.00015
          0.0018888888888904 0.010344827586203 0.0003 0.0023333333333357 0.010344827586203 0
          0.0023333333333357 0.010344827586203 0.00015 0.0023333333333357 0.010344827586203 0.0003
          0.0018888888888905 0.010758620689653 0 0.0018888888888905 0.010758620689653 0.00015
          0.0018888888888905 0.010758620689653 0.0003 0.0018888888888907 0.0111724137931 0
          0.0018888888888907 0.0111724137931 0.00015 0.0018888888888907 0.0111724137931 0.0003
          0.0018888888888908 0.01158620689655 0 0.0018888888888908 0.01158620689655 0.00015
          0.0018888888888908 0.01158620689655 0.0003 0.0018888888888909 0.012 0
          0.0018888888888909 0.012 0.00015 0.0018888888888909 0.012 0.0003
          0.0017386847932316 0.012348636106575 0 0.0017386847932316 0.012348636106575 0.00015
          0.0017386847932316 0.012348636106575 0.0003 0.0018888888888909 0.013 0
          0.001702980389272 0.012655949584096 0 0.0020604062010233 0.012679406151259 0
          0.0018888888888909 0.013 0.00015 0.001702980389272 0.012655949584096 0.00015
          0.0020604062010233 0.012679406151259 0.00015 0.0018888888888909 0.013 0.0003
          0.001702980389272 0.012655949584096 0.0003 0.0020604062010233 0.012679406151259 0.0003
          <InformationKey name="L2_NORM_RANGE" location="vtkDataArray" length="2">
            <Value index="0">
              0.008275862069
            </Value>
            <Value index="1">
              0.013139935359
            </Value>
          </InformationKey>
        </DataArray>
      </Points>
      <Cells>
        <DataArray type="Int64" Name="connectivity" format="ascii" RangeMin="0" RangeMax="755">
          1 0 6 7 3 2
          8 9 3 2 8 9
          5 4 10 11 7 6
          12 13 9 8 14 15
          9 8 14 15 11 10
          16 17 13 12 18 19
          15 14 20 21 15 14
          20 21 17 16 22 23
          19 18 24 25 21 20
          26 27 21 20 26 27
          23 22 28 29 25 24
          30 31 27 26 32 33
          27 26 32 33 29 28
          34 35 31 30 36 37
          33 32 38 39 33 32
          38 39 35 34 40 41
          37 36 42 43 39 38
          44 45 39 38 44 45
          41 40 46 47 43 42
          48 49 45 44 50 51
          45 44 50 51 47 46
          52 53 49 48 54 55
          51 50 56 57 51 50
          56 57 53 52 58 59
          0 60 63 6 2 61
          64 8 2 61 64 8
          4 62 65 10 6 63
          66 12 8 64 67 14
          8 64 67 14 10 65
          68 16 12 66 69 18
          14 67 70 20 14 67
          70 20 16 68 71 22
          18 69 72 24 20 70
          73 26 20 70 73 26
          22 71 74 28 24 72
          75 30 26 73 76 32
          26 73 76 32 28 74
          77 34 30 75 78 36
          32 76 79 38 32 76
          79 38 34 77 80 40
          36 78 81 42 38 79
          82 44 38 79 82 44
          40 80 83 46 42 81
          84 48 44 82 85 50
          44 82 85 50 46 83
          86 52 48 84 87 54
          50 85 88 56 50 85
          88 56 52 86 89 58
          60 90 93 63 61 91
          94 64 61 91 94 64
          62 92 95 65 63 93
          96 66 64 94 97 67
          64 94 97 67 65 95
          98 68 66 96 99 69
          67 97 100 70 67 97
          100 70 68 98 101 71
          69 99 102 72 70 100
          103 73 70 100 103 73
          71 101 104 74 72 102
          105 75 73 103 106 76
          73 103 106 76 74 104
          107 77 75 105 108 78
          76 106 109 79 76 106
          109 79 77 107 110 80
          78 108 111 81 79 109
          112 82 79 109 112 82
          80 110 113 83 81 111
          114 84 82 112 115 85
          82 112 115 85 83 113
          116 86 84 114 117 87
          85 115 118 88 85 115
          118 88 86 116 119 89
          90 120 123 93 91 121
          124 94 91 121 124 94
          92 122 125 95 93 123
          126 96 94 124 127 97
          94 124 127 97 95 125
          128 98 96 126 129 99
          97 127 130 100 97 127
          130 100 98 128 131 101
          99 129 132 102 100 130
          133 103 100 130 133 103
          101 131 134 104 102 132
          135 105 103 133 136 106
          103 133 136 106 104 134
          137 107 105 135 138 108
          106 136 139 109 106 136
          139 109 107 137 140 110
          108 138 141 111 109 139
          142 112 109 139 142 112
          110 140 143 113 111 141
          144 114 112 142 145 115
          112 142 145 115 113 143
          146 116 114 144 147 117
          115 145 148 118 115 145
          148 118 116 146 149 119
          120 150 153 123 121 151
          154 124 121 151 154 124
          122 152 155 125 123 153
          156 126 124 154 157 127
          124 154 157 127 125 155
          158 128 126 156 159 129
          127 157 160 130 127 157
          160 130 128 158 161 131
          129 159 162 132 130 160
          163 133 130 160 163 133
          131 161 164 134 132 162
          165 135 133 163 166 136
          133 163 166 136 134 164
          167 137 135 165 168 138
          136 166 169 139 136 166
          169 139 137 167 170 140
          138 168 171 141 139 169
          172 142 139 169 172 142
          140 170 173 143 141 171
          174 144 142 172 175 145
          142 172 175 145 143 173
          176 146 144 174 177 147
          145 175 178 148 145 175
          178 148 146 176 179 149
          150 180 183 153 151 181
          184 154 151 181 184 154
          152 182 185 155 153 183
          186 156 154 184 187 157
          154 184 187 157 155 185
          188 158 156 186 189 159
          157 187 190 160 157 187
          190 160 158 188 191 161
          159 189 192 162 160 190
          193 163 160 190 193 163
          161 191 194 164 162 192
          195 165 163 193 196 166
          163 193 196 166 164 194
          197 167 165 195 198 168
          166 196 199 169 166 196
          199 169 167 197 200 170
          168 198 201 171 169 199
          202 172 169 199 202 172
          170 200 203 173 171 201
          204 174 172 202 205 175
          172 202 205 175 173 203
          206 176 174 204 207 177
          175 205 208 178 175 205
          208 178 176 206 209 179
          180 210 213 183 181 211
          214 184 181 211 214 184
          182 212 215 185 183 213
          216 186 184 214 217 187
          184 214 217 187 185 215
          218 188 186 216 219 189
          187 217 220 190 187 217
          220 190 188 218 221 191
          189 219 222 192 190 220
          223 193 190 220 223 193
          191 221 224 194 192 222
          225 195 193 223 226 196
          193 223 226 196 194 224
          227 197 195 225 228 198
          196 226 229 199 196 226
          229 199 197 227 230 200
          198 228 231 201 199 229
          232 202 199 229 232 202
          200 230 233 203 201 231
          234 204 202 232 235 205
          202 232 235 205 203 233
          236 206 204 234 237 207
          205 235 238 208 205 235
          238 208 206 236 239 209
          210 240 243 213 211 241
          244 214 211 241 244 214
          212 242 245 215 213 243
          246 216 214 244 247 217
          214 244 247 217 215 245
          248 218 216 246 249 219
          217 247 250 220 217 247
          250 220 218 248 251 221
          219 249 252 222 220 250
          253 223 220 250 253 223
          221 251 254 224 222 252
          255 225 223 253 256 226
          223 253 256 226 224 254
          257 227 225 255 258 228
          226 256 259 229 226 256
          259 229 227 257 260 230
          228 258 261 231 229 259
          262 232 229 259 262 232
          230 260 263 233 231 261
          264 234 232 262 265 235
          232 262 265 235 233 263
          266 236 234 264 267 237
          235 265 268 238 235 265
          268 238 236 266 269 239
          246 270 273 249 247 271
          274 250 247 271 274 250
          248 272 275 251 249 273
          276 252 250 274 277 253
          250 274 277 253 251 275
          278 254 252 276 279 255
          253 277 280 256 253 277
          280 256 254 278 281 257
          255 279 282 258 256 280
          283 259 256 280 283 259
          257 281 284 260 258 282
          285 261 259 283 286 262
          259 283 286 262 260 284
          287 263 261 285 288 264
          262 286 289 265 262 286
          289 265 263 287 290 266
          264 288 291 267 265 289
          292 268 265 289 292 268
          266 290 293 269 294 295
          296 297 298 299 300 301
          298 299 300 301 302 303
          304 305 306 294 297 307
          308 298 301 309 308 298
          301 309 310 302 305 311
          312 306 313 314 315 308
          316 317 315 308 316 317
          318 310 319 320 321 322
          323 324 325 326 327 328
          325 326 327 328 329 330
          331 332 333 334 335 336
          337 338 339 340 337 338
          339 340 341 342 343 344
          345 346 347 348 349 350
          351 352 349 350 351 352
          353 354 355 356 357 358
          359 360 361 362 363 364
          361 362 363 364 365 366
          367 368 267 369 370 237
          268 371 372 238 268 371
          372 238 269 373 374 239
          375 347 376 322 377 351
          378 326 377 351 378 326
          379 355 380 330 381 382
          383 384 385 386 387 388
          385 386 387 388 389 390
          391 392 393 394 395 396
          397 398 399 400 397 398
          399 400 401 402 403 404
          323 322 405 406 327 326
          407 408 327 326 407 408
          331 330 409 410 411 412
          413 414 415 416 417 418
          415 416 417 418 419 420
          421 422 423 424 425 426
          427 428 429 430 427 428
          429 430 431 432 433 434
          435 436 437 438 439 440
          441 442 439 440 441 442
          443 444 445 446 447 358
          357 448 449 362 361 450
          449 362 361 450 451 366
          365 452 54 87 453 394
          56 88 454 398 56 88
          454 398 58 89 455 402
          456 457 295 294 458 459
          299 298 458 459 299 298
          460 461 303 302 457 462
          463 464 459 465 466 467
          459 465 466 467 461 468
          469 470 456 294 312 381
          458 298 315 385 458 298
          315 385 460 302 318 389
          471 472 473 474 475 476
          477 478 475 476 477 478
          479 480 481 482 483 395
          484 485 486 399 487 488
          486 399 487 488 489 403
          490 491 370 492 359 493
          372 494 363 495 372 494
          363 495 374 496 367 497
          237 370 493 207 238 372
          495 208 238 372 495 208
          239 374 497 209 336 335
          498 499 340 339 500 501
          340 339 500 501 344 343
          502 503 463 334 504 505
          466 338 506 507 466 338
          506 507 469 342 508 509
          510 511 512 513 514 515
          516 517 514 515 516 517
          518 519 520 521 522 523
          524 346 525 526 527 350
          525 526 527 350 528 529
          530 354 531 532 464 505
          533 534 467 507 533 534
          467 507 535 536 470 509
          537 147 177 538 539 148
          178 540 539 148 178 540
          541 149 179 542 523 543
          544 471 526 545 546 475
          526 545 546 475 529 547
          548 479 549 360 550 505
          551 364 552 507 551 364
          552 507 553 368 554 509
          555 313 556 557 558 316
          559 560 558 316 559 560
          561 319 562 563 564 565
          566 492 567 568 569 494
          567 568 569 494 570 571
          572 496 573 574 575 485
          576 577 578 488 576 577
          578 488 579 580 581 491
          582 574 511 510 583 577
          515 514 583 577 515 514
          584 580 519 518 87 117
          348 453 88 118 352 454
          88 118 352 454 89 119
          356 455 504 334 544 543
          506 338 546 545 506 338
          546 545 508 342 548 547
          585 586 587 588 589 590
          591 592 589 590 591 592
          593 594 595 596 574 597
          598 511 577 599 600 515
          577 599 600 515 580 601
          602 519 375 322 321 453
          377 326 325 454 377 326
          325 454 379 330 329 455
          557 556 603 604 560 559
          605 606 560 559 605 606
          563 562 607 608 425 609
          512 610 429 611 516 612
          429 611 516 612 433 613
          520 614 207 493 538 177
          208 495 540 178 208 495
          540 178 209 497 542 179
          615 473 616 426 617 477
          618 430 617 477 618 430
          619 481 620 434 297 414
          621 307 301 418 622 309
          301 418 622 309 305 422
          623 311 492 369 624 564
          494 371 625 567 494 371
          625 567 496 373 626 570
          627 333 336 628 629 337
          340 630 629 337 340 630
          631 341 344 632 360 633
          566 550 364 634 569 552
          364 634 569 552 368 635
          572 554 457 456 636 462
          459 458 637 465 459 458
          637 465 461 460 638 468
          357 360 549 543 361 364
          551 545 361 364 551 545
          365 368 553 547 295 464
          532 296 299 467 534 300
          299 467 534 300 303 470
          536 304 639 314 313 555
          640 317 316 558 640 317
          316 558 641 320 319 561
          471 474 524 523 475 478
          527 526 475 478 527 526
          479 482 530 529 426 610
          406 615 430 612 408 617
          430 612 408 617 434 614
          410 619 504 543 549 505
          506 545 551 507 506 545
          551 507 508 547 553 509
          566 565 642 550 569 568
          643 552 569 568 643 552
          572 571 644 554 610 512
          511 598 612 516 515 600
          612 516 515 600 614 520
          519 602 621 414 645 587
          622 418 646 591 622 418
          646 591 623 422 647 595
          405 474 615 406 407 478
          617 408 407 478 617 408
          409 482 619 410 381 384
          636 456 385 388 637 458
          385 388 637 458 389 392
          638 460 648 499 498 636
          649 501 500 637 649 501
          500 637 650 503 502 638
          616 651 423 426 618 652
          427 430 618 652 427 430
          620 653 431 434 324 597
          573 484 328 599 576 487
          328 599 576 487 332 601
          579 490 642 412 411 531
          643 416 415 533 643 416
          415 533 644 420 419 535
          538 358 447 537 540 362
          449 539 540 362 449 539
          542 366 451 541 524 376
          347 346 527 378 351 350
          527 378 351 350 530 380
          355 354 627 651 616 473
          629 652 618 477 629 652
          618 477 631 653 620 481
          405 322 376 474 407 326
          378 478 407 326 378 478
          409 330 380 482 306 307
          556 313 308 309 559 316
          308 309 559 316 310 311
          562 319 345 117 147 537
          349 118 148 539 349 118
          148 539 353 119 149 541
          414 297 296 411 418 301
          300 415 418 301 300 415
          422 305 304 419 621 586
          603 307 622 590 605 309
          622 590 605 309 623 594
          607 311 544 334 333 472
          546 338 337 476 546 338
          337 476 548 342 341 480
          348 347 375 453 352 351
          377 454 352 351 377 454
          356 355 379 455 531 505
          550 642 533 507 552 643
          533 507 552 643 535 509
          554 644 321 324 484 395
          325 328 487 399 325 328
          487 399 329 332 490 403
          598 597 323 406 600 599
          327 408 600 599 327 408
          602 601 331 410 447 448
          522 537 449 450 525 539
          449 450 525 539 451 452
          528 541 513 512 609 654
          517 516 611 655 517 516
          611 655 521 520 613 656
          604 603 586 585 606 605
          590 589 606 605 590 589
          608 607 594 593 463 462
          335 334 466 465 339 338
          466 465 339 338 469 468
          343 342 438 437 314 639
          442 441 317 640 442 441
          317 640 446 445 320 641
          436 383 382 437 440 387
          386 441 440 387 386 441
          444 391 390 445 393 657
          55 54 397 658 57 56
          397 658 57 56 401 659
          59 58 312 314 437 382
          315 317 441 386 315 317
          441 386 318 320 445 390
          346 345 537 522 350 349
          539 525 350 349 539 525
          354 353 541 528 498 335
          462 636 500 339 465 637
          500 339 465 637 502 343
          468 638 369 267 291 624
          371 268 292 625 371 268
          292 625 373 269 293 626
          358 538 493 359 362 540
          495 363 362 540 495 363
          366 542 497 367 394 453
          321 395 398 454 325 399
          398 454 325 399 402 455
          329 403 587 645 660 588
          591 646 661 592 591 646
          661 592 595 647 662 596
          448 543 523 522 450 545
          526 525 450 545 526 525
          452 547 529 528 472 333
          627 473 476 337 629 477
          476 337 629 477 480 341
          631 481 436 435 663 383
          440 439 664 387 440 439
          664 387 444 443 665 391
          411 296 532 531 415 300
          534 533 415 300 534 533
          419 304 536 535 609 425
          424 654 611 429 428 655
          611 429 428 655 613 433
          432 656 492 566 633 359
          494 569 634 363 494 569
          634 363 496 572 635 367
          393 394 54 397 398 56
          397 398 56 401 402 58
          413 414 645 417 418 646
          417 418 646 421 422 647
          628 627 651 630 629 652
          630 629 652 632 631 653
          117 348 345 118 352 349
          118 352 349 119 356 353
          565 642 412 568 643 416
          568 643 416 571 644 420
          457 295 464 459 299 467
          459 299 467 461 303 470
          463 464 505 466 467 507
          466 467 507 469 470 509
          499 336 628 501 340 630
          501 340 630 503 344 632
          384 636 648 388 637 649
          388 637 649 392 638 650
          492 369 370 494 371 372
          494 371 372 496 373 374
          473 474 615 477 478 617
          477 478 617 481 482 619
          381 382 312 385 386 315
          385 386 315 389 390 318
          471 472 544 475 476 546
          475 476 546 479 480 548
          582 574 575 583 577 578
          583 577 578 584 580 581
          312 306 294 315 308 298
          315 308 298 318 310 302
          524 376 474 527 378 478
          527 378 478 530 380 482
          396 393 657 400 397 658
          400 397 658 404 401 659
          483 395 396 486 399 400
          486 399 400 489 403 404
          357 448 543 361 450 545
          361 450 545 365 452 547
          485 573 484 488 576 487
          488 576 487 491 579 490
          621 586 587 622 590 591
          622 590 591 623 594 595
          324 597 323 328 599 327
          328 599 327 332 601 331
          603 307 556 605 309 559
          605 309 559 607 311 562
          610 425 426 612 429 430
          612 429 430 614 433 434
          360 633 359 364 634 363
          364 634 363 368 635 367
          598 610 406 600 612 408
          600 612 408 602 614 410
          574 597 573 577 599 576
          577 599 576 580 601 579
          672 276 273 666 673 277
          274 667 673 277 274 667
          674 278 275 668 675 672
          666 669 676 673 667 670
          676 673 667 670 677 674
          668 671 720 675 669 721
          722 676 670 723 722 676
          670 723 724 677 671 725
          678 279 276 672 679 280
          277 673 679 280 277 673
          680 281 278 674 726 678
          672 675 727 679 673 676
          727 679 673 676 728 680
          674 677 729 726 675 720
          730 727 676 722 730 727
          676 722 731 728 677 724
          681 282 279 678 682 283
          280 679 682 283 280 679
          683 284 281 680 732 681
          678 726 733 682 679 727
          733 682 679 727 734 683
          680 728 684 285 282 681
          685 286 283 682 685 286
          283 682 686 287 284 683
          735 684 681 732 736 685
          682 733 736 685 682 733
          737 686 683 734 687 288
          285 684 688 289 286 685
          688 289 286 685 689 290
          287 686 738 687 684 735
          739 688 685 736 739 688
          685 736 740 689 686 737
          690 291 288 687 691 292
          289 688 691 292 289 688
          692 293 290 689 741 690
          687 738 742 691 688 739
          742 691 688 739 743 692
          689 740 693 694 564 624
          695 696 567 625 695 696
          567 625 697 698 570 626
          699 700 701 702 703 704
          705 706 703 704 705 706
          707 708 709 710 702 701
          412 565 706 705 416 568
          706 705 416 568 710 709
          420 571 413 701 711 645
          417 705 712 646 417 705
          712 646 421 709 713 647
          690 741 744 714 691 742
          745 715 691 742 745 715
          692 743 746 716 714 699
          702 694 715 703 706 696
          715 703 706 696 716 707
          710 698 694 702 565 564
          696 706 568 567 696 706
          568 567 698 710 571 570
          747 717 748 749 750 718
          751 752 750 718 751 752
          753 719 754 755 699 744
          748 700 703 745 751 704
          703 745 751 704 707 746
          754 708 711 701 700 717
          712 705 704 718 712 705
          704 718 713 709 708 719
          714 694 693 690 715 696
          695 691 715 696 695 691
          716 698 697 692 291 690
          693 624 292 691 695 625
          292 691 695 625 293 692
          697 626 711 717 660 645
          712 718 661 646 712 718
          661 646 713 719 662 647
          714 699 744 715 703 745
          715 703 745 716 707 746
          748 700 717 751 704 718
          751 704 718 754 708 719
          413 701 412 417 705 416
          417 705 416 421 709 420
        </DataArray>
        <DataArray type="Int64" Name="offsets" format="ascii" RangeMin="8" RangeMax="3624">
          8 16 24 32 40 48
          56 64 72 80 88 96
          104 112 120 128 136 144
          152 160 168 176 184 192
          200 208 216 224 232 240
          248 256 264 272 280 288
          296 304 312 320 328 336
          344 352 360 368 376 384
          392 400 408 416 424 432
          440 448 456 464 472 480
          488 496 504 512 520 528
          536 544 552 560 568 576
          584 592 600 608 616 624
          632 640 648 656 664 672
          680 688 696 704 712 720
          728 736 744 752 760 768
          776 784 792 800 808 816
          824 832 840 848 856 864
          872 880 888 896 904 912
          920 928 936 944 952 960
          968 976 984 992 1000 1008
          1016 1024 1032 1040 1048 1056
          1064 1072 1080 1088 1096 1104
          1112 1120 1128 1136 1144 1152
          1160 1168 1176 1184 1192 1200
          1208 1216 1224 1232 1240 1248
          1256 1264 1272 1280 1288 1296
          1304 1312 1320 1328 1336 1344
          1352 1360 1368 1376 1384 1392
          1400 1408 1416 1424 1432 1440
          1448 1456 1464 1472 1480 1488
          1496 1504 1512 1520 1528 1536
          1544 1552 1560 1568 1576 1584
          1592 1600 1608 1616 1624 1632
          1640 1648 1656 1664 1672 1680
          1688 1696 1704 1712 1720 1728
          1736 1744 1752 1760 1768 1776
          1784 1792 1800 1808 1816 1824
          1832 1840 1848 1856 1864 1872
          1880 1888 1896 1904 1912 1920
          1928 1936 1944 1952 1960 1968
          1976 1984 1992 2000 2008 2016
          2024 2032 2040 2048 2056 2064
          2072 2080 2088 2096 2104 2112
          2120 2128 2136 2144 2152 2160
          2168 2176 2184 2192 2200 2208
          2216 2224 2232 2240 2248 2256
          2264 2272 2280 2288 2296 2304
          2312 2320 2328 2336 2344 2352
          2360 2368 2376 2384 2392 2400
          2408 2416 2424 2432 2440 2448
          2456 2464 2472 2480 2488 2496
          2504 2512 2520 2528 2536 2544
          2552 2560 2568 2576 2584 2592
          2600 2608 2616 2624 2632 2640
          2648 2656 2664 2672 2680 2688
          2696 2704 2712 2720 2728 2736
          2744 2752 2760 2768 2776 2784
          2792 2800 2808 2816 2824 2832
          2838 2844 2850 2856 2862 2868
          2874 2880 2886 2892 2898 2904
          2910 2916 2922 2928 2934 2940
          2946 2952 2958 2964 2970 2976
          2982 2988 2994 3000 3006 3012
          3018 3024 3030 3036 3042 3048
          3054 3060 3066 3072 3078 3084
          3090 3096 3102 3108 3114 3120
          3126 3132 3138 3144 3150 3156
          3164 3172 3180 3188 3196 3204
          3212 3220 3228 3236 3244 3252
          3260 3268 3276 3284 3292 3300
          3308 3316 3324 3332 3340 3348
          3356 3364 3372 3380 3388 3396
          3404 3412 3420 3428 3436 3444
          3452 3460 3468 3476 3484 3492
          3500 3508 3516 3524 3532 3540
          3548 3556 3564 3572 3580 3588
          3594 3600 3606 3612 3618 3624
        </DataArray>
        <DataArray type="UInt8" Name="types" format="ascii" RangeMin="12" RangeMax="13">
          12 12 12 12 12 12
          12 12 12 12 12 12
          12 12 12 12 12 12
          12 12 12 12 12 12
          12 12 12 12 12 12
          12 12 12 12 12 12
          12 12 12 12 12 12
          12 12 12 12 12 12
          12 12 12 12 12 12
          12 12 12 12 12 12
          12 12 12 12 12 12
          12 12 12 12 12 12
          12 12 12 12 12 12
          12 12 12 12 12 12
          12 12 12 12 12 12
          12 12 12 12 12 12
          12 12 12 12 12 12
          12 12 12 12 12 12
          12 12 12 12 12 12
          12 12 12 12 12 12
          12 12 12 12 12 12
          12 12 12 12 12 12
          12 12 12 12 12 12
          12 12 12 12 12 12
          12 12 12 12 12 12
          12 12 12 12 12 12
          12 12 12 12 12 12
          12 12 12 12 12 12
          12 12 12 12 12 12
          12 12 12 12 12 12
          12 12 12 12 12 12
          12 12 12 12 12 12
          12 12 12 12 12 12
          12 12 12 12 12 12
          12 12 12 12 12 12
          12 12 12 12 12 12
          12 12 12 12 12 12
          12 12 12 12 12 12
          12 12 12 12 12 12
          12 12 12 12 12 12
          12 12 12 12 12 12
          12 12 12 12 12 12
          12 12 12 12 12 12
          12 12 12 12 12 12
          12 12 12 12 12 12
          12 12 12 12 12 12
          12 12 12 12 12 12
          12 12 12 12 12 12
          12 12 12 12 12 12
          12 12 12 12 12 12
          12 12 12 12 12 12
          12 12 12 12 12 12
          12 12 12 12 12 12
          12 12 12 12 12 12
          12 12 12 12 12 12
          12 12 12 12 12 12
          12 12 12 12 12 12
          12 12 12 12 12 12
          12 12 12 12 12 12
          13 13 13 13 13 13
          13 13 13 13 13 13
          13 13 13 13 13 13
          13 13 13 13 13 13
          13 13 13 13 13 13
          13 13 13 13 13 13
          13 13 13 13 13 13
          13 13 13 13 13 13
          13 13 13 13 13 13
          12 12 12 12 12 12
          12 12 12 12 12 12
          12 12 12 12 12 12
          12 12 12 12 12 12
          12 12 12 12 12 12
          12 12 12 12 12 12
          12 12 12 12 12 12
          12 12 12 12 12 12
          12 12 12 12 12 12
          13 13 13 13 13 13
        </DataArray>
      </Cells>
    </Piece>
  </UnstructuredGrid>
</VTKFile>
