<?xml version="1.0"?>
<VTKFile type="UnstructuredGrid" version="0.1" byte_order="LittleEndian" header_type="UInt32" compressor="vtkZLibDataCompressor">
  <UnstructuredGrid>
    <Piece NumberOfPoints="819" NumberOfCells="454">
      <PointData>
        <DataArray type="Int32" Name="libmesh_node_id" format="ascii" RangeMin="2316" RangeMax="5735">
          2316 2317 2318 2319 2320 2321
          2322 2323 2324 2325 2326 2327
          2433 2434 2435 2436 2437 2438
          2439 2440 2441 2442 2443 2444
          2598 2599 2600 2601 2602 2603
          2643 2644 2645 2646 2647 2648
          2649 2650 2651 2709 2710 2711
          2712 2713 2714 2715 2716 2717
          2718 2719 2720 2766 2767 2768
          2769 2770 2771 2772 2773 2774
          2775 2776 2777 2808 2809 2810
          2811 2812 2813 2814 2815 2816
          2817 2818 2819 2852 2853 2856
          2857 2860 2861 2970 2971 2973
          2974 2976 2977 2991 2994 2995
          2998 2999 3002 3081 3082 3083
          3084 3085 3086 3087 3088 3089
          3090 3091 3092 3187 3190 3193
          3241 3243 3245 3270 3271 3272
          3312 3313 3314 3315 3316 3317
          3495 3496 3497 3498 3499 3500
          3501 3502 3503 3504 3505 3506
          3765 3766 3767 3768 3769 3770
          3852 3853 3854 4470 4471 4472
          4584 4585 4586 4587 4588 4589
          4635 4636 4637 4638 4639 4640
          4641 4642 4643 4644 4645 4646
          4659 4660 4661 4662 4663 4664
          4722 4723 4724 4782 4783 4784
          4791 4792 4793 4794 4795 4796
          4797 4798 4799 4812 4813 4814
          4815 4816 4817 4818 4819 4820
          4833 4834 4835 4836 4837 4838
          4848 4849 4850 4851 4852 4853
          4896 4897 4898 4899 4900 4901
          4911 4912 4913 4935 4936 4937
          4938 4939 4940 4944 4945 4946
          4947 4948 4949 4950 4951 4952
          4953 4954 4955 4956 4957 4958
          4992 4993 4994 5007 5008 5009
          5010 5011 5012 5013 5014 5015
          5016 5017 5018 5019 5020 5021
          5025 5026 5027 5028 5029 5030
          5040 5041 5042 5043 5044 5045
          5055 5056 5057 5073 5074 5075
          5079 5080 5081 5088 5089 5090
          5094 5095 5096 5103 5104 5105
          5151 5152 5153 5160 5161 5162
          5169 5170 5171 5178 5179 5180
          5187 5188 5189 5202 5203 5204
          5205 5206 5207 5208 5209 5210
          5211 5212 5213 5214 5215 5216
          5217 5218 5219 5220 5221 5222
          5223 5224 5225 5226 5227 5228
          5229 5230 5231 5232 5233 5234
          5235 5236 5237 5238 5239 5240
          5241 5242 5243 5244 5245 5246
          5247 5248 5249 5253 5254 5255
          5256 5257 5258 5259 5260 5261
          5262 5263 5264 5265 5266 5267
          5268 5269 5270 5271 5272 5273
          5274 5275 5276 5280 5281 5282
          5283 5284 5285 5286 5287 5288
          5289 5290 5291 5292 5293 5294
          5295 5296 5297 5298 5299 5300
          5301 5302 5303 5307 5308 5309
          5310 5311 5312 5313 5314 5315
          5316 5317 5318 5319 5320 5321
          5322 5323 5324 5325 5326 5327
          5328 5329 5330 5334 5335 5336
          5337 5338 5339 5340 5341 5342
          5343 5344 5345 5346 5347 5348
          5349 5350 5351 5352 5353 5354
          5355 5356 5357 5358 5359 5360
          5361 5362 5363 5364 5365 5366
          5367 5368 5369 5370 5371 5372
          5373 5374 5375 5376 5377 5378
          5379 5380 5381 5382 5383 5384
          5385 5386 5387 5388 5389 5390
          5391 5392 5393 5394 5395 5396
          5397 5398 5399 5400 5401 5402
          5403 5404 5405 5406 5407 5408
          5409 5410 5411 5412 5413 5414
          5415 5416 5417 5418 5419 5420
          5421 5422 5423 5424 5425 5426
          5427 5428 5429 5430 5431 5432
          5433 5434 5435 5436 5437 5438
          5439 5440 5441 5442 5443 5444
          5445 5446 5447 5448 5449 5450
          5451 5452 5453 5454 5455 5456
          5457 5458 5459 5460 5461 5462
          5463 5464 5465 5466 5467 5468
          5469 5470 5471 5472 5473 5474
          5475 5476 5477 5478 5479 5480
          5481 5482 5483 5484 5485 5486
          5487 5488 5489 5490 5491 5492
          5493 5494 5495 5496 5497 5498
          5499 5500 5501 5502 5503 5504
          5505 5506 5507 5508 5509 5510
          5511 5512 5513 5514 5515 5516
          5517 5518 5519 5520 5521 5522
          5523 5524 5525 5526 5527 5528
          5529 5530 5531 5532 5533 5534
          5535 5536 5537 5538 5539 5540
          5541 5542 5543 5544 5545 5546
          5547 5548 5549 5550 5551 5552
          5553 5554 5555 5556 5557 5558
          5559 5560 5561 5562 5563 5564
          5565 5566 5567 5568 5569 5570
          5571 5572 5573 5574 5575 5576
          5577 5578 5579 5580 5581 5582
          5583 5584 5585 5586 5587 5588
          5589 5590 5591 5592 5593 5594
          5595 5596 5597 5598 5599 5600
          5601 5602 5603 5604 5605 5606
          5607 5608 5609 5610 5611 5612
          5613 5614 5615 5616 5617 5618
          5619 5620 5621 5622 5623 5624
          5625 5626 5627 5628 5629 5630
          5631 5632 5633 5634 5635 5636
          5637 5638 5639 5640 5641 5642
          5643 5644 5645 5646 5647 5648
          5649 5650 5651 5652 5653 5654
          5655 5656 5657 5658 5659 5660
          5661 5662 5663 5664 5665 5666
          5667 5668 5669 5670 5671 5672
          5673 5674 5675 5676 5677 5678
          5679 5680 5681 5682 5683 5684
          5685 5686 5687 5688 5689 5690
          5691 5692 5693 5694 5695 5696
          5697 5698 5699 5700 5701 5702
          5703 5704 5705 5706 5707 5708
          5709 5710 5711 5712 5713 5714
          5715 5716 5717 5718 5719 5720
          5721 5722 5723 5724 5725 5726
          5727 5728 5729 5730 5731 5732
          5733 5734 5735
        </DataArray>
        <DataArray type="Float64" Name="resid_x" format="ascii" RangeMin="-2.2061097920905155" RangeMax="69.23982170147414">
          0.000553555264769301 0.007630784487895781 -0.01732207300294064 -0.0030747268752477908 0.0014601142878145623 0.013201941622762448
          0.006440972452256055 0.006042093517933722 -0.03411991429716643 -0.04946991173991577 0.00793762523735797 -0.01927444147081836
          0.012872673998952422 -0.0071024246947484215 0.04123327779231545 0.004435345611439434 0.016755988408941214 -0.058610906323464995
          0.055835483130804775 0.00906290337074589 -0.05307883032722582 -0.14987411333372336 -0.01337050439237153 -0.02438758144271924
          -0.046324060339211215 -0.013084811051024325 -0.04261405515792305 0.0007890728158727045 -0.04983163096730436 -0.036473692679573344
          0.02376136888446645 0.01622047119799319 -0.010567895398370553 0.03215901370851704 0.06875291223990132 0.06684969720058476
          -0.11235003874291394 0.025655809074786262 -0.011532126807519916 0.387735978236588 -0.006036122658575671 -0.0013136799077804184
          -0.00791021454638674 0.790376921189502 -0.014588318081539597 -0.029646291147616743 -0.017111765395778633 0.38330190414244636
          -0.01865256256022274 -0.041097387871630975 -0.024406690385646357 0.0130854194661012 -0.00958856598318647 0.022342877721810872
          0.031889453247784694 -0.0028793804043569793 -0.05371699260983753 0.00413432635692601 0.08063755988505328 -0.015937172172865388
          -0.05818544897268563 -0.02857698885912363 0.021220413283292494 -0.18835696065608776 0.090029141263404 -0.04142980735862167
          -0.16323006897014913 0.3231228863043114 -0.03227657935469885 -0.13157472028202832 -0.0041376394836589725 0.053082949142613245
          0.11702755811597676 0.3188731622006902 0.05975307523391571 -0.04180791306515452 -0.049478746260739115 0.013996203980109811
          -0.055905218052124894 0.09631536074705593 0.04279829368070409 1.0421146802531691 -0.1208908449517363 2.1821344463100054
          -0.22832043288447323 1.127549744354237 -0.040860941613845014 0.0045298241612030665 -0.0008256877954657682 -0.0016823130586445245
          -0.013464048531320216 -0.011446809372092304 -0.010175337170536203 -0.0044466393468294285 0.0007087466544876131 -0.0021814253926786265
          -0.019450979816893532 0.0029012542894388815 0.006773250943942544 -0.01200022005202861 -0.001783778092384225 -0.010409913891965772
          -0.006510117106183433 -0.02682127392431255 -0.005058812917732025 -0.20180559338717963 -0.32317858879551764 0.04048133429742151
          -0.010855597442033016 -0.026368933398721595 -0.018416351028199607 -0.015375268657193963 -0.007483903059453567 -0.08691128898049794
          -0.016591743255589986 -0.0033719472676541073 0.007329625215354962 -0.001623542472523276 -0.024214212983317163 -0.027760158108603328
          0.7668259159606645 -0.6320779853796479 -0.15813702359048332 0.9191355255690539 1.4988174608067197 -1.4973517610370326
          -0.34436005299065187 1.8542920799948703 1.0080675387411162 -0.5987569141533493 -0.313003565579856 0.9320120764401807
          -0.04249821893565198 -0.4242346761437912 -0.06048323327703997 -0.825220103167278 -0.04748140466058004 -0.4552225573989651
          -0.002693655367266068 -0.01715411448299875 -0.018472812787687864 0.004523936102112991 0.0007272902504515955 -0.01626020136293249
          -0.11987690893792902 -0.2317536879774229 -0.23499405238520765 -0.47428557374804825 -0.12492378963488449 -0.2487636421841417
          0.02688366154070998 -0.025768063202202818 0.35842651436233647 0.2974717799697686 0.30047706583763945 0.2532921867754929
          -0.6495350346066799 -0.10265150860355554 -1.3433000002641664 -0.230173981825188 -0.547640575797951 -0.05930048115006237
          -0.008291782486447019 -0.009588295622164011 -0.012591732579847914 -0.1960986043215751 -0.3155144690611902 0.06341711500318592
          -0.021182117012544355 -0.006131193346396557 -0.008426772075892819 -0.04758326452918249 -0.08772921446435067 -0.024503078621656016
          0.005887558034151752 -0.00659926723997728 -0.030006211019177442 0.10673904961039504 0.15733502764073037 0.19540176054809955
          0.26327031618085783 -0.004820254965086868 -0.03303038818734372 -0.03324969703456304 -0.00940753730573718 -0.033202177397177124
          -0.008130291613873908 0.0036135156930576784 0.03154038361727274 0.022579296005506233 -0.014577149969090542 0.005490089600393322
          -0.2535993880950347 -0.10685406351313453 -0.48898565562048546 -0.20991680598607054 -0.25532173603591524 -0.1307330641182558
          -0.0373960588883655 -0.0035402271346276493 -0.17972652493072516 -0.3792103725595162 -0.20654805744403504 -0.44190513972309375
          -0.17051306015020806 -0.34016781707953836 -0.1983346052932804 -0.0010040919806719728 -0.0037235294006663366 -0.011325134143820748
          0.25240810867611785 0.5645318632800169 0.26362034319441463 -0.02217700513809273 -0.0133660451716473 -0.022354166171719925
          -0.025236215484549795 -0.017263448467184972 -0.02246434709806877 -0.1024670764068416 -0.03039370288255938 -0.20765568977853466
          -0.08079878170336485 -0.024308834288881975 0.005723284645463345 -0.05236923507098634 0.02655460940752974 0.006352574565390512
          -0.04183727158715378 0.056854138359532236 0.02445780695687816 -0.013119288526773687 0.019227219145308005 0.013412353671285793
          -0.02692883293083348 -0.037867498514152054 0.0014060476892030493 0.03936523569170447 0.012762504057065804 -0.10786700747098266
          -0.02621359959773084 -0.07064557174132347 -0.05462646319472331 -0.0033117372037061443 -0.014789582169061788 0.010530289767499923
          -0.0029724495198752976 -0.012936400665621406 -0.003879163911742367 0.06818584364838731 0.14664138423677198 0.06498235646141026
          -0.001968572332488705 0.017297018676764253 0.002321826129094262 -0.014535580203818732 0.0040897409371520865 -0.0044668558586336005
          0.0004908292622509691 0.024745773492441003 0.06486318363860644 0.020950043322771172 0.03465514959714078 0.0062728275395222965
          -0.06760287332904724 -0.09597087059421572 -0.04470310971212221 0.014240293525999093 -0.0075509102728519295 -0.02733814273004498
          -0.09340647534741642 -0.05879606364931256 -0.05584608861421714 0.020882730746914824 0.03185479921112311 0.009208536166963377
          0.004418774094143707 0.03813388974224896 0.025395995118717707 0.031501272239163214 0.092783163743972 0.022091334687889486
          -1.1094022829455294 -2.2061097920905155 -1.170631558204203 -0.1812571746734939 -0.30705293824181723 -0.10080266857233511
          -0.08478812283584602 -0.11038289858833394 -0.06320779701716006 -0.04389719040528206 -0.04599525599818577 -0.03868594461670227
          0.03913283434551573 0.10869099945150751 0.04566974996426154 -0.0010046887729622256 -0.000915256927653374 -0.00483364419130794
          -0.0020450273075098835 0.00007840455340613062 -0.0008861010951655146 -0.0001116873495021764 -0.00003208146678801427 -0.00022723158579118774
          -0.00006286391998067131 0.0008817570770194294 0.0014223839136029426 -0.00020121867555111805 0.0004222198572954028 -0.00026964261605932904
          0.00008231373373135398 0.000011565645065658714 0.0011114904170881346 -0.0009440188163019059 0.0005435977981207429 0.00040534237616540736
          0.0005662893104254607 -0.0001287391221183043 0.00006356039889610088 -0.0024647862581055335 -0.0004403591910762117 0.00030094268251623646
          0.00024348517467309705 -0.0025667471115013996 -0.001275824893170352 -0.0035287847091414193 -0.0014433491590857273 0.0003970072896368748
          0.0004517642049037818 -0.0033298196705366934 -0.001572953113765152 -0.005770136081647337 -0.002784748515175295 0.0004485483968252879
          0.00046129974364816917 -0.004249759148109433 -0.0023331581655270384 -0.0052477914992081764 -0.002692325345954316 0.00040826912348990163
          0.00040126936913509326 -0.0052945524298877444 -0.002860350704246173 -0.1593591394814382 -0.3163735441528175 -0.16132405165619446
          -0.0002023482925057607 0.0004842642268592101 -0.00032378302165270156 -0.0010550790539323174 -0.00018502435002965 -0.0007242450326376826
          -0.002103364238664085 0.00007583671161093264 -0.0005039550767254042 -0.00303214495713533 0.0005005465445524493 -0.002353923010131709
          -0.004070170403553064 0.0003467445213054532 -0.0032053309013875264 -0.004903679360920066 0.0005734344653554047 -0.0022212127125467163
          -0.00454483882067791 0.0008971848459538023 -0.0023685008423228737 -0.9554905715795314 -1.8860947076961168 -0.9269043111529918
          -0.00034704262912654826 0.0012726733209014185 0.0004579695967201758 -0.0017295374932846386 0.00005405697243787699 0.0015166300210243122
          -0.0024385006606220117 0.0006299134936575967 0.00041016779145941484 -0.0023207910872127258 0.0005810070754002084 -0.001736538969534962
          -0.003970389136314978 0.0006400225705185392 -0.001781396992846851 -0.004418382025933809 0.0006507216128923687 -0.0009341305689520851
          -0.0022706929527060993 0.0006702973045094041 0.0004958683806215447 -0.06080541329875544 -0.1007865174160898 0.02471357413644526
          -0.0005771867277779563 -0.0009087390215380964 0.0005398358418027271 -0.0009575134343666747 0.0005157623698632818 0.0021600176966760642
          -0.0018148755340074985 0.0006417519717984987 0.0012936520869857304 -0.002550129710520821 0.0007787851067924123 -0.00032282326092314406
          -0.0035522682782609394 0.0009152934251499545 -0.00045737059375916544 -0.002799007378220253 0.001007009841467621 0.0007706624265360063
          -0.0011372383102639105 0.0007167794768037083 0.0025233321892450533 -0.09112059782031423 -0.2003630299677326 -0.17183313282239254
          -0.011352402347995394 -0.021655527538676722 0.0004496089254040214 -0.002256121169972758 0.001460903550697168 0.0019513268824074004
          -0.001950984832433278 0.0008946333532957595 0.0020644075510674043 -0.0016128851781758158 0.00022125549036289271 0.0013416445523599663
          -0.0013673404897698305 0.0010377586362331215 0.002741357138599909 0.0005944563337241249 0.001396977448022696 0.005292369560779164
          0.0018142929165172461 0.0007271898688969713 0.0055506289216573634 -0.07934101428828022 -0.12245376839542388 -0.022603321976649937
          0.10214600246352568 0.18271585266249346 0.08108655477953342 0.011879302376991419 0.05091338058098316 0.07800677013344703
          -0.018523928758948927 -0.02871155807506831 -0.016870478877292427 -0.0021162269373427023 0.0016702646119757247 0.000702409676840432
          -0.0023942330088999597 -0.0011664638140072014 0.003772914090053092 0.0005210453412942684 0.0008026598409678343 0.00653281002004924
          0.00457294434965938 0.0018222187627898734 0.008092463131852412 0.0036785775514900365 0.0008691050164806313 0.0051092625918460755
          0.015273943573930637 -0.06373138021751146 -0.07523009952549486 -0.1500027468279388 -0.2531521653299311 -0.08795174106720793
          0.13649830552582465 0.31726778603682604 0.1498325549161077 -0.17286113756795807 -0.3309048648070281 -0.18641046886958712
          -0.0021336415915538254 0.0030881352452123423 0.003363909017917166 -0.003562931245118861 -0.004036930641371228 0.006645027455766339
          0.0049575832992410085 0.0022767071259757188 0.008708873430544273 0.005998258127201339 0.0014400015250615184 0.0036035675193897276
          0.001628152440034114 -0.00002080782942570636 0.00005263235499697316 -0.2076543948625158 -0.4206935859803096 -0.03502650180503508
          0.061823063488709806 0.07916388111701167 0.025369847249356425 0.03613776172763039 0.09777405039402076 -0.017026444344654834
          -0.02053628960738152 -0.02471937924300427 -0.008234900687373425 -0.013591189730046693 -0.025718219641294837 -0.0032856235318945437
          0.0006613163209632233 -0.0031967639721131036 0.007686678344045461 0.006893619963467046 0.002876868786803044 0.0072945670432265075
          0.0023159086705373255 0.0002359429763876264 -0.000480121489466967 -0.0021464937469453105 -0.0012219416682004436 -0.0018579953657038573
          -0.7509616045597944 -1.481819707253191 -0.6907171606910367 0.05528745979356131 0.07135989374983076 0.019968684813594706
          0.01207947141396204 0.04469479058432846 0.017617387177534027 0.04695914764883291 0.10230360257605575 0.0768088307207826
          -0.07115215034575861 -0.1506521362116615 -0.06790057420536577 -0.005663333193725251 -0.018485872637480583 -0.006683768602998796
          -0.004454985582272641 -0.013125632618020688 -0.004488954522274824 -0.0050046625417783375 -0.00937459353359582 -0.004799487499051125
          -0.0031925199330178344 -0.00481940004593806 -0.0018482938218307154 -0.003478193737311841 -0.00545223762537006 0.00017934036064559677
          0.000260285069263233 -0.0026841787712399423 -0.005151059386754753 -0.002699850211495658 0.000993563548483678 -0.0032257757759417416
          -0.00029936082240311634 0.0006926194129093233 0.00022688612264687436 0.0013555879407718407 0.0010223120817691722 0.0017630721867938348
          0.004129785453944379 0.0014355140985209403 0.002422655673694152 0.0035764668628601726 0.001305875698687231 0.00032378653751052866
          -0.0013401310596528049 0.0002760656963047836 -0.0020177118320301446 -0.0031109135380891217 -0.0010729710668062609 -0.0013858581370129741
          -0.001894561873627687 -0.0022520724743841924 -0.000830559505001105 -0.0029137984016500695 -0.005296517275812818 0.00019663875539066566
          0.0003933011836672051 -0.0023332915466731663 -0.005259534649361797 -0.002764580351779955 0.0005838078833519944 -0.004122913404302153
          0.0004529445726149106 0.0005271577733552135 -0.000978949566050602 0.0024034069947127534 0.0005498447147935792 -0.0009216807585694653
          0.0030589135216843033 0.0005729248153443223 -0.0021126171421386175 0.0011361654855921444 0.00048274385095403716 -0.0031043694694705692
          -0.001974064725455804 0.00010256934771746273 -0.003467844232162065 -0.0023602444698234137 -0.0008348307310050984 -0.003860968562596767
          -0.001287820238708548 -0.0016615897171199379 -0.003416834207373043 -0.002395252890298849 -0.004726243033676525 0.0002318110674259799
          0.00037344316763565644 -0.0023052337329581007 -0.005397188048245738 -0.0033811936891119387 0.0005606158189976895 -0.004192586233578766
          -0.0006937584682198406 0.0005784604965448636 -0.0010071831828462052 -0.00010772285917326485 0.0005810593965307476 -0.0004324651244935751
          -0.0014152324222891366 0.0009109848310959734 -0.0024988636980367573 -0.003748669578577335 0.0006173403401383837 -0.0035950995649010054
          -0.004698101198032489 0.00002933145585792829 -0.004448114195140462 -0.004083809852673426 -0.0008330294347604905 -0.0052693875174920635
          -0.0024660967265219824 -0.0012599386121738831 -0.0030121831623244333 -0.002043680540449344 -0.004261271181576376 0.00024580460285150707
          0.00036529571611509937 -0.0025354360838036882 -0.005010921819181391 -0.003185916304648373 0.0005679259910600365 -0.003503142377027757
          -0.0012799962801572917 0.0005929505809305624 -0.0016392053839027199 -0.0018611650089717102 0.0005696258149434641 -0.0012041945631686701
          -0.004508136903590199 0.0006128314560847059 -0.003057323471040263 -0.006271587003398693 0.00034294404615309304 -0.005562165586702861
          -0.006689639552684312 0.00009437243389065486 -0.006516815808158327 -0.006171976005635571 -0.000619809220617995 -0.006623500258820414
          -0.0036821003527691687 -0.0008471820966100552 -0.002632679710014685 -0.0021881112662853752 -0.003914477702537056 0.000220025449674921
          0.00031690787227134365 -0.002301019814602512 -0.004298480186449183 -0.0022786757199178 0.0004910075014237236 -0.0026343434851945347
          -0.00036515948543680565 0.00047136600729302813 -0.002709273557858438 0.0010553632224059584 0.0004291425581577357 -0.0035445091721086897
          -0.001101414033371384 0.0006798920617541171 -0.0057171758180629695 -0.003640003013247295 -0.000004440327272092759 -0.009443634002767709
          -0.00477592561031237 -0.00022701796385504736 -0.009633901347921636 -0.0049354788817908 -0.0006480007501874496 -0.0077843071080092585
          -0.003272195735819494 -0.0006701308100112158 -0.0035921386747759243 -0.00212277655295523 -0.0031916377953464803 0.0002173013225394982
          0.00029329142421374854 -0.0017636930410525054 -0.0026609496827774137 -0.001518761997601814 0.00029865594118305694 0.00002309216553797455
          -0.0013191893100099605 0.00024656171020964734 -0.0013291604183471861 -0.0007306175622332489 0.00010857245268702798 -0.0030768818316300184
          -0.0027733755239172098 0.00007795006436595031 -0.005749438306390076 -0.0066098395406104515 0.0003899185482829637 -0.00969918619564325
          -0.0067863020926370865 0.00042229976756225085 -0.009105643046821044 -0.0065374697004738636 0.000013336012958831134 -0.006855797623511961
          -0.00374434853743999 -0.0003229176214425422 -0.003737951891363167 -0.001503280558132758 -0.00200468876123594 0.00027737624330370636
          0.00041499799998945264 -0.0010925675214039643 -0.000991762649395156 0.00044228256063405524 0.00031340925114520246 0.0014910737738986768
          -0.0015459146022749337 0.00028959115947913006 -0.0002981108497337459 -0.003977304752867283 0.00021224603893266192 -0.004043620531291481
          -0.008042901727773 -0.0008654956782496726 -0.008110483386028378 -0.012436458160893338 -0.0012300454132692096 -0.011638018454751986
          -0.010187644969887444 -0.0007272603131216471 -0.009145361455789924 -0.009337806260440118 -0.0017166077465216034 -0.009135366501411113
          -0.005304057489194491 -0.0013616160594569493 -0.003914578547288272 -0.0012783801992561905 -0.0010229891352828702 -0.0001000309714349612
          0.00012669508364027138 -0.0005929099504413671 -0.00036450172296653705 0.0028334450541152023 0.0006710208063971379 0.0004318386833190857
          0.0013350429632588146 0.0015684830450730658 -0.0002560872143781978 0.002056758570111228 0.00654009994101834 -0.00032208807057543254
          0.006889388143713759 0.02124757348175521 0.0037736430740924476 0.014163797436257397 0.03925296303751402 0.009264378872913426
          0.012825295058906505 0.035149173702617276 0.008957214471733366 0.01798316166094871 0.0414319749500045 0.012125057997595334
          0.007324495997432123 0.018303192870853024 0.0057068644190323425 17.41298133287206 34.619549354714266 34.826605717339774
          69.23982170147414 17.415069620411202 34.62351282787034 33.99747271326042 67.99422567211307 34.00036890648468
          32.95377158982686 65.90743572746538 32.9554826660331 31.4905418607566 62.98138975327719 31.488327204103314
          29.64767542219007 59.296251356120706 29.637641996621742 27.554077095357336 55.10927030093498 27.537379028385494
          25.485981884505108 50.973051695983806 25.479811007303727 23.88564332313284 47.77116626898802 23.87598638829919
          11.635403346810994 23.27072555144184 11.62936141708997
        </DataArray>
        <DataArray type="Float64" Name="resid_y" format="ascii" RangeMin="-7.325344948066537" RangeMax="5.786119099029764">
          0.036401736271095 0.022738916769500905 0.017080836050567816 0.005684196344472564 0.0716140678228161 0.044579767405936284
          0.03242634141174073 0.00801492643575994 0.012513986608793659 -0.0035282558889484505 0.0024447097077210656 -0.01930605594849466
          -0.0016319532887159732 -0.07520384763282484 -0.053117560122521335 -0.004104263709631528 -0.005965448679339597 -0.1507102514072061
          -0.10922390909097501 -0.012964217714189107 -0.007007317901659392 -0.08234499898795941 -0.06534079496788292 -0.026064929576823076
          -0.036824366600027976 -0.04533451253786089 -0.03191537502394067 -0.046804000750783115 -0.043520630366163854 -0.03478297068655094
          -0.08269070450671623 -0.024984118334251848 -0.043762300244664765 -0.16189587011388917 -0.04698362438397252 -0.06689661607949327
          -0.08530013428411942 -0.05968581494961134 -0.025961536545286767 -0.015233829605441666 0.007955661927061264 0.010980802629208669
          -0.015153870354670751 -0.026511986545431552 0.026795953440363608 0.01698320936173504 -0.03474633344121625 -0.004472000018375388
          0.009985337074819071 -0.004566242280428581 -0.037825992843942 -0.004361116171457055 -0.026657371477001902 0.005614004728172601
          0.1834920800559903 0.009379712882215313 -0.04974157993914891 -0.002544253609228952 0.38054839368317417 0.004223790079145889
          -0.02725331254676991 -0.022540812175527086 0.17731074678656547 0.005916866497430284 -0.00705262073127777 -0.07144367774926785
          0.08538162670268588 0.15216899196718295 -0.12026007612349054 0.05748536268615842 0.08528948361145064 -0.1120572844249649
          0.1425943010575701 0.3161759290462833 0.1390410303842271 -0.00007913391437663897 -0.009401392470464787 0.02728103160308315
          0.0278456250889616 0.021927391852770817 0.03870466390802185 0.2706926720237073 -0.02363818579952026 0.5693560128349469
          -0.04434813150002048 0.2740392915343851 -0.03374724378472416 0.005776703942201311 0.002454008214914063 0.015536687692415008
          0.0074920260580504175 0.0016163906592455701 0.0007274201987137151 -0.004865588167205493 0.008761667021756694 0.016481214509670716
          -0.01585335038088112 -0.0067969609346987935 0.01821282935317053 0.031873611882085796 -0.006232348465574883 -0.011733068898942073
          0.00320386158467266 0.0035495256285696386 -0.02922365676117966 -0.12092312056854368 -0.21863517283766765 -0.05164293975671688
          0.0008129086825020126 -0.0008068813453811843 -0.0007588013207458361 -0.009879147633346408 -0.0003990735057854966 0.010563010447454557
          -0.009384129677113585 -0.005022931489635896 -0.00032333648476724763 -0.007112780511400851 -0.004648686881077807 -0.006610029974713598
          -0.489088064897936 -0.4271390399668293 0.1963612782843576 0.1958395354917878 -0.9173529906857354 -0.706953964284393
          0.39427480567144757 0.3665946500384253 -0.35090642733471084 -0.1420295206211749 0.18853251286606987 0.16247115533273582
          -0.2038292397615086 0.03515295002305949 -0.4115536170631797 0.07211813913244593 -0.2169406366961163 0.03101250029078323
          -0.011956502731637175 -0.02567528809911168 -0.016462373620316217 0.004224153138072874 0.0029582883692240436 -0.0029708136018427866
          0.0009159060463889701 0.04982521941591358 0.00021842854620368612 0.10157430116040594 -0.004527617852836119 0.05391159532995754
          -0.004924308352876786 -0.007641310376497151 -0.06787047821687077 0.08271953828482372 -0.09798003113799997 0.08520637301674915
          0.004744106296233563 -0.14401873492281303 -0.029590152992555574 -0.2685506769621408 -0.045918214042352634 -0.05108261454524596
          0.00282851724591264 0.00041017737647193464 -0.0028070521662510867 0.06910713477492861 0.16264147466522524 0.18319857779456425
          -0.010534132512849848 -0.008991016031871454 -0.00828838098165096 -0.006641834687784232 -0.0412248208958208 -0.0177672844459964
          -0.016990346694208062 -0.01628605150384821 -0.010665572282064058 0.10462189894056143 -0.0396040750960244 0.18798289777861976
          -0.05562234604864719 0.03148626652602354 -0.05128633196467572 -0.005232236316145639 -0.005968659181292343 -0.0003323228096083035
          -0.004709302424692637 -0.0009721575430354512 0.004105148186322623 -0.005292522041276393 0.008731760522044371 -0.022508333934759928
          0.07286279927655698 0.16588287042714567 0.18556533949522802 0.35816775960096564 0.1136015491204137 0.19755799705974159
          -0.0348809607700174 0.03480981083771151 -0.15721799895001443 0.09497137469429578 -0.14434154566818197 0.054313543575305157
          0.0593429840639965 0.13499786635835756 0.0706736706749888 -0.0002231522682399345 0.0181231430193676 0.01350423037754006
          0.032093343026934784 0.047913208334856516 0.013709560976658708 -0.005191172135379812 -0.004029194162266353 -0.0010655801632008938
          -0.007216853084589192 -0.0063424576862420035 -0.008643736256676915 -0.09546030756732493 0.05147671403094878 -0.18850580102485973
          0.07882968857953773 -0.044002014593778255 0.006954775733407623 -0.013869775493100589 -0.030952233930141383 -0.011977144408236454
          -0.01585882320102655 -0.035984777180251754 -0.0038053168321275643 0.00017447695204661495 -0.013922756549354345 0.009027469760317833
          0.003083035956965824 0.002001357134918766 -0.002138739368539172 0.049776444400544795 0.004442061319419516 0.05650050711557862
          -0.00023931337854227186 -0.021734466660281032 -0.014551266626850662 -0.013800999725316565 -0.021116379424088505 -0.011676128669447117
          -0.010584943127276897 -0.01735200909842989 -0.0073333209272062605 0.028415991426596912 0.058486588253951845 0.027075754432219927
          -0.006790999585945534 -0.005195613462209453 -0.008519689619581883 -0.007713293224740347 -0.009441937254374325 -0.003577205478138737
          0.0028959404740951378 0.0014470800895881701 0.03232358708487579 -0.009425034091277124 0.029964724363402764 -0.004287511338740113
          0.011804392446552913 0.0268631791164906 0.005834332969058061 -0.002999521523050941 0.03413355248323782 0.029899417704268044
          -0.01980472337263657 -0.04282371531058054 -0.02034769258245272 0.001974010269034862 0.005445511426713019 -0.004001121884994782
          -0.002450441879771184 0.0062351741239028285 -0.0009087713071478133 -0.019231560405691073 -0.0024890757928988094 -0.012282870119018519
          0.22109537133320778 0.4546642438535504 0.23881965743231737 0.1706450506592433 0.36446819193067814 0.17144542020055442
          0.01921829741859904 0.07018997377517366 0.005344506170966379 -0.018996846200642237 -0.006682829433601434 -0.037777806115367185
          -0.022344391357054405 0.0026289287368994607 -0.007727368714554372 -0.0004007891986030909 -3.65999613672291 -0.0008125399339540262
          -7.325344948066537 -0.005022744457077621 -3.64200640631539 -0.00003860911942044076 -3.231905196804312 -0.00007866627123354064
          -6.464385310420848 -0.0034454807176651503 -3.2597845427423318 0.0003714515150452513 -2.4846756301469295 -0.00006215776320428468
          -4.969706819999902 -0.001680900181960876 -2.4937131101740038 0.00048040484282951823 -1.555020165868411 0.00006188685364794111
          -3.110582973580467 -0.0014647554931009887 -1.5624717477884804 -0.00009808318500009738 -0.5486660865703672 -0.00006271978583688442
          -1.0974476773322286 -0.0014737342036038048 -0.5531134350714715 -0.000006998432496990725 0.43553195803414435 0.00001539562016861229
          0.8710962532023705 -0.0014270617250851658 0.4349778244119613 -0.000044880803652280754 1.3367955756466534 0.000021152579079308786
          2.673695718487469 -0.0007357269261833999 1.34026706516409 -0.0005147932625286789 1.746686874830499 -0.000005693462417022399
          3.4936407104516536 -0.0006324706792051327 1.7520632524013906 -0.19965216566029942 -0.39109693409367696 -0.19676825995392222
          -0.002241239515348381 0.0001721706896684605 -0.004174821141051943 -0.00034143820345922116 0.0000755902196198921 -0.0038958903617050122
          -0.001002763094529735 0.0006992430958628892 -0.0026670016889490666 -0.0009806597759242086 0.000643981395916482 -0.002100137816489045
          -0.0005586912646417114 0.0005150901895369202 -0.0014647409116000515 -0.0007042237363461545 0.0006361906408659523 -0.0012362187535004954
          -0.0014018794762716835 0.0006076086252139734 -0.001489199065971003 -0.02050939535455365 -0.028083025438311093 -0.04646187187490858
          -0.004038807455998494 0.00042618382862347204 -0.005227271979786785 -0.0029290969406849943 0.0008211664819484099 -0.003325081894855142
          -0.0026686699054174756 0.0005432089709513921 -0.002423362045176791 -0.002182944410346388 0.00042379429647088074 -0.0010527414090022447
          -0.0018866804348371957 0.00030416555486145747 -0.0009676801013795144 -0.0017703977623676759 0.00021476438930123631 -0.002132614506367758
          -0.00211261054104854 0.0002490818660083327 -0.0031652419713005878 -0.01830050544648998 -0.02590394794739037 -0.014568703570709385
          -0.006651508076962909 -0.004280646048474335 -0.00803652527648202 -0.00459304089388568 0.0015110439309917734 -0.003256119185836459
          -0.0017289060918679322 0.0009247466697408502 -0.0008751739987258311 -0.0014967738280422527 0.0006444876720032022 0.00021124418024576208
          -0.0016502691245970924 0.0005199514976327313 -0.0009554554557556494 -0.00252656149338798 0.0002988424086265984 -0.0034602542134619108
          -0.0031750240424913145 0.00033269112678685486 -0.005370513260479937 -0.06978116378400401 -0.1344442015886793 -0.07851426984086052
          -0.005587918168383776 0.0008866202003376955 -0.0005322367198763445 -0.0036985599727565877 0.0006620042906639867 -0.0020435804439999927
          -0.002726932800039217 0.0016449722192728444 -0.0000706900965967705 -0.001520693190940614 0.0012275666226972959 -0.00016652477052092607
          -0.0016513945337971458 0.0005709475640487405 -0.0019706689279025413 -0.0038372382251211645 0.0004279183378493867 -0.005011150931801767
          -0.005002162898591123 0.0006345281045810891 -0.006623531208327482 -0.048918838207377024 -0.08788038336155124 -0.13700506795474365
          -0.03980442490086755 -0.059837042720806366 -0.047770631422527465 -0.029725907607991875 -0.0432343411908942 -0.03118875398233678
          -0.03878493642189662 -0.06791527444827405 -0.03838844430990118 -0.0014677880355637996 0.0030388458091232806 0.0001087633179297498
          -0.0004958945818538396 0.0019124636557819041 -0.0016628760545687182 -0.0023453541104059283 0.0011730323032257406 -0.003166259750644551
          -0.004392834899931364 0.0011010173066597906 -0.005469433767498533 -0.005337944027171471 0.0011132587452820086 -0.005938547507719161
          0.04651890655336999 0.0584461881174132 0.06032300745122088 -0.008160876755177293 -0.032639723179588076 -0.01977732393457865
          0.04483355780998721 0.09732701131645083 0.053231236003692395 -0.08559299950139287 -0.15909745308110157 -0.07746889771637466
          -0.0016472194120615846 0.003450989001891447 -0.0011605900839768424 -0.0017856536044393856 0.001754055837866808 -0.00445643824417985
          -0.0037920960863497832 0.002539453661955182 -0.0030322532604092345 -0.0051889749419082865 0.002078062861935015 -0.0034729754113795863
          -0.00483295596574651 0.0014140274545713094 -0.004325235868223309 -0.25738409178590405 -0.49846029734143826 -0.3665255441086934
          -0.06368898746362506 -0.1053836521698257 -0.07235096959101162 0.019907544320164172 0.06492382361280713 0.02415577276676273
          0.020343153624514 0.05317455061901866 0.02707133275529472 -0.022429979654853494 -0.034475871977715844 -0.02106978957649197
          -0.0036880672131252012 0.002147265550461519 -0.004769705904420718 -0.003504029250213314 0.004225363701624296 -0.0008514106482326866
          -0.003120852960304843 0.003626413739022283 -0.0007255606852245577 -0.003083405449686216 0.0015355464024344734 -0.0028676277628332247
          0.1838700125008894 0.3856203219400607 0.17000566753613855 0.02020764074786996 0.03561850451114612 0.001982999886556591
          0.002954625123994248 0.005492601500310279 -0.0029921272090280837 0.05374742478550232 0.1210882215113287 0.06304215560340687
          -0.02735432257862147 -0.044567629250798824 -0.02285448586367167 -0.006973632705115307 -0.006702077635371673 -0.004358527903440823
          -0.005698101872594563 -0.004894186567251602 -0.002592034108135799 -0.00401669193702725 -0.0024031639500647906 -0.0017784745292446225
          -0.0031902323722396986 -0.0008487725503836252 -0.0015138175856477254 1.8238060615746936 -0.000877675986997839 3.6480432306411723
          0.00003049132428523116 1.8293369602162868 -0.0013892421274297462 -0.001975351580435991 0.00042420286964178766 -0.002194536088271304
          -0.0031059042159666123 0.00020106180879563007 -0.0034561214682996 -0.004386950748837215 0.00012051300767118578 -0.005375332556293022
          -0.005552201570507731 0.00009443011786969269 -0.0055912633571958414 -0.005125301669759219 0.0005188851939581518 -0.004592987914884494
          -0.004040908723786485 0.0005329830667097912 -0.00386375125782612 -0.003745278613803915 0.00047525468445264174 -0.003116440311321522
          -0.0029180685606751133 -0.00029635038335196207 -0.0011780511256396231 2.104163848672079 -0.0008723821903809936 4.208728884510611
          0.00004007413443274377 2.110089496695787 -0.0020169400706157026 -0.00270767422554663 0.00036836580078469794 -0.003159894259262108
          -0.003801589355148627 0.00031517787362833616 -0.004107857583896091 -0.004760161982503924 0.00039197013823701055 -0.00524707557363828
          -0.005746862649348428 0.00039407825522819184 -0.005190416450660984 -0.005187955647851572 0.0006345212640708198 -0.004453724962022454
          -0.004468219163478837 0.0006108194974576708 -0.0037883475045470405 -0.003997321010690169 0.0004563842529513584 -0.002548755860425911
          -0.002736918865813731 0.000027247551927400693 -0.0006167825951430839 2.336566841639696 -0.000869705551884592 4.673507408983221
          0.00007051262465296304 2.342723728400994 -0.0019993097832915474 -0.0031904453239872677 0.00034226480693899664 -0.0036596547589429207
          -0.004524648921757524 0.0002772008139252935 -0.004794410514444902 -0.005059001233963904 0.00032201034439408027 -0.005848524478856032
          -0.005398073090013944 0.0005265682691894535 -0.006272388010801266 -0.005312027486123583 0.0006749619730640477 -0.005794851302694193
          -0.00511296893124924 0.0006780159494685911 -0.004251304662431066 -0.004170078849531023 0.00047351493036396075 -0.0028761105144591292
          -0.0023760502555407736 0.0000967234426932917 -0.0006879309663244682 2.5235196923473104 -0.0010140067610993064 5.0474621337884535
          0.00008527748045694672 2.5297842204538625 -0.0019556047400912657 -0.003458261966364118 0.0003520890787888087 -0.003778748999446635
          -0.004970198280002336 0.00019332637744295944 -0.00467172563054552 -0.0054713150305903124 0.0002985160016898969 -0.005863103532392944
          -0.005462964580035118 0.0005897377437116547 -0.006451035303130459 -0.005994427396396884 0.0006156336927284345 -0.0059797279059848885
          -0.0055100939474747035 0.0005639987303106553 -0.004737676349799713 -0.00376672116416088 0.0004370454501812504 -0.0037293787887802132
          -0.0024234275747304634 0.00006755386880463732 -0.0008894625755293539 2.668708323347268 -0.0009729628378425392 5.337830189981932
          0.0001053120279215225 2.6750120541247595 -0.001891727200887594 -0.003331042293304609 0.00046393325716254097 -0.00402798170902352
          -0.004917183797329638 0.0002395127756257276 -0.005629656655144144 -0.0055216339628665345 0.0003774077945088439 -0.006742831627311929
          -0.005738206548863561 0.0007486218943814141 -0.006849083119962143 -0.005806700465522618 0.0007559687928701542 -0.006176937959807338
          -0.005378278936786995 0.0006872226454344155 -0.005153688919006805 -0.004357335793450046 0.0004610620682704569 -0.00456132751987004
          -0.003472936073989852 0.00008103457136404701 -0.0013833899283742235 2.77616921605129 -0.0009396648588249068 5.552766465391721
          0.00006400277136564547 2.7825055957841363 -0.0016937586441769792 -0.002914762838445606 0.00042425866640161125 -0.003962732692983195
          -0.00451139296303249 0.00022978099008896802 -0.0061174775815291405 -0.005881296216802556 0.00017970778691311917 -0.0067987537746599935
          -0.005900627462795072 0.000602845861790019 -0.006181757146588723 -0.00517872428169644 0.0006975272592359139 -0.00593391763174958
          -0.00535648002237854 0.0007696076823178744 -0.005128138562196072 -0.005380287420512747 0.00043082857252280116 -0.0060366549387845525
          -0.0043778143767604916 0.00021814499666428233 -0.0019089617835255646 2.8498101402162552 -0.0014204878982804203 5.700167688685202
          -0.00006845760309115434 2.856127652735295 -0.001798940120748549 -0.003799124832253087 0.0004174569842831932 -0.003378980188445624
          -0.005267269136300379 0.00023427316455171265 -0.004199564166310066 -0.006380085247350675 0.00034135979461846766 -0.003488254610116037
          -0.005579179117654043 0.001226250336386625 -0.0035305281653841836 -0.0044198436696157445 0.0016379556653918215 -0.004435219082866537
          -0.005673123290160231 0.0008959000246893667 -0.005699141546924774 -0.006005976289133727 -0.0006465623614218957 -0.00825173886965895
          -0.00441796251621146 0.00013078741552666195 -0.003200552718422678 2.89278726745739 -0.0015163699155074095 5.786119099029764
          -0.000017525697924014594 2.8990369950989248 -0.002486299588963181 -0.004004599927276198 0.0010849431294805978 -0.0033501532366881914
          -0.004577991913352175 0.0006937874612003014 -0.0011349306463712683 -0.003978537106016589 0.001231110858507689 -0.0015320010060774214
          -0.002710060231330247 0.0027462840578089676 -0.004045976260492079 -0.0028192600023033143 0.0034649067380981835 -0.005352974924454357
          -0.006784938082925462 0.0011165875872646003 -0.0068429774419832 -0.00993109576612362 -0.0005583453012796427 -0.00929858589356774
          -0.009201582382149631 -0.0032409751520419694 -0.0038674330047977074 1.4533277732206218 -0.0013912306303665023 2.9071707844458663
          0.000023913142468412474 1.4566663678960876 -0.0009083336275421683 -0.0026450308074588147 0.000572120154633815 -0.0012697428769030683
          -0.001730291464629774 0.0006081847499410653 -0.0002909549924541288 -0.0003745640960612917 0.0018058105366307586 -0.0009136262774032122
          0.0008131269057897184 0.00493988978207871 -0.001642861075768387 -0.003931798402809439 -0.0007316505088786895 -0.0016518207973148513
          -0.007858174313373767 -0.0003766662870676729 -0.0007583812692438796 -0.007390318284708139 0.0007289274511654842 -0.002411595296923766
          -0.008055301011302037 -0.005075429390344338 -0.003212974616899558
        </DataArray>
        <DataArray type="Float64" Name="resid_z" format="ascii" RangeMin="0" RangeMax="0">
          0 0 0 0 0 0
          0 0 0 0 0 0
          0 0 0 0 0 0
          0 0 0 0 0 0
          0 0 0 0 0 0
          0 0 0 0 0 0
          0 0 0 0 0 0
          0 0 0 0 0 0
          0 0 0 0 0 0
          0 0 0 0 0 0
          0 0 0 0 0 0
          0 0 0 0 0 0
          0 0 0 0 0 0
          0 0 0 0 0 0
          0 0 0 0 0 0
          0 0 0 0 0 0
          0 0 0 0 0 0
          0 0 0 0 0 0
          0 0 0 0 0 0
          0 0 0 0 0 0
          0 0 0 0 0 0
          0 0 0 0 0 0
          0 0 0 0 0 0
          0 0 0 0 0 0
          0 0 0 0 0 0
          0 0 0 0 0 0
          0 0 0 0 0 0
          0 0 0 0 0 0
          0 0 0 0 0 0
          0 0 0 0 0 0
          0 0 0 0 0 0
          0 0 0 0 0 0
          0 0 0 0 0 0
          0 0 0 0 0 0
          0 0 0 0 0 0
          0 0 0 0 0 0
          0 0 0 0 0 0
          0 0 0 0 0 0
          0 0 0 0 0 0
          0 0 0 0 0 0
          0 0 0 0 0 0
          0 0 0 0 0 0
          0 0 0 0 0 0
          0 0 0 0 0 0
          0 0 0 0 0 0
          0 0 0 0 0 0
          0 0 0 0 0 0
          0 0 0 0 0 0
          0 0 0 0 0 0
          0 0 0 0 0 0
          0 0 0 0 0 0
          0 0 0 0 0 0
          0 0 0 0 0 0
          0 0 0 0 0 0
          0 0 0 0 0 0
          0 0 0 0 0 0
          0 0 0 0 0 0
          0 0 0 0 0 0
          0 0 0 0 0 0
          0 0 0 0 0 0
          0 0 0 0 0 0
          0 0 0 0 0 0
          0 0 0 0 0 0
          0 0 0 0 0 0
          0 0 0 0 0 0
          0 0 0 0 0 0
          0 0 0 0 0 0
          0 0 0 0 0 0
          0 0 0 0 0 0
          0 0 0 0 0 0
          0 0 0 0 0 0
          0 0 0 0 0 0
          0 0 0 0 0 0
          0 0 0 0 0 0
          0 0 0 0 0 0
          0 0 0 0 0 0
          0 0 0 0 0 0
          0 0 0 0 0 0
          0 0 0 0 0 0
          0 0 0 0 0 0
          0 0 0 0 0 0
          0 0 0 0 0 0
          0 0 0 0 0 0
          0 0 0 0 0 0
          0 0 0 0 0 0
          0 0 0 0 0 0
          0 0 0 0 0 0
          0 0 0 0 0 0
          0 0 0 0 0 0
          0 0 0 0 0 0
          0 0 0 0 0 0
          0 0 0 0 0 0
          0 0 0 0 0 0
          0 0 0 0 0 0
          0 0 0 0 0 0
          0 0 0 0 0 0
          0 0 0 0 0 0
          0 0 0 0 0 0
          0 0 0 0 0 0
          0 0 0 0 0 0
          0 0 0 0 0 0
          0 0 0 0 0 0
          0 0 0 0 0 0
          0 0 0 0 0 0
          0 0 0 0 0 0
          0 0 0 0 0 0
          0 0 0 0 0 0
          0 0 0 0 0 0
          0 0 0 0 0 0
          0 0 0 0 0 0
          0 0 0 0 0 0
          0 0 0 0 0 0
          0 0 0 0 0 0
          0 0 0 0 0 0
          0 0 0 0 0 0
          0 0 0 0 0 0
          0 0 0 0 0 0
          0 0 0 0 0 0
          0 0 0 0 0 0
          0 0 0 0 0 0
          0 0 0 0 0 0
          0 0 0 0 0 0
          0 0 0 0 0 0
          0 0 0 0 0 0
          0 0 0 0 0 0
          0 0 0 0 0 0
          0 0 0 0 0 0
          0 0 0 0 0 0
          0 0 0 0 0 0
          0 0 0 0 0 0
          0 0 0 0 0 0
          0 0 0 0 0 0
          0 0 0 0 0 0
          0 0 0 0 0 0
          0 0 0 0 0 0
          0 0 0 0 0 0
          0 0 0
        </DataArray>
        <DataArray type="Float64" Name="stress_zz" format="ascii" RangeMin="-10926347.009384809" RangeMax="5069129.705873031">
          2445227.7967965472 2633644.7217092523 3786303.2360089673 4052153.392986569 2472072.745738092 2612162.687407379
          3838949.4144117557 3964017.3911780026 2498917.6946796365 2590680.653105505 3891595.592814544 3875881.3893694356
          2807802.321494877 3612654.4359177593 4006705.4053013567 2530113.258887064 2721011.038938962 3548775.7938765297
          3982012.5245734914 2531146.633188776 2634219.756383047 3484897.1518353 3957319.6438456266 2532180.007490489
          2014046.55619048 2156760.8162532877 2004094.0105847465 2101551.930394266 1994141.4649790137 2046343.0445352441
          4618835.511321916 4996118.324273294 4683721.648091719 4567021.054613074 4942237.28568361 4654865.173558806
          4515206.597904231 4888356.247093925 4626008.699025892 -1994937.291748019 -606025.7074464691 -704448.096853382
          -710541.7747236585 -1926021.8409202788 -743527.0949505317 -759588.0733349567 -724240.5925039594 -1857106.3900925387
          -881028.4824545943 -814728.0498165314 -737939.4102842605 650415.7006750902 64166.66967811406 -648730.2560868056
          -2674893.918772784 894890.7422311238 -99966.48604524996 -774181.9188417192 -2407721.742835054 1139365.7837871576
          -264099.64176861395 -899633.5815966327 -2140549.566897325 2679482.709162205 4021656.9985204875 5049268.415482297
          2648382.8374005305 4015263.620792108 5059199.060677664 2617282.965638856 4008870.243063729 5069129.705873031
          3293393.613855022 3342633.538741068 3391873.463627114 3000515.043121177 3093062.5652987394 2998010.631934915
          3134995.1882257573 2995506.220748653 3176927.8111527753 4624255.363292024 4859832.835294443 4716233.701796218
          4799383.601019326 4808212.040300414 4738934.366744208 -1053346.5105784142 66458.73234824208 -1056337.7601038266
          61831.05679275663 -1059329.0096292389 57203.38123727121 -1448923.8859627713 -176088.35381371176 -306966.4469336631
          -1212924.8894929632 -1447605.360119048 -247037.36562062934 -386897.9938634853 -1172786.7477520935 -1446286.8342753253
          -317986.377427547 -466829.5407933074 -1132648.6060112237 2432528.437542822 2417591.766814447 2402655.096086071
          2617119.5233809706 2417361.9609597027 2217604.3985384353 3330677.5347960275 3311424.3922810494 3292171.2497660723
          2029472.3956109197 3042974.2199959056 1979068.3243484271 2977149.405498509 1928664.253085934 2911324.5910011115
          3199828.91809667 -2631652.69897642 -3390163.9788239216 -196758.77705549542 3190767.0181534574 -2619241.013855478
          -2986464.7218619892 -201375.09504493792 3181705.118210245 -2606829.328734537 -2582765.464900057 -205991.41303437995
          643217.7919449554 -228218.46827962412 723620.4810983413 -198045.87268280203 804023.1702517272 -167873.27708597947
          52297.48153778893 45491.48509712066 38685.48865645239 -733094.9540855417 -687461.1175025167 -641827.2809194919
          1103993.4250060811 1022733.7148589495 1475899.970117232 1331948.4118853097 1847806.5152283832 1641163.10891167
          -4305529.303269649 -2026994.6892659157 -3689150.52215861 -1399294.9170875424 -3072771.741047571 -771595.1449091688
          807088.5311455572 -1757744.878582212 514266.79537603765 -2326006.89853985 221445.05960651825 -2894268.9184974884
          -509696.2707605223 -456010.0623041294 -402323.8538477365 190070.90052116523 88360.54742491843 -13349.805671328539
          -1356008.1773920767 -1315444.8331401541 -1274881.4888882318 398414.9357236743 -27697.153010515904 -453809.2417447062
          2045916.4456958144 1987867.2800897546 1929818.1144836945 1152988.3984833676 104452.07368889137 1123190.0865007201
          120679.09371407935 1093391.7745180724 136906.11373926728 728639.7057031266 719094.0403148177 709548.3749265086
          1180783.1711105823 2448875.439530465 1193414.0007398305 2516646.55209987 1206044.8303690786 2584417.6646692753
          83654.77693441178 -2550311.6260342025 165.84950947307516 -2268015.140994177 -83323.07791546569 -1985718.655954152
          -1649686.3060161695 -1352961.9955489337 -1397164.2779970525 -839429.970417388 -1144642.2499779358 -325897.94528584287
          1607324.3137215956 1558549.4290776171 1509774.544433639 -1310202.226378966 -1287147.4463237145 -1264092.666268463
          -1556286.4873616984 -1353353.1990581146 -1150419.9107545307 -1913018.2802941143 -2549066.567662801 -1882230.3715584546
          -2498259.874835923 -1851442.4628227951 -2447453.1820090446 -84730.90196301992 819008.4903815299 -141609.74445890554
          738336.1718651309 -198488.58695479113 657663.853348732 -1550981.773480256 -855289.8115632172 53333.702211370924
          -1544745.878460859 -794431.0369043188 -100244.5688765632 -1538509.9834414613 -733572.2622454206 -253822.83996449734
          1224015.6735624291 951972.1980317512 679928.7225010733 2244160.3933194308 3126682.643674842 1834027.7880818853
          3034759.4488571193 1423895.1828443399 2942836.2540393965 1904986.477630228 2106774.7263836716 2079260.953914578
          1921625.7324956015 2253535.430198928 1736476.7386075316 -382968.91705557983 -387700.54609154386 -392432.1751275079
          -2104196.8970153253 -2097590.9665895966 -2090985.0361638677 4384265.895905976 4424092.2656270815 4463918.635348187
          -1373476.4321773609 598059.791137063 -950236.6344883421 659305.6425470057 -526996.8367993232 720551.4939569484
          776003.8361219018 572243.7499605094 368483.663799117 -62854.790185295744 425018.50955340674 912891.8092921095
          3226733.6630621958 3221518.590986031 3216303.518909866 1831139.2255237955 1980468.2648825059 2129797.3042412163
          2008605.116018347 1807229.4419652924 1605853.767912238 1933361.9632650265 1911055.9504679488 1888749.9376708711
          3926996.126412636 3929544.1966137085 3932092.26681478 2563710.2272658832 2552516.069678158 2541321.912090433
          2136330.044188343 2126443.4901547 2116556.936121057 1101121.4671059714 1108805.7120276168 1116489.9569492622
          -172007.27806313103 -156703.7710143997 -141400.26396566827 926809.7183144863 688950.4875803436 914404.7211240304
          687368.7194498389 901999.7239335744 685786.9513193341 -315861.3348480224 -180096.40087974467 -312410.55338625854
          -174839.55412144645 -308959.7719244947 -169582.70736314828 59277.906089529744 28542.860647467096 60437.85148888518
          27567.2125001382 61597.796888240606 26591.564352809302 28993.762744220225 44453.73579205087 27936.40659029969
          44129.46360853327 26879.050436379162 43805.19142501566 59974.94934354508 72040.61779963272 60557.096104948025
          72246.83348395741 61139.24286635097 72453.0491682821 69456.96893966437 76717.72754505275 69236.6786892854
          76586.79384357647 69016.38843890645 76455.86014210018 57647.08398451137 64267.09227874543 57771.86043221219
          64294.88381160884 57896.63687991301 64322.67534447225 11900.908278693854 22107.204000441496 11815.898333669576
          22059.303015839265 11730.888388645297 22011.402031237038 1373998.1056668737 1350482.0669262903 1326966.0281857068
          102043.22429674806 97856.17672111286 93669.12914547762 -51982.739917031344 -48275.75866882633 -44568.77742062131
          37951.955981335785 37031.44989424462 36110.94380715347 49929.17887794628 50234.49916283154 50539.819447716785
          68447.07785978072 68604.18348958968 68761.28911939863 48127.03091204533 48397.08983534232 48667.14875863932
          -17771.006097410274 -17733.48181599036 -17695.95753457044 -422026.6710203197 -438106.73307778453 -454186.7951352494
          832955.9448018357 817380.6820638011 801805.4193257665 -205753.93433066242 -203144.60256146983 -200535.2707922772
          78978.06924373217 80371.46674507168 81764.86424641122 53378.894687284366 52279.73348843914 51180.57228959391
          79610.11239123078 80196.61229748171 80783.11220373264 35544.74822582056 35343.34989996578 35141.951574111
          -70625.57745362972 -71159.30068575105 -71693.02391787237 -4002076.152997056 -4004659.933372787 -4007243.713748518
          -347703.9143604605 -364099.8988569345 -380495.8833534084 119862.81266104916 115336.19907644049 110809.5854918318
          39829.44314605483 41844.51129280164 43859.57943954844 72081.75540583748 71041.50507751036 70001.25474918324
          83364.21436399764 83833.11441882256 84302.01447364745 2463.7380079030045 3262.747527931897 4061.757047960804
          -154607.64373840092 -154562.64910022708 -154517.65446205318 -5386202.686053161 -5367854.328805577 -5349505.971557993
          -3040401.769440851 -3034012.5913384664 -3027623.413236082 187936.10692721902 174995.0454060955 162053.983884972
          118250.5018143624 117918.54964997577 117586.59748558911 59951.5298288327 61118.91963219604 62286.309435559386
          66509.41616856073 65784.93132842382 65060.44648828689 -73708.16937009827 -74186.13816289499 -74664.1069556917
          -303826.54572084715 -306551.63817610004 -309276.73063135287 294568.5092647881 247783.46352369493 200998.4177826019
          -3724036.135025475 -3736899.8349481886 -3749763.534870901 -5310038.373423645 -5298630.37098254 -5287222.368541433
          -1569946.384650328 -1578207.5593922194 -1586468.7341341109 542089.0679050636 531542.3247144825 520995.5815239014
          -94841.89674848462 -94951.46717768427 -95061.03760688395 64258.25500511303 65926.19175027809 67594.12849544313
          -141325.9953290345 -139475.9002906219 -137625.80525220936 -482944.83744492795 -482636.65148490685 -482328.4655248858
          2707443.0298531996 2661508.0635449537 2615573.097236708 358988.26812066627 306728.7839735538 254469.29982644127
          -4883795.337729659 -4877605.699211372 -4871416.060693085 -4037268.9044599594 -4021632.5920813326 -4005996.279702705
          239118.84779123834 224161.91290891077 209204.97802658306 27872.665380727492 21380.960435531408 14889.25549033536
          5465.7676898261325 8788.61319841056 12111.458706994992 -649856.899085435 -648739.403331951 -647621.9075784672
          -1297642.5994472217 -1300463.3560451677 -1303284.1126431138 1781179.807306563 1775038.4090924421 1768897.0108783208
          489768.1230871 437682.09201422485 385596.06094134937 -5867527.149526224 -5864767.459455839 -5862007.769385455
          -7971187.448883701 -7937786.473217497 -7904385.497551292 -2328663.2098682015 -2334830.2468036725 -2340997.283739143
          830578.9724417857 815650.1228035822 800721.2731653787 466972.97988925775 468971.2767869273 470969.5736845969
          -307030.4509237893 -305860.55070620746 -304690.65048862563 -1547871.9801605986 -1556790.4372766325 -1565708.8943926664
          -514298.6517243184 -506668.65259032254 -499038.6534563269 -1990878.889680115 -2049767.385739526 -2108655.881798937
          -8212343.832473513 -8220826.335525254 -8229308.838576995 -10926347.009384809 -10891611.376408422 -10856875.743432038
          -4303814.11306655 -4305471.12998427 -4307128.146901988 1385180.5592730232 1365522.733894208 1345864.9085153923
          1000718.251402787 1003242.6557076088 1005767.0600124304 529482.2101033973 536562.3188698346 543642.427636272
          -1063896.1021962247 -1068670.343192976 -1073444.5841897267 -13471.723533505156 -20917.289895127986 -13449.651148895013
          -20880.378105632273 -13427.578764284866 -20843.466316136564 -43861.114273876345 -43627.25567483376 -43393.397075791174
          -82145.64300387033 -82086.56447894654 -82027.48595402273 -132966.04605875374 -131949.7654365816 -130933.48481440943
          -218679.00632819382 -218717.82480356982 -218756.64327894576 -284871.7251136319 -282003.19310943177 -279134.6611052317
          -778430.2869077771 -774358.3395324607 -770286.3921571441 -398644.5212302014 -392960.91149296437 -387277.3017557273
          466185.91538350645 477554.3112647004 488922.7071458944 -26248.255954677756 -29943.85357551537 -26237.3624893205
          -29914.72980349444 -26226.46902396324 -29885.606031473515 -40844.60832382903 -40721.828798188624 -40599.04927254822
          -56975.2287565845 -56893.27243205752 -56811.31610753053 -74868.92526357748 -74468.82509434936 -74068.72492512126
          -99217.01602547272 -99124.50002710194 -99031.98402873112 -110392.65247628832 -109245.44999104309 -108098.24750579783
          -327848.2109500584 -326284.3650356959 -324720.5191213333 520820.4772950397 520045.12321490987 519269.7691347801
          1591148.9451232739 1589414.4107700363 1587679.8764167991 -39336.88886237278 -43283.09648688433 -39336.1066552075
          -43281.03974963453 -39335.324448042214 -43278.983012384735 -54930.99172355314 -54969.663212859814 -55008.334702166496
          -73031.42905827738 -73202.83777814957 -73374.24649802173 -95988.96836903658 -96283.50680762589 -96578.04524621522
          -125265.28060674889 -125942.05671675102 -126618.8328267531 -178782.05167112398 -179816.4830403282 -180850.91440953244
          -244711.99608495168 -246975.2380680031 -249238.4800510545 354106.35701365944 349820.13291088515 345533.9088081109
          982055.4061112434 976967.1976700114 971878.9892287795 -52546.413790648396 -56465.597534658824 -52562.25213786609
          -56453.496479787405 -52578.09048508378 -56441.39542491599 -67425.4543039636 -67370.70039206225 -67315.94648016088
          -83873.81427086431 -83779.19045502567 -83684.56663918703 -103976.16114865715 -103806.031334648 -103635.90152063881
          -130124.92806651785 -129828.4428759689 -129531.95768541993 -154713.24133862197 -154260.50775923335 -153807.77417984474
          -98603.12346340144 -97617.17943281497 -96631.23540222849 386291.14725078543 388827.489443811 391363.83163683664
          805941.0937993219 809574.8662650627 813208.6387308035 -65366.129744285885 -69417.1659600061 -65382.40525837386
          -69421.83204465471 -65398.68077246183 -69426.49812930332 -80287.70114887167 -80299.24688461641 -80310.79262036116
          -95374.90375908739 -95419.64107944483 -95464.37839980228 -112708.74792247945 -112800.38904569806 -112892.03016891668
          -128345.49825448758 -128460.58113951066 -128575.66402453373 -115899.55229090495 -116295.92902633939 -116692.30576177382
          -1118.8258762841506 -1640.2439154084568 -2161.6619545327703 367448.55765003106 366457.9218633843 365467.2860767376
          640251.7705309946 638626.9049131244 637002.0392952543 -76853.67616410946 -80997.62299347391 -76907.34093831124
          -81006.25809726519 -76961.00571251306 -81014.89320105649 -91732.16311136809 -91714.21303625176 -91696.26296113542
          -105388.55542846287 -105395.86399230605 -105403.17255614925 -118042.74340233147 -118075.57936170706 -118108.41532108262
          -119495.92298843665 -119531.76601786466 -119567.60904729269 -77582.14005596467 -77701.52238699325 -77820.90471802182
          60040.594658041206 60252.47161403851 60464.34857003584 345334.8739311313 345949.9276341357 346564.9813371402
          530784.9920634892 531372.7177468509 531960.4434302128 -86806.51148618363 -90636.32210171821 -86861.69758327602
          -90637.17713133512 -86916.88368036842 -90638.032160952 -100893.61889528565 -100863.9851822112 -100834.35146913675
          -113365.21705074064 -113357.9703762623 -113350.72370178395 -120651.602052948 -120597.32577051184 -120543.0494880757
          -107958.59920097828 -107708.70124519915 -107458.80328942003 -47489.512906827666 -47289.082265573066 -47088.65162431846
          94851.41721166857 95087.84042792434 95324.26364418009 326719.14687388303 326899.3978689555 327079.64886402804
          462779.7568349969 462668.32836778724 462556.8999005776 -93951.81612264823 -97557.59233820914 -93931.01416573883
          -97512.6866083025 -93910.21220882943 -97467.78087839586 -108551.37981147307 -108469.8153641245 -108388.25091677593
          -125279.81513644067 -125170.63214448396 -125061.44915252722 -143135.64285551244 -142756.7361619191 -142377.8294683258
          -150845.39128035778 -149831.22307005676 -148817.05485975568 -92140.7660109604 -91056.78389988231 -89972.80178880422
          71203.95255190073 71881.17159001477 72558.39062812881 284555.5931144922 284953.7697642742 285351.94641405623
          392461.485156658 392676.5949766145 392891.70479657105 -96440.06445777368 -100164.19857444796 -96371.3790883823
          -100092.94000377927 -96302.69371899091 -100021.68143311059 -112252.87961162087 -112140.23075315729 -112027.58189469372
          -133612.52692967892 -133469.93125509217 -133327.33558050546 -164543.95892939507 -164075.2085394775 -163606.4581495599
          -199560.26174445025 -198361.97681497634 -197163.69188550249 -149425.78687679698 -148087.1843738071 -146748.58187081723
          35696.836439149156 36607.54472784775 37518.25301654635 250548.32151731645 251069.8599948268 251591.3984723371
          347491.62936008925 347797.7002603876 348103.7711606859
        </DataArray>
        <DataArray type="Float64" Name="peeq" format="ascii" RangeMin="0" RangeMax="0.007458145126603592">
          0.005035617680338112 0.0051803882924831585 0.0051795103219633536 0.0052551546352518266 0.005035439053497004 0.005179787566327912
          0.005178502788792843 0.005253640106183842 0.005035260426655896 0.005179186840172665 0.005177495255622335 0.005252125577115857
          0.00571477656773231 0.005883551916402524 0.005634322046809767 0.005579700329261742 0.0057140992737083765 0.005883540527754954
          0.0056332343557228375 0.005578472865042044 0.005713421979684444 0.005883529139107384 0.005632146664635908 0.0055772454008223464
          0.005339464908231453 0.005337517437723421 0.005338465536866412 0.005336283808745939 0.005337466165501371 0.005335050179768456
          0.005669905923395826 0.0050506402524871435 0.005215773438786433 0.005669360835118623 0.005050309953335639 0.005215120470597843
          0.00566881574684142 0.0050499796541841335 0.0052144675024092535 0.0047044368946880235 0.004550733774850819 0.004572660756529933
          0.004782564532092423 0.00470555420590812 0.004551821832591409 0.004573960244936116 0.004783647234142213 0.004706671517128216
          0.004552909890331999 0.004575259733342299 0.004784729936192003 0.00443624423991238 0.004343102271298318 0.004453429957777801
          0.004624516490802713 0.004438397795727219 0.004343790491146891 0.0044544382300452864 0.004626025412520034 0.004440551351542057
          0.004344478710995462 0.004455446502312773 0.004627534334237353 0.00598073097867444 0.006351074732317116 0.006101707269942829
          0.005981350361929878 0.006351090416990881 0.006102339345066508 0.005981969745185317 0.006351106101664646 0.0061029714201901895
          0.004666806675219736 0.00466722318952598 0.004667639703832223 0.006574290531663026 0.006962287358520536 0.006574616390347732
          0.006961119265431904 0.006574942249032437 0.0069599511723432705 0.004304070003025627 0.004838104039551787 0.004304822407255261
          0.0048382045873596805 0.004305574811484894 0.0048383051351675735 0.004926132700529816 0.00526123299557196 0.004927454158255702
          0.005262297132667201 0.004928775615981588 0.005263361269762443 0.004759854398747051 0.004995570674051882 0.005155715158739605
          0.004895396622031034 0.004761156012203656 0.004996658654289945 0.005156482067748722 0.004896708031007862 0.0047624576256602635
          0.004997746634528008 0.005157248976757842 0.0048980194399846876 0.00745688080856146 0.007457512967582526 0.007458145126603592
          0.005615438225938893 0.005616658904181178 0.005617879582423465 0.00582547137443197 0.005826200196520857 0.005826929018609745
          0.005425702503962683 0.005484501923894781 0.005424854938328161 0.005484227172330639 0.005424007372693637 0.0054839524207664974
          0.006890522958922193 0.006473001940204537 0.0059008846327405565 0.0063617439781195545 0.00689251455300368 0.006475280386777039
          0.0059055475085891375 0.006364544121683942 0.006894506147085166 0.006477558833349542 0.005910210384437719 0.006367344265248331
          0.005052990753605643 0.005020697774611381 0.005052880198231171 0.005019744520248551 0.0050527696428567 0.005018791265885723
          0.0053127410555244324 0.005315702882183287 0.00531866470884214 0.004402269725716075 0.004403367329770392 0.004404464933824707
          0.005547450980276727 0.005372611838373381 0.005551882761182772 0.005377264942845149 0.005556314542088818 0.005381918047316915
          0.004703215752850028 0.004578353655077354 0.004702128477515242 0.004577715462806117 0.004701041202180455 0.004577077270534879
          0.005846285071096439 0.006230617003953976 0.005847276277657887 0.006230990056748605 0.0058482674842193355 0.006231363109543233
          0.005031446415284439 0.005033049502526038 0.005034652589767637 0.007097725713744623 0.007096230371399508 0.00709473502905439
          0.004766094261218832 0.004767559309087179 0.004769024356955525 0.0063827106869953475 0.0063811768542266604 0.006379643021457972
          0.005219656192530525 0.005222368061956629 0.005225079931382734 0.004675509729296685 0.00472808797993088 0.004677675903459631
          0.004729897934512314 0.004679842077622577 0.004731707889093748 0.005101709235441463 0.005101962290115459 0.005102215344789456
          0.005164788243400727 0.005337001549237715 0.005165631037942663 0.005337999390506575 0.005166473832484598 0.0053389972317754355
          0.005477935307922019 0.0055207251468040695 0.005478385029739638 0.005524354312538433 0.0054788347515572575 0.005527983478272797
          0.004961356956245298 0.004816578741019136 0.004958810479169979 0.004814619142356313 0.0049562640020946605 0.004812659543693492
          0.005316154388874139 0.005318622702457962 0.005321091016041784 0.00482834685946043 0.0048297634204156744 0.00483117998137092
          0.005905886692731714 0.0059096547753967115 0.005913422858061708 0.0045595917965454 0.00464920760504452 0.004561261900594953
          0.004650961365557584 0.0045629320046445074 0.004652715126070648 0.004508001745425717 0.004464914373895743 0.00451008630415103
          0.004467171258828947 0.004512170862876343 0.004469428143762151 0.004437481231685989 0.004295226510760263 0.0043562313124548445
          0.0044389964698443455 0.0042962684793810945 0.0043570616188196585 0.004440511708002702 0.004297310448001925 0.004357891925184473
          0.004321935806816626 0.004322115657003542 0.004322295507190458 0.005952001903622913 0.0056239158873561 0.005951020278154705
          0.005623819032906396 0.005950038652686497 0.005623722178456692 0.0050574209758874914 0.005191180971106907 0.005057112676504999
          0.00518982867076074 0.005056804377122508 0.005188476370414574 0.00425166734063338 0.004252737348028026 0.004253807355422674
          0.004592986115536639 0.0045947721689776734 0.004596558222418709 0.005526218966257116 0.005527014119424332 0.0055278092725915455
          0.004504212038450892 0.004368701246924074 0.004504393387846825 0.00437050917823853 0.004504574737242757 0.004372317109552985
          0.004288730120782763 0.0042892815078102615 0.00428983289483776 0.004729329769635962 0.004728954915461977 0.004728580061287991
          0.005730976536831193 0.0057315213068713 0.005732066076911407 0.0049793799677373875 0.004979319614067066 0.004979259260396743
          0.005183971564003912 0.005182141566668877 0.005180311569333842 0.005255264255021076 0.005254038353689408 0.005252812452357741
          0.003562746215457547 0.003562824389990022 0.003562902564522497 0.004063256778678862 0.004063284303703966 0.004063311828729071
          0.0045397787857268355 0.004539671095461055 0.004539563405195275 0.004949788389492001 0.004949503598452821 0.00494921880741364
          0.0051326016751472095 0.005132251506677981 0.00513190133820875 0 0 0
          0 0 0 0 0 0
          0 0 0 0 0 0
          0 0 0 0 0 0
          0 0 0 0 0 0
          0 0 0 0 0 0
          0 0 0 0 0 0
          0 0 0 0 0 0
          0 0 0 0 0 0
          0 0 0 0 0 0
          0 0 0 0 0 0
          0 0 0 0 0 0
          0 0 0 0.0000065909050355129975 0.000006703125778770825 0.0000068153465220286515
          0 0 0 0 0 0
          0 0 0 0 0 0
          0 0 0 0 0 0
          0 0 0 0.00008035831522618708 0.0000807157139881283 0.00008107311275006954
          1.4038238000293692e-7 1.850170386801332e-7 2.2965169735732946e-7 0 0 0
          0 0 0 0 0 0
          0 0 0 0 0 0
          0 0 0 0.000303833787747187 0.00030438530129148824 0.00030493681483578945
          0.00003554811375292136 0.0000357940813541495 0.000036040048955377635 0 0 0
          0 0 0 0 0 0
          0 0 0 0 0 0
          0 0 0 0.0015817249116709283 0.0015817436051202207 0.0015817622985695129
          0.0007164656744709211 0.0007170088105750657 0.0007175519466792104 0.00017165007318568117 0.00017218615276358778 0.00017272223234149437
          0.000005538116145777824 0.000005661938657853766 0.000005785761169929708 0 0 0
          0 0 0 0 0 0
          0 0 0 0 0 0
          0.0023039809437091626 0.0023036361587193454 0.002303291373729528 0.001312088198635474 0.0013122840429602807 0.0013124798872850868
          0.0004753669423548417 0.0004760451719783662 0.0004767234016018907 0.00006692607427725027 0.00006729956190713713 0.00006767304953702398
          0 0 0 0 0 0
          0 0 0 0 0 0
          0 0 0 0.0031131610484445406 0.0031124111426659544 0.0031116612368873673
          0.002075770527076799 0.002075370768508383 0.0020749710099399665 0.0009779525679554134 0.0009785110364082124 0.0009790695048610114
          0.0002300378533033345 0.00023064492752490525 0.000231252001746476 0.000001961101001029902 0.0000020352550094648195 0.000002109409017899737
          0 0 0 0 0 0
          0 0 0 0 0 0
          0.003541935783846288 0.003540983064658361 0.003540030345470433 0.002500163250711466 0.002499445646082075 0.0024987280414526837
          0.001277655934826669 0.0012780859057559292 0.0012785158766851895 0.00033729979034372406 0.0003380146085512437 0.0003387294267587635
          0.000003922202002059804 0.000004070510018929639 0.000004218818035799474 0 0 0
          0 0 0 0 0 0
          0 0 0 0 0 0
          0 0 0 0 0 0
          0 0 0 0 0 0
          0 0 0 0 0 0
          0 0 0 0 0 0
          0 0 0 0 0 0
          0 0 0 0 0 0
          0 0 0 0 0 0
          0 0 0 0 0 0
          0 0 0 0 0 0
          0 0 0 0 0 0
          0 0 0 0 0 0
          0 0 0 0 0 0
          0 0 0 0 0 0
          0 0 0 0 0 0
          0 0 0 0 0 0
          0 0 0 0 0 0
          0 0 0 0 0 0
          0 0 0 0 0 0
          0 0 0 0 0 0
          0 0 0 0 0 0
          0 0 0 0 0 0
          0 0 0 0 0 0
          0 0 0 0 0 0
          0 0 0 0 0 0
          0 0 0 0 0 0
          0 0 0 0 0 0
          0 0 0 0 0 0
          0 0 0 0 0 0
          0 0 0 0 0 0
          0 0 0 0 0 0
          0 0 0 0 0 0
          0 0 0 0 0 0
          0 0 0 0 0 0
          0 0 0 0 0 0
          0 0 0 0 0 0
          0 0 0 0 0 0
          0 0 0 0 0 0
          0 0 0 0 0 0
          0 0 0 0 0 0
          0 0 0 0 0 0
          0 0 0 0 0 0
          0 0 0 0 0 0
          0 0 0 0 0 0
          0 0 0 0 0 0
          0 0 0
        </DataArray>
        <DataArray type="Float64" Name="pe11" format="ascii" RangeMin="0" RangeMax="0.007455686387185167">
          0.005034391746549538 0.0051798524235947266 0.005178884866003644 0.005254215194403494 0.00503420645020888 0.0051792428911943845
          0.005177862155815053 0.005252691228983347 0.0050340211538682225 0.0051786333587940415 0.00517683944562646 0.005251167263563201
          0.005714040108015424 0.0058824665343985266 0.0056330622926140635 0.005578849954841234 0.005713353348259287 0.005882434624806297
          0.005631963359033114 0.005577614542524073 0.00571266658850315 0.005882402715214065 0.005630864425452166 0.005576379130206912
          0.005338372530431904 0.00533658466306339 0.005337367015672921 0.005335343712517488 0.005336361500913938 0.005334102761971585
          0.0056682300925409 0.005048797483635126 0.005214378395131016 0.005667662140179248 0.0050484504298374325 0.005213715050553995
          0.005667094187817596 0.005048103376039739 0.005213051705976976 0.0047039908837331855 0.004550387704492271 0.004572289290518384
          0.004782001296546896 0.004705105241510627 0.00455147258986066 0.004573583862826809 0.0047830805773827235 0.004706219599288069
          0.004552557475229048 0.0045748784351352335 0.004784159858218552 0.004435936964276833 0.0043428672610569975 0.004453178943444144
          0.004624139724806872 0.0044380877899362755 0.004343558481829279 0.00445418835504971 0.004625654385622187 0.0044402386155957185
          0.00434424970260156 0.004455197766655276 0.004627169046437498 0.005979754258720612 0.006349354639801593 0.006100082031796253
          0.005980364285514718 0.00634935722764182 0.006100679829267152 0.005980974312308823 0.006349359815482047 0.006101277626738048
          0.004664920422315914 0.004665326322113752 0.004665732221911589 0.006571461082976106 0.006959647436992726 0.006571763828696109
          0.006958479065973619 0.006572066574416112 0.006957310694954512 0.004301659365580362 0.00483514533489046 0.004302396777635861
          0.004835220169631322 0.004303134189691362 0.004835295004372185 0.0049255522119913695 0.005260502481475327 0.00492686441685259
          0.005261558274530608 0.00492817662171381 0.005262614067585889 0.00475933961128864 0.004994945738770886 0.0051549952760768705
          0.004894780564842604 0.004760636833156848 0.0049960317234938245 0.005155754378455139 0.004896087434373872 0.004761934055025057
          0.004997117708216761 0.0051565134808334075 0.004897394303905141 0.0074544278624659914 0.00745505712482558 0.007455686387185167
          0.005614601288945811 0.0056158221477666794 0.005617043006587548 0.005822590013553633 0.005823280671274167 0.005823971328994701
          0.005425005518456672 0.005483958689852763 0.005424148485398952 0.0054836756757381585 0.005423291452341232 0.005483392661623555
          0.006888374978232016 0.006471047680780473 0.005899533111127967 0.006360344279916519 0.006890362736173371 0.006473327222938117
          0.005904181628845994 0.006363134249934052 0.006892350494114725 0.0064756067650957585 0.005908830146564022 0.006365924219951586
          0.005052308048742664 0.005020037329374079 0.005052190903797387 0.0050190831221138665 0.005052073758852111 0.005018128914853655
          0.005311988528700916 0.0053149557979565824 0.005317923067212248 0.00440205323193564 0.004403150941190419 0.004404248650445197
          0.00554604690040349 0.005371605128539052 0.005550494126351115 0.005376277466437128 0.005554941352298739 0.005380949804335206
          0.004702827393524452 0.004578064636971907 0.0047017476083088235 0.004577420757549133 0.004700667823093194 0.004576776878126358
          0.0058449078050531724 0.006228718818636884 0.00584588622614787 0.00622909509224567 0.005846864647242566 0.0062294713658544556
          0.005030785073652949 0.005032384009312212 0.005033982944971475 0.007095449306205276 0.007093969497698011 0.007092489689190745
          0.004765538594414498 0.004766996144174942 0.0047684536939353855 0.006380770794538989 0.006379251492198212 0.006377732189857434
          0.005218912584940521 0.005221633268436646 0.00522435395193277 0.004675243275832436 0.004727768439053256 0.004677381552395894
          0.0047295558820261195 0.004679519828959354 0.004731343324998983 0.005101025507440632 0.0051012709543514405 0.0051015164012622495
          0.005164185205620413 0.005336425154686618 0.0051650199979785885 0.005337414912861912 0.005165854790336765 0.005338404671037206
          0.005477046985496721 0.005519560196153531 0.005477484568571871 0.0055231868944524325 0.00547792215164702 0.005526813592751333
          0.004960843319404203 0.004816263781955639 0.0049582915029994365 0.004814292357497713 0.004955739686594671 0.004812320933039786
          0.005315168647996114 0.005317644739784421 0.005320120831572729 0.0048279402836132876 0.00482934306939146 0.004830745855169632
          0.00590439326051774 0.005908163489225274 0.005911933717932808 0.004559213533574199 0.004648808856696766 0.004560879194767949
          0.004650558113261456 0.004562544855961698 0.004652307369826146 0.004507712327440217 0.004464644651470442 0.004509774458734621
          0.004466863156910294 0.004511836590029024 0.004469081662350148 0.004437233796767191 0.004295035080344269 0.004356017451474611
          0.004438749641335669 0.0042960778273452545 0.004356839792883342 0.004440265485904148 0.004297120574346238 0.004357662134292073
          0.004321728956009385 0.004321891409295449 0.0043220538625815125 0.005950782371946099 0.00562323854997234 0.005949801684948348
          0.00562313518427315 0.005948820997950597 0.005623031818573961 0.005057005893693837 0.005190796943650676 0.0050566820634615085
          0.0051894316654835845 0.005056358233229179 0.005188066387316493 0.004251466101127549 0.004252533639887615 0.004253601178647681
          0.0045926746079446 0.004594455245592743 0.004596235883240886 0.0055257641955043105 0.005526551888577629 0.005527339581650949
          0.004503976831491202 0.0043684373359990265 0.004504145524776293 0.004370234854628983 0.004504314218061384 0.004372032373258938
          0.0042884852375322585 0.004289037599862575 0.004289589962192892 0.004729062488682812 0.004728676830144568 0.0047282911716063246
          0.005730402149591115 0.005730940464219346 0.005731478778847574 0.004979022534983329 0.004978947089003424 0.004978871643023519
          0.005183636390216713 0.0051817930517495635 0.005179949713282412 0.0052549092946699615 0.005253676030130141 0.005252442765590322
          0.003558540351246276 0.0035586093194021557 0.0035586782875580347 0.0040600007740380795 0.004060020311631271 0.004060039849224464
          0.004537745507402359 0.004537631541153575 0.004537517574904791 0.004948686333099468 0.004948396124736845 0.0049481059163742225
          0.0051318296772838905 0.005131473850253655 0.00513111802322342 0 0 0
          0 0 0 0 0 0
          0 0 0 0 0 0
          0 0 0 0 0 0
          0 0 0 0 0 0
          0 0 0 0 0 0
          0 0 0 0 0 0
          0 0 0 0 0 0
          0 0 0 0 0 0
          0 0 0 0 0 0
          0 0 0 0 0 0
          0 0 0 0 0 0
          0 0 0 0.000006516141426483924 0.000006626693392840804 0.000006737245359197684
          0 0 0 0 0 0
          0 0 0 0 0 0
          0 0 0 0 0 0
          0 0 0 0.00007930152079247541 0.00007965502064068775 0.00008000852048890009
          1.384409251727407e-7 1.8245947172135488e-7 2.2647801826996905e-7 0 0 0
          0 0 0 0 0 0
          0 0 0 0 0 0
          0 0 0 0.0002995577891080746 0.00030010552517050024 0.0003006532612329259
          0.0000349304943405224 0.00003517357850807095 0.00003541666267561951 0 0 0
          0 0 0 0 0 0
          0 0 0 0 0 0
          0 0 0 0.0015672545175344388 0.0015672764751161494 0.0015672984326978601
          0.0007054733509357176 0.0007060246919095275 0.0007065760328833373 0.0001679741289709234 0.00016851147808306021 0.000169048827195197
          0.0000053950493141489295 0.0000055161612925956475 0.0000056372732710423656 0 0 0
          0 0 0 0 0 0
          0 0 0 0 0 0
          0.002284843613202394 0.002284497778996773 0.002284151944791152 0.0012899646877619446 0.0012901857977662887 0.0012904069077706326
          0.00046221079058493975 0.0004629080701286873 0.0004636053496724349 0.00006418333298846358 0.00006455496830829332 0.00006492660362812307
          0 0 0 0 0 0
          0 0 0 0 0 0
          0 0 0 0.0030876300316643865 0.0030868628436997413 0.0030860956557350956
          0.0020334594586559327 0.0020331103469392003 0.0020327612352224675 0.0009396815290377963 0.0009403195339868451 0.0009409575389358939
          0.000215999780378792 0.00021662875698369728 0.00021725773358860257 0.0000017677309293420464 0.0000018353949472319289 0.0000019030589651218115
          0 0 0 0 0 0
          0 0 0 0 0 0
          0.0035121138842182324 0.0035111354079549995 0.0035101569316917675 0.0024443914241752455 0.0024437440863195716 0.0024430967484638977
          0.0012213056280168605 0.0012218636458097367 0.001222421663602613 0.0003144229934089547 0.00031517989993599927 0.00031593680646304376
          0.000003535461858684093 0.0000036707898944638577 0.000003806117930243623 0 0 0
          0 0 0 0 0 0
          0 0 0 0 0 0
          0 0 0 0 0 0
          0 0 0 0 0 0
          0 0 0 0 0 0
          0 0 0 0 0 0
          0 0 0 0 0 0
          0 0 0 0 0 0
          0 0 0 0 0 0
          0 0 0 0 0 0
          0 0 0 0 0 0
          0 0 0 0 0 0
          0 0 0 0 0 0
          0 0 0 0 0 0
          0 0 0 0 0 0
          0 0 0 0 0 0
          0 0 0 0 0 0
          0 0 0 0 0 0
          0 0 0 0 0 0
          0 0 0 0 0 0
          0 0 0 0 0 0
          0 0 0 0 0 0
          0 0 0 0 0 0
          0 0 0 0 0 0
          0 0 0 0 0 0
          0 0 0 0 0 0
          0 0 0 0 0 0
          0 0 0 0 0 0
          0 0 0 0 0 0
          0 0 0 0 0 0
          0 0 0 0 0 0
          0 0 0 0 0 0
          0 0 0 0 0 0
          0 0 0 0 0 0
          0 0 0 0 0 0
          0 0 0 0 0 0
          0 0 0 0 0 0
          0 0 0 0 0 0
          0 0 0 0 0 0
          0 0 0 0 0 0
          0 0 0 0 0 0
          0 0 0 0 0 0
          0 0 0 0 0 0
          0 0 0 0 0 0
          0 0 0 0 0 0
          0 0 0 0 0 0
          0 0 0
        </DataArray>
        <DataArray type="Float64" Name="pe22" format="ascii" RangeMin="-0.003715122234583449" RangeMax="0">
          -0.0025078235897365393 -0.0025855109346519726 -0.002583403962420473 -0.002617277180077575 -0.0025080726706389377 -0.0025853209382105608
          -0.0025832957083903995 -0.002617129662856617 -0.002508321751541336 -0.0025851309417691494 -0.002583187454360326 -0.0026169821456356584
          -0.002835369251828287 -0.0029050392320242196 -0.0027753390056890954 -0.002759068495679675 -0.002835164566809355 -0.0029048469746017808
          -0.0027752639779344656 -0.0027590550482670933 -0.002834959881790424 -0.002904654717179342 -0.0027751889501798368 -0.0027590416008545122
          -0.0026467792769975353 -0.002652774189229351 -0.0026468651458167783 -0.0026527382207659203 -0.0026469510146360214 -0.0026527022523024895
          -0.0027784279204220693 -0.0024873068477671576 -0.0025776264201686815 -0.0027781820869675045 -0.002487358889807655 -0.002577726210012274
          -0.0027779362535129398 -0.0024874109318481527 -0.0025778259998558667 -0.0023479243670044684 -0.0022772061338 -0.0022841408746290754
          -0.002385642966075769 -0.0023482542704162854 -0.0022773299086359887 -0.002284076040407251 -0.0023855438716180277 -0.002348584173828103
          -0.002277453683471978 -0.0022840112061854262 -0.002385444777160287 -0.0022186322579296185 -0.0021732772528014377 -0.002228440432883759
          -0.0023072487685671175 -0.002219831511790679 -0.0021735013812041646 -0.002228754225245021 -0.002308215682628111 -0.002221030765651739
          -0.0021737255096068915 -0.0022290680176062826 -0.0023091825966891034 -0.0029525529907601547 -0.0031110773147609012 -0.0029926205265995982
          -0.0029520579091878835 -0.0031100756703918543 -0.0029921518293148514 -0.0029515628276156128 -0.0031090740260228088 -0.002991683132030104
          -0.002318238952257478 -0.0023186680380722444 -0.00231909712388701 -0.003201387298200422 -0.003391933453186908 -0.0032013568026619975
          -0.0033914635172624438 -0.003201326307123574 -0.0033909935813379796 -0.002132030591529026 -0.002371885556604777 -0.002132492980352311
          -0.0023718934510490093 -0.002132955369175597 -0.0023719013454932426 -0.0024604383697349936 -0.0026378908881309697 -0.0024604409888025263
          -0.002637486165893181 -0.0024604436078700586 -0.0026370814436553914 -0.0023744897406690647 -0.0024983835462667244 -0.00258027705254518
          -0.002442641454262543 -0.0023744712080246803 -0.002498164099445487 -0.002579673532488213 -0.0024425230382771755 -0.002374452675380296
          -0.00249794465262425 -0.0025790700124312454 -0.0024424046222918092 -0.003715122234583449 -0.0037150756363077404 -0.0037150290380320323
          -0.002831565707981056 -0.00283104410223703 -0.002830522496493004 -0.002833653765971905 -0.002833644977326217 -0.00283363618868053
          -0.002693922700274453 -0.0027320050617597362 -0.002693798299630062 -0.0027315630936846956 -0.00269367389898567 -0.0027311211256096546
          -0.0034538852673104223 -0.003199272966071632 -0.00292763316759876 -0.003190002211214463 -0.003454812916877168 -0.0032008449451240823
          -0.002929945007355402 -0.0031915641493296936 -0.003455740566443914 -0.0032024169241765326 -0.002932256847112044 -0.003193126087444924
          -0.002515002497051384 -0.0024982772154154764 -0.002515144638425174 -0.0024983710366153454 -0.0025152867797989635 -0.002498464857815215
          -0.0026702380782751825 -0.002670350453635771 -0.0026704628289963596 -0.002200892270458175 -0.002200628433817403 -0.00220036459717663
          -0.0027999502568183485 -0.0027122271425294047 -0.0028001693931993766 -0.0027123578344253447 -0.0028003885295804056 -0.0027124885263212837
          -0.002342100976670868 -0.0022867063519684608 -0.002341941502789186 -0.002286470009586077 -0.0023417820289075037 -0.002286233667203693
          -0.002882276827761863 -0.003051422074347726 -0.0028820081898500616 -0.0030516716752529167 -0.0028817395519382593 -0.003051921276158107
          -0.002514845348379604 -0.0025146435076453776 -0.0025144416669111514 -0.0034897675027422913 -0.003489344313778149 -0.0034889211248140075
          -0.002374832557585805 -0.002374848158366926 -0.0023748637591480466 -0.003123001180644461 -0.003121774497059877 -0.0031205478134752928
          -0.002625812349987621 -0.002625695784120245 -0.0026255792182528683 -0.0023423969385987274 -0.002367915073560991 -0.002343303391409227
          -0.0023686529614799405 -0.0023442098442197257 -0.0023693908493988896 -0.0025381264697384182 -0.002538015051113539 -0.0025379036324886597
          -0.0025743366552759767 -0.0026661717873551786 -0.0025740410590133914 -0.002665692997940997 -0.002573745462750806 -0.0026652142085268156
          -0.0027285328953904507 -0.0027639761730177716 -0.002727362496179452 -0.0027644661747911834 -0.0027261920969684538 -0.002764956176564596
          -0.0024693755183752717 -0.0024048118744904924 -0.002468768668662508 -0.0024041056029074468 -0.0024681618189497435 -0.002403399331324401
          -0.002678221892324837 -0.0026778208786355047 -0.0026774198649461714 -0.002415171506534544 -0.002415539522737582 -0.00241590753894062
          -0.0029708815551137474 -0.002971776537546017 -0.0029726715199782866 -0.0022730135075960736 -0.002322294363410956 -0.002273093904882759
          -0.002322519768053258 -0.0022731743021694433 -0.0023227451726955603 -0.0022583364518184365 -0.0022365177219457995 -0.002259064874946159
          -0.002237050095659983 -0.002259793298073881 -0.0022375824693741664 -0.0022174347357675032 -0.0021469769606772397 -0.0021767877244197
          -0.0022173837844393753 -0.002146915497881715 -0.0021766295761266293 -0.0022173328331112473 -0.0021468540350861897 -0.002176471427833558
          -0.0021592588645179467 -0.0021588720286965157 -0.0021584851928750843 -0.0029331879771462154 -0.0027991034853428283 -0.002931725500168531
          -0.00279796626302986 -0.002930263023190846 -0.0027968290407168906 -0.002527609709751176 -0.0025952999519286645 -0.0025276466999532643
          -0.0025946904796905136 -0.0025276836901553528 -0.0025940810074523636 -0.0021247526774175788 -0.0021250025356808217 -0.002125252393944065
          -0.0023002088176990974 -0.0023007370705201255 -0.0023012653233411536 -0.0027602529672250894 -0.002759856044887724 -0.0027594591225503593
          -0.002253560468294887 -0.002186215310681924 -0.002253557876694177 -0.0021872059023574407 -0.0022535552850934666 -0.0021881964940329577
          -0.002146320141787135 -0.0021464553086080708 -0.002146590475429006 -0.0023661896737720203 -0.002365966629979665 -0.0023657435861873105
          -0.0028518123505673143 -0.0028514949871078997 -0.002851177623648485 -0.0024900625728376683 -0.0024902086641710175 -0.0024903547555043667
          -0.0025910308502583353 -0.0025903234527022354 -0.0025896160551461354 -0.0026225010943243593 -0.002622035980217931 -0.002621570866111503
          -0.0017386461037497828 -0.0017388256411670047 -0.001739005178584227 -0.0019957321753392068 -0.0019959605539647297 -0.0019961889325902536
          -0.0022441754662558063 -0.002244331806620447 -0.002244488146985088 -0.002453883301316832 -0.002453896688837179 -0.002453910076357525
          -0.002544303765132652 -0.002544245297735789 -0.0025441868303389256 0 0 0
          0 0 0 0 0 0
          0 0 0 0 0 0
          0 0 0 0 0 0
          0 0 0 0 0 0
          0 0 0 0 0 0
          0 0 0 0 0 0
          0 0 0 0 0 0
          0 0 0 0 0 0
          0 0 0 0 0 0
          0 0 0 0 0 0
          0 0 0 0 0 0
          0 0 0 -0.00000254698320300465 -0.000002585988909199909 -0.0000026249946153951683
          0 0 0 0 0 0
          0 0 0 0 0 0
          0 0 0 0 0 0
          0 0 0 -0.00003166222075390041 -0.000031763036380485966 -0.000031863852007071506
          -5.280201369601637e-8 -6.948867667376533e-8 -8.617533965151428e-8 0 0 0
          0 0 0 0 0 0
          0 0 0 0 0 0
          0 0 0 -0.00012135891767983163 -0.0001214645267616995 -0.00012157013584356737
          -0.00001358131471509478 -0.000013658139965848922 -0.000013734965216603061 0 0 0
          0 0 0 0 0 0
          0 0 0 0 0 0
          0 0 0 -0.0006863139371010063 -0.0006862380507335686 -0.0006861621643661309
          -0.0002931772360274281 -0.00029325346452197123 -0.00029332969301651434 -0.00006718385064089812 -0.00006734016481767362 -0.0000674964789944491
          -0.0000021320230131223463 -0.0000021783991703715437 -0.000002224775327620741 0 0 0
          0 0 0 0 0 0
          0 0 0 0 0 0
          -0.0010379529525703867 -0.0010377406131580114 -0.0010375282737456362 -0.000561841249221378 -0.0005617317556935497 -0.0005616222621657215
          -0.0001950487532322407 -0.00019518750333704559 -0.00019532625344185052 -0.000026769517363757433 -0.000026892627535271966 -0.000027015737706786498
          0 0 0 0 0 0
          0 0 0 0 0 0
          0 0 0 -0.0014399287022296315 -0.0014393447453919955 -0.0014387607885543593
          -0.0009191937090987387 -0.0009186987659208335 -0.0009182038227429284 -0.0004125731488304734 -0.00041256585044702665 -0.0004125585520635799
          -0.00009261926348326705 -0.00009279761174503593 -0.00009297596000680483 -7.183208304281756e-7 -7.451037307312847e-7 -7.718866310343937e-7
          0 0 0 0 0 0
          0 0 0 0 0 0
          -0.001647906534680303 -0.0016471100574802237 -0.0016463135802801446 -0.0011165720315517058 -0.0011158659909176832 -0.0011151599502836603
          -0.0005423594670754641 -0.0005422597212769591 -0.0005421599754784539 -0.00013596353826526392 -0.00013616676676027104 -0.00013636999525527816
          -0.0000014366416608563512 -0.0000014902074614625694 -0.0000015437732620687875 0 0 0
          0 0 0 0 0 0
          0 0 0 0 0 0
          0 0 0 0 0 0
          0 0 0 0 0 0
          0 0 0 0 0 0
          0 0 0 0 0 0
          0 0 0 0 0 0
          0 0 0 0 0 0
          0 0 0 0 0 0
          0 0 0 0 0 0
          0 0 0 0 0 0
          0 0 0 0 0 0
          0 0 0 0 0 0
          0 0 0 0 0 0
          0 0 0 0 0 0
          0 0 0 0 0 0
          0 0 0 0 0 0
          0 0 0 0 0 0
          0 0 0 0 0 0
          0 0 0 0 0 0
          0 0 0 0 0 0
          0 0 0 0 0 0
          0 0 0 0 0 0
          0 0 0 0 0 0
          0 0 0 0 0 0
          0 0 0 0 0 0
          0 0 0 0 0 0
          0 0 0 0 0 0
          0 0 0 0 0 0
          0 0 0 0 0 0
          0 0 0 0 0 0
          0 0 0 0 0 0
          0 0 0 0 0 0
          0 0 0 0 0 0
          0 0 0 0 0 0
          0 0 0 0 0 0
          0 0 0 0 0 0
          0 0 0 0 0 0
          0 0 0 0 0 0
          0 0 0 0 0 0
          0 0 0 0 0 0
          0 0 0 0 0 0
          0 0 0 0 0 0
          0 0 0 0 0 0
          0 0 0 0 0 0
          0 0 0 0 0 0
          0 0 0
        </DataArray>
        <DataArray type="Float64" Name="pe33" format="ascii" RangeMin="-0.003740657349153134" RangeMax="0">
          -0.0025265681568129982 -0.0025943414889427535 -0.002595480903583171 -0.0026369380143259173 -0.0025261337795699423 -0.0025939219529838224
          -0.0025945664474246524 -0.00263556156612673 -0.0025256994023268864 -0.002593502417024892 -0.002593651991266135 -0.0026341851179275426
          -0.0028786708561871375 -0.002977427302374307 -0.0028577232869249677 -0.002819781459161558 -0.0028781887814499315 -0.0029775876502045147
          -0.002856699381098648 -0.002818559494256979 -0.0028777067067127246 -0.0029777479980347223 -0.002855675475272329 -0.0028173375293523996
          -0.002691593253434369 -0.002683810473834037 -0.0026905018698561425 -0.002682605491751566 -0.0026894104862779157 -0.0026814005096690947
          -0.002889802172118831 -0.0025614906358679677 -0.0026367519749623336 -0.0028894800532117426 -0.0025610915400297767 -0.002635988840541721
          -0.0028891579343046547 -0.0025606924441915853 -0.0026352257061211084 -0.0023560665167287175 -0.002273181570692271 -0.0022881484158893085
          -0.002396358330471126 -0.002356850971094342 -0.0022741426812246707 -0.0022895078224195575 -0.0023975367057646954 -0.002357635425459966
          -0.00227510379175707 -0.0022908672289498064 -0.002398715081058264 -0.0022173047063472145 -0.002169590008255559 -0.002224738510560385
          -0.0023168909562397547 -0.002218256278145597 -0.0021700571006251137 -0.0022254341298046897 -0.002317438702994075 -0.0022192078499439797
          -0.002170524192994668 -0.0022261297490489937 -0.002317986449748395 -0.003027201267960457 -0.003238277325040691 -0.0031074615051966533
          -0.003028306376326834 -0.0032392815572499646 -0.0031085279999522987 -0.00302941148469321 -0.0032402857894592383 -0.003109594494707944
          -0.002346681470058437 -0.0023466582840415075 -0.0023466350980245777 -0.003370073784775683 -0.0035677139838058173 -0.0033704070260341104
          -0.0035670155487111752 -0.003370740267292537 -0.0035663171136165323 -0.0021696287740513354 -0.002463259778285683 -0.00216990379728355
          -0.0024633267185823126 -0.002170178820515764 -0.002463393658878943 -0.002465113842256375 -0.0026226115933443567 -0.0024664234280500625
          -0.0026240721086374266 -0.00246773301384375 -0.002625532623930497 -0.0023848498706195743 -0.002496562192504161 -0.0025747182235316907
          -0.0024521391105800597 -0.0023861656251321674 -0.002497867624048336 -0.0025760808459669255 -0.0024535643960966955 -0.0023874813796447604
          -0.002499173055592511 -0.0025774434684021604 -0.0024549896816133303 -0.003739305627882543 -0.0037399814885178385 -0.003740657349153134
          -0.0027830355809647543 -0.002784778045529649 -0.0027865205100945437 -0.0029889362475817275 -0.0029896356939479486 -0.0029903351403141702
          -0.0027310828181822187 -0.0027519536280930265 -0.00273035018576889 -0.0027521125820534624 -0.002729617553355562 -0.0027522715360138988
          -0.003434489710921595 -0.003271774714708842 -0.0029718999435292084 -0.003170342068702056 -0.0034355498192962025 -0.0032724822778140332
          -0.002974236621490593 -0.003171570100604359 -0.0034366099276708093 -0.0032731898409192246 -0.0029765732994519773 -0.0031727981325066616
          -0.0025373055516912787 -0.0025217601139586017 -0.0025370462653722128 -0.00252071208549852 -0.002536786979053147 -0.0025196640570384387
          -0.0026417504504257323 -0.00264460534432081 -0.0026474602382158883 -0.002201160961477466 -0.002202522507373016 -0.0022038840532685663
          -0.002746096643585142 -0.0026593779860096447 -0.0027503247331517374 -0.002663919632011784 -0.002754552822718333 -0.0026684612780139227
          -0.0023607264168535843 -0.002291358285003447 -0.0023598061055196367 -0.002290950747963056 -0.0023588857941856897 -0.0022905432109226655
          -0.0029626309772913103 -0.0031772967442891577 -0.002963878036297808 -0.003177423416992753 -0.0029651250953043064 -0.003177550089696347
          -0.0025159397252733427 -0.0025177405016668323 -0.0025195412780603227 -0.0036056818034629853 -0.0036046251839198613 -0.003603568564376737
          -0.0023907060368286923 -0.0023921479858080154 -0.0023935899347873376 -0.003257769613894528 -0.003257476995138335 -0.0032571843763821414
          -0.0025931002349529 -0.0025959374843164 -0.002598774733679901 -0.002332846337233707 -0.0023598533654922635 -0.0023340781609866674
          -0.002360902920546179 -0.002335309984739628 -0.0023619524756000937 -0.0025628990377022133 -0.002563255903237901 -0.002563612768773589
          -0.0025898485503444355 -0.002670253367331439 -0.0025909789389651967 -0.002671721914920914 -0.002592109327585958 -0.0026731904625103887
          -0.002748514090106271 -0.00275558402313576 -0.0027501220723924187 -0.0027587207196612482 -0.002751730054678566 -0.0027618574161867365
          -0.0024914678010289305 -0.002411451907465146 -0.0024895228343369286 -0.002410186754590266 -0.0024875778676449263 -0.0024089216017153846
          -0.002636946755671277 -0.0026398238611489173 -0.0026427009666265574 -0.0024127687770787425 -0.002413803546653877 -0.0024148383162290116
          -0.0029335117054039932 -0.002936386951679257 -0.002939262197954521 -0.0022862000259781267 -0.00232651449328581 -0.0022877852898851897
          -0.002328038345208197 -0.0022893705537922527 -0.0023295621971305843 -0.0022493758756217805 -0.0022281269295246426 -0.0022507095837884616
          -0.0022298130612503123 -0.002252043291955143 -0.0022314991929759816 -0.002219799060999688 -0.00214805811966703 -0.0021792297270549115
          -0.002221365856896294 -0.0021491623294635394 -0.002180210216756713 -0.0022229326527929 -0.002150266539260048 -0.0021811907064585145
          -0.002162470091491439 -0.0021630193805989334 -0.0021635686697064277 -0.003017594394799884 -0.002824135064629512 -0.003018076184779817
          -0.0028251689212432907 -0.00301855797475975 -0.0028262027778570694 -0.0025293961839426607 -0.0025954969917220106 -0.002529035363508244
          -0.00259474118579307 -0.002528674543073826 -0.0025939853798641293 -0.0021267134237099696 -0.0021275311042067927 -0.002128348784703615
          -0.002292465790245502 -0.0022937181750726163 -0.002294970559899731 -0.0027655112282792206 -0.002766695843689904 -0.0027678804591005877
          -0.0022504163631963145 -0.0021822220253171006 -0.0022505876480821163 -0.0021830289522715403 -0.0022507589329679185 -0.0021838358792259805
          -0.0021421650957451216 -0.002142582291254504 -0.0021429994867638857 -0.002362872814910792 -0.0023627102001649034 -0.002362547585419014
          -0.002878589799023801 -0.002879445477111445 -0.002880301155199088 -0.0024889599621456602 -0.002488738424832406 -0.0024885168875191516
          -0.002592605539958376 -0.0025914695990473264 -0.0025903336581362766 -0.0026324082003456005 -0.002631640049912209 -0.0026308718994788177
          -0.0018198942474964932 -0.0018197836782351503 -0.0018196731089738074 -0.002064268598698872 -0.002064059757666541 -0.0020638509166342103
          -0.0022935700411465523 -0.002293299734533128 -0.0022930294279197034 -0.0024948030317826354 -0.0024944994358996665 -0.002494195840016697
          -0.002587525912151238 -0.002587228552517866 -0.0025869311928844937 0 0 0
          0 0 0 0 0 0
          0 0 0 0 0 0
          0 0 0 0 0 0
          0 0 0 0 0 0
          0 0 0 0 0 0
          0 0 0 0 0 0
          0 0 0 0 0 0
          0 0 0 0 0 0
          0 0 0 0 0 0
          0 0 0 0 0 0
          0 0 0 0 0 0
          0 0 0 -0.000003969158223479271 -0.000004040704483640894 -0.0000041122507438025164
          0 0 0 0 0 0
          0 0 0 0 0 0
          0 0 0 0 0 0
          0 0 0 -0.000047639300038574995 -0.000047891984260201784 -0.000048144668481828565
          -8.563891147672433e-8 -1.1297079504758955e-7 -1.4030267861845479e-7 0 0 0
          0 0 0 0 0 0
          0 0 0 0 0 0
          0 0 0 -0.00017819887142824292 -0.00017864099840880077 -0.00017908312538935858
          -0.000021349179625427622 -0.000021515438542222034 -0.00002168169745901645 0 0 0
          0 0 0 0 0 0
          0 0 0 0 0 0
          0 0 0 -0.0008809405804334328 -0.000881038424382581 -0.0008811362683317292
          -0.0004122961149082895 -0.0004127712273875562 -0.0004132463398668229 -0.00010079027833002526 -0.00010117131326538657 -0.00010155234820074789
          -0.000003263026301026585 -0.0000033377621222241042 -0.0000034124979434216236 0 0 0
          0 0 0 0 0 0
          0 0 0 0 0 0
          -0.0012468906606320075 -0.0012467571658387614 -0.0012466236710455155 -0.0007281234385405667 -0.0007284540420727388 -0.000728784645604911
          -0.0002671620373526989 -0.00026772056679164166 -0.00026827909623058444 -0.00003741381562470612 -0.00003766234077302134 -0.00003791086592133655
          0 0 0 0 0 0
          0 0 0 0 0 0
          0 0 0 -0.0016477013294347548 -0.0016475180983077456 -0.0016473348671807364
          -0.0011142657495571942 -0.001114411581018367 -0.0011145574124795394 -0.0005271083802073227 -0.0005277536835398182 -0.0005283989868723139
          -0.00012338051689552495 -0.00012383114523866132 -0.0001242817735817977 -0.0000010494100989138711 -0.0000010902912165006444 -0.0000011311723340874177
          0 0 0 0 0 0
          0 0 0 0 0 0
          -0.001864207349537929 -0.0018640253504747758 -0.001863843351411622 -0.0013278193926235398 -0.0013278780954018889 -0.0013279367981802377
          -0.0006789461609413964 -0.0006796039245327775 -0.0006802616881241586 -0.00017845945514369084 -0.0001790131331757282 -0.00017956681120776555
          -0.0000020988201978277422 -0.000002180582433001289 -0.0000022623446681748354 0 0 0
          0 0 0 0 0 0
          0 0 0 0 0 0
          0 0 0 0 0 0
          0 0 0 0 0 0
          0 0 0 0 0 0
          0 0 0 0 0 0
          0 0 0 0 0 0
          0 0 0 0 0 0
          0 0 0 0 0 0
          0 0 0 0 0 0
          0 0 0 0 0 0
          0 0 0 0 0 0
          0 0 0 0 0 0
          0 0 0 0 0 0
          0 0 0 0 0 0
          0 0 0 0 0 0
          0 0 0 0 0 0
          0 0 0 0 0 0
          0 0 0 0 0 0
          0 0 0 0 0 0
          0 0 0 0 0 0
          0 0 0 0 0 0
          0 0 0 0 0 0
          0 0 0 0 0 0
          0 0 0 0 0 0
          0 0 0 0 0 0
          0 0 0 0 0 0
          0 0 0 0 0 0
          0 0 0 0 0 0
          0 0 0 0 0 0
          0 0 0 0 0 0
          0 0 0 0 0 0
          0 0 0 0 0 0
          0 0 0 0 0 0
          0 0 0 0 0 0
          0 0 0 0 0 0
          0 0 0 0 0 0
          0 0 0 0 0 0
          0 0 0 0 0 0
          0 0 0 0 0 0
          0 0 0 0 0 0
          0 0 0 0 0 0
          0 0 0 0 0 0
          0 0 0 0 0 0
          0 0 0 0 0 0
          0 0 0 0 0 0
          0 0 0
        </DataArray>
        <DataArray type="Float64" Name="disp_x" format="ascii" RangeMin="0.00013172765570056643" RangeMax="0.0002400000000000001">
          0.00017651634197467925 0.00017098079173477046 0.00016392547409642083 0.0001653713404753857 0.00017651446427613965 0.0001709803314802192
          0.0001639254106250678 0.00016537057757757273 0.00017650903617864112 0.000170979563638829 0.00016392465304854737 0.00016536810019120076
          0.00016057963372898096 0.0001631593722647177 0.00016953546641354638 0.00016544685135935522 0.00016057948544472383 0.00016315789565682292
          0.00016953342823668624 0.00016544579939719217 0.00016057872957471678 0.00016315413529280627 0.000169527697209208 0.00016544336073476124
          0.00017043756313691105 0.00016372663179468823 0.00017043578906485686 0.00016372729578461082 0.0001704296698641313 0.0001637291520290121
          0.00017262494304632676 0.00018005845477527297 0.00017578660708345012 0.00017262290684888482 0.0001800534804449606 0.0001757834839437484
          0.0001726177338588364 0.00018003810208690998 0.0001757732216005431 0.0001523892407080303 0.0001490833770457199 0.00014598868807657374
          0.00015070726548546267 0.00015239024151802134 0.00014908393303727718 0.00014598851502397748 0.00015070812747736294 0.00015239275589480977
          0.00014908519586063202 0.00014598865416498135 0.00015071102053192025 0.0001509373403903198 0.00014765826405526008 0.00014854454264635157
          0.00015300957644558166 0.0001509380719845854 0.00014765826501375332 0.0001485447518333741 0.00015301148116671163 0.00015094024703377577
          0.00014765989254187213 0.0001485451523394178 0.00015301715376931843 0.00015715044011924175 0.00015764600254314397 0.00016491824294863775
          0.00015715029233490257 0.00015764248941885296 0.0001649166412536957 0.00015714801136871662 0.0001576323611730027 0.00016491042486442749
          0.00018161219928881448 0.00018160983226765567 0.00018160254625058112 0.00016516078426314019 0.0001570825112448004 0.00016515608927310097
          0.00015707889839337115 0.00016514007296289956 0.00015706807697554975 0.00018629910745243187 0.0001838606462948565 0.00018629589961713456
          0.00018385584715425296 0.00018628566511658866 0.0001838408374862855 0.00013635847561771042 0.00013398318225383174 0.00013635525750131606
          0.00013397972546852588 0.00013634502833654303 0.00013396970207339202 0.00014395222652066427 0.00014137350162131423 0.0001457039238551536
          0.00014846891238119532 0.0001439513088641515 0.00014137242099904356 0.00014570308635137167 0.0001484691640842548 0.0001439483589187651
          0.00014136885571008456 0.00014570098432965011 0.00014846932811333387 0.00014123819397787908 0.00014123886583774587 0.0001412404168360098
          0.0001317460004189651 0.0001317416357022739 0.00013172765570056643 0.00017528640095798646 0.00017528187950238613 0.0001752689143986177
          0.00016059680656554763 0.0001573307538157531 0.00016059773180558334 0.0001573318698561032 0.00016059956637230348 0.0001573354382974726
          0.00014012960310146123 0.0001447529887516645 0.00014318225729718646 0.00013884957244480957 0.00014012667180074055 0.00014475155593119822
          0.00014317971190651158 0.00013884377893388998 0.00014011790913888824 0.0001447543283551641 0.00014317134767743303 0.00013882488737976405
          0.00015750721934223826 0.00015853765360254046 0.00015750930423077608 0.00015854071497230812 0.00015751551935735112 0.00015855014030868262
          0.00013546067302770915 0.0001354577464140687 0.0001354489800135226 0.00014496998641725642 0.00014496994728505771 0.0001449699992087258
          0.0001368825201256617 0.00013633503413889453 0.00013687959133497918 0.0001363319969265087 0.00013687179334329394 0.00013632475511444307
          0.0001552388418423195 0.00015396728408974923 0.0001552446668521481 0.00015397243878889706 0.00015525733412897935 0.00015398142515239986
          0.00014721154304783642 0.0001477667422032666 0.0001472134708677723 0.00014776877518516232 0.00014722073821233262 0.00014777244446683915
          0.00013773401380627286 0.00013773180937482455 0.00013772512802992423 0.00014875970490629793 0.00014875941146120228 0.00014875584181761633
          0.00013995855749868885 0.00013995696297903367 0.0001399511937304181 0.0001516035783220843 0.00015160222603079524 0.00015159460944331928
          0.0001384875148873028 0.00013848625385886972 0.00013848274356937943 0.00013543412061067084 0.00013550187583964457 0.00013542755162070092
          0.00013549795452515566 0.00013541567776100097 0.00013548559280130744 0.00015555397331482154 0.0001555556958417924 0.0001555598242651386
          0.00015316313848198515 0.0001514684182437728 0.00015316478940370054 0.00015146881569997662 0.00015316964978781425 0.00015146904227619068
          0.00014649403267518802 0.000142078034954516 0.00014649527120061122 0.00014207729775619733 0.00014649877224993046 0.00014207600851162572
          0.0001585264099971585 0.0001573161377819522 0.0001585281438960097 0.00015731520935924285 0.00015853347598079892 0.0001573190608810188
          0.00014065652042637687 0.00014065624323242475 0.00014065468495308425 0.00013567227376305797 0.00013567014132128853 0.00013566083946741842
          0.00013776953274723062 0.00013776486565952441 0.00013774870389806845 0.00014139350339138459 0.00013885633430975715 0.00014139173846109416
          0.00013885534129234086 0.00014138766377923856 0.0001388483227702477 0.00013844950059316438 0.00013839496436486172 0.0001384476262876962
          0.00013839661726206988 0.00013844391736583385 0.00013839458570294284 0.00014171085163715253 0.00014452498507935293 0.00014146706069374448
          0.0001417100149652697 0.00014452549137954646 0.00014146552630206122 0.00014170683379323838 0.00014452563074902804 0.00014146087136900038
          0.00014129707348573085 0.0001412968561443374 0.00014129331428300684 0.00015179733919992437 0.0001512925788786417 0.00015179643528719178
          0.00015129240257122386 0.00015179405177116 0.00015129122785761842 0.0001610058784061186 0.00016284949176108873 0.00016100830444011743
          0.00016285143296017126 0.0001610150442412742 0.00016285542283470055 0.00014412025575078407 0.00014412008474993217 0.0001441194495138293
          0.00013869287143315295 0.00013869115572868928 0.00013868467391951785 0.0001549357296417607 0.00015493726925098987 0.0001549414878258987
          0.00015267782402675958 0.0001497809543932659 0.00015267978704112075 0.0001497819631216989 0.00015268516350758066 0.00014978522009134344
          0.00014693518230664054 0.00014693633090301537 0.0001469378595666654 0.00015565342685246116 0.00015565666703825178 0.00015566489335765466
          0.00015598208367865538 0.00015598299841896072 0.00015598331843803603 0.0001587610972900824 0.0001587648118417548 0.00015877549633391987
          0.00016201704206160892 0.0001620195380771591 0.00016202762352328525 0.00016541380144420155 0.0001654144045669583 0.00016541497432175716
          0.00019492766477424855 0.000194926201440582 0.00019492207274912713 0.0001911188854007385 0.00019111742463094516 0.0001911128758571719
          0.00018667937816224642 0.00018667827503427356 0.00018667461104965023 0.00018172847975833696 0.000181727791051902 0.00018172524714347158
          0.00017645609826828768 0.00017645617333781735 0.00017645643328770099 0.00021477879210775962 0.00021473488946828023 0.00021477885003862377
          0.00021473480004807988 0.0002147790208895653 0.00021473449158675381 0.00021668666465065115 0.00021661797285826988 0.00021668652571949686
          0.0002166179097090817 0.00021668609938336477 0.00021661773846224142 0.00021858292234153875 0.00021850174630633004 0.00021858284929353672
          0.00021850165885973935 0.00021858263904299754 0.00021850139238207192 0.00022048201147680159 0.00022039093789827027 0.00022048190556052028
          0.00022039083667813717 0.00022048158053386384 0.0002203905375801679 0.00022238429574167917 0.0002222892860905463 0.00022238419424141094
          0.00022228918589577832 0.0002223838874352776 0.0002222888848419671 0.0002242880899312233 0.00022419629991414492 0.00022428799070111591
          0.00022419620377070907 0.00022428768794162014 0.00022419591121292855 0.00022618972173203274 0.00022610937156831187 0.00022618963357083483
          0.00022610928496895298 0.0002261893601959204 0.00022610901704887682 0.00022808475309461405 0.0002280251352101985 0.00022808467309858675
          0.00022802505711564357 0.00022808442623159554 0.00022802481532709751 0.00021488628408597614 0.00021488640679720713 0.00021488679263970687
          0.00021682076259495862 0.0002168205901513171 0.0002168200328589825 0.00021874606180270057 0.00021874598430808627 0.0002187457763289922
          0.00022066777929095516 0.00022066765858976247 0.00022066728164337187 0.00022258442511741404 0.00022258431617450285 0.0002225839890016705
          0.00022449372554944998 0.0002244936192447509 0.00022449329204235203 0.00022639043028388744 0.00022639033772033185 0.00022639005535410846
          0.00022826844021725114 0.0002282683585821392 0.00022826810410731834 0.00021505405173305662 0.00021505424076141949 0.00021505490456099537
          0.0002170397117680002 0.00021703975160151584 0.0002170398597000742 0.00021901215947198256 0.00021901193532048005 0.00021901123706428988
          0.0002209648160137167 0.00022096471903987008 0.00022096444047232927 0.00022290527403211866 0.00022290514038136514 0.00022290472873148093
          0.00022482747082203596 0.00022482735438488557 0.0002248270021497276 0.00022672453040944687 0.00022672443254186163 0.0002267241301043885
          0.0002285883804850483 0.00022858829146986907 0.0002285880230808378 0.00021537388407142483 0.0002153733768301008 0.00021537180378440162
          0.0002173932507400597 0.00021739324649975848 0.00021739328378606675 0.0002194046023497516 0.0002194044220034449 0.00021940385564359394
          0.0002213994905831887 0.00022139934304832645 0.00022139890788767716 0.0002233708608436021 0.00022337071872075663 0.00022337028426273967
          0.0002253115468220134 0.00022531141250511919 0.00022531100230761556 0.00022721211203613337 0.0002272120077739729 0.00022721169217631033
          0.0002290623648890577 0.0002290622711985395 0.00022906198808653785 0.00021573564835196795 0.00021573373626456696 0.00021572808031133765
          0.00021789372849842408 0.00021789343936649266 0.00021789261933464953 0.00021996029505257783 0.00021996022059607862 0.0002199599968207871
          0.0002220047419870074 0.00022200452205097955 0.0002220038413409711 0.00022401262602706232 0.00022401247624551527 0.00022401203890555979
          0.00022597463166366976 0.0002259744721517059 0.00022597398221774938 0.0002278774612946252 0.00022787734746834858 0.00022787700807474663
          0.00022970994066230524 0.00022970983701732465 0.00022970952608058738 0.00021214719458318625 0.0002121435660709683 0.00021213251293940741
          0.00021598943196371608 0.00021598614033851017 0.00021597628537476093 0.00021858628508390665 0.00021858498015451877 0.00021858097536877886
          0.00022071960353030491 0.0002207194651527109 0.0002207191508183854 0.00022281981217133487 0.00022281964306578207 0.00022281909826942894
          0.00022487076643913382 0.00022487055970234375 0.0002248699434824347 0.0002268492177660641 0.00022684904278390088 0.0002268485134213448
          0.0002287451218716034 0.00022874500939667832 0.00022874468758863115 0.00023054649939409477 0.00023054640047547213 0.00023054611686428706
          0.00021098592989173806 0.00021098231110780198 0.00021097179161661572 0.00021598310250150023 0.00021597906923752529 0.00021596674841475215
          0.00021938054165238 0.00021937761573955964 0.00021936874354439 0.00022173868507113916 0.00022173800850089877 0.0002217359893754088
          0.00022390394555989954 0.0002239039368607998 0.00022390395197130695 0.00022598900230489638 0.000225988738557016 0.00022598790648737597
          0.00022796987253673098 0.0002279696504682277 0.00022796900016635658 0.00022983993396210705 0.00022983977162031204 0.00022983928155315364
          0.00023157763657241618 0.00023157749939158257 0.00023157708687173526 0.00020933544187170654 0.0002093322430104689 0.0002093225811880873
          0.00021568907996973068 0.0002156843533819967 0.00021567024015354435 0.00022016709930236755 0.0002201628084509693 0.0002201499126652761
          0.00022307695538979248 0.0002230750741607455 0.00022306943165221652 0.00022530372783818333 0.000225303552718392 0.00022530313778156707
          0.00022740997311442588 0.00022740982709170765 0.00022740937867763548 0.00022938839707465389 0.00022938806154358261 0.00022938705260502502
          0.00023118840373519714 0.0002311883456170755 0.00023118822672241302 0.00023277479555148023 0.00023277473134035567 0.00023277453881679423
          0.00020721636653868862 0.00020721358896388969 0.0002072053090699743 0.00021521438096614793 0.00021520891662513874 0.00021519257197606128
          0.00022100573324656357 0.00022099934225869625 0.0002209798125583245 0.00022464057363122977 0.00022463739509195316 0.00022462761434043055
          0.0002270427210830235 0.00022704228273342413 0.00022704098738871736 0.00022924218581588487 0.00022924200764827744 0.00022924153463127483
          0.00023122790801037018 0.00023122726628911386 0.0002312252518742599 0.00023286379981950992 0.00023286354476229586 0.00023286278093465125
          0.00023403098109781484 0.00023403094899615575 0.00023403083251885104 0.00022936458323283168 0.00022942004205337983 0.00022936451634652112
          0.00022941997148522884 0.000229364299823026 0.00022941974982484132 0.00022959012417265082 0.00022959004779531762 0.00022958981298981163
          0.00022988447715923728 0.00022988439410514307 0.0002298841427942344 0.00023031659115076508 0.0002303165000784636 0.00023031622358533964
          0.00023089986595038783 0.00023089976528004752 0.00023089946755727796 0.00023164142108518938 0.0002316413079559028 0.0002316409618687496
          0.00023252910136489468 0.00023252900636529196 0.00023252870999871577 0.00023351268102531634 0.00023351254279366064 0.00023351206185536356
          0.00023431138523304234 0.00023431169338047282 0.00023431263727935367 0.00023070281307799396 0.00023075325433202014 0.0002307027524084268
          0.00023075319319174994 0.00023070256074708367 0.00023075299920864264 0.0002309074674180798 0.00023090740360807597 0.00023090720755173386
          0.00023117294484976492 0.00023117287904549463 0.0002311726849346521 0.0002315595784060946 0.0002315595125974973 0.00023155932389104034
          0.00023207585236600324 0.00023207579275813343 0.00023207562652177607 0.0002327214590432892 0.00023272141658988457 0.00023272130225085084
          0.0002334738159039724 0.00023347382991498818 0.00023347388808717557 0.0002342501265836918 0.00023425022216075193 0.00023425053474381488
          0.00023476351109849415 0.0002347640470947554 0.0002347657413740826 0.00023203889682716006 0.00023208360124700198 0.0002320388448537953
          0.000232083548493944 0.00023203868022138758 0.00023208338166005898 0.00023221995019482 0.00023221989671885185 0.0002322197283600037
          0.00023245362444926135 0.00023245356939637947 0.00023245340232502993 0.00023279162343312602 0.00023279157042024404 0.00023279140942057181
          0.00023323841440337292 0.000233238368261952 0.00023323822327311628 0.00023378832391155398 0.00023378829876058844 0.00023378820915731134
          0.00023440983158654608 0.000234409842154904 0.000234409854586877 0.00023500685506287086 0.000235006945390645 0.0002350071895989388
          0.0002353466481540171 0.00023534688782536392 0.00023534755185355364 0.00023337222983658957 0.0002334105650085252 0.0002333721859063004
          0.00023341052162612026 0.00023337204749537707 0.0002334103834590048 0.00023352724362452876 0.00023352720030086606 0.00023352706373576499
          0.0002337264192564885 0.00023372637576408935 0.00023372624359093818 0.0002340128136221373 0.00023401277521419153 0.00023401265540672138
          0.00023438786395090722 0.00023438783685471944 0.0002343877454840758 0.00023484211369218368 0.0002348421055950887 0.00023484207005758327
          0.00023533967480498234 0.00023533970352210664 0.0002353397809511195 0.00023578946467368115 0.0002357895555604636 0.00023578982384844628
          0.00023601731700282122 0.00023601751578226568 0.0002360181292236442 0.00023470255094113423 0.0002347339658185241 0.0002347025170434525
          0.00023473393167377477 0.0002347024070911237 0.00023473382164311064 0.00023482939214383797 0.00023482935776929963 0.00023482925031204733
          0.0002349917039970532 0.00023499166966071698 0.0002349915658611501 0.00023522392114914728 0.0002352238884419095 0.00023522379556737295
          0.00023552541768065194 0.00023552539611862563 0.00023552532937462677 0.000235884993382137 0.00023588498890524023 0.0002358849704901508
          0.00023626800148116118 0.00023626802819623575 0.00023626809969939903 0.00023659796683540125 0.00023659804092548544 0.00023659825425709804
          0.00023675069292148723 0.00023675082747777527 0.00023675121048884394 0.00023602995181183593 0.0002360539753301326 0.00023602992755387988
          0.0002360539500432892 0.00023602984552580843 0.00023605386829466724 0.00023612681452461122 0.0002361267896531984 0.00023612671260011037
          0.00023625029135720976 0.00023625026780814407 0.00023625019378595386 0.00023642621067711885 0.00023642618926693947 0.0002364261258937241
          0.0002366529362215949 0.00023665292282033272 0.00023665288175936857 0.00023691977081713436 0.00023691977395942952 0.00023691977234345022
          0.00023719767133062035 0.0002371976964927072 0.00023719776070260136 0.00023742861510054597 0.00023742867263589257 0.000237428835633749
          0.00023752832180891503 0.00023752841319312328 0.00023752868029004357 0.0002373548421412427 0.0002373710923158142 0.00023735482578040608
          0.00023737107608505587 0.00023735477125319461 0.0002373710225091692 0.0002374202896652829 0.0002374202721881265 0.0002374202221158177
          0.0002375034271502538 0.0002375034130263878 0.0002375033662930862 0.00023762149162108678 0.00023762148118422005 0.0002376214396091885
          0.0002377728215050076 0.00023777281776383904 0.00023777278968198715 0.00023794916486684188 0.0002379491739632619 0.0002379491697600663
          0.0002381298508557926 0.0002381298738490662 0.0002381299245999505 0.00023827631148939173 0.00023827635254477958 0.00023827645759132913
          0.0002383364324794273 0.00023833649563725407 0.00023833666429308215 0.0002386778947448521 0.00023868609973179942 0.00023867788775139387
          0.0002386860922918015 0.0002386778612385796 0.00023868606607442794 0.0002387109058626554 0.00023871089365235578 0.0002387108670156154
          0.00023875271081524546 0.00023875270289222124 0.000238752680106944 0.00023881197108573633 0.00023881196559772522 0.00023881194954563395
          0.00023888770209081175 0.00023888770370071352 0.0002388877029272659 0.0002389754563726461 0.00023897546588533874 0.00023897548778955286
          0.00023906444458551143 0.00023906445411039554 0.00023906447308659083 0.00023913555671396293 0.00023913557317137155 0.00023913562232998927
          0.00023916379028807812 0.00023916381850592306 0.00023916389656170847 0.0002400000000000001 0.0002400000000000001 0.0002400000000000001
          0.0002400000000000001 0.0002400000000000001 0.0002400000000000001 0.0002400000000000001 0.0002400000000000001 0.0002400000000000001
          0.0002400000000000001 0.0002400000000000001 0.0002400000000000001 0.0002400000000000001 0.0002400000000000001 0.0002400000000000001
          0.0002400000000000001 0.0002400000000000001 0.0002400000000000001 0.0002400000000000001 0.0002400000000000001 0.0002400000000000001
          0.0002400000000000001 0.0002400000000000001 0.0002400000000000001 0.0002400000000000001 0.0002400000000000001 0.0002400000000000001
          0.0002400000000000001 0.0002400000000000001 0.0002400000000000001
        </DataArray>
        <DataArray type="Float64" Name="disp_y" format="ascii" RangeMin="-0.00004944133093840562" RangeMax="0">
          -0.000023804857820479093 -0.000028085588064714406 -0.00003244593472195245 -0.00003101285047368774 -0.000023803850597152797 -0.000028085075812902214
          -0.00003244681987580401 -0.00003101366009357339 -0.000023800795181699833 -0.00002808321129206087 -0.00003244984640215119 -0.00003101556836086825
          -0.00003130920128932946 -0.000028776942110120714 -0.00002570892901553 -0.00002910268486082104 -0.00003131113676139357 -0.00002877799319199988
          -0.00002570938798802177 -0.000029103740306747158 -0.000031317126698273846 -0.000028780532117842928 -0.00002571079001514102 -0.0000291063734372794
          -0.000026782443952793444 -0.00003138876813354192 -0.000026782282845937256 -0.000031389823631190255 -0.000026782095943428338 -0.00003139364216617957
          -0.000022542682044500246 -0.00001900380458206496 -0.000022715062839351448 -0.00002254242861514838 -0.00001900328784261651 -0.000022714792363605453
          -0.000022541899335787773 -0.000019001387382431756 -0.00002271450875464111 -0.00003879394469833363 -0.00004082591740260112 -0.00004223070259970271
          -0.00003915316641462005 -0.00003879617046335829 -0.00004082760862857324 -0.00004223226068792444 -0.00003915553392224808 -0.00003880275902638854
          -0.000040832598672272676 -0.000042237166615189015 -0.000039162074429684796 -0.000040652820028044224 -0.00004249383276696893 -0.00004152894747346411
          -0.000038952687488304406 -0.00004065452798189645 -0.00004249538536713048 -0.000041530583413289274 -0.000038954523631998005 -0.000040658635457816395
          -0.000042499803429078855 -0.00004153521231811992 -0.00003896042198973144 -0.00003168873949293911 -0.000029961801449232588 -0.000026365160260385274
          -0.00003169068195992676 -0.000029964285678671227 -0.00002636700543322842 -0.00003169680751832385 -0.00002997349313826036 -0.000026372182024999814
          -0.0000197046143950696 -0.000019702855459040708 -0.000019697595602515158 -0.000024409878660128847 -0.000028220475012368243 -0.0000244130569424083
          -0.00002822470119521723 -0.00002442347916089106 -0.000028238422410035555 -0.000015871281360054197 -0.000015388431753891786 -0.0000158696278329509
          -0.000015387374675504957 -0.000015864835482976743 -0.000015384445868651794 -0.00004694484694542658 -0.00004722312699320042 -0.00004694494344261157
          -0.0000472233996996807 -0.00004694498886872884 -0.000047223260011709014 -0.00004244618078444352 -0.000042845732730731484 -0.00003990474460055012
          -0.00003966147056288684 -0.000042447792807640056 -0.000042847272467236807 -0.00003990700741071603 -0.0000396634905207278 -0.00004245268232248504
          -0.00004285228666866716 -0.000039913846585121886 -0.000039669829540625924 -0.000032690914586923306 -0.00003269654754168251 -0.000032715220530106865
          -0.00004731592087765499 -0.000047316039091595364 -0.000047316708299384014 -0.00001912000249234397 -0.000019120041535297655 -0.000019120133061863224
          -0.00003262913914256108 -0.000033873112235901175 -0.00003263088098857964 -0.00003387571578011413 -0.0000326366279430039 -0.00003388327571502613
          -0.00003561282213087001 -0.000035218612210911395 -0.000037430734514207905 -0.00003826631531558296 -0.00003561720440644205 -0.000035223557498988595
          -0.000037435592239601886 -0.00003827020690172521 -0.00003562993746945126 -0.00003524097261055966 -0.00003745073560990418 -0.000038281889069960334
          -0.000035528734146090616 -0.00003540416634037954 -0.000035530958811046916 -0.00003540577728062804 -0.00003553804557957017 -0.000035410699990228414
          -0.00004527036499864243 -0.00004527051003682845 -0.00004527113696192846 -0.000043470018247893135 -0.00004347121310160317 -0.00004347561352851294
          -0.00004257019304862821 -0.00004370386543768764 -0.00004257220542614788 -0.000043704182455012965 -0.00004257889116418545 -0.00004370460532759173
          -0.000037883107300200425 -0.000038927345551002785 -0.000037885552493539126 -0.00003892894451047928 -0.00003789403411508066 -0.00003893508528895787
          -0.00003616242234622051 -0.00003478992786333653 -0.000036167371145694454 -0.000034794954233082924 -0.00003618419460824041 -0.000034810855274492166
          -0.000045096049952665956 -0.00004509688330191076 -0.000045099327467230324 -0.000031840781404517765 -0.00003184662288380211 -0.00003186339984892203
          -0.00004482526934378374 -0.000044826023216496475 -0.000044829094465130895 -0.0000328972384077114 -0.000032901533975359754 -0.00003291254151091986
          -0.00004334803628014202 -0.00004334883586483308 -0.00004335139725804922 -0.00004943465528804282 -0.000048845267965612736 -0.00004943729214540247
          -0.00004884580409724881 -0.00004944133093840562 -0.00004884700269194992 -0.000036042059400105824 -0.0000360445740726458 -0.000036052993692629984
          -0.000036696899006560014 -0.00003676386471634412 -0.000036699397835179055 -0.000036766892323937864 -0.00003670706890417054 -0.00003677607147082052
          -0.00003789712430759585 -0.000039472654907519434 -0.000037899724797178395 -0.0000394750778879764 -0.00003790796524622552 -0.0000394811655551434
          -0.000035866033188150116 -0.00003693439472312703 -0.000035868464896749335 -0.00003693702911903689 -0.00003587546326539508 -0.00003694552177406831
          -0.0000414483647295973 -0.000041449461547664334 -0.00004145238971191189 -0.00004812522980758593 -0.0000481252475313881 -0.00004812583668068013
          -0.00004064148084778403 -0.00004064546242478222 -0.000040658652503224754 -0.00004476044083783526 -0.00004616991238101886 -0.00004476170329600308
          -0.00004617061816506495 -0.00004476530130025172 -0.00004617285808314891 -0.00004739541927649938 -0.00004792142289811896 -0.00004739514992700595
          -0.00004792090359133274 -0.00004739591023838761 -0.00004792081488944944 -0.000045181937057637065 -0.00004421893500463866 -0.000045835944313248545
          -0.000045182592529259716 -0.00004421938297996297 -0.00004583700043256402 -0.0000451842914019964 -0.00004422207692021388 -0.00004583826669120271
          -0.00004639536892800824 -0.00004639674934381252 -0.00004639991781422039 -0.00003419163384561312 -0.00003573063732075018 -0.00003419604107653237
          -0.00003573453308131699 -0.00003420849674080059 -0.000035746452388897095 -0.00003467202552230316 -0.00003363836938747197 -0.000034673312946199856
          -0.00003363864410010051 -0.00003467781371676246 -0.00003363878634256616 -0.00004488499752727603 -0.000044885880924498015 -0.000044888782262935155
          -0.00004671330540211036 -0.000046713398842505705 -0.000046715129799658715 -0.00003471206262624511 -0.00003471466816190981 -0.00003472413826086549
          -0.000040025394753090165 -0.00004170445203478181 -0.00004002696908653267 -0.000041706551799090026 -0.00004003211033995654 -0.00004171282689360645
          -0.000043320940813171006 -0.00004332230287519811 -0.000043327528319668396 -0.00003827357180410687 -0.000038276038387758064 -0.00003828337700488222
          -0.00003344926153320317 -0.00003345175291076145 -0.00003346020471005778 -0.00003640142306562398 -0.000036403317918510335 -0.00003641045915556088
          -0.00003446677572901769 -0.00003446624435268295 -0.000034466727188374856 -0.00003245760083775267 -0.00003245666830944635 -0.000032454471990138886
          -0.000010939259399318641 -0.000010937250666170287 -0.000010931175658155157 -0.000014169460704739223 -0.000014167588966985713 -0.000014162007814370717
          -0.00001779931650253469 -0.00001779759378483062 -0.000017792638013184177 -0.00002179722278436385 -0.000021795699566117942 -0.000021791199836937032
          -0.00002605626175362929 -0.00002605506222786851 -0.0000260521076701334 -3.2558044209968847e-7 0 -3.2545915199873284e-7
          0 -3.250439083620802e-7 0 -3.555989525933433e-7 0 -3.5559994136136943e-7
          0 -3.556190066903414e-7 0 -4.097216280278471e-7 0 -4.097039599333759e-7
          0 -4.096466597691143e-7 0 -4.832750669023833e-7 0 -4.832696003038345e-7
          0 -4.832518179692868e-7 0 -5.686665549109856e-7 0 -5.686664117025072e-7
          0 -5.686658381134617e-7 0 -6.610828439407227e-7 0 -6.610886020883073e-7
          0 -6.611055724594853e-7 0 -7.569609932163713e-7 0 -7.569713557972139e-7
          0 -7.570020519822446e-7 0 -8.536316150963136e-7 0 -8.536440626804282e-7
          0 -8.536815456904639e-7 0 -6.5697906005354e-7 -6.571650419711832e-7 -6.577653012054112e-7
          -7.107089879146489e-7 -7.105979395092605e-7 -7.102467224655104e-7 -8.233125979407197e-7 -8.232996011667536e-7 -8.232652494066878e-7
          -9.71379078559119e-7 -9.71368915184914e-7 -9.713396013709923e-7 -0.0000011417117039975535 -0.0000011417164769456721 -0.0000011417332951824157
          -0.0000013251576353313137 -0.000001325172243427945 -0.000001325216652327548 -0.0000015143609905068112 -0.0000015143841503457925 -0.0000015144552781251479
          -0.000001703910665899673 -0.0000017039368707813665 -0.0000017040186999503935 -9.717911045975424e-7 -9.718384973694916e-7 -9.720604132183103e-7
          -0.0000010694876809292293 -0.0000010694076988039114 -0.0000010691501593141501 -0.000001241148129396064 -0.0000012411236819033178 -0.000001241061350878946
          -0.0000014643721085570342 -0.0000014643618567310805 -0.0000014643363552397099 -0.0000017191760793544127 -0.0000017191857468006547 -0.000001719218524383922
          -0.0000019911292621797615 -0.000001991153935773754 -0.000001991231102885603 -0.0000022694165307035704 -0.000002269455103274862 -0.0000022695726158909356
          -0.0000025455248598283204 -0.0000025455686282836065 -0.0000025457011757444507 -0.0000012745300411415988 -0.000001273917533298533 -0.0000012721110692827228
          -0.000001423233782371929 -0.0000014233334296427333 -0.00000142366902162626 -0.0000016598171447453177 -0.0000016597475856011824 -0.0000016595366036669593
          -0.0000019603789621273756 -0.000001960386121595043 -0.000001960409970836369 -0.0000022977989501216615 -0.0000022978196452920145 -0.000002297883011574419
          -0.0000026542400276822172 -0.000002654282116053282 -0.0000026544112107786267 -0.000003015408509701661 -0.0000030154689891067975 -0.0000030156557555602038
          -0.0000033692733710150464 -0.0000033693417873045013 -0.0000033695531971919866 -0.0000016345674116319237 -0.0000016332358723733738 -0.000001629245202901466
          -0.0000017599467290856724 -0.0000017598105764402872 -0.000001759484352951192 -0.000002076950868509304 -0.000002076965215215557 -0.0000020769985293213675
          -0.000002454248802343537 -0.0000024542525054273856 -0.0000024542754998627934 -0.000002870218982885994 -0.000002870259657376777 -0.0000028703861984394138
          -0.000003304173277544487 -0.000003304236218924789 -0.000003304424873701792 -0.0000037395964160658795 -0.000003739681042322593 -0.0000037399379476295662
          -0.000004160386564020954 -0.000004160475142766591 -0.000004160742189553504 -0.0000033250282411674277 -0.0000033220943406591193 -0.0000033132457365302217
          -0.000002189981392334307 -0.000002187526698232493 -0.0000021800377056798737 -0.00000209982739464751 -0.000002099007713704597 -0.000002096575871225483
          -0.000002486642224329599 -0.0000024867784416431408 -0.0000024872492781052162 -0.000002938469376049114 -0.0000029384625921331186 -0.0000029384184657036083
          -0.000003422464388686809 -0.0000034225309050894725 -0.000003422734925976487 -0.0000039209139221400005 -0.000003921008055521082 -0.000003921294433502523
          -0.000004420769289081823 -0.000004420911911609626 -0.000004421354867227637 -0.000004896714300830394 -0.000004896875475435794 -0.000004897378762843181
          -0.00000497460113692219 -0.000004971908915374978 -0.000004963776292298445 -0.000003104184108069482 -0.000003101607582172064 -0.0000030938802772943224
          -0.0000025386944129434172 -0.0000025371844965367577 -0.0000025326116914441234 -0.000002878442257571492 -0.000002878263277759073 -0.000002877794812138324
          -0.000003401506504396126 -0.0000034016659266226737 -0.000003402161463146454 -0.000003925570775623811 -0.000003925650885635924 -0.000003925888377393
          -0.000004471767092242447 -0.000004471879976957505 -0.000004472225761842941 -0.0000050272988262553575 -0.000005027443613028466 -0.000005027878612305828
          -0.0000055457689367835126 -0.000005545895421544313 -0.000005546264747430499 -0.00000725241857997011 -0.000007249064046290952 -0.0000072389987916529015
          -0.000004557714358251841 -0.000004554154680234832 -0.000004543546363805522 -0.0000032818150309020335 -0.000003279379206801735 -0.0000032720734085207936
          -0.000003279096705774182 -0.000003278341266254512 -0.0000032761300093211176 -0.000003816343673716524 -0.000003816507149936953 -0.000003817053839992942
          -0.000004338361554302135 -0.0000043384097792861386 -0.000004338545235554949 -0.000004904593752336663 -0.0000049047692012236375 -0.000004905310838762575
          -0.000005497222767089634 -0.000005497574399687792 -0.0000054986486195613385 -0.000006050883322549818 -0.000006051361835403456 -0.000006052791707708616
          -0.00001016882893945716 -0.00001016401959530914 -0.00001014959179997354 -0.000006650467368150384 -0.0000066451810664221045 -0.000006629183765509468
          -0.0000044553386366291 -0.000004452192397593675 -0.0000044424906162396325 -0.00000377607095328895 -0.000003775209125191249 -0.0000037724951646004453
          -0.000004149901378569216 -0.000004149926378833416 -0.000004149990302086446 -0.000004612876581233006 -0.000004612873513163855 -0.000004612876175774079
          -0.000005120325883513645 -0.000005120576389335293 -0.000005121328869927929 -0.000005683468915471628 -0.000005684112832821367 -0.0000056860505067734015
          -0.000006317134823081998 -0.000006318076828127969 -0.000006320959009379417 0 -8.8601670349402e-7 0
          -8.860311422278818e-7 0 -8.860761088339489e-7 -0.0000017669059200155166 -0.0000017669361259010474 -0.0000017670309336805036
          -0.0000026358537354472275 -0.0000026359022572465498 -0.0000026360531292888537 -0.000003482884643505778 -0.0000034829589494085977 -0.0000034831924087907162
          -0.000004293702326802478 -0.0000042938002161978925 -0.000004294101105640965 -0.000005048232045988209 -0.000005048399078667936 -0.000005048918225891663
          -0.000005719649178340501 -0.0000057198215555923964 -0.000005720339227848584 -0.000006266142118312098 -0.000006266581306564183 -0.000006267916867029037
          -0.000006607174024922103 -0.000006607962094065422 -0.000006610350399130775 0 -9.129166894580638e-7 0
          -9.129323732841454e-7 0 -9.129802792866269e-7 -0.000001818778528127749 -0.0000018188091759205084 -0.000001818906791217371
          -0.000002709074624182117 -0.0000027091241789345106 -0.0000027092792694384375 -0.0000035726501371487267 -0.000003572722143177538 -0.000003572946394045181
          -0.000004394681496733185 -0.000004394780461344043 -0.000004395088265725576 -0.000005155583650058729 -0.000005155724064264875 -0.000005156154293477269
          -0.0000058298233111936834 -0.000005830001202522579 -0.000005830543571578319 -0.000006371786826313539 -0.000006372067590804316 -0.000006372905795239554
          -0.000006744582022229313 -0.0000067449398480360905 -0.000006746024232037747 0 -9.345467432787608e-7 0
          -9.345628309383933e-7 0 -9.346117543502851e-7 -0.0000018600586290139298 -0.0000018600897236041984 -0.0000018601894941462961
          -0.000002766169488335353 -0.0000027662185585377745 -0.0000027663741820529832 -0.0000036401760644718404 -0.0000036402465118787215 -0.000003640466785599504
          -0.000004466118843218572 -0.000004466213647237405 -0.0000044665078032470846 -0.000005223847399007195 -0.0000052239719510096484 -0.000005224355091121466
          -0.000005886278188240285 -0.000005886431904059593 -0.0000058869029915981025 -0.000006417285480976815 -0.000006417472260878114 -0.000006418039392377317
          -0.000006813483381474859 -0.000006813684970840988 -0.000006814300552202615 0 -9.51364418878748e-7 0
          -9.513804116981832e-7 0 -9.514295212157633e-7 -0.0000018917405979425982 -0.0000018917715228944232 -0.0000018918712257705655
          -0.000002808876556442316 -0.0000028089243730485703 -0.0000028090766634032322 -0.0000036883766092579735 -0.0000036884434456661623 -0.000003688654092055384
          -0.000004512936406193809 -0.000004513024175867935 -0.000004513296770034026 -0.000005261512413123368 -0.000005261619972235891 -0.000005261953997686842
          -0.000005908801890198996 -0.000005908927510925445 -0.000005909315899577704 -0.000006432151324303336 -0.000006432277393919185 -0.000006432658759019647
          -0.000006847532153801085 -0.0000068476441257635555 -0.000006847988059988459 0 -9.63943121214594e-7 0
          -9.639590708832112e-7 0 -9.640079087000517e-7 -0.0000019150800538253557 -0.000001915110594347083 -0.0000019152093050717603
          -0.000002839392836644603 -0.0000028394395796400757 -0.0000028395890688324297 -0.000003720860832380518 -0.000003720924671289423 -0.000003721125791897149
          -0.000004540951176119391 -0.0000045410311586790595 -0.000004541282113896931 -0.000005278596980257952 -0.000005278690803124461 -0.000005278982906939168
          -0.0000059125396511553015 -0.000005912641062727789 -0.0000059129565673369485 -0.000006431890040572928 -0.0000064319767197053645 -0.000006432240951626804
          -0.000006862843982669614 -0.000006862905608330503 -0.000006863105487670904 0 -9.729045060677492e-7 0
          -9.729202775376688e-7 0 -9.729684078728047e-7 -0.000001931422904047739 -0.0000019314536495408267 -0.000001931550860184686
          -0.0000028600341017816052 -0.0000028600804580811483 -0.0000028602266205466494 -0.0000037413567679093126 -0.0000037414172155685067 -0.0000037416088945907455
          -0.000004556001256261105 -0.000004556074534584894 -0.000004556305322246576 -0.000005283685804198738 -0.000005283769073467388 -0.000005284027157063854
          -0.000005907552609347566 -0.000005907635438459916 -0.000005907894397938273 -0.000006425368517717688 -0.000006425429589537021 -0.000006425620105036598
          -0.0000068683180113612055 -0.000006868350289443421 -0.000006868467508542214 0 -9.788371019468823e-7 0
          -9.788521947924513e-7 0 -9.788996620879666e-7 -0.0000019420440317779667 -0.000001942072796224373 -0.0000019421671559758224
          -0.0000028729580932339884 -0.0000028730018490560385 -0.0000028731427499022777 -0.0000037532373099833363 -0.000003753292954946129 -0.0000037534728803598615
          -0.0000045630515260574 -0.0000045631184893706295 -0.000004563331680260656 -0.000005283143821191803 -0.000005283217871777061 -0.000005283447996233149
          -0.000005900259150691875 -0.000005900327863464834 -0.0000059005483004773335 -0.0000064177957679408175 -0.0000064178425432758046 -0.000006417987364094876
          -0.000006869230609563115 -0.000006869250305233067 -0.000006869325364618875 0 -9.822021233712997e-7 0
          -9.822181689842533e-7 0 -9.822667855383835e-7 -0.0000019479630587449725 -0.0000019479918975664698 -0.000001948086669884175
          -0.0000028799211660242227 -0.000002879962986566394 -0.000002880097219045108 -0.0000037592234819034596 -0.000003759278593262827 -0.000003759452380238503
          -0.000004565855011595368 -0.000004565921344133485 -0.000004566126705623111 -0.000005281249127836986 -0.000005281320625431512 -0.000005281539984139331
          -0.0000058945313277528944 -0.00000589459636602429 -0.000005894798129896062 -0.0000064122250568649354 -0.0000064122617848642665 -0.0000064123848563285394
          -0.000006868668279520723 -0.00000686867294229598 -0.000006868716626496199 0 -9.832972869157988e-7 0
          -9.833108260149917e-7 0 -9.83357389424425e-7 -0.000001949867910842378 -0.000001949893669517542 -0.000001949985384591493
          -0.0000028821134957873546 -0.0000028821559673683752 -0.0000028822885835092816 -0.0000037610407469005433 -0.0000037610975147829875 -0.000003761269287234932
          -0.000004566556420507646 -0.000004566620242045063 -0.000004566816415321064 -0.000005280406895370319 -0.000005280474207898607 -0.000005280687246473399
          -0.000005892404630833398 -0.000005892453853348011 -0.000005892646278485363 -0.000006410200939347064 -0.0000064102272040913034 -0.000006410329354016093
          -0.000006868397858013888 -0.000006868392953880831 -0.0000068684318051059005
        </DataArray>
        <DataArray type="Float64" Name="disp_z" format="ascii" RangeMin="-0.0000012339706309322023" RangeMax="0">
          0 0 0 0 -4.3244015288067365e-7 -4.476177192607757e-7
          -4.504748297180534e-7 -4.639809794673414e-7 -8.64842428976224e-7 -8.951493347428474e-7 -9.007920902626462e-7 -9.273491770479937e-7
          0 0 0 0 -4.906670640655995e-7 -5.0920596218021e-7
          -4.893314975441607e-7 -4.831462160207537e-7 -9.806151075446054e-7 -0.00000101825237057371 -9.781136185326908e-7 -9.65763667932515e-7
          0 0 -4.6759056665943104e-7 -4.669231734929852e-7 -9.347696671419308e-7 -9.331323300919425e-7
          0 0 0 -4.933667894952143e-7 -4.561162958678283e-7 -4.559111902532055e-7
          -9.859183876793808e-7 -9.122916563159254e-7 -9.115895925685938e-7 0 0 0
          0 -4.0791391996018314e-7 -3.9985955322110456e-7 -3.9813782174729993e-7 -4.156633263085125e-7 -8.15865765367805e-7
          -8.008691034657416e-7 -7.968743154960861e-7 -8.318587609089601e-7 0 0 0
          0 -3.882963026288445e-7 -3.8207812018605036e-7 -3.9036200993332135e-7 -3.981267415752301e-7 -7.783536157184499e-7
          -7.639793493774372e-7 -7.809287775431012e-7 -7.969455726128752e-7 0 0 0
          -5.11628103158256e-7 -5.388560505462615e-7 -5.166511521781713e-7 -0.000001023762163441394 -0.000001079027245407612 -0.000001034359359647447
          0 -4.0398660712581587e-7 -8.080722650087512e-7 0 0 -5.666797634055585e-7
          -5.954873113348109e-7 -0.0000011338620925691813 -0.0000011902333007415794 0 0 -3.6824306139902717e-7
          -4.3212446497703713e-7 -7.367195073459586e-7 -8.642331662470515e-7 0 0 -4.2701742122429537e-7
          -4.4769907254282105e-7 -8.541857439244333e-7 -8.960726002190859e-7 0 0 0
          0 -4.121634031262503e-7 -4.320959759547904e-7 -4.427519333255397e-7 -4.200311509982637e-7 -8.24808265747214e-7
          -8.643655589451483e-7 -8.856391741136954e-7 -8.407548552356357e-7 0 -6.164995231873897e-7 -0.0000012339706309322023
          0 -4.720735846731851e-7 -9.444451250191803e-7 0 -4.98259001774581e-7 -9.96745774173451e-7
          0 0 -4.70709632748203e-7 -4.7274603833427655e-7 -9.411301087561432e-7 -9.453213989208426e-7
          0 0 0 0 -5.590628107666879e-7 -5.407205663526375e-7
          -4.863243323457256e-7 -5.342031017265775e-7 -0.0000011189615356373865 -0.0000010819514670470554 -9.730664403626877e-7 -0.0000010689101758799654
          0 0 -4.341714464266967e-7 -4.4054761377432706e-7 -8.683490291200856e-7 -8.805795663598514e-7
          0 -4.476428983870862e-7 -8.96127495278639e-7 0 -3.8580691084626135e-7 -7.717192306394939e-7
          0 0 -4.5654057039516563e-7 -4.486046817645088e-7 -9.152193804558716e-7 -8.995907413073349e-7
          0 0 -4.1203144522165255e-7 -3.982590943157172e-7 -8.231730200396772e-7 -7.945694495958442e-7
          0 0 -4.978910328831099e-7 -5.541029447870563e-7 -9.976056056663156e-7 -0.0000011099317707790943
          0 -4.307157144497147e-7 -8.62108266078471e-7 0 -6.043526502825577e-7 -0.0000012081176367919582
          0 -4.125798993664122e-7 -8.257153253577984e-7 0 -5.468391373906208e-7 -0.0000010927431053425678
          0 -4.4309320709695925e-7 -8.871709751676455e-7 0 0 -3.9824379300430747e-7
          -4.093630274766917e-7 -7.969711494555773e-7 -8.193244265635426e-7 0 -4.4276319451455385e-7 -8.856315157448902e-7
          0 0 -4.429793693718486e-7 -4.5193177255735485e-7 -8.863902693671363e-7 -9.046528049522748e-7
          0 0 -4.7222911418804677e-7 -4.5575519415858017e-7 -9.451575066188693e-7 -9.13438895171205e-7
          0 0 -4.3975754076566954e-7 -4.2091404109593074e-7 -8.778143075001488e-7 -8.388569561276496e-7
          0 -4.476882921620376e-7 -8.960395396385462e-7 0 -4.1773219060721825e-7 -8.356110374800686e-7
          0 -4.862407087231035e-7 -9.73811377861365e-7 0 0 -3.963613952023494e-7
          -4.059881067418859e-7 -7.932899760199222e-7 -8.129925922310493e-7 0 0 -3.928078375022035e-7
          -3.8677151435519654e-7 -7.861089688097848e-7 -7.750156014695891e-7 0 0 0
          -3.866371786984594e-7 -3.764507662772433e-7 -3.833934204592975e-7 -7.741523283096592e-7 -7.536864403662437e-7 -7.67313898623209e-7
          0 -3.766984952815768e-7 -7.531837257791209e-7 0 0 -5.147328496362433e-7
          -4.826581258415391e-7 -0.0000010288840090266162 -9.652059537401943e-7 0 0 -4.379355990126179e-7
          -4.4883825137986934e-7 -8.769773451530844e-7 -8.973897928823489e-7 0 -3.702313383423319e-7 -7.407225968122745e-7
          0 -4.003551567196485e-7 -8.012232209734448e-7 0 -4.68454492360149e-7 -9.375346953830064e-7
          0 0 -3.872500816245273e-7 -3.773791232710431e-7 -7.753787558380804e-7 -7.54514980120908e-7
          0 -3.7195090798246033e-7 -7.442364347595989e-7 0 -4.020297990562618e-7 -8.054746869948089e-7
          0 -4.895395714551082e-7 -9.794377896003243e-7 0 -4.2225801877922e-7 -8.43758890081954e-7
          0 -4.512464477669829e-7 -9.012193363600634e-7 0 -4.606400874537841e-7 -9.209988785274451e-7
          0 -3.318137746503829e-7 -6.635665317999966e-7 0 -3.7345088760077563e-7 -7.468988733610888e-7
          0 -4.0338918783227443e-7 -8.067144591126881e-7 0 -4.375226288536276e-7 -8.74932619386427e-7
          0 -4.5949557381325554e-7 -9.18859316613074e-7 0 0 -6.355910566131305e-8
          -6.211657226125435e-8 -1.2706103715310814e-7 -1.242369729879721e-7 0 0 -6.090298843131515e-8
          -6.080350127302859e-8 -1.218082109147578e-7 -1.2160875260633958e-7 0 0 -5.931412821820052e-8
          -5.9190061610064746e-8 -1.1863693557469521e-7 -1.1837819792356193e-7 0 0 -5.721324810771642e-8
          -5.715596030764271e-8 -1.1442186305272032e-7 -1.1431252470415643e-7 0 0 -5.503133255019204e-8
          -5.504810139953828e-8 -1.1006471303851424e-7 -1.1009631026679925e-7 0 0 -5.2877765160936233e-8
          -5.2955589151319755e-8 -1.0575525960354209e-7 -1.0591124273143699e-7 0 0 -5.084691651248112e-8
          -5.097979092228357e-8 -1.0169387949794075e-7 -1.0195967105466895e-7 0 0 -4.9048989340677026e-8
          -4.920602814505196e-8 -9.809786422359321e-8 -9.84123830143612e-8 0 -6.471551357241818e-8 -1.294490994005308e-7
          0 -6.130687075877741e-8 -1.2257468001872774e-7 0 -5.972548389439072e-8 -1.1947127064503152e-7
          0 -5.7303935437154595e-8 -1.1459754803140113e-7 0 -5.491853922576964e-8 -1.098400017387339e-7
          0 -5.259694423564433e-8 -1.0519282028177416e-7 0 -5.0410549626896634e-8 -1.008208197846251e-7
          0 -4.8543467745125474e-8 -9.708729388721728e-8 0 -5.851284014901577e-8 -1.1711679310945403e-7
          0 -6.463726201356453e-8 -1.2925395299345224e-7 0 -5.98244660675439e-8 -1.19630817201427e-7
          0 -5.748423937117383e-8 -1.1498687075831376e-7 0 -5.469717469032338e-8 -1.0938518377994381e-7
          0 -5.2093799243067845e-8 -1.0419238956938502e-7 0 -4.962944438233157e-8 -9.925612101671264e-8
          0 -4.763043910066061e-8 -9.52613225114138e-8 0 -6.501033008907935e-8 -1.3024608730365966e-7
          0 -6.372481644262708e-8 -1.274467006857639e-7 0 -6.07098278279284e-8 -1.213991329482652e-7
          0 -5.7451030686940033e-8 -1.1491014188509348e-7 0 -5.4274064494024595e-8 -1.0854375442349633e-7
          0 -5.1254187783001095e-8 -1.0251176165420119e-7 0 -4.838764764796581e-8 -9.677471020797754e-8
          0 -4.62056019082462e-8 -9.24158345341783e-8 0 -8.193101769807186e-8 -1.641090370558801e-7
          0 -6.253887147507942e-8 -1.2522956272475558e-7 0 -6.177592642656041e-8 -1.2354003489426046e-7
          0 -5.711414795074845e-8 -1.1422003579329258e-7 0 -5.352011285974388e-8 -1.0704811134425092e-7
          0 -4.99687514696318e-8 -9.993556071856708e-8 0 -4.653191765814329e-8 -9.305716387943264e-8
          0 -4.409739169941208e-8 -8.819058155135569e-8 0 -1.9710122741011444e-7 -3.941739190499978e-7
          0 -1.1946425299348352e-7 -2.3931122997688347e-7 0 -7.023377893212281e-8 -1.4071653068136761e-7
          0 -5.972070655784972e-8 -1.1948429430178026e-7 0 -5.709168074052537e-8 -1.1415939453853239e-7
          0 -5.219996139182025e-8 -1.043941606893988e-7 0 -4.811171179020142e-8 -9.623635031777869e-8
          0 -4.384578469569778e-8 -8.769364687379062e-8 0 -4.115719185436222e-8 -8.23360494992069e-8
          0 -2.518538664807617e-7 -5.035841913622128e-7 0 -1.7246592613222748e-7 -3.4516706120371703e-7
          0 -9.382885275513444e-8 -1.8805748310576705e-7 0 -5.7727630136158495e-8 -1.156585589010593e-7
          0 -5.625453288946476e-8 -1.1254042421405565e-7 0 -5.043227455958042e-8 -1.008254667053659e-7
          0 -4.5484688824405064e-8 -9.099315271084417e-8 0 -3.9758798425911096e-8 -7.94823582879856e-8
          0 -3.6485954494707394e-8 -7.29633219968898e-8 0 -3.0560692591872514e-7 -6.111089806307066e-7
          0 -2.2374973585953022e-7 -4.4761617908213164e-7 0 -1.3049605068548127e-7 -2.6142121084881316e-7
          0 -6.66734697874259e-8 -1.3360030151023445e-7 0 -5.096281437431431e-8 -1.0199531472994252e-7
          0 -4.885770344694921e-8 -9.76908179782405e-8 0 -4.22351669753292e-8 -8.449121210833506e-8
          0 -3.495571531561986e-8 -6.990242792896361e-8 0 -3.1556466230688005e-8 -6.313690034885997e-8
          0 -3.8901371219315436e-7 -7.779486151620783e-7 0 -3.1554578714868907e-7 -6.311149379349539e-7
          0 -1.886596889447769e-7 -3.7775886153824567e-7 0 -8.328689596856559e-8 -1.670612345176046e-7
          0 -4.9241723545990026e-8 -9.859800197616677e-8 0 -4.843340794538424e-8 -9.687243213361831e-8
          0 -3.6778951746811555e-8 -7.355600552033462e-8 0 -2.1458025154546208e-8 -4.290118639225289e-8
          0 -1.0719833231870812e-8 -2.1443148007115533e-8 0 0 -4.809069202913986e-8
          -4.790214587614584e-8 -9.618141824823329e-8 -9.580433898166884e-8 0 -4.731104409809213e-8 -9.462149116020093e-8
          0 -4.626177625610135e-8 -9.252118606438532e-8 0 -4.4650905084201156e-8 -8.930023857586072e-8
          0 -4.2304854950018926e-8 -8.460049238486888e-8 0 -3.9057341789426736e-8 -7.811244904118355e-8
          0 -3.395079620336119e-8 -6.787607560055736e-8 0 -2.780166240306695e-8 -5.556874588795344e-8
          0 -1.010638799975462e-8 -2.0153398873876384e-8 0 0 -4.7090100856396366e-8
          -4.6889816061541066e-8 -9.41799967427582e-8 -9.37796408634397e-8 0 -4.627740473287161e-8 -9.255536965556612e-8
          0 -4.5207235705622916e-8 -9.041584229477464e-8 0 -4.359474085127074e-8 -8.719252193933826e-8
          0 -4.132890640206639e-8 -8.266194010990657e-8 0 -3.819353160453335e-8 -7.639813445816793e-8
          0 -3.394842296692342e-8 -6.790844069769651e-8 0 -2.8319936950526785e-8 -5.667587037565221e-8
          0 -1.9690292498971664e-8 -3.94179262670716e-8 0 0 -4.621900752819223e-8
          -4.601300547279527e-8 -9.243802302345904e-8 -9.202595918116878e-8 0 -4.5386680655337915e-8 -9.077315880032544e-8
          0 -4.43050575765834e-8 -8.860943281600382e-8 0 -4.271215635570791e-8 -8.542327385018458e-8
          0 -4.0521369693201485e-8 -8.104043402856997e-8 0 -3.764155954527366e-8 -7.527960839821064e-8
          0 -3.395627671217439e-8 -6.790346035326298e-8 0 -2.951618965672377e-8 -5.901739481286416e-8
          0 -2.4340868937622575e-8 -4.8623954267016e-8 0 0 -4.5481850592726255e-8
          -4.5274578064607396e-8 -9.096369374754104e-8 -9.054918048342957e-8 0 -4.464659744012729e-8 -8.929329335971395e-8
          0 -4.3574679277024685e-8 -8.714956699121682e-8 0 -4.2027448417060554e-8 -8.40551006676578e-8
          0 -3.996487024965365e-8 -7.993071145400617e-8 0 -3.7367981341509945e-8 -7.473692811204683e-8
          0 -3.425522980585896e-8 -6.851429908273683e-8 0 -3.086244879845438e-8 -6.172882181432668e-8
          0 -2.77887819356715e-8 -5.559106124236232e-8 0 0 -4.4881651626662406e-8
          -4.467479629730182e-8 -8.976339182243186e-8 -8.934961114844936e-8 0 -4.4052552590054295e-8 -8.810509197452088e-8
          0 -4.3000164915682487e-8 -8.60002487594821e-8 0 -4.151190496765904e-8 -8.302349978926961e-8
          0 -3.9586143114554473e-8 -7.917186083639573e-8 0 -3.725883097941188e-8 -7.451700480848087e-8
          0 -3.4639406330962176e-8 -6.927790955597404e-8 0 -3.206151004178843e-8 -6.412023083954259e-8
          0 -3.015873273269029e-8 -6.030656761960767e-8 0 0 -4.4417115450751084e-8
          -4.421173056784701e-8 -8.883427023806299e-8 -8.84234771057341e-8 0 -4.359841975302333e-8 -8.719689238644376e-8
          0 -4.257002048686401e-8 -8.514027941315115e-8 0 -4.114038383302146e-8 -8.228108489682424e-8
          0 -3.9339742952134057e-8 -7.867963723455271e-8 0 -3.724113922833754e-8 -7.448201252664243e-8
          0 -3.5010386978113835e-8 -7.002236406028036e-8 0 -3.300443031040879e-8 -6.600849754114186e-8
          0 -3.1785271500185357e-8 -6.357140188420384e-8 0 0 -4.408620960885956e-8
          -4.38833312682465e-8 -8.817268745389696e-8 -8.776670636260424e-8 0 -4.327802980721717e-8 -8.655578143820914e-8
          0 -4.2273229358549564e-8 -8.454649021598529e-8 0 -4.089326119298443e-8 -8.178670887976769e-8
          0 -3.918938401429433e-8 -7.837924244203623e-8 0 -3.726633618241248e-8 -7.453347290100963e-8
          0 -3.5310151746284395e-8 -7.061990576041092e-8 0 -3.367950725778908e-8 -6.735698787663248e-8
          0 -3.286310142663529e-8 -6.57241600432494e-8 0 0 -4.389072105194997e-8
          -4.36869511760533e-8 -8.778125515899083e-8 -8.737393332577153e-8 0 -4.308687093664218e-8 -8.617346756721826e-8
          0 -4.210116450033577e-8 -8.420232538599068e-8 0 -4.075590800378909e-8 -8.151118651046854e-8
          0 -3.911565433245658e-8 -7.823007000187846e-8 0 -3.729561428020227e-8 -7.458810636510148e-8
          0 -3.5513251116884206e-8 -7.102747193029281e-8 0 -3.4084554156548637e-8 -6.816825399038717e-8
          0 -3.347981839397519e-8 -6.69590119946103e-8 0 0 -4.382611718537675e-8
          -4.362143700396778e-8 -8.765174248728264e-8 -8.724298370926952e-8 0 -4.302558232341062e-8 -8.605132274092469e-8
          0 -4.205153469534401e-8 -8.410292526641074e-8 0 -4.0741579759162686e-8 -8.148287350737986e-8
          0 -3.917422814139411e-8 -7.834594109708033e-8 0 -3.7475543171131566e-8 -7.49480330250675e-8
          0 -3.555219549651183e-8 -7.110360766135336e-8 0 -3.423092336838463e-8 -6.846122908140077e-8
          0 -3.36805948302821e-8 -6.735886039405112e-8
        </DataArray>
      </PointData>
      <CellData>
        <DataArray type="Int32" Name="libmesh_elem_id" format="ascii" RangeMin="1398" RangeMax="3643">
          1398 1399 1422 1423 1460 1461
          1470 1471 1482 1483 1494 1495
          1502 1503 1506 1507 1520 1521
          1528 1529 1580 1581 1584 1585
          1612 1613 1636 1637 1652 1653
          1722 1723 1798 1799 1850 1851
          2298 2299 2406 2407 2442 2443
          2450 2451 2472 2473 2558 2559
          2610 2611 2646 2647 2648 2649
          2662 2663 2672 2673 2680 2681
          2748 2749 2756 2757 2776 2777
          2808 2809 2814 2815 2822 2823
          2828 2829 2836 2837 2852 2853
          2876 2877 2898 2899 2910 2911
          2926 2927 2936 2937 2950 2951
          2952 2953 2954 2955 2966 2967
          2980 2981 2982 2983 2990 2991
          3006 3007 3014 3015 3026 3027
          3068 3069 3074 3075 3104 3105
          3110 3111 3124 3125 3126 3127
          3168 3169 3194 3195 3204 3205
          3208 3209 3210 3211 3212 3213
          3220 3221 3222 3223 3224 3225
          3226 3227 3234 3235 3236 3237
          3240 3241 3252 3253 3254 3255
          3264 3265 3296 3297 3302 3303
          3308 3309 3314 3315 3324 3325
          3326 3327 3328 3329 3330 3331
          3332 3333 3334 3335 3336 3337
          3342 3343 3344 3345 3346 3347
          3348 3349 3350 3351 3352 3353
          3354 3355 3360 3361 3362 3363
          3364 3365 3366 3367 3368 3369
          3370 3371 3372 3373 3378 3379
          3380 3381 3382 3383 3384 3385
          3386 3387 3388 3389 3390 3391
          3396 3397 3398 3399 3400 3401
          3402 3403 3404 3405 3406 3407
          3408 3409 3414 3415 3416 3417
          3418 3419 3420 3421 3422 3423
          3424 3425 3426 3427 3430 3431
          3432 3433 3434 3435 3436 3437
          3438 3439 3440 3441 3442 3443
          3444 3445 3448 3449 3450 3451
          3452 3453 3454 3455 3456 3457
          3458 3459 3460 3461 3462 3463
          3466 3467 3468 3469 3470 3471
          3472 3473 3474 3475 3476 3477
          3478 3479 3480 3481 3482 3483
          3484 3485 3486 3487 3488 3489
          3490 3491 3492 3493 3494 3495
          3496 3497 3498 3499 3500 3501
          3502 3503 3504 3505 3506 3507
          3508 3509 3510 3511 3512 3513
          3514 3515 3516 3517 3518 3519
          3520 3521 3522 3523 3524 3525
          3526 3527 3528 3529 3530 3531
          3532 3533 3534 3535 3536 3537
          3538 3539 3540 3541 3542 3543
          3544 3545 3546 3547 3548 3549
          3550 3551 3552 3553 3554 3555
          3556 3557 3558 3559 3560 3561
          3562 3563 3564 3565 3566 3567
          3568 3569 3570 3571 3572 3573
          3574 3575 3576 3577 3578 3579
          3580 3581 3582 3583 3584 3585
          3586 3587 3588 3589 3590 3591
          3592 3593 3594 3595 3596 3597
          3598 3599 3600 3601 3602 3603
          3604 3605 3606 3607 3608 3609
          3610 3611 3612 3613 3614 3615
          3616 3617 3618 3619 3620 3621
          3622 3623 3624 3625 3626 3627
          3628 3629 3630 3631 3632 3633
          3634 3635 3636 3637 3638 3639
          3640 3641 3642 3643
        </DataArray>
        <DataArray type="Int32" Name="subdomain_id" format="ascii" RangeMin="107" RangeMax="110">
          107 107 107 107 107 107
          107 107 107 107 107 107
          107 107 107 107 107 107
          107 107 107 107 107 107
          107 107 107 107 107 107
          107 107 107 107 107 107
          107 107 107 107 107 107
          107 107 107 107 107 107
          107 107 107 107 107 107
          107 107 107 107 107 107
          107 107 107 107 107 107
          107 107 107 107 107 107
          107 107 107 107 107 107
          107 107 107 107 107 107
          107 107 107 107 107 107
          107 107 107 107 107 107
          107 107 107 107 107 107
          107 107 107 107 107 107
          107 107 107 107 107 107
          107 107 107 107 107 107
          107 107 107 107 107 107
          107 107 107 107 107 107
          107 107 107 107 107 107
          107 107 107 107 107 107
          107 107 107 107 107 107
          107 107 108 108 108 108
          108 108 108 108 109 109
          109 109 109 109 109 109
          109 109 109 109 109 109
          109 109 109 109 109 109
          109 109 109 109 109 109
          109 109 109 109 109 109
          109 109 109 109 109 109
          109 109 109 109 109 109
          109 109 109 109 109 109
          109 109 109 109 109 109
          109 109 109 109 109 109
          109 109 109 109 109 109
          109 109 109 109 109 109
          109 109 109 109 109 109
          109 109 109 109 109 109
          109 109 109 109 109 109
          109 109 109 109 109 109
          109 109 109 109 109 109
          109 109 109 109 109 109
          109 109 109 109 109 109
          109 109 109 109 109 109
          109 109 109 109 109 109
          109 109 109 109 110 110
          110 110 110 110 110 110
          110 110 110 110 110 110
          110 110 110 110 110 110
          110 110 110 110 110 110
          110 110 110 110 110 110
          110 110 110 110 110 110
          110 110 110 110 110 110
          110 110 110 110 110 110
          110 110 110 110 110 110
          110 110 110 110 110 110
          110 110 110 110 110 110
          110 110 110 110 110 110
          110 110 110 110 110 110
          110 110 110 110 110 110
          110 110 110 110 110 110
          110 110 110 110 110 110
          110 110 110 110 110 110
          110 110 110 110 110 110
          110 110 110 110 110 110
          110 110 110 110 110 110
          110 110 110 110 110 110
          110 110 110 110 110 110
          110 110 110 110 110 110
          110 110 110 110 110 110
          110 110 110 110 110 110
          110 110 110 110 110 110
          110 110 110 110
        </DataArray>
        <DataArray type="Int32" Name="processor_id" format="ascii" RangeMin="0" RangeMax="0">
          0 0 0 0 0 0
          0 0 0 0 0 0
          0 0 0 0 0 0
          0 0 0 0 0 0
          0 0 0 0 0 0
          0 0 0 0 0 0
          0 0 0 0 0 0
          0 0 0 0 0 0
          0 0 0 0 0 0
          0 0 0 0 0 0
          0 0 0 0 0 0
          0 0 0 0 0 0
          0 0 0 0 0 0
          0 0 0 0 0 0
          0 0 0 0 0 0
          0 0 0 0 0 0
          0 0 0 0 0 0
          0 0 0 0 0 0
          0 0 0 0 0 0
          0 0 0 0 0 0
          0 0 0 0 0 0
          0 0 0 0 0 0
          0 0 0 0 0 0
          0 0 0 0 0 0
          0 0 0 0 0 0
          0 0 0 0 0 0
          0 0 0 0 0 0
          0 0 0 0 0 0
          0 0 0 0 0 0
          0 0 0 0 0 0
          0 0 0 0 0 0
          0 0 0 0 0 0
          0 0 0 0 0 0
          0 0 0 0 0 0
          0 0 0 0 0 0
          0 0 0 0 0 0
          0 0 0 0 0 0
          0 0 0 0 0 0
          0 0 0 0 0 0
          0 0 0 0 0 0
          0 0 0 0 0 0
          0 0 0 0 0 0
          0 0 0 0 0 0
          0 0 0 0 0 0
          0 0 0 0 0 0
          0 0 0 0 0 0
          0 0 0 0 0 0
          0 0 0 0 0 0
          0 0 0 0 0 0
          0 0 0 0 0 0
          0 0 0 0 0 0
          0 0 0 0 0 0
          0 0 0 0 0 0
          0 0 0 0 0 0
          0 0 0 0 0 0
          0 0 0 0 0 0
          0 0 0 0 0 0
          0 0 0 0 0 0
          0 0 0 0 0 0
          0 0 0 0 0 0
          0 0 0 0 0 0
          0 0 0 0 0 0
          0 0 0 0 0 0
          0 0 0 0 0 0
          0 0 0 0 0 0
          0 0 0 0 0 0
          0 0 0 0 0 0
          0 0 0 0 0 0
          0 0 0 0 0 0
          0 0 0 0 0 0
          0 0 0 0 0 0
          0 0 0 0 0 0
          0 0 0 0 0 0
          0 0 0 0 0 0
          0 0 0 0 0 0
          0 0 0 0
        </DataArray>
      </CellData>
      <Points>
        <DataArray type="Float64" Name="Points" NumberOfComponents="3" format="ascii" RangeMin="0.019949534490770096" RangeMax="0.057059767276955435">
          0.025 0.010111111111103 0 0.025 0.011555555555552 0
          0.023969654121399 0.011643457228511 0 0.023712354871128 0.010827306146479 0
          0.025 0.010111111111103 0.00015 0.025 0.011555555555552 0.00015
          0.023969654121399 0.011643457228511 0.00015 0.023712354871128 0.010827306146479 0.00015
          0.025 0.010111111111103 0.0003 0.025 0.011555555555552 0.0003
          0.023969654121399 0.011643457228511 0.0003 0.023712354871128 0.010827306146479 0.0003
          0.021832836898909 0.0086447924127183 0 0.021823224979211 0.0078559681587773 0
          0.022737846371709 0.0079006862580081 0 0.022634898807434 0.0088549234284915 0
          0.021832836898909 0.0086447924127183 0.00015 0.021823224979211 0.0078559681587773 0.00015
          0.022737846371709 0.0079006862580081 0.00015 0.022634898807434 0.0088549234284915 0.00015
          0.021832836898909 0.0086447924127183 0.0003 0.021823224979211 0.0078559681587773 0.0003
          0.022737846371709 0.0079006862580081 0.0003 0.022634898807434 0.0088549234284915 0.0003
          0.023595500831214 0.0092794942281182 0 0.023071107871262 0.010124307969263 0
          0.023595500831214 0.0092794942281182 0.00015 0.023071107871262 0.010124307969263 0.00015
          0.023595500831214 0.0092794942281182 0.0003 0.023071107871262 0.010124307969263 0.0003
          0.022679909737796 0.0068405181074087 0 0.023816654948859 0.0069324696013164 0
          0.023805320189621 0.0081867285281858 0 0.022679909737796 0.0068405181074087 0.00015
          0.023816654948859 0.0069324696013164 0.00015 0.023805320189621 0.0081867285281858 0.00015
          0.022679909737796 0.0068405181074087 0.0003 0.023816654948859 0.0069324696013164 0.0003
          0.023805320189621 0.0081867285281858 0.0003 0.021890570917318 0.011219591567605 0
          0.021490495874743 0.011513015985888 0 0.020878683694742 0.011349585571751 0
          0.021380466308845 0.010767094219468 0 0.021890570917318 0.011219591567605 0.00015
          0.021490495874743 0.011513015985888 0.00015 0.020878683694742 0.011349585571751 0.00015
          0.021380466308845 0.010767094219468 0.00015 0.021890570917318 0.011219591567605 0.0003
          0.021490495874743 0.011513015985888 0.0003 0.020878683694742 0.011349585571751 0.0003
          0.021380466308845 0.010767094219468 0.0003 0.022336312736143 0.012467557709352 0
          0.021763745105177 0.012476629724541 0 0.021622459990569 0.011931223094182 0
          0.02233098651665 0.011816769005978 0 0.022336312736143 0.012467557709352 0.00015
          0.021763745105177 0.012476629724541 0.00015 0.021622459990569 0.011931223094182 0.00015
          0.02233098651665 0.011816769005978 0.00015 0.022336312736143 0.012467557709352 0.0003
          0.021763745105177 0.012476629724541 0.0003 0.021622459990569 0.011931223094182 0.0003
          0.02233098651665 0.011816769005978 0.0003 0.021047379294988 0.0079667793778881 0
          0.020813290684512 0.007243328880283 0 0.021666975794544 0.0069715825078724 0
          0.021047379294988 0.0079667793778881 0.00015 0.020813290684512 0.007243328880283 0.00015
          0.021666975794544 0.0069715825078724 0.00015 0.021047379294988 0.0079667793778881 0.0003
          0.020813290684512 0.007243328880283 0.0003 0.021666975794544 0.0069715825078724 0.0003
          0.025 0.0086666666666559 0 0.025 0.0086666666666559 0.00015
          0.025 0.0086666666666559 0.0003 0.021356284292895 0.0061182113295331 0
          0.020489019208248 0.0065103794253073 0 0.021356284292895 0.0061182113295331 0.00015
          0.020489019208248 0.0065103794253073 0.00015 0.021356284292895 0.0061182113295331 0.0003
          0.020489019208248 0.0065103794253073 0.0003 0.025 0.0072222222222063 0
          0.023829479378086 0.0056593315311521 0 0.025 0.0072222222222063 0.00015
          0.023829479378086 0.0056593315311521 0.00015 0.025 0.0072222222222063 0.0003
          0.023829479378086 0.0056593315311521 0.0003 0.019357361519954 0.01157618305141 0
          0.01884046117173 0.011223113854601 0 0.019357361519954 0.01157618305141 0.00015
          0.01884046117173 0.011223113854601 0.00015 0.019357361519954 0.01157618305141 0.0003
          0.01884046117173 0.011223113854601 0.0003 0.020274347850796 0.01080512315655 0
          0.019692191057164 0.010418143528135 0 0.020104676199583 0.0097475599042502 0
          0.020792052735599 0.010316149813733 0 0.020274347850796 0.01080512315655 0.00015
          0.019692191057164 0.010418143528135 0.00015 0.020104676199583 0.0097475599042502 0.00015
          0.020792052735599 0.010316149813733 0.00015 0.020274347850796 0.01080512315655 0.0003
          0.019692191057164 0.010418143528135 0.0003 0.020104676199583 0.0097475599042502 0.0003
          0.020792052735599 0.010316149813733 0.0003 0.018734278863615 0.0068564365277259 0
          0.018734278863615 0.0068564365277259 0.00015 0.018734278863615 0.0068564365277259 0.0003
          0.018384253973557 0.010894663204421 0 0.018384253973557 0.010894663204421 0.00015
          0.018384253973557 0.010894663204421 0.0003 0.022477642087048 0.0055533155338694 0
          0.022477642087048 0.0055533155338694 0.00015 0.022477642087048 0.0055533155338694 0.0003
          0.022333445868241 0.0096250088550796 0 0.021678233976573 0.0092839168226163 0
          0.022333445868241 0.0096250088550796 0.00015 0.021678233976573 0.0092839168226163 0.00015
          0.022333445868241 0.0096250088550796 0.0003 0.021678233976573 0.0092839168226163 0.0003
          0.018696511924608 0.0075816988835645 0 0.019307778433714 0.0076950261479263 0
          0.019244919669154 0.0083241905034728 0 0.018643245907353 0.0082916041839039 0
          0.018696511924608 0.0075816988835645 0.00015 0.019307778433714 0.0076950261479263 0.00015
          0.019244919669154 0.0083241905034728 0.00015 0.018643245907353 0.0082916041839039 0.00015
          0.018696511924608 0.0075816988835645 0.0003 0.019307778433714 0.0076950261479263 0.0003
          0.019244919669154 0.0083241905034728 0.0003 0.018643245907353 0.0082916041839039 0.0003
          0.02247089481133 0.010746063389313 0 0.022956441030322 0.011313723369763 0
          0.02247089481133 0.010746063389313 0.00015 0.022956441030322 0.011313723369763 0.00015
          0.02247089481133 0.010746063389313 0.0003 0.022956441030322 0.011313723369763 0.0003
          0.018817000838468 0.010560792840001 0 0.018817000838468 0.010560792840001 0.00015
          0.018817000838468 0.010560792840001 0.0003 0.021028725472558 0.011993213484042 0
          0.021028725472558 0.011993213484042 0.00015 0.021028725472558 0.011993213484042 0.0003
          0.018719100515555 0.0096191331103102 0 0.018769006148643 0.010016813571171 0
          0.018719100515555 0.0096191331103102 0.00015 0.018769006148643 0.010016813571171 0.00015
          0.018719100515555 0.0096191331103102 0.0003 0.018769006148643 0.010016813571171 0.0003
          0.022845614094026 0.012068678060928 0 0.022870050818517 0.012481997757377 0
          0.022845614094026 0.012068678060928 0.00015 0.022870050818517 0.012481997757377 0.00015
          0.022845614094026 0.012068678060928 0.0003 0.022870050818517 0.012481997757377 0.0003
          0.01980903614198 0.0082923028866096 0 0.019733887771193 0.007830319872041 0
          0.01980903614198 0.0082923028866096 0.00015 0.019733887771193 0.007830319872041 0.00015
          0.01980903614198 0.0082923028866096 0.0003 0.019733887771193 0.007830319872041 0.0003
          0.019287865107188 0.010870204720027 0 0.019287865107188 0.010870204720027 0.00015
          0.019287865107188 0.010870204720027 0.0003 0.019611341590458 0.0069319215290848 0
          0.019611341590458 0.0069319215290848 0.00015 0.019611341590458 0.0069319215290848 0.0003
          0.019793192887703 0.011218191570876 0 0.019793192887703 0.011218191570876 0.00015
          0.019793192887703 0.011218191570876 0.0003 0.02014052068744 0.0075597001530957 0
          0.02014052068744 0.0075597001530957 0.00015 0.02014052068744 0.0075597001530957 0.0003
          0.019142781766586 0.010156284019367 0 0.019142781766586 0.010156284019367 0.00015
          0.019142781766586 0.010156284019367 0.0003 0.019871794871807 0.013 0
          0.019671681078705 0.012567114388191 0 0.019871794871807 0.013 0.00015
          0.019671681078705 0.012567114388191 0.00015 0.019871794871807 0.013 0.0003
          0.019671681078705 0.012567114388191 0.0003 0.02189605775595 0.01024368797285 0
          0.02189605775595 0.01024368797285 0.00015 0.02189605775595 0.01024368797285 0.0003
          0.021306208963658 0.0098107932917518 0 0.020830530356293 0.0093484326970494 0
          0.021306208963658 0.0098107932917518 0.00015 0.020830530356293 0.0093484326970494 0.00015
          0.021306208963658 0.0098107932917518 0.0003 0.020830530356293 0.0093484326970494 0.0003
          0.019927087042343 0.0089401115508047 0 0.019284140679376 0.0089915496868705 0
          0.019927087042343 0.0089401115508047 0.00015 0.019284140679376 0.0089915496868705 0.00015
          0.019927087042343 0.0089401115508047 0.0003 0.019284140679376 0.0089915496868705 0.0003
          0.023272296973232 0.01187913061167 0 0.023408043049707 0.012441583397961 0
          0.023272296973232 0.01187913061167 0.00015 0.023408043049707 0.012441583397961 0.00015
          0.023272296973232 0.01187913061167 0.0003 0.023408043049707 0.012441583397961 0.0003
          0.019291729405334 0.009640079412969 0 0.019291729405334 0.009640079412969 0.00015
          0.019291729405334 0.009640079412969 0.0003 0.019497075330812 0.012129782091497 0
          0.019497075330812 0.012129782091497 0.00015 0.019497075330812 0.012129782091497 0.0003
          0.018655444813331 0.0089912542068827 0 0.018655444813331 0.0089912542068827 0.00015
          0.018655444813331 0.0089912542068827 0.0003 0.020217772280624 0.01161574996656 0
          0.019866459267603 0.011787315550137 0 0.020217772280624 0.01161574996656 0.00015
          0.019866459267603 0.011787315550137 0.00015 0.020217772280624 0.01161574996656 0.0003
          0.019866459267603 0.011787315550137 0.0003 0.020169909004412 0.012559422291794 0
          0.020384615384626 0.013 0 0.020169909004412 0.012559422291794 0.00015
          0.020384615384626 0.013 0.00015 0.020169909004412 0.012559422291794 0.0003
          0.020384615384626 0.013 0.0003 0.02048968364866 0.012063778985416 0
          0.021216890903006 0.012503701361908 0 0.020684692364028 0.012535095885709 0
          0.02048968364866 0.012063778985416 0.00015 0.021216890903006 0.012503701361908 0.00015
          0.020684692364028 0.012535095885709 0.00015 0.02048968364866 0.012063778985416 0.0003
          0.021216890903006 0.012503701361908 0.0003 0.020684692364028 0.012535095885709 0.0003
          0.020897435897446 0.013 0 0.020897435897446 0.013 0.00015
          0.020897435897446 0.013 0.0003 0.020387511226442 0.0081443073342907 0
          0.02056343795537 0.0087688297792787 0 0.020387511226442 0.0081443073342907 0.00015
          0.02056343795537 0.0087688297792787 0.00015 0.020387511226442 0.0081443073342907 0.0003
          0.02056343795537 0.0087688297792787 0.0003 0.023967653117571 0.012391671962311 0
          0.024322147732379 0.012509260561901 0 0.023967653117571 0.012391671962311 0.00015
          0.024322147732379 0.012509260561901 0.00015 0.023967653117571 0.012391671962311 0.0003
          0.024322147732379 0.012509260561901 0.0003 0.021410256410266 0.013 0
          0.021410256410266 0.013 0.00015 0.021410256410266 0.013 0.0003
          0.019993073529409 0.012116879865089 0 0.019993073529409 0.012116879865089 0.00015
          0.019993073529409 0.012116879865089 0.0003 0.02122910202584 0.0090825003429501 0
          0.02122910202584 0.0090825003429501 0.00015 0.02122910202584 0.0090825003429501 0.0003
          0.022948717948721 0.013 0 0.022435897435903 0.013 0
          0.022948717948721 0.013 0.00015 0.022435897435903 0.013 0.00015
          0.022948717948721 0.013 0.0003 0.022435897435903 0.013 0.0003
          0.021923076923085 0.013 0 0.021923076923085 0.013 0.00015
          0.021923076923085 0.013 0.0003 0.023461538461539 0.013 0
          0.023461538461539 0.013 0.00015 0.023461538461539 0.013 0.0003
          0.021171209164951 0.0086229949315581 0 0.021171209164951 0.0086229949315581 0.00015
          0.021171209164951 0.0086229949315581 0.0003 0.023974358974358 0.013 0
          0.023974358974358 0.013 0.00015 0.023974358974358 0.013 0.0003
          0.024487179487177 0.013 0 0.024487179487177 0.013 0.00015
          0.024487179487177 0.013 0.0003 0.025 0.013 0
          0.025 0.013 0.00015 0.025 0.013 0.0003
          0.026666666666667 0.0072222222222063 0 0.026666666666667 0.0072222222222063 0.00015
          0.026666666666667 0.0072222222222063 0.0003 0.026666666666668 0.0086666666666559 0
          0.026666666666668 0.0086666666666559 0.00015 0.026666666666668 0.0086666666666559 0.0003
          0.026666666666669 0.010111111111103 0 0.026666666666669 0.010111111111103 0.00015
          0.026666666666669 0.010111111111103 0.0003 0.026666666666669 0.011555555555552 0
          0.026666666666669 0.011555555555552 0.00015 0.026666666666669 0.011555555555552 0.0003
          0.02666666666667 0.013 0 0.02666666666667 0.013 0.00015
          0.02666666666667 0.013 0.0003 0.033201501647561 0.0014698753983525 0
          0.033179797338052 0 0 0.033201501647561 0.0014698753983525 0.00015
          0.033179797338052 0 0.00015 0.033201501647561 0.0014698753983525 0.0003
          0.033179797338052 0 0.0003 0.034800103200053 0.0015015548376625 0
          0.034769696007096 0 0 0.034800103200053 0.0015015548376625 0.00015
          0.034769696007096 0 0.00015 0.034800103200053 0.0015015548376625 0.0003
          0.034769696007096 0 0.0003 0.03639613666046 0.0015457026119765 0
          0.036359594676111 0 0 0.03639613666046 0.0015457026119765 0.00015
          0.036359594676111 0 0.00015 0.03639613666046 0.0015457026119765 0.0003
          0.036359594676111 0 0.0003 0.037988764334349 0.001602116400018 0
          0.037949493345121 0 0 0.037988764334349 0.001602116400018 0.00015
          0.037949493345121 0 0.00015 0.037988764334349 0.001602116400018 0.0003
          0.037949493345121 0 0.0003 0.039577164134098 0.001670537667151 0
          0.039539392014149 0 0 0.039577164134098 0.001670537667151 0.00015
          0.039539392014149 0 0.00015 0.039577164134098 0.001670537667151 0.0003
          0.039539392014149 0 0.0003 0.041160533348121 0.0017506528505884 0
          0.041129290683195 0 0 0.041160533348121 0.0017506528505884 0.00015
          0.041129290683195 0 0.00015 0.041160533348121 0.0017506528505884 0.0003
          0.041129290683195 0 0.0003 0.042738092320879 0.0018420947973532 0
          0.042719189352233 0 0 0.042738092320879 0.0018420947973532 0.00015
          0.042719189352233 0 0.00015 0.042738092320879 0.0018420947973532 0.0003
          0.042719189352233 0 0.0003 0.044309088021254 0.0019444444444413 0
          0.044309088021254 0 0 0.044309088021254 0.0019444444444413 0.00015
          0.044309088021254 0 0.00015 0.044309088021254 0.0019444444444413 0.0003
          0.044309088021254 0 0.0003 0.033223205957069 0.0029397507967035 0
          0.033223205957069 0.0029397507967035 0.00015 0.033223205957069 0.0029397507967035 0.0003
          0.03483051039301 0.0030031096753234 0 0.03483051039301 0.0030031096753234 0.00015
          0.03483051039301 0.0030031096753234 0.0003 0.036432678644808 0.0030914052239513 0
          0.036432678644808 0.0030914052239513 0.00015 0.036432678644808 0.0030914052239513 0.0003
          0.038028035323577 0.0032042328000343 0 0.038028035323577 0.0032042328000343 0.00015
          0.038028035323577 0.0032042328000343 0.0003 0.039614936254047 0.0033410753343001 0
          0.039614936254047 0.0033410753343001 0.00015 0.039614936254047 0.0033410753343001 0.0003
          0.041191776013048 0.0035013057011749 0 0.041191776013048 0.0035013057011749 0.00015
          0.041191776013048 0.0035013057011749 0.0003 0.042756995289524 0.0036841895947044 0
          0.042756995289524 0.0036841895947044 0.00015 0.042756995289524 0.0036841895947044 0.0003
          0.044309088021254 0.0038888888888803 0 0.044309088021254 0.0038888888888803 0.00015
          0.044309088021254 0.0038888888888803 0.0003 0.033244910266578 0.0044096261950543 0
          0.033244910266578 0.0044096261950543 0.00015 0.033244910266578 0.0044096261950543 0.0003
          0.034860917585967 0.004504664512984 0 0.034860917585967 0.004504664512984 0.00015
          0.034860917585967 0.004504664512984 0.0003 0.036469220629156 0.0046371078359259 0
          0.036469220629156 0.0046371078359259 0.00015 0.036469220629156 0.0046371078359259 0.0003
          0.038067306312805 0.0048063492000502 0 0.038067306312805 0.0048063492000502 0.00015
          0.038067306312805 0.0048063492000502 0.0003 0.039652708373995 0.0050116130014489 0
          0.039652708373995 0.0050116130014489 0.00015 0.039652708373995 0.0050116130014489 0.0003
          0.041223018677975 0.005251958551761 0 0.041223018677975 0.005251958551761 0.00015
          0.041223018677975 0.005251958551761 0.0003 0.04277589825817 0.0055262843920551 0
          0.04277589825817 0.0055262843920551 0.00015 0.04277589825817 0.0055262843920551 0.0003
          0.044309088021254 0.0058333333333189 0 0.044309088021254 0.0058333333333189 0.00015
          0.044309088021254 0.0058333333333189 0.0003 0.033266614576087 0.0058795015934051 0
          0.033266614576087 0.0058795015934051 0.00015 0.033266614576087 0.0058795015934051 0.0003
          0.034891324778924 0.0060062193506447 0 0.034891324778924 0.0060062193506447 0.00015
          0.034891324778924 0.0060062193506447 0.0003 0.036505762613504 0.0061828104479004 0
          0.036505762613504 0.0061828104479004 0.00015 0.036505762613504 0.0061828104479004 0.0003
          0.038106577302032 0.0064084656000662 0 0.038106577302032 0.0064084656000662 0.00015
          0.038106577302032 0.0064084656000662 0.0003 0.039690480493944 0.0066821506685977 0
          0.039690480493944 0.0066821506685977 0.00015 0.039690480493944 0.0066821506685977 0.0003
          0.041254261342902 0.0070026114023471 0 0.041254261342902 0.0070026114023471 0.00015
          0.041254261342902 0.0070026114023471 0.0003 0.042794801226816 0.0073683791894058 0
          0.042794801226816 0.0073683791894058 0.00015 0.042794801226816 0.0073683791894058 0.0003
          0.044309088021254 0.0077777777777574 0 0.044309088021254 0.0077777777777574 0.00015
          0.044309088021254 0.0077777777777574 0.0003 0.033288318885596 0.0073493769917596 0
          0.033288318885596 0.0073493769917596 0.00015 0.033288318885596 0.0073493769917596 0.0003
          0.034921731971881 0.0075077741883091 0 0.034921731971881 0.0075077741883091 0.00015
          0.034921731971881 0.0075077741883091 0.0003 0.036542304597852 0.0077285130598789 0
          0.036542304597852 0.0077285130598789 0.00015 0.036542304597852 0.0077285130598789 0.0003
          0.03814584829126 0.0080105820000862 0 0.03814584829126 0.0080105820000862 0.00015
          0.03814584829126 0.0080105820000862 0.0003 0.039728252613893 0.0083526883357508 0
          0.039728252613893 0.0083526883357508 0.00015 0.039728252613893 0.0083526883357508 0.0003
          0.041285504007829 0.0087532642529377 0 0.041285504007829 0.0087532642529377 0.00015
          0.041285504007829 0.0087532642529377 0.0003 0.042813704195461 0.0092104739867613 0
          0.042813704195461 0.0092104739867613 0.00015 0.042813704195461 0.0092104739867613 0.0003
          0.044309088021254 0.0097222222222011 0 0.044309088021254 0.0097222222222011 0.00015
          0.044309088021254 0.0097222222222011 0.0003 0.031657595460571 0.0087048568522863 0
          0.031657595460571 0.0087048568522863 0.00015 0.031657595460571 0.0087048568522863 0.0003
          0.033310023195106 0.0088192523901195 0 0.033310023195106 0.0088192523901195 0.00015
          0.033310023195106 0.0088192523901195 0.0003 0.034952139164838 0.009009329025979 0
          0.034952139164838 0.009009329025979 0.00015 0.034952139164838 0.009009329025979 0.0003
          0.0365788465822 0.0092742156718627 0 0.0365788465822 0.0092742156718627 0.00015
          0.0365788465822 0.0092742156718627 0.0003 0.038185119280488 0.0096126984001116 0
          0.038185119280488 0.0096126984001116 0.00015 0.038185119280488 0.0096126984001116 0.0003
          0.039766024733842 0.010023226002909 0 0.039766024733842 0.010023226002909 0.00015
          0.039766024733842 0.010023226002909 0.0003 0.041316746672756 0.010503917103534 0
          0.041316746672756 0.010503917103534 0.00015 0.041316746672756 0.010503917103534 0.0003
          0.042832607164107 0.011052568784123 0 0.042832607164107 0.011052568784123 0.00015
          0.042832607164107 0.011052568784123 0.0003 0.044309088021254 0.011666666666651 0
          0.044309088021254 0.011666666666651 0.00015 0.044309088021254 0.011666666666651 0.0003
          0.031668878259163 0.010155666327672 0 0.031668878259163 0.010155666327672 0.00015
          0.031668878259163 0.010155666327672 0.0003 0.033331727504615 0.010289127788478 0
          0.033331727504615 0.010289127788478 0.00015 0.033331727504615 0.010289127788478 0.0003
          0.034982546357795 0.010510883863647 0 0.034982546357795 0.010510883863647 0.00015
          0.034982546357795 0.010510883863647 0.0003 0.036615388566549 0.010819918283845 0
          0.036615388566549 0.010819918283845 0.00015 0.036615388566549 0.010819918283845 0.0003
          0.038224390269716 0.011214814800136 0 0.038224390269716 0.011214814800136 0.00015
          0.038224390269716 0.011214814800136 0.0003 0.039803796853791 0.011693763670067 0
          0.039803796853791 0.011693763670067 0.00015 0.039803796853791 0.011693763670067 0.0003
          0.041347989337683 0.012254569954129 0 0.041347989337683 0.012254569954129 0.00015
          0.041347989337683 0.012254569954129 0.0003 0.042851510132752 0.012894663581483 0
          0.042851510132752 0.012894663581483 0.00015 0.042851510132752 0.012894663581483 0.0003
          0.044309088021254 0.0136111111111 0 0.044309088021254 0.0136111111111 0.00015
          0.044309088021254 0.0136111111111 0.0003 0.031680161057755 0.011606475803059 0
          0.031680161057755 0.011606475803059 0.00015 0.031680161057755 0.011606475803059 0.0003
          0.033353431814124 0.011759003186837 0 0.033353431814124 0.011759003186837 0.00015
          0.033353431814124 0.011759003186837 0.0003 0.035012953550752 0.012012438701317 0
          0.035012953550752 0.012012438701317 0.00015 0.035012953550752 0.012012438701317 0.0003
          0.036651930550897 0.012365620895829 0 0.036651930550897 0.012365620895829 0.00015
          0.036651930550897 0.012365620895829 0.0003 0.038263661258944 0.012816931200161 0
          0.038263661258944 0.012816931200161 0.00015 0.038263661258944 0.012816931200161 0.0003
          0.03984156897374 0.013364301337225 0 0.03984156897374 0.013364301337225 0.00015
          0.03984156897374 0.013364301337225 0.0003 0.04137923200261 0.014005222804725 0
          0.04137923200261 0.014005222804725 0.00015 0.04137923200261 0.014005222804725 0.0003
          0.042870413101398 0.014736758378844 0 0.042870413101398 0.014736758378844 0.00015
          0.042870413101398 0.014736758378844 0.0003 0.044309088021254 0.015555555555549 0
          0.044309088021254 0.015555555555549 0.00015 0.044309088021254 0.015555555555549 0.0003
          0.031691443856347 0.013057285278446 0 0.031691443856347 0.013057285278446 0.00015
          0.031691443856347 0.013057285278446 0.0003 0.033375136123633 0.013228878585196 0
          0.033375136123633 0.013228878585196 0.00015 0.033375136123633 0.013228878585196 0.0003
          0.035043360743709 0.013513993538986 0 0.035043360743709 0.013513993538986 0.00015
          0.035043360743709 0.013513993538986 0.0003 0.036688472535245 0.013911323507812 0
          0.036688472535245 0.013911323507812 0.00015 0.036688472535245 0.013911323507812 0.0003
          0.038302932248172 0.014419047600187 0 0.038302932248172 0.014419047600187 0.00015
          0.038302932248172 0.014419047600187 0.0003 0.039879341093689 0.015034839004384 0
          0.039879341093689 0.015034839004384 0.00015 0.039879341093689 0.015034839004384 0.0003
          0.041410474667538 0.015755875655322 0 0.041410474667538 0.015755875655322 0.00015
          0.041410474667538 0.015755875655322 0.0003 0.042889316070044 0.016578853176207 0
          0.042889316070044 0.016578853176207 0.00015 0.042889316070044 0.016578853176207 0.0003
          0.044309088021254 0.0175 0 0.044309088021254 0.0175 0.00015
          0.044309088021254 0.0175 0.0003 0.045420199132363 0 0
          0.045420199132363 0.0019444444444413 0 0.045420199132363 0 0.00015
          0.045420199132363 0.0019444444444413 0.00015 0.045420199132363 0 0.0003
          0.045420199132363 0.0019444444444413 0.0003 0.045420199132363 0.0038888888888803 0
          0.045420199132363 0.0038888888888803 0.00015 0.045420199132363 0.0038888888888803 0.0003
          0.045420199132363 0.0058333333333189 0 0.045420199132363 0.0058333333333189 0.00015
          0.045420199132363 0.0058333333333189 0.0003 0.045420199132363 0.0077777777777574 0
          0.045420199132363 0.0077777777777574 0.00015 0.045420199132363 0.0077777777777574 0.0003
          0.045420199132363 0.0097222222222011 0 0.045420199132363 0.0097222222222011 0.00015
          0.045420199132363 0.0097222222222011 0.0003 0.045420199132363 0.011666666666651 0
          0.045420199132363 0.011666666666651 0.00015 0.045420199132363 0.011666666666651 0.0003
          0.045420199132363 0.0136111111111 0 0.045420199132363 0.0136111111111 0.00015
          0.045420199132363 0.0136111111111 0.0003 0.045420199132363 0.015555555555549 0
          0.045420199132363 0.015555555555549 0.00015 0.045420199132363 0.015555555555549 0.0003
          0.045420199132363 0.0175 0 0.045420199132363 0.0175 0.00015
          0.045420199132363 0.0175 0.0003 0.046531310243475 0 0
          0.046531310243475 0.0019444444444413 0 0.046531310243475 0 0.00015
          0.046531310243475 0.0019444444444413 0.00015 0.046531310243475 0 0.0003
          0.046531310243475 0.0019444444444413 0.0003 0.046531310243475 0.0038888888888803 0
          0.046531310243475 0.0038888888888803 0.00015 0.046531310243475 0.0038888888888803 0.0003
          0.046531310243475 0.0058333333333189 0 0.046531310243475 0.0058333333333189 0.00015
          0.046531310243475 0.0058333333333189 0.0003 0.046531310243475 0.0077777777777574 0
          0.046531310243475 0.0077777777777574 0.00015 0.046531310243475 0.0077777777777574 0.0003
          0.046531310243475 0.0097222222222011 0 0.046531310243475 0.0097222222222011 0.00015
          0.046531310243475 0.0097222222222011 0.0003 0.046531310243475 0.011666666666651 0
          0.046531310243475 0.011666666666651 0.00015 0.046531310243475 0.011666666666651 0.0003
          0.046531310243475 0.0136111111111 0 0.046531310243475 0.0136111111111 0.00015
          0.046531310243475 0.0136111111111 0.0003 0.046531310243475 0.015555555555549 0
          0.046531310243475 0.015555555555549 0.00015 0.046531310243475 0.015555555555549 0.0003
          0.046531310243475 0.0175 0 0.046531310243475 0.0175 0.00015
          0.046531310243475 0.0175 0.0003 0.04764242135458 0 0
          0.04764242135458 0.0019444444444413 0 0.04764242135458 0 0.00015
          0.04764242135458 0.0019444444444413 0.00015 0.04764242135458 0 0.0003
          0.04764242135458 0.0019444444444413 0.0003 0.04764242135458 0.0038888888888803 0
          0.04764242135458 0.0038888888888803 0.00015 0.04764242135458 0.0038888888888803 0.0003
          0.04764242135458 0.0058333333333189 0 0.04764242135458 0.0058333333333189 0.00015
          0.04764242135458 0.0058333333333189 0.0003 0.04764242135458 0.0077777777777574 0
          0.04764242135458 0.0077777777777574 0.00015 0.04764242135458 0.0077777777777574 0.0003
          0.04764242135458 0.0097222222222011 0 0.04764242135458 0.0097222222222011 0.00015
          0.04764242135458 0.0097222222222011 0.0003 0.04764242135458 0.011666666666651 0
          0.04764242135458 0.011666666666651 0.00015 0.04764242135458 0.011666666666651 0.0003
          0.04764242135458 0.0136111111111 0 0.04764242135458 0.0136111111111 0.00015
          0.04764242135458 0.0136111111111 0.0003 0.04764242135458 0.015555555555549 0
          0.04764242135458 0.015555555555549 0.00015 0.04764242135458 0.015555555555549 0.0003
          0.04764242135458 0.0175 0 0.04764242135458 0.0175 0.00015
          0.04764242135458 0.0175 0.0003 0.048753532465692 0 0
          0.048753532465692 0.0019444444444413 0 0.048753532465692 0 0.00015
          0.048753532465692 0.0019444444444413 0.00015 0.048753532465692 0 0.0003
          0.048753532465692 0.0019444444444413 0.0003 0.048753532465692 0.0038888888888803 0
          0.048753532465692 0.0038888888888803 0.00015 0.048753532465692 0.0038888888888803 0.0003
          0.048753532465692 0.0058333333333189 0 0.048753532465692 0.0058333333333189 0.00015
          0.048753532465692 0.0058333333333189 0.0003 0.048753532465692 0.0077777777777574 0
          0.048753532465692 0.0077777777777574 0.00015 0.048753532465692 0.0077777777777574 0.0003
          0.048753532465692 0.0097222222222011 0 0.048753532465692 0.0097222222222011 0.00015
          0.048753532465692 0.0097222222222011 0.0003 0.048753532465692 0.011666666666651 0
          0.048753532465692 0.011666666666651 0.00015 0.048753532465692 0.011666666666651 0.0003
          0.048753532465692 0.0136111111111 0 0.048753532465692 0.0136111111111 0.00015
          0.048753532465692 0.0136111111111 0.0003 0.048753532465692 0.015555555555549 0
          0.048753532465692 0.015555555555549 0.00015 0.048753532465692 0.015555555555549 0.0003
          0.048753532465692 0.0175 0 0.048753532465692 0.0175 0.00015
          0.048753532465692 0.0175 0.0003 0.0498646435768 0 0
          0.0498646435768 0.0019444444444413 0 0.0498646435768 0 0.00015
          0.0498646435768 0.0019444444444413 0.00015 0.0498646435768 0 0.0003
          0.0498646435768 0.0019444444444413 0.0003 0.0498646435768 0.0038888888888803 0
          0.0498646435768 0.0038888888888803 0.00015 0.0498646435768 0.0038888888888803 0.0003
          0.0498646435768 0.0058333333333189 0 0.0498646435768 0.0058333333333189 0.00015
          0.0498646435768 0.0058333333333189 0.0003 0.0498646435768 0.0077777777777574 0
          0.0498646435768 0.0077777777777574 0.00015 0.0498646435768 0.0077777777777574 0.0003
          0.0498646435768 0.0097222222222011 0 0.0498646435768 0.0097222222222011 0.00015
          0.0498646435768 0.0097222222222011 0.0003 0.0498646435768 0.011666666666651 0
          0.0498646435768 0.011666666666651 0.00015 0.0498646435768 0.011666666666651 0.0003
          0.0498646435768 0.0136111111111 0 0.0498646435768 0.0136111111111 0.00015
          0.0498646435768 0.0136111111111 0.0003 0.0498646435768 0.015555555555549 0
          0.0498646435768 0.015555555555549 0.00015 0.0498646435768 0.015555555555549 0.0003
          0.0498646435768 0.0175 0 0.0498646435768 0.0175 0.00015
          0.0498646435768 0.0175 0.0003 0.050975754687912 0 0
          0.050975754687912 0.0019444444444413 0 0.050975754687912 0 0.00015
          0.050975754687912 0.0019444444444413 0.00015 0.050975754687912 0 0.0003
          0.050975754687912 0.0019444444444413 0.0003 0.050975754687912 0.0038888888888803 0
          0.050975754687912 0.0038888888888803 0.00015 0.050975754687912 0.0038888888888803 0.0003
          0.050975754687912 0.0058333333333189 0 0.050975754687912 0.0058333333333189 0.00015
          0.050975754687912 0.0058333333333189 0.0003 0.050975754687912 0.0077777777777574 0
          0.050975754687912 0.0077777777777574 0.00015 0.050975754687912 0.0077777777777574 0.0003
          0.050975754687912 0.0097222222222011 0 0.050975754687912 0.0097222222222011 0.00015
          0.050975754687912 0.0097222222222011 0.0003 0.050975754687912 0.011666666666651 0
          0.050975754687912 0.011666666666651 0.00015 0.050975754687912 0.011666666666651 0.0003
          0.050975754687912 0.0136111111111 0 0.050975754687912 0.0136111111111 0.00015
          0.050975754687912 0.0136111111111 0.0003 0.050975754687912 0.015555555555549 0
          0.050975754687912 0.015555555555549 0.00015 0.050975754687912 0.015555555555549 0.0003
          0.050975754687912 0.0175 0 0.050975754687912 0.0175 0.00015
          0.050975754687912 0.0175 0.0003 0.052086865799025 0 0
          0.052086865799025 0.0019444444444413 0 0.052086865799025 0 0.00015
          0.052086865799025 0.0019444444444413 0.00015 0.052086865799025 0 0.0003
          0.052086865799025 0.0019444444444413 0.0003 0.052086865799025 0.0038888888888803 0
          0.052086865799025 0.0038888888888803 0.00015 0.052086865799025 0.0038888888888803 0.0003
          0.052086865799025 0.0058333333333189 0 0.052086865799025 0.0058333333333189 0.00015
          0.052086865799025 0.0058333333333189 0.0003 0.052086865799025 0.0077777777777574 0
          0.052086865799025 0.0077777777777574 0.00015 0.052086865799025 0.0077777777777574 0.0003
          0.052086865799025 0.0097222222222011 0 0.052086865799025 0.0097222222222011 0.00015
          0.052086865799025 0.0097222222222011 0.0003 0.052086865799025 0.011666666666651 0
          0.052086865799025 0.011666666666651 0.00015 0.052086865799025 0.011666666666651 0.0003
          0.052086865799025 0.0136111111111 0 0.052086865799025 0.0136111111111 0.00015
          0.052086865799025 0.0136111111111 0.0003 0.052086865799025 0.015555555555549 0
          0.052086865799025 0.015555555555549 0.00015 0.052086865799025 0.015555555555549 0.0003
          0.052086865799025 0.0175 0 0.052086865799025 0.0175 0.00015
          0.052086865799025 0.0175 0.0003 0.05319797691014 0 0
          0.05319797691014 0.0019444444444413 0 0.05319797691014 0 0.00015
          0.05319797691014 0.0019444444444413 0.00015 0.05319797691014 0 0.0003
          0.05319797691014 0.0019444444444413 0.0003 0.05319797691014 0.0038888888888803 0
          0.05319797691014 0.0038888888888803 0.00015 0.05319797691014 0.0038888888888803 0.0003
          0.05319797691014 0.0058333333333189 0 0.05319797691014 0.0058333333333189 0.00015
          0.05319797691014 0.0058333333333189 0.0003 0.05319797691014 0.0077777777777574 0
          0.05319797691014 0.0077777777777574 0.00015 0.05319797691014 0.0077777777777574 0.0003
          0.05319797691014 0.0097222222222011 0 0.05319797691014 0.0097222222222011 0.00015
          0.05319797691014 0.0097222222222011 0.0003 0.05319797691014 0.011666666666651 0
          0.05319797691014 0.011666666666651 0.00015 0.05319797691014 0.011666666666651 0.0003
          0.05319797691014 0.0136111111111 0 0.05319797691014 0.0136111111111 0.00015
          0.05319797691014 0.0136111111111 0.0003 0.05319797691014 0.015555555555549 0
          0.05319797691014 0.015555555555549 0.00015 0.05319797691014 0.015555555555549 0.0003
          0.05319797691014 0.0175 0 0.05319797691014 0.0175 0.00015
          0.05319797691014 0.0175 0.0003 0.054309088021254 0 0
          0.054309088021254 0.0019444444444413 0 0.054309088021254 0 0.00015
          0.054309088021254 0.0019444444444413 0.00015 0.054309088021254 0 0.0003
          0.054309088021254 0.0019444444444413 0.0003 0.054309088021254 0.0038888888888803 0
          0.054309088021254 0.0038888888888803 0.00015 0.054309088021254 0.0038888888888803 0.0003
          0.054309088021254 0.0058333333333189 0 0.054309088021254 0.0058333333333189 0.00015
          0.054309088021254 0.0058333333333189 0.0003 0.054309088021254 0.0077777777777574 0
          0.054309088021254 0.0077777777777574 0.00015 0.054309088021254 0.0077777777777574 0.0003
          0.054309088021254 0.0097222222222011 0 0.054309088021254 0.0097222222222011 0.00015
          0.054309088021254 0.0097222222222011 0.0003 0.054309088021254 0.011666666666651 0
          0.054309088021254 0.011666666666651 0.00015 0.054309088021254 0.011666666666651 0.0003
          0.054309088021254 0.0136111111111 0 0.054309088021254 0.0136111111111 0.00015
          0.054309088021254 0.0136111111111 0.0003 0.054309088021254 0.015555555555549 0
          0.054309088021254 0.015555555555549 0.00015 0.054309088021254 0.015555555555549 0.0003
          0.054309088021254 0.0175 0 0.054309088021254 0.0175 0.00015
          0.054309088021254 0.0175 0.0003
          <InformationKey name="L2_NORM_RANGE" location="vtkDataArray" length="2">
            <Value index="0">
              0.019949534491
            </Value>
            <Value index="1">
              0.057059767277
            </Value>
          </InformationKey>
        </DataArray>
      </Points>
      <Cells>
        <DataArray type="Int64" Name="connectivity" format="ascii" RangeMin="0" RangeMax="818">
          0 1 2 3 4 5
          6 7 4 5 6 7
          8 9 10 11 12 13
          14 15 16 17 18 19
          16 17 18 19 20 21
          22 23 24 0 3 25
          26 4 7 27 26 4
          7 27 28 8 11 29
          30 31 32 14 33 34
          35 18 33 34 35 18
          36 37 38 22 39 40
          41 42 43 44 45 46
          43 44 45 46 47 48
          49 50 51 52 53 54
          55 56 57 58 55 56
          57 58 59 60 61 62
          13 63 64 65 17 66
          67 68 17 66 67 68
          21 69 70 71 0 24
          32 72 4 26 35 73
          4 26 35 73 8 28
          38 74 24 15 14 32
          26 19 18 35 26 19
          18 35 28 23 22 38
          13 65 30 14 17 68
          33 18 17 68 33 18
          21 71 36 22 93 94
          95 96 97 98 99 100
          97 98 99 100 101 102
          103 104 72 32 31 81
          73 35 34 83 73 35
          34 83 74 38 37 85
          53 40 39 54 57 44
          43 58 57 44 43 58
          61 48 47 62 31 30
          111 82 34 33 112 84
          34 33 112 84 37 36
          113 86 12 15 114 115
          16 19 116 117 16 19
          116 117 20 23 118 119
          120 121 122 123 124 125
          126 127 124 125 126 127
          128 129 130 131 64 76
          75 65 67 78 77 68
          67 78 77 68 70 80
          79 71 132 133 54 39
          134 135 58 43 134 135
          58 43 136 137 62 47
          53 141 41 40 57 142
          45 44 57 142 45 44
          61 143 49 48 111 30
          65 75 112 33 68 77
          112 33 68 77 113 36
          71 79 54 150 151 51
          58 152 153 55 58 152
          153 55 62 154 155 59
          156 122 121 157 158 126
          125 159 158 126 125 159
          160 130 129 161 162 88
          108 138 163 90 109 139
          163 90 109 139 164 92
          110 140 168 87 88 162
          169 89 90 163 169 89
          90 163 170 91 92 164
          121 165 171 157 125 166
          172 159 125 166 172 159
          129 167 173 161 132 39
          42 183 134 43 46 184
          134 43 46 184 136 47
          50 185 186 96 95 187
          188 100 99 189 188 100
          99 189 190 104 103 191
          192 193 122 156 194 195
          126 158 194 195 126 158
          196 197 130 160 183 42
          96 186 184 46 100 188
          184 46 100 188 185 50
          104 190 151 150 198 199
          153 152 200 201 153 152
          200 201 155 154 202 203
          174 145 144 204 175 147
          146 205 175 147 146 205
          176 149 148 206 193 192
          95 204 195 194 99 205
          195 194 99 205 197 196
          103 206 123 122 193 210
          127 126 195 211 127 126
          195 211 131 130 197 212
          93 96 42 41 97 100
          46 45 97 100 46 45
          101 104 50 49 213 214
          87 168 215 216 89 169
          215 216 89 169 217 218
          91 170 178 219 220 177
          180 221 222 179 180 221
          222 179 182 223 224 181
          225 141 226 227 228 142
          229 230 228 142 229 230
          231 143 232 233 120 105
          165 121 124 106 166 125
          124 106 166 125 128 107
          167 129 210 193 204 144
          211 195 205 146 211 195
          205 146 212 197 206 148
          219 227 234 220 221 230
          235 222 221 230 235 222
          223 233 236 224 94 174
          204 95 98 175 205 99
          98 175 205 99 102 176
          206 103 192 156 237 238
          194 158 239 240 194 158
          239 240 196 160 241 242
          243 2 1 244 245 6
          5 246 245 6 5 246
          247 10 9 248 227 226
          249 234 230 229 250 235
          230 229 250 235 233 232
          251 236 238 187 95 192
          240 189 99 194 240 189
          99 194 242 191 103 196
          252 207 87 214 253 208
          89 216 253 208 89 216
          254 209 91 218 187 255
          115 186 189 256 117 188
          189 256 117 188 191 257
          119 190 94 162 138 174
          98 163 139 175 98 163
          139 175 102 164 140 176
          64 63 237 171 67 66
          239 172 67 66 239 172
          70 69 241 173 41 213
          168 93 45 215 169 97
          45 215 169 97 49 217
          170 101 2 198 133 3
          6 200 135 7 6 200
          135 7 10 202 137 11
          25 114 15 24 27 116
          19 26 27 116 19 26
          29 118 23 28 114 183
          186 115 116 184 188 117
          116 184 188 117 118 185
          190 119 51 151 258 259
          55 153 260 261 55 153
          260 261 59 155 262 263
          226 52 264 249 229 56
          265 250 229 56 265 250
          232 60 266 251 198 150
          54 133 200 152 58 135
          200 152 58 135 202 154
          62 137 64 171 165 76
          67 172 166 78 67 172
          166 78 70 173 167 80
          52 51 259 264 56 55
          261 265 56 55 261 265
          60 59 263 266 171 237
          156 157 172 239 158 159
          172 239 158 159 173 241
          160 161 252 214 213 225
          253 216 215 228 253 216
          215 228 254 218 217 231
          151 199 267 258 153 201
          268 260 153 201 268 260
          155 203 269 262 63 13
          12 270 66 17 16 271
          66 17 16 271 69 21
          20 272 270 255 187 238
          271 256 189 240 271 256
          189 240 272 257 191 242
          199 198 2 243 201 200
          6 245 201 200 6 245
          203 202 10 247 225 213
          41 141 228 215 45 142
          228 215 45 142 231 217
          49 143 52 226 141 53
          56 229 142 57 56 229
          142 57 60 232 143 61
          25 132 183 114 27 134
          184 116 27 134 184 116
          29 136 185 118 252 225
          227 219 253 228 230 221
          253 228 230 221 254 231
          233 223 219 178 207 252
          221 180 208 253 221 180
          208 253 223 182 209 254
          25 3 133 132 27 7
          135 134 27 7 135 134
          29 11 137 136 93 168
          162 94 97 169 163 98
          97 169 163 98 101 170
          164 102 270 12 115 255
          271 16 117 256 271 16
          117 256 272 20 119 257
          199 243 273 267 201 245
          274 268 201 245 274 268
          203 247 275 269 63 270
          238 237 66 271 240 239
          66 271 240 239 69 272
          242 241 243 244 276 273
          245 246 277 274 245 246
          277 274 247 248 278 275
          276 244 1 279 277 246
          5 280 277 246 5 280
          278 248 9 281 285 72
          81 282 286 73 83 283
          286 73 83 283 287 74
          85 284 288 0 72 285
          289 4 73 286 289 4
          73 286 290 8 74 287
          291 1 0 288 292 5
          4 289 292 5 4 289
          293 9 8 290 294 279
          1 291 295 280 5 292
          295 280 5 292 296 281
          9 293 303 297 298 304
          305 299 300 306 305 299
          300 306 307 301 302 308
          309 303 304 310 311 305
          306 312 311 305 306 312
          313 307 308 314 315 309
          310 316 317 311 312 318
          317 311 312 318 319 313
          314 320 321 315 316 322
          323 317 318 324 323 317
          318 324 325 319 320 326
          327 321 322 328 329 323
          324 330 329 323 324 330
          331 325 326 332 333 327
          328 334 335 329 330 336
          335 329 330 336 337 331
          332 338 339 333 334 340
          341 335 336 342 341 335
          336 342 343 337 338 344
          348 345 297 303 349 346
          299 305 349 346 299 305
          350 347 301 307 351 348
          303 309 352 349 305 311
          352 349 305 311 353 350
          307 313 354 351 309 315
          355 352 311 317 355 352
          311 317 356 353 313 319
          357 354 315 321 358 355
          317 323 358 355 317 323
          359 356 319 325 360 357
          321 327 361 358 323 329
          361 358 323 329 362 359
          325 331 363 360 327 333
          364 361 329 335 364 361
          329 335 365 362 331 337
          366 363 333 339 367 364
          335 341 367 364 335 341
          368 365 337 343 372 369
          345 348 373 370 346 349
          373 370 346 349 374 371
          347 350 375 372 348 351
          376 373 349 352 376 373
          349 352 377 374 350 353
          378 375 351 354 379 376
          352 355 379 376 352 355
          380 377 353 356 381 378
          354 357 382 379 355 358
          382 379 355 358 383 380
          356 359 384 381 357 360
          385 382 358 361 385 382
          358 361 386 383 359 362
          387 384 360 363 388 385
          361 364 388 385 361 364
          389 386 362 365 390 387
          363 366 391 388 364 367
          391 388 364 367 392 389
          365 368 396 393 369 372
          397 394 370 373 397 394
          370 373 398 395 371 374
          399 396 372 375 400 397
          373 376 400 397 373 376
          401 398 374 377 402 399
          375 378 403 400 376 379
          403 400 376 379 404 401
          377 380 405 402 378 381
          406 403 379 382 406 403
          379 382 407 404 380 383
          408 405 381 384 409 406
          382 385 409 406 382 385
          410 407 383 386 411 408
          384 387 412 409 385 388
          412 409 385 388 413 410
          386 389 414 411 387 390
          415 412 388 391 415 412
          388 391 416 413 389 392
          420 417 393 396 421 418
          394 397 421 418 394 397
          422 419 395 398 423 420
          396 399 424 421 397 400
          424 421 397 400 425 422
          398 401 426 423 399 402
          427 424 400 403 427 424
          400 403 428 425 401 404
          429 426 402 405 430 427
          403 406 430 427 403 406
          431 428 404 407 432 429
          405 408 433 430 406 409
          433 430 406 409 434 431
          407 410 435 432 408 411
          436 433 409 412 436 433
          409 412 437 434 410 413
          438 435 411 414 439 436
          412 415 439 436 412 415
          440 437 413 416 447 444
          417 420 448 445 418 421
          448 445 418 421 449 446
          419 422 450 447 420 423
          451 448 421 424 451 448
          421 424 452 449 422 425
          453 450 423 426 454 451
          424 427 454 451 424 427
          455 452 425 428 456 453
          426 429 457 454 427 430
          457 454 427 430 458 455
          428 431 459 456 429 432
          460 457 430 433 460 457
          430 433 461 458 431 434
          462 459 432 435 463 460
          433 436 463 460 433 436
          464 461 434 437 465 462
          435 438 466 463 436 439
          466 463 436 439 467 464
          437 440 471 468 441 444
          472 469 442 445 472 469
          442 445 473 470 443 446
          474 471 444 447 475 472
          445 448 475 472 445 448
          476 473 446 449 477 474
          447 450 478 475 448 451
          478 475 448 451 479 476
          449 452 480 477 450 453
          481 478 451 454 481 478
          451 454 482 479 452 455
          483 480 453 456 484 481
          454 457 484 481 454 457
          485 482 455 458 486 483
          456 459 487 484 457 460
          487 484 457 460 488 485
          458 461 489 486 459 462
          490 487 460 463 490 487
          460 463 491 488 461 464
          492 489 462 465 493 490
          463 466 493 490 463 466
          494 491 464 467 498 495
          468 471 499 496 469 472
          499 496 469 472 500 497
          470 473 501 498 471 474
          502 499 472 475 502 499
          472 475 503 500 473 476
          504 501 474 477 505 502
          475 478 505 502 475 478
          506 503 476 479 507 504
          477 480 508 505 478 481
          508 505 478 481 509 506
          479 482 510 507 480 483
          511 508 481 484 511 508
          481 484 512 509 482 485
          513 510 483 486 514 511
          484 487 514 511 484 487
          515 512 485 488 516 513
          486 489 517 514 487 490
          517 514 487 490 518 515
          488 491 519 516 489 492
          520 517 490 493 520 517
          490 493 521 518 491 494
          525 522 495 498 526 523
          496 499 526 523 496 499
          527 524 497 500 528 525
          498 501 529 526 499 502
          529 526 499 502 530 527
          500 503 531 528 501 504
          532 529 502 505 532 529
          502 505 533 530 503 506
          534 531 504 507 535 532
          505 508 535 532 505 508
          536 533 506 509 537 534
          507 510 538 535 508 511
          538 535 508 511 539 536
          509 512 540 537 510 513
          541 538 511 514 541 538
          511 514 542 539 512 515
          543 540 513 516 544 541
          514 517 544 541 514 517
          545 542 515 518 546 543
          516 519 547 544 517 520
          547 544 517 520 548 545
          518 521 340 549 550 339
          342 551 552 341 342 551
          552 341 344 553 554 343
          339 550 555 366 341 552
          556 367 341 552 556 367
          343 554 557 368 366 555
          558 390 367 556 559 391
          367 556 559 391 368 557
          560 392 390 558 561 414
          391 559 562 415 391 559
          562 415 392 560 563 416
          414 561 564 438 415 562
          565 439 415 562 565 439
          416 563 566 440 438 564
          567 465 439 565 568 466
          439 565 568 466 440 566
          569 467 465 567 570 492
          466 568 571 493 466 568
          571 493 467 569 572 494
          492 570 573 519 493 571
          574 520 493 571 574 520
          494 572 575 521 519 573
          576 546 520 574 577 547
          520 574 577 547 521 575
          578 548 549 579 580 550
          551 581 582 552 551 581
          582 552 553 583 584 554
          550 580 585 555 552 582
          586 556 552 582 586 556
          554 584 587 557 555 585
          588 558 556 586 589 559
          556 586 589 559 557 587
          590 560 558 588 591 561
          559 589 592 562 559 589
          592 562 560 590 593 563
          561 591 594 564 562 592
          595 565 562 592 595 565
          563 593 596 566 564 594
          597 567 565 595 598 568
          565 595 598 568 566 596
          599 569 567 597 600 570
          568 598 601 571 568 598
          601 571 569 599 602 572
          570 600 603 573 571 601
          604 574 571 601 604 574
          572 602 605 575 573 603
          606 576 574 604 607 577
          574 604 607 577 575 605
          608 578 579 609 610 580
          581 611 612 582 581 611
          612 582 583 613 614 584
          580 610 615 585 582 612
          616 586 582 612 616 586
          584 614 617 587 585 615
          618 588 586 616 619 589
          586 616 619 589 587 617
          620 590 588 618 621 591
          589 619 622 592 589 619
          622 592 590 620 623 593
          591 621 624 594 592 622
          625 595 592 622 625 595
          593 623 626 596 594 624
          627 597 595 625 628 598
          595 625 628 598 596 626
          629 599 597 627 630 600
          598 628 631 601 598 628
          631 601 599 629 632 602
          600 630 633 603 601 631
          634 604 601 631 634 604
          602 632 635 605 603 633
          636 606 604 634 637 607
          604 634 637 607 605 635
          638 608 609 639 640 610
          611 641 642 612 611 641
          642 612 613 643 644 614
          610 640 645 615 612 642
          646 616 612 642 646 616
          614 644 647 617 615 645
          648 618 616 646 649 619
          616 646 649 619 617 647
          650 620 618 648 651 621
          619 649 652 622 619 649
          652 622 620 650 653 623
          621 651 654 624 622 652
          655 625 622 652 655 625
          623 653 656 626 624 654
          657 627 625 655 658 628
          625 655 658 628 626 656
          659 629 627 657 660 630
          628 658 661 631 628 658
          661 631 629 659 662 632
          630 660 663 633 631 661
          664 634 631 661 664 634
          632 662 665 635 633 663
          666 636 634 664 667 637
          634 664 667 637 635 665
          668 638 639 669 670 640
          641 671 672 642 641 671
          672 642 643 673 674 644
          640 670 675 645 642 672
          676 646 642 672 676 646
          644 674 677 647 645 675
          678 648 646 676 679 649
          646 676 679 649 647 677
          680 650 648 678 681 651
          649 679 682 652 649 679
          682 652 650 680 683 653
          651 681 684 654 652 682
          685 655 652 682 685 655
          653 683 686 656 654 684
          687 657 655 685 688 658
          655 685 688 658 656 686
          689 659 657 687 690 660
          658 688 691 661 658 688
          691 661 659 689 692 662
          660 690 693 663 661 691
          694 664 661 691 694 664
          662 692 695 665 663 693
          696 666 664 694 697 667
          664 694 697 667 665 695
          698 668 669 699 700 670
          671 701 702 672 671 701
          702 672 673 703 704 674
          670 700 705 675 672 702
          706 676 672 702 706 676
          674 704 707 677 675 705
          708 678 676 706 709 679
          676 706 709 679 677 707
          710 680 678 708 711 681
          679 709 712 682 679 709
          712 682 680 710 713 683
          681 711 714 684 682 712
          715 685 682 712 715 685
          683 713 716 686 684 714
          717 687 685 715 718 688
          685 715 718 688 686 716
          719 689 687 717 720 690
          688 718 721 691 688 718
          721 691 689 719 722 692
          690 720 723 693 691 721
          724 694 691 721 724 694
          692 722 725 695 693 723
          726 696 694 724 727 697
          694 724 727 697 695 725
          728 698 699 729 730 700
          701 731 732 702 701 731
          732 702 703 733 734 704
          700 730 735 705 702 732
          736 706 702 732 736 706
          704 734 737 707 705 735
          738 708 706 736 739 709
          706 736 739 709 707 737
          740 710 708 738 741 711
          709 739 742 712 709 739
          742 712 710 740 743 713
          711 741 744 714 712 742
          745 715 712 742 745 715
          713 743 746 716 714 744
          747 717 715 745 748 718
          715 745 748 718 716 746
          749 719 717 747 750 720
          718 748 751 721 718 748
          751 721 719 749 752 722
          720 750 753 723 721 751
          754 724 721 751 754 724
          722 752 755 725 723 753
          756 726 724 754 757 727
          724 754 757 727 725 755
          758 728 729 759 760 730
          731 761 762 732 731 761
          762 732 733 763 764 734
          730 760 765 735 732 762
          766 736 732 762 766 736
          734 764 767 737 735 765
          768 738 736 766 769 739
          736 766 769 739 737 767
          770 740 738 768 771 741
          739 769 772 742 739 769
          772 742 740 770 773 743
          741 771 774 744 742 772
          775 745 742 772 775 745
          743 773 776 746 744 774
          777 747 745 775 778 748
          745 775 778 748 746 776
          779 749 747 777 780 750
          748 778 781 751 748 778
          781 751 749 779 782 752
          750 780 783 753 751 781
          784 754 751 781 784 754
          752 782 785 755 753 783
          786 756 754 784 787 757
          754 784 787 757 755 785
          788 758 759 789 790 760
          761 791 792 762 761 791
          792 762 763 793 794 764
          760 790 795 765 762 792
          796 766 762 792 796 766
          764 794 797 767 765 795
          798 768 766 796 799 769
          766 796 799 769 767 797
          800 770 768 798 801 771
          769 799 802 772 769 799
          802 772 770 800 803 773
          771 801 804 774 772 802
          805 775 772 802 805 775
          773 803 806 776 774 804
          807 777 775 805 808 778
          775 805 808 778 776 806
          809 779 777 807 810 780
          778 808 811 781 778 808
          811 781 779 809 812 782
          780 810 813 783 781 811
          814 784 781 811 814 784
          782 812 815 785 783 813
          816 786 784 814 817 787
          784 814 817 787 785 815
          818 788
        </DataArray>
        <DataArray type="Int64" Name="offsets" format="ascii" RangeMin="8" RangeMax="3632">
          8 16 24 32 40 48
          56 64 72 80 88 96
          104 112 120 128 136 144
          152 160 168 176 184 192
          200 208 216 224 232 240
          248 256 264 272 280 288
          296 304 312 320 328 336
          344 352 360 368 376 384
          392 400 408 416 424 432
          440 448 456 464 472 480
          488 496 504 512 520 528
          536 544 552 560 568 576
          584 592 600 608 616 624
          632 640 648 656 664 672
          680 688 696 704 712 720
          728 736 744 752 760 768
          776 784 792 800 808 816
          824 832 840 848 856 864
          872 880 888 896 904 912
          920 928 936 944 952 960
          968 976 984 992 1000 1008
          1016 1024 1032 1040 1048 1056
          1064 1072 1080 1088 1096 1104
          1112 1120 1128 1136 1144 1152
          1160 1168 1176 1184 1192 1200
          1208 1216 1224 1232 1240 1248
          1256 1264 1272 1280 1288 1296
          1304 1312 1320 1328 1336 1344
          1352 1360 1368 1376 1384 1392
          1400 1408 1416 1424 1432 1440
          1448 1456 1464 1472 1480 1488
          1496 1504 1512 1520 1528 1536
          1544 1552 1560 1568 1576 1584
          1592 1600 1608 1616 1624 1632
          1640 1648 1656 1664 1672 1680
          1688 1696 1704 1712 1720 1728
          1736 1744 1752 1760 1768 1776
          1784 1792 1800 1808 1816 1824
          1832 1840 1848 1856 1864 1872
          1880 1888 1896 1904 1912 1920
          1928 1936 1944 1952 1960 1968
          1976 1984 1992 2000 2008 2016
          2024 2032 2040 2048 2056 2064
          2072 2080 2088 2096 2104 2112
          2120 2128 2136 2144 2152 2160
          2168 2176 2184 2192 2200 2208
          2216 2224 2232 2240 2248 2256
          2264 2272 2280 2288 2296 2304
          2312 2320 2328 2336 2344 2352
          2360 2368 2376 2384 2392 2400
          2408 2416 2424 2432 2440 2448
          2456 2464 2472 2480 2488 2496
          2504 2512 2520 2528 2536 2544
          2552 2560 2568 2576 2584 2592
          2600 2608 2616 2624 2632 2640
          2648 2656 2664 2672 2680 2688
          2696 2704 2712 2720 2728 2736
          2744 2752 2760 2768 2776 2784
          2792 2800 2808 2816 2824 2832
          2840 2848 2856 2864 2872 2880
          2888 2896 2904 2912 2920 2928
          2936 2944 2952 2960 2968 2976
          2984 2992 3000 3008 3016 3024
          3032 3040 3048 3056 3064 3072
          3080 3088 3096 3104 3112 3120
          3128 3136 3144 3152 3160 3168
          3176 3184 3192 3200 3208 3216
          3224 3232 3240 3248 3256 3264
          3272 3280 3288 3296 3304 3312
          3320 3328 3336 3344 3352 3360
          3368 3376 3384 3392 3400 3408
          3416 3424 3432 3440 3448 3456
          3464 3472 3480 3488 3496 3504
          3512 3520 3528 3536 3544 3552
          3560 3568 3576 3584 3592 3600
          3608 3616 3624 3632
        </DataArray>
        <DataArray type="UInt8" Name="types" format="ascii" RangeMin="12" RangeMax="12">
          12 12 12 12 12 12
          12 12 12 12 12 12
          12 12 12 12 12 12
          12 12 12 12 12 12
          12 12 12 12 12 12
          12 12 12 12 12 12
          12 12 12 12 12 12
          12 12 12 12 12 12
          12 12 12 12 12 12
          12 12 12 12 12 12
          12 12 12 12 12 12
          12 12 12 12 12 12
          12 12 12 12 12 12
          12 12 12 12 12 12
          12 12 12 12 12 12
          12 12 12 12 12 12
          12 12 12 12 12 12
          12 12 12 12 12 12
          12 12 12 12 12 12
          12 12 12 12 12 12
          12 12 12 12 12 12
          12 12 12 12 12 12
          12 12 12 12 12 12
          12 12 12 12 12 12
          12 12 12 12 12 12
          12 12 12 12 12 12
          12 12 12 12 12 12
          12 12 12 12 12 12
          12 12 12 12 12 12
          12 12 12 12 12 12
          12 12 12 12 12 12
          12 12 12 12 12 12
          12 12 12 12 12 12
          12 12 12 12 12 12
          12 12 12 12 12 12
          12 12 12 12 12 12
          12 12 12 12 12 12
          12 12 12 12 12 12
          12 12 12 12 12 12
          12 12 12 12 12 12
          12 12 12 12 12 12
          12 12 12 12 12 12
          12 12 12 12 12 12
          12 12 12 12 12 12
          12 12 12 12 12 12
          12 12 12 12 12 12
          12 12 12 12 12 12
          12 12 12 12 12 12
          12 12 12 12 12 12
          12 12 12 12 12 12
          12 12 12 12 12 12
          12 12 12 12 12 12
          12 12 12 12 12 12
          12 12 12 12 12 12
          12 12 12 12 12 12
          12 12 12 12 12 12
          12 12 12 12 12 12
          12 12 12 12 12 12
          12 12 12 12 12 12
          12 12 12 12 12 12
          12 12 12 12 12 12
          12 12 12 12 12 12
          12 12 12 12 12 12
          12 12 12 12 12 12
          12 12 12 12 12 12
          12 12 12 12 12 12
          12 12 12 12 12 12
          12 12 12 12 12 12
          12 12 12 12 12 12
          12 12 12 12 12 12
          12 12 12 12 12 12
          12 12 12 12 12 12
          12 12 12 12 12 12
          12 12 12 12 12 12
          12 12 12 12 12 12
          12 12 12 12
        </DataArray>
      </Cells>
    </Piece>
  </UnstructuredGrid>
</VTKFile>
