<?xml version="1.0"?>
<VTKFile type="UnstructuredGrid" version="0.1" byte_order="LittleEndian" header_type="UInt32" compressor="vtkZLibDataCompressor">
  <UnstructuredGrid>
    <Piece NumberOfPoints="789" NumberOfCells="452">
      <PointData>
        <DataArray type="Int32" Name="libmesh_node_id" format="ascii" RangeMin="0" RangeMax="1901">
          0 1 2 3 4 5
          6 7 8 9 10 11
          12 13 14 15 16 17
          18 19 20 21 22 23
          24 25 26 27 28 29
          30 31 32 33 34 35
          36 37 38 39 40 41
          42 43 44 45 46 47
          48 49 50 51 52 53
          54 55 56 57 58 59
          60 61 62 63 64 65
          66 67 68 69 70 71
          72 73 74 75 76 77
          78 79 80 81 82 83
          84 85 86 87 88 89
          90 91 92 93 94 95
          96 97 98 99 100 101
          102 103 104 105 106 107
          108 109 110 111 112 113
          114 115 116 117 118 119
          180 181 182 183 184 185
          186 187 188 189 190 191
          192 193 194 195 196 197
          198 199 200 201 202 203
          204 205 206 207 208 209
          210 211 212 213 214 215
          216 217 218 219 220 221
          222 223 224 225 226 227
          228 229 230 231 232 233
          234 235 236 237 238 239
          270 271 272 273 274 275
          276 277 278 279 280 281
          282 283 284 285 286 287
          288 289 290 291 292 293
          294 295 296 297 298 299
          300 301 302 303 304 305
          306 307 308 309 310 311
          312 313 314 315 316 317
          318 319 320 321 322 323
          324 325 326 327 328 329
          360 361 362 363 364 365
          366 367 368 369 370 371
          372 373 374 375 376 377
          378 379 380 381 382 383
          384 385 386 387 388 389
          390 391 392 393 394 395
          396 397 398 399 400 401
          402 403 404 405 406 407
          408 409 410 411 412 413
          414 415 416 417 418 419
          450 451 452 453 454 455
          456 457 458 459 460 461
          462 463 464 465 466 467
          468 469 470 471 472 473
          474 475 476 477 478 479
          480 481 482 483 484 485
          486 487 488 489 490 491
          492 493 494 495 496 497
          498 499 500 501 502 503
          504 505 506 507 508 509
          540 541 542 543 544 545
          546 547 548 549 550 551
          552 553 554 555 556 557
          558 559 560 561 562 563
          564 565 566 567 568 569
          570 571 572 573 574 575
          576 577 578 579 580 581
          582 583 584 585 586 587
          588 589 590 591 592 593
          594 595 596 597 598 599
          630 631 632 633 634 635
          636 637 638 639 640 641
          642 643 644 645 646 647
          648 649 650 651 652 653
          654 655 656 657 658 659
          660 661 662 663 664 665
          666 667 668 669 670 671
          672 673 674 675 676 677
          678 679 680 681 682 683
          684 685 686 687 688 689
          720 721 722 723 724 725
          726 727 728 729 730 731
          732 733 734 735 736 737
          738 739 740 741 742 743
          744 745 746 747 748 749
          750 751 752 753 754 755
          756 757 758 759 760 761
          762 763 764 765 766 767
          768 769 770 771 772 773
          774 775 776 777 778 779
          810 811 812 813 814 815
          816 817 818 819 820 821
          822 823 824 825 826 827
          828 829 830 831 832 833
          834 835 836 837 838 839
          840 841 842 843 844 845
          846 847 848 849 850 851
          852 853 854 855 856 857
          858 859 860 861 862 863
          864 865 866 867 868 869
          870 871 872 873 874 875
          1272 1273 1274 1275 1276 1277
          1326 1327 1328 1353 1354 1355
          1380 1381 1382 1407 1408 1409
          1434 1435 1436 1677 1678 1679
          1704 1705 1706 1731 1732 1733
          1758 1759 1760 1785 1786 1787
          1788 1789 1790 1812 1813 1814
          1815 1816 1817 1839 1840 1841
          1842 1843 1844 1866 1867 1868
          1869 1870 1871 120 121 122
          123 124 125 240 241 242
          330 331 332 420 421 422
          510 511 512 600 601 602
          690 691 692 780 781 782
          783 784 785 876 786 877
          787 878 788 1278 1279 1280
          1281 1282 1283 1329 1330 1331
          1356 1357 1358 1383 1384 1385
          1410 1411 1412 1437 1438 1439
          1461 1462 1463 1464 1465 1466
          1488 1489 1490 1515 1516 1517
          1542 1543 1544 1569 1570 1571
          1596 1597 1598 1623 1624 1625
          1650 1651 1652 1680 1653 1681
          1654 1682 1655 1707 1708 1709
          1734 1735 1736 1761 1762 1763
          1791 1764 1792 1765 1793 1766
          1818 1819 1820 1845 1846 1847
          1872 1873 1874 1893 879 1894
          880 1895 881 1896 1897 1898
          1899 1900 1901
        </DataArray>
        <DataArray type="Float64" Name="resid_x" format="ascii" RangeMin="-16.86295270784916" RangeMax="4.400959197671261">
          -4.0151834016100665 -0.000006513672802022086 0.00005614678232213066 -8.089929059515892 -8.031742375060855 -0.0000440813732236478
          0.017718032140841444 -16.179149916878163 -4.020553501105181 0.00015791093551964508 0.04975808409202109 -8.088388696812142
          -0.00012430290455611726 -8.278606813501202 -0.32520908903491286 -16.122890642404535 -1.300153844962324 -7.698170524277786
          0.00016328079241478832 -8.26726552603295 -0.0936238034846113 -16.417526871706986 -0.3321353240895668 -8.111266858033437
          0.00048286811066056146 -8.261768801301226 0.002435992339626658 -16.53205686840105 0.012836686459664293 -8.276168701606085
          -0.0004300416825930853 -8.27668594619837 0.00005577921624855264 -16.552959558734337 0.0002873110988845795 -8.27505371348785
          0.00019561196624984234 -8.294307708559524 -0.00006964477068116537 -16.588066548721613 -0.00023933576710977178 -8.293778088702865
          0.0001654286448617981 -8.306915521252833 0.00033650890808267775 -16.614275096702904 0.00026459063775252645 -8.307661184497508
          0.00009327046629525881 -8.319134692136767 0.00008221453470547146 -16.63836541999225 0.000008040310460977196 -8.31924721342719
          0.00007614266221356303 -8.331459451394561 0.00005606852715089872 -16.662766845394273 -0.00008831919795504461 -8.331122759533265
          0.000022961751158234733 -8.343089914469754 0.00004342869322826459 -16.686206560329204 0.000027881401146068185 -8.343065975440574
          0.00005397631457437768 -8.355239491197143 0.00011768986014626392 -16.710543154246018 0.00004481114044097012 -8.355354538041667
          -0.000008588784617735712 -8.372027650671216 -0.00005425436304218323 -16.744015595546454 -0.00006319398394971643 -8.372009331079283
          0.00005336646590503591 -8.396985743734286 -0.000024532650151343205 -16.793843314273452 -0.00003859256174365555 -8.397247419080294
          0.0001835587066825184 -8.429367642537787 0.00020210398644238126 -16.858185090814708 0.00006611383566568207 -8.42872213091319
          -0.0007479604076969792 -8.434366702707472 -0.007507324977853891 -16.86295270784916 -0.015451641428222196 -8.435386102735432
          -0.01771475917321652 -8.395530763176106 -0.05737541387178169 -16.7899523731987 -0.07532567174192373 -8.399811442044793
          -0.03758658517451696 -8.373438983874143 -0.039847831295325875 -16.768142232967023 -0.004669693389389273 -8.398596330057893
          0.00010478368494482027 -8.356483243032464 0.00009929553249943268 -16.71786217837019 0.000053876754630977075 -8.357106600124474
          0.00006659593273816711 -8.308203567539138 2.81276987479373e-7 -16.632233955912877 -0.000004447669335050364 -8.316355276335434
          -0.00015300844309162898 0.0005916116522035608 0.0002341351082248977 -0.01607644368644845 0.00041524364719336404 -0.047244982433765514
          0.00018759924076050538 0.20300788445705464 1.4126392633245826 -0.00028850884090214635 0.060232011740795954 0.3770198977202197
          -0.0010932226084401364 -0.005221012023953975 -0.01682075838392727 -0.0006684640549163845 -0.0013638879598856235 -0.0004170589600249741
          0.0004939351849975182 0.000503598575584796 -0.0003260088813652473 -0.0005410778490846369 -0.00048070550722911776 0.00020341668707768434
          -0.0003210350770421755 -0.00021843786952313593 0.00015478063853002766 0.0004002901943733761 0.00043104871626731267 -0.000038690037984068226
          0.00008578492752153721 0.00022898581914887473 0.00012182956993012084 -0.0005242341594291489 -0.0008883902618563866 -0.00038790887295192533
          -0.00036659797628768587 -0.0007340295056543766 -0.0004499261617327832 -0.000010866435735223945 0.00007624118076154929 0.000006444095833835206
          -0.0000826822400137317 0.000016506356000256517 0.00009108858198647596 -0.008042435807140258 -0.009324740885873872 0.006715802462131215
          -0.05911890009340315 -0.0833749018474963 0.00845225584954612 -0.00828242323841799 -0.013628860543483334 -0.004604305978963552
          -0.00019086243891397459 -0.00021276873134912222 0.00004980167010870673 -0.0002871019826882204 -0.00027707045256697427 0.00005800684825008062
          0.00004724080706264289 -0.00034958275109264747 -0.00017859025727240407 0.00040032436561077134 -0.0003674046872408354 0.000689515305051458
          -0.0032341345607216354 0.0017226357233264267 0.003960235930284828 -0.001073491407018956 0.00041900961142449233 0.0008702505378002101
          -0.00015319202844832347 -0.0003124177704565412 -0.0001854008239163818 0.00011054025749324126 -0.00008893309263502402 -0.00005051991104831899
          -0.00005262717290488439 -0.00008140704507830776 -0.00006265014418183057 -0.00012535130335233902 0.00001960605769735224 0.000011302931500090097
          0.000006342528362957012 -0.000015072377049563102 -0.00003821794754887975 0.00009085149673193627 0.00011180468583127379 0.00009689252669975446
          -0.00004079953207636322 0.000054824955006971265 0.00006514649937372496 0.000011493357523484349 -0.00004017467015415832 -0.00006884859864353388
          0.000010444625416106135 -0.00005332242624689343 -0.00009597369774283493 -0.000037388218887990377 0.00003553699746383643 -0.0000014659250640036703
          -0.000020840353442075354 0.0000681663544419564 0.000036849760755686134 -0.000004056262918439302 0.000028708776453889584 0.0000043379854037794985
          -0.000009433365349309497 0.000052497574289489535 -0.000008583008022533534 -0.000018117945738360675 0.000057027857737423915 -0.00000118878476218498
          -0.000008162893386121084 0.0000393829748697172 0.00001358695078312877 -0.00003516163130257155 0.004287497022666287 0.015748786944386417
          0.00027694876710970817 0.00025044466288104417 0.0004802601616593627 -0.00017743513543866385 -0.000005883574371257083 -0.0007206983299843372
          -0.00008470467779275737 0.012100325979377935 0.06604602116432945 -0.00018127403297718558 0.0034742537854803857 0.017759221473576225
          -0.00009105388609498277 -0.00010855615892246817 -0.00011728628945295583 -0.000008219593036429274 -0.00008442954741116893 -0.00011545087951514432
          -0.00007370983016219412 -0.000046877802388323175 -0.00008225953937657238 -0.00006416109071860632 0.0000196622920700662 -0.00002933499730950473
          0.000008569436233507588 0.000008044520480865458 0.000005624629348943699 0.000030000723846512756 0.00007083751366465663 0.00007894018778742407
          -0.000007001177984911067 0.00004169937162501469 0.00004427639279924733 0.000002154637192219866 -0.0000184338290818431 -0.00005160137715076729
          -0.000006526479149115971 -0.000026497667765745803 -0.00007396136612403126 -0.000004445148191756232 0.000022036954089976746 -5.638512039496391e-7
          -0.0000021380164003659274 0.00003101399396410187 0.000018230354873693955 -0.000017433772504737988 0.00001730690286816383 -0.000014191815422393006
          0.000003083301436390684 0.00004765831524089492 -0.00002622575883837186 -0.000006841001779278599 0.0005933443989150078 0.0019317108885852363
          -0.000025538987224571486 0.013493643299223201 0.03826461151112159 -0.00005384524187768136 0.05952300891007223 0.08102419900136759
          0.0010119510231731965 0.001964433350677197 0.003062166944270306 0.02961899760856479 0.0004776673939623777 0.049037973973388826
          0.11182241476602872 0.37120649747005174 0.31243191271508675 0.029173110787980683 0.0669555042621699 0.028553960502702758
          -0.000036992958643011775 -0.00012467314649278194 -0.00016928581724240388 -0.00006668951645938392 -0.000027124019148061507 -0.00011231803455391542
          -0.00008389276165132742 0.00006631278433388843 -0.0000938550857876308 -0.000033985391137747456 0.000004685951447314096 -0.00003133093589369196
          0.00001601580891552601 0.000026709379353562213 0.000028718232208291283 0.000026293925952991515 0.000052574052892495615 0.00005878226043343204
          -0.000006485797072741661 0.0000341186434829055 0.00003355497647117289 -0.000008689323297339513 -0.000008971327531526185 -0.00004328981394685627
          7.710801801508183e-7 -0.000006411814734263999 -0.00004980108721319709 0.000013949144367586541 0.00002278537752165022 0.000006525469371965187
          0.0000042034584719630175 0.000024875480061581356 0.000011443430338431426 -0.000017355094880322497 0.000017888590703840634 -0.000022149325865861158
          -4.6522677266125356e-8 0.0003624875947050299 0.0010816762721912454 0.0000018883037640193834 0.01243112821934389 0.017532002618373177
          0.0011209812115158257 0.015594684489358634 -0.0292553113959535 0.01741297655408225 -0.04608826446177883 -0.09952711706775474
          -0.0018462375468457637 -0.003103560919390347 -0.004181082129255387 -0.036837757207930366 -0.0012864217650658816 -0.050252489878036766
          -0.125183482951301 -0.40439068799412325 -0.33666489878753225 -0.033696932475346664 -0.07723243474939512 -0.044493947661873534
          -0.0002490154836500835 -0.00010060064836636684 -0.00019000444403172168 -0.00011292621335456943 0.0000021999731796285005 -0.0001405807784324864
          -0.00004683546601835786 0.00015949175240681512 -0.00009098506041826937 -0.00005473651833476367 -0.00004309118189205208 -0.00005266317937913101
          0.00005453124558041367 0.00006628688644649827 0.000051950835143976803 0.00003279815747347925 0.00004110232266185676 0.00005522866154095141
          -0.000014860136828609427 0.000018581410994755743 0.00001944294397926427 -0.000020711911036030983 -0.000009351650879452222 -0.00004344713336834616
          0.00001355561014992901 0.00000874404659878536 -0.00002742053549820156 0.0000326778725963095 0.000022665393742293816 0.000020717359193511697
          0.000011772965444301065 0.000020251560714612538 0.0000152667623121161 -0.000014993841419119747 0.000021083400126187257 -0.00003636965525899427
          0.000012643229356790187 0.0049218857743316136 0.011774112818272897 0.00171522638549515 0.0015827132602481697 -0.014917293024444334
          -0.0003517718169341322 -0.024550674006909468 -0.011408278098318014 -0.013944206134851811 -0.011809811660266512 -0.0026758212671733617
          0.08951096033359818 0.3372212194514259 0.17231987038353713 0.12360786169745186 0.00026420767690371605 -0.0001516591610761786
          0.03796318353423267 0.00939027611249621 -0.00016131874247093947 -0.0003273489423936127 -0.00027017476382251715 -0.0001930089468489271
          -0.00030361076941787246 0.000012614524323772969 -0.00023493410898112188 -0.0001722746461929603 0.00016377842182002667 -0.00012353804310283323
          -0.00006901917452140083 0.000034218340240421696 -0.00016500520051998535 -0.000048721627958769886 -0.00002488077315021542 -0.00010708896059696826
          0.00010205934985663134 0.00009034230340798644 0.0000912030616575521 0.00004339829589294908 0.000010943196205204231 0.00005565298272802721
          -0.000028127234175556737 0.00000572401829757041 -0.000003070216211931154 -0.0000355489599384029 -0.000012353424744482311 -0.000046160407532802594
          0.000025681990980075398 0.000009892329162042302 -0.00001090984748941537 0.00005420602673211761 0.00003124579713720266 0.00003886008272324659
          0.000018483408436686943 0.000005321107671818481 0.000018412721892069328 -0.00001227949100357506 0.000033961579401164954 -0.0000752482527204279
          0.00043124120481063954 0.012539603072800887 0.02562158935040948 -0.0016823795350493498 -0.008608775797630308 0.003618698961106226
          -0.0022425714353833115 -0.0035363330722359976 -0.0025171975986353345 -0.002607009165432217 -0.0004993327720130836 -0.003963393373266122
          1.020046667050952 0.5584143368888479 1.2217672473313441 0.5916048372813383 0.10141977620533638 0.026954497781453757
          -0.004594267234599769 -0.026279639802305077 0.00003195451456861065 -0.00036411816315684575 -0.00012765114031498825 -0.00016069697003828765
          -0.00011987648581079924 0.0003980501828078076 0.000007059385151997333 -0.00021787096536218797 -0.000020124774403385004 -0.00015718125859809362
          -0.0003063317912594954 -0.00010693381053972217 -0.00031202425929155453 0.0000646846044878302 0.00009230579150187879 -0.00009302477949812982
          0.00010784313306100302 -0.000050809574203114494 0.00006495787492521998 0.00007574044286506876 0.00006102096418469927 0.00002378125063451364
          -0.0000686242211971333 -0.000015114145553773994 0.000001673681344627198 -0.000035836159529623046 -0.000040883246451350885 -0.00007072689481191219
          0.00002266070263612363 0.000026494949657340783 0.00001395294370176714 0.00007212490855756926 0.000021695904887764073 0.00006540657446763021
          0.00002231692641085914 0.00003964666847178222 0.000052721369786290495 0.002593720183732273 0.011715382993017442 0.010897469145167094
          0.008891780492507273 0.03337658941905275 0.034898632360346404 -0.000655634739247013 -0.0029660410341785237 -0.003254772474766021
          -0.0013268092036753387 -0.0017592139854869515 -0.003451315877348371 -0.0017046696604312572 -0.0014571527827147435 -0.005329412083290741
          -0.5270259597519908 -0.07484262251941276 0.1720427338441919 0.6122551733404249 0.1800892055459773 0.044415997727131895
          -0.03244146550302762 0.01582053633999081 -0.00010362334103941606 -0.00027669198340696255 0.00036948371165745897 -0.0007664201033472651
          -0.0003014953095883399 -0.0003485087866916814 -0.0005120417811905753 0.000011024543776549933 -0.00011835185835984419 -0.0004442389081553699
          -0.0002682723632814188 0.0003379473491076368 0.000042554031960406746 0.00006390931223521079 -0.0006662181368817244 0.00031893505658775467
          -0.00043813222792987716 -0.0003322211416607601 -0.0001365180355197282 -0.0004447049370783773 -0.00023121727122532576 -0.0005387531907876664
          -0.0004607397894895726 -0.0007402117894015348 -0.0005137254047982154 -0.0006536712136444578 -0.001341233513955764 -0.0004117687045805951
          -0.0007385418488805584 -0.0016635360256511689 -0.0002532990118755407 -0.00028123798059453975 0.0014218485782588886 0.002663791502634183
          0.027702958720840165 0.06773767614553261 0.049729809349421394 0.07766480474778437 0.1311405497944591 0.054949712983032306
          0.00040344490186949855 -0.030778462585791644 -0.06270191953778248 -0.0016316762393264739 -0.0033465526284297553 -0.008776145799733293
          -0.001318118797545953 -0.0021110990275623465 -0.0030842020761077116 0.0021207081166219055 -0.002843942798796739 -0.008443118832228258
          0.007495775073348643 -0.00366291982953193 -0.009912842962042312 0.0024640790657866063 0.002951652213154965 -0.006621057856526669
          -0.4996125194748018 -1.2910068808540633 -1.6561071935808442 -5.741567204901999 -0.3291232709462024 -2.577158138591801
          0.018893548768150303 0.014897573212229176 -0.0004938595198309415 -0.0008472706501621019 0.0006701119805470057 -0.0008860375269774678
          -0.0017669555648964774 -0.002297546997410471 -0.0018155953618803622 -0.0015546036528970575 -0.001340411841340483 -0.0010696562146437216
          -0.0017730800512749667 -0.0025449603678708854 -0.001923511842631953 -0.0766997818865387 -0.13901292876180626 -0.066798219066869
          -0.0065185627983215255 -0.014924713317865823 -0.015760964970287894 0.0032869897308871465 0.008647896243520137 -0.007725293479090567
          0.0024751639436169093 0.008625150581533791 -0.008100017822344263 -0.0003552309823549038 -0.004120209942929609 -0.012705282639773774
          0.00473203206221795 0.007226933813643477 -0.00418127177408989 0.0015454847143838712 -0.001753784663068636 -0.007361681192715075
          -0.0001460161233661772 -0.0012087472520461162 -0.006171813422725769 0.0013841221265593617 0.000899052867163963 -0.004983589464069738
          0.00029956712764089843 -0.0004596746783356309 -0.003964911982150987 0.0009793559591426693 0.0003522639523487747 -0.002739121493131158
          -0.0006965061456618571 -0.0019461973185777026 -0.00153540815446096 -0.00014707423521720386 -8.266970724913488 -0.0003882338955554232
          -16.59397933222552 -0.00021613455470603782 -8.320349051642573 -0.000648837398945723 -0.0007564308293774857 0.00035083200730934294
          -0.000287119653250123 0.030511999710063797 0.07568477579479538 0.031262101512151474 0.15200849919002568 0.07451653427061888
          -0.026870976587395567 -0.173695276568254 -0.1552951515392218 -0.005958753142777162 -0.00015383176879169014 -0.004580613966947311
          -0.0026661092190689573 0.006681858871975699 -0.005957591956854635 0.007479527332185043 0.006239712041612222 0.0005440327016907887
          0.0005827108307894235 0.002669585272254693 -0.005750937848018722 -0.00020777081421208266 -0.00013527777489663606 -0.0011055113550977325
          -0.0005667499398995801 -0.008645434238648164 -0.009868588258590272 -0.06627631329501327 0.8106676690577483 0.6495080084101836
          4.400959197671261 0.3428703440759584 2.1568301590130097 -0.004830666076616197 0.016271405758025992 0.01030257918766253
          -0.00029572568698554846 -0.0007693202005398803 0.0009707359564785634 0.0001142439428214459 -0.00143745311083876 0.0006980229593658294
          0.0011018058649554519 -0.00010346831269814061 -0.0004715850359886531 -0.00032835842606004917 -0.001909444828200435 -0.00026173123525552455
          -0.0003147937030165693 -0.00019177414182180996 0.00009503100015528787 0.00007880278543215269 -0.0004053683026867816 -0.00014654020772830734
          0.0009247218641412758 0.0015870894080656228 0.001191605838902987 0.0006442586318300414 0.0010936796917384584 0.0011849752172015116
          -0.00030311128636562046 -0.0004124500331315062 0.00012639091314170514 0.003330026660803398 0.005515055451230211 0.004316632293651423
          0.014317162261527017 0.020834638729390065 0.008637206201509429 0.0010467514631642416 0.0009745608967079988 -0.0034612946287371216
          -0.027966061911432583 -0.06608952720830885 -0.0533954178931042 0.0018380718885691039 -0.0004403890053330528 0.0032797823506491852
          0.00028771332391031024 -0.005289968183081584 -0.0043874795933964705 0.004166655825491361 0.00849942320510877 -0.0038808577196025595
          -0.001069707170266554 -0.004560257638022591 -0.007470266391731428 -0.007564312199752621 -0.019145146574366834 -0.012691406584083964
          0.00093364038752064 0.0011187451648337898 0.0015887235362512797 0.00039494121180894126 -0.007071537354667257 -0.013803894664755845
          -0.00017835543978605983 -0.0003798217386368208 -0.004310582715609357 -0.00023619247589223846 -0.0004651939059456822 -0.00197692066952726
          -0.0000985022330119989 -0.0001970063251555132 0.0006817416753897021 -0.00018854313105931553 0.0004761320929205226 -0.0012144509472897802
          0.0003761583085282183 0.00011434111359687193 -0.005269760583090033 -0.0014208910084256843 -0.0019837392857215974 0.00137618493190228
          -0.0009951606021090242 -0.002161044666602052 0.0027610887588966904
        </DataArray>
        <DataArray type="Float64" Name="resid_y" format="ascii" RangeMin="-0.9825619313137011" RangeMax="1.2525410574711728">
          -0.04787287477213436 -0.09013814294807783 0.00002703073956137475 -0.0001300965976219412 -0.10084723272676555 -0.1820132570135694
          -0.0041881481212923816 -0.0007155778783479276 -0.060378150486117436 -0.0683342574142211 -0.012448955774622072 -0.00023537265693998957
          -0.00013505768631284082 -0.00013932354745107775 0.010518843320027678 -0.00004432792407858821 0.03128520238493056 -0.0004574189130373673
          0.00029105767695418797 0.0004774814389070445 -0.0055296861789838345 -0.0008371661654798333 -0.026485754973715244 0.0004702346599803151
          -0.00016288284688176571 -0.0001591660437747014 0.002308131495813874 0.00005383651404058942 0.007833884967629219 0.0004820533799219859
          -0.00020040625676771145 0.0002334073176471982 -0.000015973169929899 0.0008497111587493153 -0.00004347789506111907 0.0004368026675355373
          0.00006092566167099564 0.0005196376185757426 0.00005190097306109753 0.0016297639227008456 0.0001966995480694768 0.0012015119316295328
          0.00022778691928919403 0.0003221388799552888 -0.00014963887862260578 0.0004324061719645361 -0.00011049742368251375 0.00019266195999318586
          -0.00009973759362574136 0.00022910521232476222 -0.000014787917362972525 0.0006783580793267643 0.00008150023864064021 0.0004826284879372103
          -0.00003821011869613311 0.00023390566672866486 -0.000021606456087619463 0.0008230226351441244 0.000002618054549638482 0.000564290198561565
          0.00013993733050145923 0.00007893640273718555 -0.000014252751921406404 0.00007683953571653579 -0.00004715541515561833 0.00002593856411911566
          -0.00009794966758280843 -0.00015000849765652025 -0.00003963679815194299 -0.0003151039459523067 0.00002967468781183563 -0.00010385706740619755
          0.00004283922423230224 0.00035648359254042417 0.00004438301263818417 0.0011132099335753876 0.00009557292718616328 0.0008068820783474415
          0.00018875165847882097 0.0007311950667035702 -0.000006327959359619939 0.0018894271457609718 0.0000450724716965778 0.0012157145880404147
          0.00003998205359941054 0.0004996212830484029 -0.00010947264297053727 0.0012960007187704792 -0.000002827458992119003 0.0008487821402087398
          -0.0052329423867035554 -0.0024566113362347736 -0.008995650343357253 -0.0044679595478055445 -0.0027187343307430653 -0.00216814466920056
          -0.0032888759929509334 -0.0027256587941563368 -0.004147782150813503 -0.0022302898501283114 -0.0022020242822457514 0.0006230349422930298
          0.008549166881243835 0.006584093502545161 0.013088934586240528 0.010300918547072518 0.004530738390063849 0.0037490254988260044
          0.00003445463927283926 0.00037110681076427815 -0.000018725749894019095 0.001003679755145804 0.00002365992460214364 0.0006724756950662499
          0.0005014362594653737 0.000589648088406277 0.000826667286118743 0.0013591610906922916 0.0003699251254465491 0.000770855210232485
          -0.08394314839151701 0.000053930533713608675 -0.17656736839502435 -0.005899985962361673 -0.07357318311933564 -0.01656668954276605
          -0.00023347322857664166 0.07039394076192278 0.22635664020469343 -0.0006112253960242481 -0.053503311230821575 -0.22601988491633523
          0.0003821016323975919 0.0009651247839348349 0.001675139210113169 0.0010745174516247763 0.0015398590135545023 0.0009378040186350696
          0.0010886445003851636 0.0016348597817769893 0.0008583664012242163 0.0011148247240292397 0.0017562610730403466 0.0008103821039382487
          0.000316360616475643 0.0005833624470417062 0.00044703225828079257 0.00025592533341547985 0.00023067235583803386 0.00021451981930734748
          0.00013661405698903867 0.00017349751539848246 0.00003254895891673798 0.0001862302475534594 0.0005364402246059372 0.00030488633382111385
          0.0010331137540392776 0.0015536101652598652 0.0009013360483759031 0.0012384020773651208 0.0017007014509908894 0.000977086629633861
          0.0007824326364732695 0.001091233688136399 0.000672888940594113 -0.0018837274186212782 -0.001209100291582707 0.004803342560468285
          0.00007504634612658101 -0.001788168697115712 -0.004933887099423849 0.003158011664607982 0.005137947387642346 0.0020087887949042996
          0.0006572048882180284 0.000940760225350841 0.0005450967115451059 0.0008295755256010617 0.0013880673994552326 0.0007377666837869515
          -0.09014409800663437 0.00030379923740558173 -0.17775596824007417 0.00027595801324872826 -0.09290424704454237 0.00011914592305385663
          -0.0000054955083675783944 -0.00028972527432485906 -0.00038213514962617953 -0.00007723275353821446 -0.0002942211665771244 -0.0006731650427998261
          0.00002203347196095759 -0.000005883535373032295 -0.00004504813650931666 2.221562913212738e-7 -0.00001898325721138086 0.00008410732615230995
          0.000221332607833951 0.000015383526456021895 0.00014361555936033554 0.00020075230640906327 0.00008919024511297446 0.00020210950507026926
          0.00018775616741794482 0.00007145178011037923 0.00024387259506201964 0.00015685390637607682 0.00001916672396729685 0.00011524875830829645
          -0.000007596617780700199 -9.897537789349542e-9 0.00002855000967837834 0.000040078479767231834 0.00006538541731928443 0.00012125290377418274
          0.0002602902922126324 0.000037215441158117146 0.00023891859816622257 0.0003338603113208771 0.000043241723009596056 0.00028962231030735947
          0.00024153334235438306 0.00004041674729497041 0.00026558618936751294 0.0002084995475391052 0.00003897721704284457 0.00023569169174797455
          0.0002017420901925457 0.000011470267266812384 0.00021738680769487623 0.00020474489493756826 0.00001555576107915152 0.00020025827832290816
          0.0002063971082551224 0.00003517853348303235 0.0001737974736377365 0.0005085499952246116 0.000020714283355066643 -0.002484699797440884
          -0.09053593784759445 -0.0003098762213694928 -0.1764234161228856 0.00012166445405943638 -0.0825358487399943 0.0001302120197409773
          -0.000485744110575545 0.0006726266299910827 0.0022227197944768677 -0.000006175287767744286 0.0009129700638400816 0.003605494843091174
          -0.00014124469334376652 0.0000306280161952964 -0.00008811217632777313 -0.00006576808796349837 0.000027378551708819032 0.0000090557356868734
          0.00017539928973352506 0.000043971450508911714 0.00014496607503061004 0.0002375116601046265 0.00005807253539706972 0.00023964289095233446
          0.00027182947556708345 0.00007506798971701131 0.0002648719880827301 0.00015886525768283102 0.00003151078179129338 0.0001495505003019093
          0.000037907131299017016 0.000018150389560350755 0.00008260337771224396 0.00008458141763707794 0.0000696304541595652 0.0001402457327186052
          0.00024094321815344016 0.00006221768192337523 0.0002298602372493505 0.0003131013545507669 0.00006050322742002373 0.0002842278706303228
          0.0002914504432421014 0.00004905740464914571 0.00029467441437693725 0.0002665317396608538 0.00004220344940145809 0.0002805251742004286
          0.00024322602771019441 0.000025711039357084742 0.00024935437209609723 0.00023526471627455248 -0.00009119835116123964 -0.0002116113727279184
          0.00022063503317031486 -0.001147159058252932 -0.0032739665993640477 0.0004883882965627598 -0.0031382252326059117 -0.004821489573108018
          -0.1030803631329894 -0.00026218641834542533 -0.19343086358875555 -0.016988239572907404 -0.0869227226308173 -0.017400536949027032
          -0.009531648836997787 -0.016165548521869563 -0.011158136404382832 0.010603714332584802 0.029440006433396178 0.023449098926247268
          -0.0001691357690385021 0.00005806742959530049 -0.00012523568501848596 -0.00011991609707633077 0.00002582733624308109 -0.000035227277792624495
          0.00012435250319732874 0.000027272512486582745 0.00012624965850283054 0.00025571628651952297 0.000055640978142760394 0.00024920024726396775
          0.000309080852346353 0.00006005803215634528 0.0002856756522393068 0.0001721495073847834 0.000037617169309799026 0.00017780270369336867
          0.00008125398411892512 0.000029934871075529973 0.00010992043002964677 0.0000951554435553309 0.00006698992059713665 0.00013991353064502637
          0.00020991921375008993 0.00007213533081069923 0.0002081712484726314 0.00029940586869758173 0.00006722376161990423 0.0002713553714570882
          0.00031942517901701467 0.000051624469159017305 0.00030748374868574263 0.00031282722238639565 0.00004435849841893935 0.0003101027924644201
          0.0002819172282192556 -0.000038258997492657265 -0.000002686028959628106 0.0002486144263195364 -0.0017583301340662605 -0.0021506926077573263
          -0.0000795840520394081 -0.0006460840116011557 -0.002997420102743717 -0.00020786260518235178 0.0012502078134743883 -0.0022590182399672976
          -0.13008746325248385 -0.00020740279164618847 -0.23240863754977317 -0.005804592569991718 -0.10441635251388567 -0.009610154628994533
          -0.011721563405385362 -0.023429316961014798 0.007146805137935461 0.009661189273803317 0.021817991684562554 0.011338000675345723
          0.000020826328693794235 0.00005035418783234415 -0.00011138844566455693 -0.00007602422996452057 0.00005576902349639992 0.0000027433528781671546
          0.00005479517457534361 0.000014550719744987894 0.00013027073611681858 0.00028605301322491214 0.000060510380907895234 0.000264057218775246
          0.0003079405597593149 0.00003810349342857691 0.0002997208186464699 0.00019395815033524874 0.0000439834989301377 0.0001961310386784411
          0.00011057299843491783 0.00004117598003477302 0.000122781897163797 0.00009701102074486517 0.00006508217968189886 0.00013382536081287671
          0.0001838341803713922 0.0000740628275181579 0.00018837168424132994 0.00028376572919670134 0.00007300904503272643 0.000259783743330258
          0.00033743868260249776 0.000050201644008679436 0.0003157459820658584 0.000349638659266939 0.000047711246169424015 0.00033666278602119404
          0.0003137085223944777 -0.0005624129726088251 -0.0011310509362105065 0.00023796529513427783 -0.0019161652625821896 -0.000809651892566432
          -0.0012434788526002492 0.0006269109932681705 0.0006035079005856647 -0.004080448116986178 -0.006268347613276312 -0.0014872436616370222
          -0.1731259110331445 -0.001399839608295067 -0.3197111833349207 0.005025538194026513 -0.17008011756939106 0.00012786676829509847
          0.011810157662782223 0.00332642103410594 -0.00011962886989385149 0.00009906899287164851 0.00005636845424747232 -0.00004519696642005071
          0.00021349519645763723 0.000013168813553483729 0.0000032451722186445375 0.000053890075118020325 0.00004217609488081121 0.00006839089217341651
          0.000021058353749766473 0.00006256007598182817 0.00019976727744893535 0.00030175571003397683 0.000032366924227339444 0.0003169683343611472
          0.00027901975829511955 0.00003585547544303347 0.0002902408996081768 0.0001969660012000017 0.000052887661146597265 0.0002051268861065561
          0.0001282850267132589 0.00004733078019010517 0.00012678349130198704 0.00010130365352844714 0.00006300323061880775 0.00012708481871221908
          0.00016483478901087312 0.00007814673278194045 0.00017445782075645178 0.00026799507877767886 0.00007113402902702431 0.0002507196071496534
          0.0003578203969955007 0.00007389521762592166 0.00033062264543175235 0.0003804845389296582 0.000046739876742460384 0.00035893117167198896
          0.0002684291440677236 -0.0018918962953610452 -0.0030089789540172496 0.00003679721703456901 0.001269939427978567 0.00433553228202177
          -0.00008166969244382746 0.000017441399424070192 -0.0005260038700752312 -0.0023251035864075694 -0.002888444043504662 -0.0005164389065709929
          -0.18429258417360003 0.1127019529117093 -0.40701435688931953 0.13277643776433679 -0.34745568250005493 0.0036602300041204405
          0.021710750241334655 0.004915964623577378 -0.00040013070816536864 0.00004202810600052384 -0.0000801555488971345 0.00005251252525088554
          0.00023926332230122735 -0.00008293399899451286 0.00003700450664359566 0.0001546138450865247 0.0001241763326391438 0.00008917635777936674
          0.00017536627424464754 0.0000852551051165086 0.0002887399388106608 0.00024225365601704407 -0.00002199013385819834 0.00033480947230185576
          0.00018102241640519448 0.00008470598098871476 0.00027523718015706744 0.0001511642374368953 0.000014831214570534823 0.00021477535154292016
          0.00014176534055438186 0.00005968050247182749 0.00011059741837576159 0.00009265927685603997 0.00006783449403321637 0.00012226953845173236
          0.00016668462225667008 0.00007258161559848403 0.00015824119420077692 0.00026484150509319127 0.0000881071123050442 0.00024677190270750576
          0.00037468440958814825 0.00007214690059387241 0.00033619188160785574 0.000043178044777075764 -0.002234535243126487 -0.0021170402904794328
          0.00048529160792698534 -0.0007524706008272819 -0.004202005004123682 0.0007061317928233057 0.003706436805799518 0.007576123312369926
          0.0007591347138459492 0.00015493689328394122 -0.00021238636806641953 0.00028856237969780013 -0.00016916751393453167 0.000770732597559276
          -0.26359221052776616 0.47254348533295837 -0.38256046954510137 0.9848503171329702 -0.5364770932128903 0.11277302089846507
          0.00783182322720654 -0.009733034869251714 0.0010663690971022058 -0.0005002893217878612 -0.0008811881812814115 0.0006105838514716827
          0.0002592075353852752 0.0006954291414897618 0.0010655564349236202 0.000309015982992919 0.00044837558131140265 0.0003282334179436769
          0.0004629107983782077 0.0008542286740815253 0.0006612631194940211 0.0006666581171244912 0.0012773278294447854 -0.0009999900742500567
          0.0006273880168444212 0.0013556000514975963 0.0007837720604955412 0.0013262652014374987 -0.0002787105419353175 0.00027190354338257894
          0.00008094405363243129 0.0005300125831947666 0.0004352201910494957 0.00004720032646313155 -0.0001070282866278971 0.00014061045240940095
          0.0007505864841344245 0.0007862413679899927 0.0004897810993174379 0.000991513072089667 -0.00011331869292766084 -0.0006613692121116288
          -0.011997955227619733 -0.02614062630755576 -0.014045007814202481 -0.005379262197297785 -0.012448460078028023 -0.002858224442787327
          0.020429559219721116 0.0421394124530301 0.020780609368910463 0.0021250266155692366 0.003979264985417563 0.0028992942936336696
          0.004304208322770009 0.006757203213322516 0.00272032101216102 0.008416855646468546 0.012466347391147603 0.0022099416853007536
          -0.00042994514779270965 0.002318503079825951 0.0017400991392790832 0.0007330707735897501 0.0019775745024038782 0.0024637879899168658
          -0.04352955354368093 -0.19626798146683855 -0.8367633232152886 -0.16074494525840066 -0.6374712113959862 1.1762647781565132
          0.020563078005526952 0.02145854239528025 0.00350918942019246 0.004124248325832636 -0.0026443818986234546 -0.00018393765516877547
          -0.0005685859563264728 0.001527305297323922 0.0005124624500720265 0.00011114424296165826 0.00013021924059597456 0.000004255814262665858
          0.0013135022732024826 0.0027509045052866443 0.001505226592413561 0.027675950098201563 0.043360215031714944 0.01890563544091961
          0.010085081504954685 0.020132549039131864 0.01167630817869314 0.004246630817641206 0.010222603231866523 0.007494703028984806
          0.0004894028204388556 -0.0013658711561296277 0.0002574936422038432 -0.0004020267057043281 -0.003032688634346692 -0.004476123832388046
          -0.0013419741404808727 -0.004594173232069343 -0.0049388261365357344 -0.001088707186170823 -0.002769017221507908 -0.0006108936628991257
          -0.002127233443480425 -0.005057792423286966 -0.0013827812648768978 0.0004004393100311976 0.00006415986099983506 0.0006357899279416657
          -0.0008502856102677314 -0.002273296128330271 -0.0003112979539941496 0.0031816535654601297 0.005326158090349975 0.001542175856564243
          0.0019652018733015697 0.0031455601719077575 0.0016966687366374161 0.0003915508021279518 0.000197356149704786 0.0007802171015439119
          0.000635423041948649 0.00046453109458025055 0.0004813880383996369 0.0007406320748360173 0.0011189735395163436 0.00047925357331599083
          0.0005347578914122117 -0.001554583953241817 -0.0034701405765627247 -0.002017084468827035 -0.009027954008581432 -0.004205552300152682
          0.002503230889258079 0.004181387884131166 0.0010223486172883378 -0.0015306577392011217 -0.004685849464569514 -0.003517233217536997
          -0.0022891459571238726 -0.0012874123573002327 0.0011759720107131777 0.0024798354683285284 0.0073490615299930395 0.0036209576418502754
          -0.00033835496115630637 -0.0015305731092989383 0.0023406237569131294 0.0021277166271385095 0.0002591844180683811 0.0040372481634518564
          0.0010089945769229391 0.0008768778295180635 0.0015684238488542501 0.0744357010074328 -0.0982071191349867 -0.9825619313137011
          -0.01568488497080378 -0.782151917312527 1.2525410574711728 0.04538223187095397 0.05790458243283525 0.01320149859980449
          0.00023393447098557507 0.0014628911366862118 0.0015386802122369647 0.0001692482376671467 0.0007152266964389475 0.000913402019834253
          0.0009658858201787301 0.00004243865678477121 -0.00017411325295965674 0.0004471532779213583 0.00026681686984700304 0.00017398132882512352
          0.0007174726618008054 -0.00008429466859249946 0.0025292667894463716 0.0005962219952786729 0.00010127997847719783 0.00045659477856657693
          0.0003279021533797166 0.00019852398569267238 0.00029009147023485726 0.0009825892297684324 0.0022917604659738466 0.0012106761789940634
          0.001017259308138535 0.00021331910907704255 0.0005658421730602159 -0.0019737086970701007 -0.004097361863039217 -0.004134919121685898
          0.0025521390111098996 0.0045690171783838995 0.004862583036735368 0.0015060156096181332 -0.001974424831927349 -0.004049544484344456
          -0.020318843844541468 -0.02846674814283845 -0.007173131291070889 0.0004775428322144615 0.0024741464191311013 -0.000752723161478841
          0.003413587545371244 0.00020235558760053896 0.002476427146730298 -0.000577173244302398 -0.0008247335253971366 0.002292197363218451
          -0.0019914675498144407 -0.00027038079611940713 0.0023448690380298842 -0.0027709100230759454 -0.00687646785842988 -0.0029359740332552953
          0.0004432976971567304 0.00021731210529454814 -0.0006529809994003655 -0.0014193688333377363 -0.0004573798396566575 0.00011283558871022503
          -0.0004299779530341774 -0.0015228911393406763 -0.00025467822107860805 0.0003111484939612996 -0.00023954974290152364 0.0006902454201972996
          0.003145203111899031 0.005025179651761136 0.002699254165914239 0.002814109800864495 0.0015418561387197105 0.0051780134538081946
          0.0021311148724452167 0.0017684139215313754 0.00006685567122510783 0.0015738601376190792 0.0029737739774146482 0.0020052413866861185
          0.001956928502453825 0.005784057876171811 0.004081760059894524
        </DataArray>
        <DataArray type="Float64" Name="resid_z" format="ascii" RangeMin="0" RangeMax="0">
          0 0 0 0 0 0
          0 0 0 0 0 0
          0 0 0 0 0 0
          0 0 0 0 0 0
          0 0 0 0 0 0
          0 0 0 0 0 0
          0 0 0 0 0 0
          0 0 0 0 0 0
          0 0 0 0 0 0
          0 0 0 0 0 0
          0 0 0 0 0 0
          0 0 0 0 0 0
          0 0 0 0 0 0
          0 0 0 0 0 0
          0 0 0 0 0 0
          0 0 0 0 0 0
          0 0 0 0 0 0
          0 0 0 0 0 0
          0 0 0 0 0 0
          0 0 0 0 0 0
          0 0 0 0 0 0
          0 0 0 0 0 0
          0 0 0 0 0 0
          0 0 0 0 0 0
          0 0 0 0 0 0
          0 0 0 0 0 0
          0 0 0 0 0 0
          0 0 0 0 0 0
          0 0 0 0 0 0
          0 0 0 0 0 0
          0 0 0 0 0 0
          0 0 0 0 0 0
          0 0 0 0 0 0
          0 0 0 0 0 0
          0 0 0 0 0 0
          0 0 0 0 0 0
          0 0 0 0 0 0
          0 0 0 0 0 0
          0 0 0 0 0 0
          0 0 0 0 0 0
          0 0 0 0 0 0
          0 0 0 0 0 0
          0 0 0 0 0 0
          0 0 0 0 0 0
          0 0 0 0 0 0
          0 0 0 0 0 0
          0 0 0 0 0 0
          0 0 0 0 0 0
          0 0 0 0 0 0
          0 0 0 0 0 0
          0 0 0 0 0 0
          0 0 0 0 0 0
          0 0 0 0 0 0
          0 0 0 0 0 0
          0 0 0 0 0 0
          0 0 0 0 0 0
          0 0 0 0 0 0
          0 0 0 0 0 0
          0 0 0 0 0 0
          0 0 0 0 0 0
          0 0 0 0 0 0
          0 0 0 0 0 0
          0 0 0 0 0 0
          0 0 0 0 0 0
          0 0 0 0 0 0
          0 0 0 0 0 0
          0 0 0 0 0 0
          0 0 0 0 0 0
          0 0 0 0 0 0
          0 0 0 0 0 0
          0 0 0 0 0 0
          0 0 0 0 0 0
          0 0 0 0 0 0
          0 0 0 0 0 0
          0 0 0 0 0 0
          0 0 0 0 0 0
          0 0 0 0 0 0
          0 0 0 0 0 0
          0 0 0 0 0 0
          0 0 0 0 0 0
          0 0 0 0 0 0
          0 0 0 0 0 0
          0 0 0 0 0 0
          0 0 0 0 0 0
          0 0 0 0 0 0
          0 0 0 0 0 0
          0 0 0 0 0 0
          0 0 0 0 0 0
          0 0 0 0 0 0
          0 0 0 0 0 0
          0 0 0 0 0 0
          0 0 0 0 0 0
          0 0 0 0 0 0
          0 0 0 0 0 0
          0 0 0 0 0 0
          0 0 0 0 0 0
          0 0 0 0 0 0
          0 0 0 0 0 0
          0 0 0 0 0 0
          0 0 0 0 0 0
          0 0 0 0 0 0
          0 0 0 0 0 0
          0 0 0 0 0 0
          0 0 0 0 0 0
          0 0 0 0 0 0
          0 0 0 0 0 0
          0 0 0 0 0 0
          0 0 0 0 0 0
          0 0 0 0 0 0
          0 0 0 0 0 0
          0 0 0 0 0 0
          0 0 0 0 0 0
          0 0 0 0 0 0
          0 0 0 0 0 0
          0 0 0 0 0 0
          0 0 0 0 0 0
          0 0 0 0 0 0
          0 0 0 0 0 0
          0 0 0 0 0 0
          0 0 0 0 0 0
          0 0 0 0 0 0
          0 0 0 0 0 0
          0 0 0 0 0 0
          0 0 0 0 0 0
          0 0 0 0 0 0
          0 0 0 0 0 0
          0 0 0 0 0 0
          0 0 0 0 0 0
          0 0 0 0 0 0
          0 0 0 0 0 0
          0 0 0 0 0 0
          0 0 0
        </DataArray>
        <DataArray type="Float64" Name="stress_zz" format="ascii" RangeMin="-12970059.340520881" RangeMax="24033808.145036202">
          312764.10832790984 -72485.78769719062 505148.7145278604 -172083.05869573675 598581.1921669455 176767.25694187472
          347281.5068945089 -745258.2954917044 884398.2760059813 426020.3015809401 189414.2992611574 -1318433.5322876717
          895141.8793820436 -1113097.760926789 13120.11470864003 -2875763.8836122123 -868901.6499647638 -4638430.006297636
          403995.1987589217 -769029.673342552 -57525.55201996174 -1751174.6527981 -519046.3027988451 -2733319.632253648
          147114.50407830667 118082.53253599629 207139.8570626743 151563.11838711717 267165.21004704194 185043.70423823808
          59980.695597555 65893.87479533728 -1100.9275003837392 37029.22903686713 -62182.55059832248 8164.583278396982
          -34718.445423698 -36372.05099296844 -19485.113594137263 -32201.87122144248 -4251.781764576521 -28031.69144991652
          8122.249492087343 9403.527122029509 6256.584961495972 10022.81247684042 4390.9204309046 10642.097831651328
          3827.9184462916924 6080.19946895264 3372.373726827619 4578.197476362476 2916.8290073635467 3076.1954837723115
          -5994.297250770846 -8647.03261706384 -5856.38734006064 -7851.5162089480355 -5718.477429350433 -7055.999800832231
          -3912.0412467261526 -5063.863181683409 -3407.5313342821737 -4257.341719036481 -2903.0214218381943 -3450.8202563895534
          6406.629530683203 8505.791355340347 6598.2519266434665 8617.583970105587 6789.8743226037295 8729.376584870828
          15229.004426825839 19315.870037799716 14667.451250363012 16801.852061639453 14105.898073900189 14287.834085479191
          1905.9110414178408 3626.7512292814927 14963.271332558848 19087.816581800544 28020.631623699854 34548.881934319594
          -70401.2696440618 -54482.24614012189 -55595.8094271136 -50313.29721814012 -40790.3492101654 -46144.34829615835
          218767.46991901853 380917.8729178636 183875.89992563217 306729.3494055942 148984.32993224583 232540.8258933248
          716373.473077167 856128.0417489524 594882.1064105995 719776.5502210686 473390.7397440319 583425.0586931849
          658462.0653194307 584370.7861351668 459421.59413604694 406892.4349896966 260381.12295266328 229414.0838442264
          590545.2061958178 438228.4519386529 343829.25324980804 234458.05262718585 97113.30030379826 30687.653315718853
          1155305.755931599 931091.2050583784 737344.9454401501 585653.0574782904 319384.13494870096 240214.90989820234
          -589016.4066391428 867924.8217354731 -57105.430534539555 304532.7416949551 474805.5455700637 -258859.3383455628
          2379878.8854367277 13639.813342850306 -2352599.2587510273 1276294.2551486602 -65541.01924945985 -1407376.29364758
          148182.4524946849 239073.89430898114 329965.33612327743 58171.318970810884 -20666.314549706392 -99503.94807022366
          -27122.550082702193 -5504.304810788756 16113.94046112468 6663.089534662848 3425.062166131391 187.03479759993434
          1466.1960839437716 1499.516718059656 1532.8373521755395 -3771.6877760048437 -4132.233389212282 -4492.77900241972
          -3151.645046641293 -2972.2892176284313 -2792.93338861557 4420.038721689167 4550.869162239227 4681.699602789284
          12002.266004564422 13845.411736029737 15688.55746749505 -10834.933032354147 3360.8807809408054 17556.69459423576
          -75807.06557817494 -46397.98452796114 -16988.90347774732 163012.05719107902 100569.37454177652 38126.691892474024
          681743.1189090847 467407.75084106065 253072.38277303657 825502.0390530706 555783.1316978927 286064.2243427149
          970999.7241003471 623632.9170591402 276266.11001793324 1671731.9925401206 1093554.9869207772 515377.9813014343
          -736599.4257527213 -287722.8511308086 -185459.8090836354 -743163.978498521 365679.80758545053 -1198605.1058662334
          41418.21553907229 -1939697.060331678 -3920812.3362024287 -76392.7605407087 -1230470.9272421596 -2384549.093943611
          39938.28450946834 90788.1221581628 141637.95980685725 63930.66772954642 26745.245613305524 -10440.176502935366
          -11238.110558525059 -3138.6645905613177 4960.781377402425 4296.86678863234 3939.806943987371 3582.7470993424013
          -668.9155903104191 -349.38893651804625 -29.86228272567331 -8177.643208247395 -5695.27427475003 -3212.905341252663
          -6769.9520203599195 -4752.196992588478 -2734.4419648170374 1659.9206242325104 1342.7869198871686 1025.6532155418276
          11177.916173670535 15281.890141969732 19385.86411026893 3855.5692664039298 -18612.42356202583 -41080.41639045559
          9234.109316703292 -41500.20057409083 -92234.51046488495 269776.63905069034 144466.3212811789 19156.003511667463
          726015.7792465745 459818.43566050194 193621.09207442938 1032197.3648132748 690488.5418185487 348779.71882382233
          1361328.789732772 926936.1465873083 492543.5034418448 1820573.0464917466 1223153.918726978 625734.7909622095
          -971693.2884715206 -1236159.1825529244 -651822.9191114486 -581302.3789830093 -331952.54975137644 73554.42458690601
          -1571500.084743506 -571284.6594075292 428930.76592844765 -957447.3919730617 -468083.4556901709 21280.480592720014
          -77653.72042108265 -89090.65961461357 -100527.59880814448 64374.30998871323 64972.543185425864 65570.77638213849
          5341.957659603726 3113.67635886073 885.3950581177342 473.7258817226833 1916.2315672816117 3358.7372528405413
          -1223.6983695139556 -543.8263024844889 136.04576454497817 4270.141428927303 1836.320020743724 -597.501387439855
          2472.350034378258 320.00916386371955 -1832.3317066508175 -5417.05594550233 -5754.8713600171 -6092.6867745318705
          6127.420296636774 12930.930491339901 19734.44068604302 59448.786612392025 96773.52865557827 134098.2706987645
          158631.27049912646 142560.4188541465 126489.56720916656 367234.2095141994 241773.30861656886 116312.40771893837
          792416.9793611593 546006.6037864276 299596.22821169597 1234898.8708592765 815655.4338276271 396411.9967959776
          1337778.1215979997 716953.4472378783 96128.77287775677 55105.3085653701 -367326.15851513576 -789757.6255956416
          -440427.43601190596 -1090143.2210977655 -271864.26494689856 -394153.3069239131 -103301.09388189115 301836.6072499395
          -1664799.3425404078 -475309.4203309612 714180.5018784852 -938727.7996461871 -395268.3733779205 148191.0528903461
          -97565.48114952304 -117010.0536852701 -136454.62622101716 61018.01891899996 71276.10105217781 81534.18318535565
          14362.818928181312 10874.515848550767 7386.212768920221 -225.16514756247852 846.3086521132341 1917.782451788947
          -2153.8444111388467 -1266.1334895342325 -378.42256792961814 3872.420543562209 1672.0845485165394 -528.2514465291305
          -1316.8704000778343 -2270.777955842196 -3224.685511606558 -17046.484529351044 -14826.821262276922 -12607.1579952028
          -673.8609406769729 6168.783567466197 13011.428075609365 93570.24063873256 121645.02236334392 149719.80408795527
          267728.4107696905 220414.25857030303 173100.10637091554 565360.0429709029 380992.017501634 196623.99203236515
          955143.6610263897 642888.2117092214 330632.762392053 858510.8000013914 476734.0453416069 94957.29068182224
          -671650.0981069579 -705099.0377725792 -738547.9774382007 -4101971.7675635875 -3019136.3009642595 -1936300.834364931
          3710692.7578060958 1806399.3285474426 2608755.3566931086 1487047.5103871073 1506817.955580121 1167695.6922267724
          -503978.69842154835 144479.609570805 792937.9175631583 -525566.3423775631 -138258.13789320207 249050.06659115897
          -33389.58041454973 -51027.141713529316 -68664.70301250891 53690.5496702988 61687.68489811364 69684.82012592847
          18344.113202388515 15107.647445082936 11871.181687777353 1943.6615795765406 2293.038407397697 2642.4152352188535
          -3602.1117345596263 -3019.388665510428 -2436.6655964612287 -9301.021090247588 -6387.7087806360905 -3474.3964710245946
          -18732.748171621577 -12949.49865681153 -7166.249142001481 -35190.96679281779 -27261.552262772537 -19332.13773272728
          1378.9016943112183 1524.8972376630463 1670.8927810148707 157183.40997412568 85695.97664548364 14208.543316841591
          425353.2916472878 238533.87761206512 51714.46357684239 698463.7305248157 480216.70213857526 261969.67375233487
          311750.179565964 243474.01624453737 175197.85292311086 -1809605.8654194735 -1226893.643305513 -644181.4211915527
          -5423404.5960204955 -3628272.498424769 -1833140.4008290414 -8874195.527820736 -5780475.363939997 -2686755.200059259
          15999174.150392061 9108578.118411934 9710203.51464989 5483611.590298131 3421232.8789077206 1858645.0621843294
          1168154.7197885718 790417.4691858732 412680.2185831745 97238.63175033165 186819.24324007847 276399.8547298253
          66941.02242971055 51372.959685276204 35804.89694084185 47103.47387254792 42933.765389705855 38764.056906863785
          23428.77786781847 20550.456183921207 17672.13450002394 5893.24077133908 4503.974065528567 3114.7073597180524
          -3276.45661557102 -3469.4605300033263 -3662.4644444356327 -9419.083439852253 -8330.665778577393 -7242.2481173025335
          -26816.42665186339 -18491.83655560719 -10167.246459350998 -58114.36629863996 -41769.90399009505 -25425.441681550157
          40244.4082017958 20177.98088490925 111.55356802269307 435936.2928769689 288114.2578344253 140292.22279188165
          914717.7545438809 603896.4139684002 293075.0733929194 405320.8878868461 349383.1416598463 293445.3954328465
          -2454473.035858237 -1507038.894176109 -559604.7524939806 -6833437.014337633 -4571046.045072555 -2308655.0758074773
          -10694218.959549805 -7343848.684699476 -3993478.409849145 -12957677.341711584 -8978209.404021448 -4998741.466331312
          24033808.145036202 13742573.83103541 19313205.61429625 9877328.868150128 14592603.083556298 6012083.905264845
          1775124.5262205515 466223.85841916833 -842676.8093822147 160524.60901529988 329477.91573170037 498431.2224481008
          144122.21273408947 116518.81300521735 88915.41327634524 54137.80807817616 53237.00014324083 52336.19220830552
          29497.857748108057 28113.982847845607 26730.107947583158 12676.299275213405 9969.013151113539 7261.727027013675
          -5438.423229002495 -6187.980592830615 -6937.537956658736 -30319.699372039042 -18798.576759915253 -7277.454147791457
          -44615.2895796928 -30210.20432953799 -15805.119079383194 -46701.42759390207 -61015.39569876456 -75329.36380362704
          170407.3411156927 95724.23528787741 21041.12946006212 960929.17916944 774121.0220450402 587312.8649206407
          1658166.1967653725 1353395.3070837578 1048624.4174021434 -703431.8671095558 -588379.3036702953 -473326.7402310348
          -6104491.931304052 -5017032.367258203 -3929572.803212355 -10185676.495403279 -8721084.68774164 -7256492.880080001
          -12171964.209131489 -10987803.154342102 -9803642.099552715 -12370073.872556072 -11759809.935613113 -11149545.998670151
          3205488.111520026 3944743.5456690546 1173642.718312689 1216343.2178872703 -858202.6748946477 -1512057.1098945132
          2394531.982093884 963997.756940737 -466536.4682124095 91851.15560122834 356649.8387008016 621448.521800375
          67508.76132873828 58317.80616204639 49126.8509953545 41871.05002575268 48397.24577585497 54923.44152595726
          16126.562796593662 14971.800356342555 13817.03791609145 -2770.8142050266806 966.099284318331 4703.012773663341
          -19226.023912342258 -12299.21063025546 -5372.397348168659 -43430.18209338827 -40359.500314415636 -37288.81853544301
          36460.916896062656 15670.732699295659 -5119.451497471342 292934.66314413084 217307.26857702347 141679.87400991615
          338764.81958051765 197366.93078148205 55969.04198244645 -254730.4208878855 -373200.0086576978 -491669.59642751
          -1523259.6266005798 -1500557.5527748857 -1477855.4789491917 -4239375.047351503 -4068925.5586367124 -3898476.0699219215
          -7524301.54586973 -7461500.11810688 -7398698.690344029 -9137181.40510635 -9701523.65595203 -10265865.906797715
          -9205671.438921273 -10715553.704660323 -12225435.970399372 -7770322.693632169 -10370191.017076526 -12970059.340520881
          -4982116.905543326 -8610503.805834552 -12238890.70612578 -2298330.134184037 -6420383.937994564 -10542437.741805092
          8185543.430520347 10867915.81903367 3678305.3366767406 2408488.477893903 -828932.7571668669 -6050938.863245865
          2903432.1438877294 2357799.8194736596 1812167.4950595894 -10212.64973611226 -188356.43242133266 -366500.215106553
          -167808.99203486374 -91374.86726147129 -14940.74248807885 -21441.586282667442 -31231.83161344728 -41022.07694422713
          -32312.12206976147 -23003.03028942233 -13693.938509083186 -5483955.103678161 -5311289.881643438 -5138624.659608715
          -5607758.887472056 -5617311.80008935 -5626864.712706645 -5288784.25178588 -5434965.939684496 -5581147.627583112
          -4337331.932041249 -4592888.104519154 -4848444.27699706 -2954981.1801622813 -3300004.439272345 -3645027.6983824098
          2334308.007500885 2892269.803768281 3450231.6000356777 -1542366.206887466 -1893897.9748670028 -2245429.74284654
          3307926.176772142 4089203.212467614 4870480.248163086 -306768.5605860237 -552353.6845018448 -797938.808417666
          4018619.272771635 4974129.240085627 5929639.207399619 868901.4661434637 782300.6782119568 695699.89028045
          4457937.586027153 5492875.466562487 6527813.347097821 2401859.0883110263 2200705.7382078795 1503996.5124211896
          1354164.4529856807 606133.9365313528 507623.1677634816 2477787.4780876203 1592353.3866111836 706919.2951347469
          677331.0418418493 236386.87832498451 -204557.2851918802 -3650974.1069996166 -2864714.380859605 -2078454.654719594
          -7382389.630420513 -4931837.277962883 -2481284.925505252 -10036251.535109486 -6414263.856775286 -2792276.178441085
          -12624454.539853603 -8650703.735431122 -4676952.93100864 -9959099.703087091 -10290830.82326162 -10622561.943436146
          -6453888.05138383 -7629490.718510484 -8805093.385637138 -168428.54343383457 -3200972.0084271757 -4190330.6346518314
          -4906729.615018567 -8212232.725869829 -6612487.221609958 5731532.49639316 7716078.725534359 1581536.5816610474
          -2143651.8673876897 -2568459.333071064 -12003382.460309742 2239044.4166701147 2544540.500886827 2850036.585103539
          172428.20967239022 -194062.424849139 -560553.0593706681 -223555.63234970882 -131054.7240239947 -38553.81569828058
          -62318.47933475713 -81594.90577205825 -100871.33220935936 -22187.25851104939 -46220.801077268814 -70254.34364348825
          -42378.62182591435 -42160.92759339323 -41943.23336087211 198346.56844113066 146520.87656252197 94695.18468391329
          24569.324771137475 571.578633825723 -23426.16750348602 275036.65385141555 217106.71163548515 159176.76941955474
          283239.5768287836 179951.33453266832 76663.09223655303 -596138.2584264673 -687839.8562644233 -779541.4541023794
          -2051257.1363115986 -2061563.871370327 -2071870.6064290553 -3591457.299882598 -3482469.44071216 -3373481.5815417217
          -4873840.155413281 -4645755.776214384 -4417671.397015486 -2722061.470433832 -3653554.3846319895 -2692754.6522717127
          -3555467.8682969147 -2663447.834109593 -3457381.3519618404 -1872142.2729423905 -1775568.5830490848 -1678994.8931557785
          -553587.5929971157 -335944.38117822283 -118301.16935932974 1024168.549793796 1381866.4868160307 1739564.4238382652
          5319435.136972888 4202321.45202438 5080560.077713026 3982527.5465564234 4841685.018453164 3762733.6410884666
          6112083.992748413 5859545.971634995 5607007.950521576 6491501.785411263 6231056.602556916 5970611.419702567
          6306248.773236754 6062613.651569573 5818978.529902393 2091239.1981446901 1865691.7786992635 2140911.6618488505
          -1645607.9962275124 2190584.1255530114 -5156907.771154288 4525254.46667861 5517409.691715381 6509564.91675215
          5413182.685114168 5200693.960731398 4988205.236348629
        </DataArray>
        <DataArray type="Float64" Name="peeq" format="ascii" RangeMin="0" RangeMax="0.007004787846209697">
          0 0 0 0 0 0
          0.000003967627975064111 0 0 0 0.000007935255950128223 0
          0 0 0.000010302388907044012 0 0.000020604777814088024 0
          0 0 0.000006334760931979901 0 0.000012669521863959802 0
          0 0 0 0 0 0
          0 0 0 0 0 0
          0 0 0 0 0 0
          0 0 0 0 0 0
          0 0 0 0 0 0
          0 0 0 0 0 0
          0 0 0 0 0 0
          0 0 0 0 0 0
          0 0 0 0 0 0
          0 0 0 0 0 0
          0 0 0 0 0 0
          0.000001595852475580264 0.000003191704951160528 0.0000012037025248163298 0.0000024074050496326595 8.115525740523956e-7 0.0000016231051481047911
          0.000001595852475580264 0.000003191704951160528 0.0000012037025248163298 0.0000024074050496326595 8.115525740523956e-7 0.0000016231051481047911
          0 0 0 0 0 0
          0 0 0 0 0 0
          0 0 0 0 0 0
          0 0 0 0.000003967627975064111 0 0.000007935255950128223
          0 0.000010302388907044012 0.000020604777814088024 0 0.000006334760931979901 0.000012669521863959802
          0 0 0 0 0 0
          0 0 0 0 0 0
          0 0 0 0 0 0
          0 0 0 0 0 0
          0 0 0 0 0 0
          0 0 0 0 0 0
          0 0 0 0 0 0
          0 0 0 0 0 0
          0 0 0 0 0 0
          0 0 0 0 0 0
          0 0 0 0 0 0
          0 0 0 0 0 0
          0 0 0 0 0 0
          0 0 0 0 0 0
          0 0 0 0 0 0
          0 0 0 0 0 0
          0 0 0 0 0 0
          0 3.056941377937549e-9 6.113882755875098e-9 0 8.120849327416012e-7 0.0000016241698654832023
          0 0 0 0 0 0
          0 0 0 0 0 0
          0 0 0 0 0 0
          0 0 0 0 0 0
          0 0 0 1.224035315115515e-7 6.120176575577575e-8 0
          1.224035315115515e-7 6.120176575577575e-8 0 0 0 0
          0 0 0 0 0.0000010230184855446136 0.0000020460369710892272
          0 0.0000011849761420045326 0.0000023699522840090653 0 1.619576564599189e-7 3.239153129198378e-7
          0 0 0 0 1.3352981709292907e-7 2.6705963418585815e-7
          0 0.000002000194099068876 0.000004000388198137752 0 0.000009630644571115688 0.00001926128914223137
          0 0 0 0 0 0
          0 0 0 0 0 0
          0 0 0 0 0 0
          0 0 0 0 0 0
          0 0 0 1.224035315115515e-7 6.120176575577575e-8 0
          1.224035315115515e-7 6.120176575577575e-8 0 0 0 0
          0 0 0 0 0.0000010230184855446136 0.0000020460369710892272
          0 0.0000011849761420045326 0.0000023699522840090653 0 1.619576564599189e-7 3.239153129198378e-7
          0 8.495591683006232e-8 1.6991183366012464e-7 0 0.0000029030397004585222 0.0000058060794009170445
          0.0000012037261487638545 0.000016663578532803254 0.00003212343091684265 0.000021782996993980638 0.000059880502289033164 0.0000979780075840857
          0 0 0 0 0 0
          0 0 0 0 0 0
          0 0 0 0 0 0
          0 0 0 0 0 0
          0 0 0 0 0 0
          0 0 0 0 0 0
          0 0 0 0 0 0
          0 0 0 0 0 0
          0 0.0000014739384297383958 0.0000029478768594767917 0.000003556936508513046 0.000015740091132973433 0.00002792324575743382
          0.00003333253889611378 0.00006794646728608492 0.00010256039567605607 0.00013704434044670513 0.00019578758430680897 0.0002545308281669129
          0 0 0 0 0 0
          0 0 0 0 0 0
          0 0 0 0 0 0
          0 0 0 0 0 0
          0 0 0 0 0 0
          0 0 0 0 0 0
          0 0 0 0 0 0
          0 0 0 0 0 0
          0.000003668653665111688 0.000008035556920802345 0.000012402460176493 0.000040330957831789146 0.00005765827729874552 0.0000749855967657019
          0.00015904954895040068 0.00018898817563547916 0.00021892680232055763 0.0004104449148041847 0.0004445035834569901 0.00047856225210979547
          0 0 0 0 0 0
          0 0 0 0 0 0
          0 0 0 0 0 0
          0 0 0 0 0 0
          0 0 0 0 0 0
          0 0 0 0 0 0
          0 0 0 0 0 0
          0 0 0 7.116998321265045e-7 0.0000016853085888644287 0.000002658917345602353
          0.00003148012908219928 0.000037529357303243076 0.000043578585524286874 0.0001524616149441201 0.00016312017530746657 0.000173778735670813
          0.0004072995637497468 0.00041362604063102713 0.0004199525175123074 0.0008416921294869614 0.0008346795889192567 0.0008276670483515521
          0 0 0 2.9940334332125234e-8 0 5.988066866425047e-8
          0 2.9940334332125234e-8 5.988066866425047e-8 0 0 0
          0 0 0 0 0 0
          0 0 0 0 0 0
          0 0 0 0 0 0
          0 0 0 0 0 0
          0 0 0 0 2.8702296920408106e-7 5.740459384081621e-7
          0.00000907239598340129 0.00001114129145985151 0.000013210186936301732 0.00005627215094315458 0.00006129311024300861 0.00006631406954286261
          0.00018851863513684572 0.00019554918415908958 0.00020257973318133342 0.0004460759886782613 0.000450820799995198 0.0004555656113121345
          0.0008611403528365606 0.0008570721192539578 0.000853003885671355 0.0014785583747428436 0.001459941871667446 0.0014413253685920482
          0.0023313499931587314 0.0022934590349284814 0.0022555680766982314 0.003407118489556907 0.0033480828333620287 0.00328904717716715
          0.00010936567573765025 0.00021018876508929304 0.00011602200575038939 0.00022746947702076203 0.00012267833576312854 0.00024475018895223104
          0.000004271293193003725 0.0000022872672400083753 3.0324128701302574e-7 0 0 0
          0 0 0 0 0 0
          0 0 0 0.0003511146835064507 0.0003592906381940367 0.00036746659288162275
          0.000652093701054871 0.0006595857655313421 0.0006670778300078133 0.0010834273524433456 0.0010878694046920364 0.0010923114569407271
          0.0016668456829184043 0.0016660749242664646 0.001665304165614525 0.002420119694211927 0.0024120679675614437 0.0024040162409109606
          0.0035625994358269757 0.003559894743542801 0.0035571900512586267 0.003337388360727184 0.0033207322904467347 0.0033040762201662862
          0.004433489241977785 0.004429146879998106 0.004424804518018427 0.0043852986272792105 0.004360280490612818 0.004335262353946426
          0.005333509814709083 0.005328410514268916 0.005323311213828749 0.00550428981075374 0.0054729751227368855 0.005441660434720032
          0.006209190118413696 0.006204010819697487 0.006198831520981278 0 0 0
          0 0 0 0 6.627630420709518e-8 1.3255260841419037e-7
          0 0.000005434280997700136 0.000010868561995400271 0.00001791879211174016 0.00004802125920906913 0.00007812372630639812
          0.0001247118223185882 0.00019090578943484812 0.000257099756551108 0.00039743964726755864 0.0004712099331267324 0.0005449802189859063
          0.0008684176215313622 0.0008964687705553926 0.000924519919579423 0.0015188130148107173 0.0014905736149005186 0.0014623342149903196
          0.002467913349358169 0.0024123815564219336 0.0023568497634856977 0.004647496969995477 0.003661979403990206 0.004570771112664076
          0.003579547985771205 0.0044940452553326755 0.003497116567552204 0.00011986443391761368 0.00022275881650231895 0.00012749266429450942
          0.0002431860346688567 0.00013512089467140515 0.0002636132528353945 0.000008485025666454206 0.000005899646960081057 0.000003314268253707908
          0 0 0 0 0 0
          0 0 0 0 0 0
          0 0 0 0 0 0
          0 0 0 0 0 0
          0 0 0 8.875859346988866e-7 0.0000014831191958167868 0.000002078652456934687
          0.000016937057237508757 0.00001920741760685576 0.00002147777797620276 0.00006649147047374454 0.00007049318368586722 0.00007449489689798989
          0.0001660319450947681 0.00017229726552847735 0.0001785625859621866 0.0009896900540876258 0.0006218867098458124 0.0009956368549343328
          0.0006288111350439767 0.00100158365578104 0.0006357355602421411 0.0014646327219951984 0.001468971481253645 0.0014733102405120916
          0.0020553672484464377 0.00205754525292135 0.002059723257396263 0.002760222855770763 0.0027598713231899315 0.0027595197906091005
          0.004630217929155006 0.003880663774187492 0.004623293410159043 0.0038749449437493035 0.004616368891163078 0.0038692261133111156
          0.005365896448513734 0.005358736885892916 0.005351577323272096 0.006046338955288971 0.006039806548395074 0.006033274141501177
          0.006617219221661338 0.006611884783347017 0.006606550345032696 0.006608187683614576 0.005961894422379226 0.006574354896436197
          0.005876308630380942 0.006540522109257817 0.005790722838382659 0.006983804270845777 0.0069790468960015855 0.006974289521157393
          0.007004787846209697 0.007001035529948544 0.006997283213687391
        </DataArray>
        <DataArray type="Float64" Name="pe11" format="ascii" RangeMin="0" RangeMax="0.006998725703003116">
          0 0 0 0 0 0
          0.000003957366495679332 0 0 0 0.000007914732991358664 0
          0 0 0.000010284140101876018 0 0.000020568280203752037 0
          0 0 0.000006326773606196686 0 0.000012653547212393371 0
          0 0 0 0 0 0
          0 0 0 0 0 0
          0 0 0 0 0 0
          0 0 0 0 0 0
          0 0 0 0 0 0
          0 0 0 0 0 0
          0 0 0 0 0 0
          0 0 0 0 0 0
          0 0 0 0 0 0
          0 0 0 0 0 0
          0 0 0 0 0 0
          0.0000015947153981234041 0.0000031894307962468083 0.0000012027629522744152 0.0000024055259045488304 8.108105064254262e-7 0.0000016216210128508525
          0.0000015947153981234041 0.0000031894307962468083 0.0000012027629522744152 0.0000024055259045488304 8.108105064254262e-7 0.0000016216210128508525
          0 0 0 0 0 0
          0 0 0 0 0 0
          0 0 0 0 0 0
          0 0 0 0.000003957366495679332 0 0.000007914732991358664
          0 0.000010284140101876018 0.000020568280203752037 0 0.000006326773606196686 0.000012653547212393371
          0 0 0 0 0 0
          0 0 0 0 0 0
          0 0 0 0 0 0
          0 0 0 0 0 0
          0 0 0 0 0 0
          0 0 0 0 0 0
          0 0 0 0 0 0
          0 0 0 0 0 0
          0 0 0 0 0 0
          0 0 0 0 0 0
          0 0 0 0 0 0
          0 0 0 0 0 0
          0 0 0 0 0 0
          0 0 0 0 0 0
          0 0 0 0 0 0
          0 0 0 0 0 0
          0 0 0 0 0 0
          0 3.055850234897874e-9 6.111700469795748e-9 0 8.115338455197088e-7 0.0000016230676910394175
          0 0 0 0 0 0
          0 0 0 0 0 0
          0 0 0 0 0 0
          0 0 0 0 0 0
          0 0 0 1.222984677200159e-7 6.114923386000796e-8 0
          1.222984677200159e-7 6.114923386000796e-8 0 0 0 0
          0 0 0 0 0.0000010221981396696393 0.0000020443962793392786
          0 0.0000011838373121454087 0.0000023676746242908174 0 1.616391724757694e-7 3.232783449515388e-7
          0 0 0 0 1.3345722077520009e-7 2.6691444155040017e-7
          0 0.0000019987663195041393 0.000003997532639008279 0 0.000009617104329804234 0.000019234208659608468
          0 0 0 0 0 0
          0 0 0 0 0 0
          0 0 0 0 0 0
          0 0 0 0 0 0
          0 0 0 1.222984677200159e-7 6.114923386000796e-8 0
          1.222984677200159e-7 6.114923386000796e-8 0 0 0 0
          0 0 0 0 0.0000010221981396696393 0.0000020443962793392786
          0 0.0000011838373121454087 0.0000023676746242908174 0 1.616391724757694e-7 3.232783449515388e-7
          0 8.488058275250952e-8 1.6976116550501904e-7 0 0.000002899785518310081 0.000005799571036620162
          0.0000012033700328258992 0.00001663851438280967 0.00003207365873279344 0.000021732131827397348 0.000059715254186826955 0.00009769837654625656
          0 0 0 0 0 0
          0 0 0 0 0 0
          0 0 0 0 0 0
          0 0 0 0 0 0
          0 0 0 0 0 0
          0 0 0 0 0 0
          0 0 0 0 0 0
          0 0 0 0 0 0
          0 0.0000014718281455733549 0.0000029436562911467097 0.0000035537825489247673 0.000015713104589411134 0.0000278724266298975
          0.00003326991775414088 0.00006777988191690736 0.0001022898460796738 0.00013641030778675507 0.00019486111519110728 0.0002533119225954595
          0 0 0 0 0 0
          0 0 0 0 0 0
          0 0 0 0 0 0
          0 0 0 0 0 0
          0 0 0 0 0 0
          0 0 0 0 0 0
          0 0 0 0 0 0
          0 0 0 0 0 0
          0.000003662052309045387 0.000008019570151427673 0.000012377087993809959 0.00004022046788833626 0.00005749722147053688 0.0000747739750527375
          0.00015828198321913038 0.00018811723695838828 0.0002179524906976462 0.00040671122942630535 0.00044074156145102654 0.0004747718934757477
          0 0 0 0 0 0
          0 0 0 0 0 0
          0 0 0 0 0 0
          0 0 0 0 0 0
          0 0 0 0 0 0
          0 0 0 0 0 0
          0 0 0 0 0 0
          0 0 0 7.10288926578224e-7 0.0000016809503376831903 0.0000026516117487881565
          0.00003138321266060853 0.00003739429043694867 0.000043405368213288814 0.00015171230030600375 0.00016221820139753366 0.00017272410248906354
          0.00040383535162356 0.00040981552538406433 0.0004157956991445687 0.0008298048296774064 0.0008222777167986148 0.0008147506039198233
          0 0 0 2.9888956492295387e-8 0 5.977791298459077e-8
          0 2.9888956492295387e-8 5.977791298459077e-8 0 0 0
          0 0 0 0 0 0
          0 0 0 0 0 0
          0 0 0 0 0 0
          0 0 0 0 0 0
          0 0 0 0 2.866406505912272e-7 5.732813011824544e-7
          0.000009057222518723562 0.00001112051704686081 0.000013183811574998056 0.00005611508120710966 0.0000611103433828287 0.00006610560555854773
          0.00018769184133484357 0.00019464126583132848 0.00020159069032781336 0.0004430044634588801 0.0004475474737622512 0.0004520904840656222
          0.0008520212822313492 0.000847533055397082 0.0008430448285628148 0.0014563383409925217 0.001436937333623793 0.0014175363262550643
          0.0022873094714973776 0.002248181879271061 0.002209054287044744 0.0033361807594916473 0.0032756198045358303 0.003215058849580014
          0.00010866624037894577 0.00020880535202703844 0.00011499140561465087 0.0002254165557953815 0.000121316570850356 0.00024202775956372457
          0.00000426356436542655 0.000002283127716960135 3.0269106849372013e-7 0 0 0
          0 0 0 0 0 0
          0 0 0 0.0003496558010225788 0.0003577748199733246 0.0003658938389240703
          0.0006483884408627389 0.0006557842431238817 0.0006631800453850244 0.0010752995772802265 0.0010796012285139316 0.0010839028797476368
          0.001651226717899329 0.001650267944660135 0.0016493091714209407 0.0023938371144636506 0.002385547079908999 0.0023772570453543477
          0.0035407022558369217 0.003537721570354229 0.003534740884871536 0.003299038664395813 0.0032821027522776224 0.0032651668401594315
          0.004410661169923641 0.0044059756369673655 0.00440129010401109 0.004337161509323067 0.004311868588224688 0.004286575667126308
          0.005313193741944707 0.00530774806276355 0.0053023023835823925 0.005452835825667747 0.005421305085221812 0.005389774344775876
          0.006194322595745834 0.006188862940266356 0.006183403284786878 0 0 0
          0 0 0 0 6.616143012071125e-8 1.323228602414225e-7
          0 0.0000054219965802710885 0.000010843993160542177 0.000017820391609214297 0.00004780786673599099 0.00007779534186276768
          0.00012385402018393263 0.000189652391802298 0.0002554507634206634 0.0003934540374889102 0.00046667080984020984 0.0005398875821915096
          0.0008551369723739169 0.0008836191862399066 0.0009121014001058963 0.0014879660702592445 0.0014593042473236416 0.0014306424243880388
          0.002407017747125734 0.0023514737833425017 0.0022959298195592693 0.0045534639275679 0.0035675321603249694 0.004475313460855029
          0.00348553720327936 0.004397162994142159 0.0034035422462337503 0.0001191067577320884 0.0002212690113704511 0.0001263525717175179
          0.0002409226963840937 0.0001335983857029474 0.0002605763813977363 0.000008472252046862849 0.000005891223525471058 0.000003310195004079266
          0 0 0 0 0 0
          0 0 0 0 0 0
          0 0 0 0 0 0
          0 0 0 0 0 0
          0 0 0 8.868888006026969e-7 0.0000014817434788960176 0.0000020765981571893383
          0.000016917017110687224 0.00001918306859190664 0.000021449120073126054 0.0000663661358651426 0.00007035582631713025 0.00007434551676911789
          0.00016554575325050262 0.00017178403658392984 0.00017802231991735705 0.0009847360767980655 0.0006193929565688834 0.0009906435111359975
          0.000626288812675616 0.0009965509454739295 0.0006331846687823486 0.0014559971188634947 0.0014602754043108524 0.0014645536897582101
          0.002041998149686703 0.00204407208590024 0.0020461460221137782 0.0027419591838281944 0.002741425257229861 0.002740891330631528
          0.004616738538777539 0.0038657447884545646 0.004609604886918018 0.0038598896635859024 0.004602471235058497 0.0038540345387172393
          0.005355750893421203 0.00534833167042213 0.005340912447423057 0.006040213438320979 0.006033419509097302 0.006026625579873624
          0.006613521171654053 0.006607990572493221 0.0066024599733323875 0.006562505609715833 0.005858189839181012 0.006528519360224298
          0.005771542608226319 0.006494533110732762 0.005684895377271626 0.006975041403503522 0.006970122167003363 0.006965202930503206
          0.006998725703003116 0.0069949067135413705 0.006991087724079625
        </DataArray>
        <DataArray type="Float64" Name="pe22" format="ascii" RangeMin="-0.0036257289471757458" RangeMax="0">
          0 0 0 0 0 0
          -0.000001781864061175534 0 0 0 -0.000003563728122351068 0
          0 0 -0.000004757700040910641 0 -0.000009515400081821282 0
          0 0 -0.0000029758359797351074 0 -0.000005951671959470215 0
          0 0 0 0 0 0
          0 0 0 0 0 0
          0 0 0 0 0 0
          0 0 0 0 0 0
          0 0 0 0 0 0
          0 0 0 0 0 0
          0 0 0 0 0 0
          0 0 0 0 0 0
          0 0 0 0 0 0
          0 0 0 0 0 0
          0 0 0 0 0 0
          -7.454811717385483e-7 -0.0000014909623434770967 -5.606039566450725e-7 -0.000001121207913290145 -3.757267415515966e-7 -7.514534831031932e-7
          -7.454811717385483e-7 -0.0000014909623434770967 -5.606039566450725e-7 -0.000001121207913290145 -3.757267415515966e-7 -7.514534831031932e-7
          0 0 0 0 0 0
          0 0 0 0 0 0
          0 0 0 0 0 0
          0 0 0 -0.000001781864061175534 0 -0.000003563728122351068
          0 -0.000004757700040910641 -0.000009515400081821282 0 -0.0000029758359797351074 -0.000005951671959470215
          0 0 0 0 0 0
          0 0 0 0 0 0
          0 0 0 0 0 0
          0 0 0 0 0 0
          0 0 0 0 0 0
          0 0 0 0 0 0
          0 0 0 0 0 0
          0 0 0 0 0 0
          0 0 0 0 0 0
          0 0 0 0 0 0
          0 0 0 0 0 0
          0 0 0 0 0 0
          0 0 0 0 0 0
          0 0 0 0 0 0
          0 0 0 0 0 0
          0 0 0 0 0 0
          0 0 0 0 0 0
          0 -1.483541300294882e-9 -2.967082600589764e-9 0 -3.88504813680905e-7 -7.7700962736181e-7
          0 0 0 0 0 0
          0 0 0 0 0 0
          0 0 0 0 0 0
          0 0 0 0 0 0
          0 0 0 -5.6840527747295517e-8 -2.8420263873647758e-8 0
          -5.6840527747295517e-8 -2.8420263873647758e-8 0 0 0 0
          0 0 0 0 -4.794648057520624e-7 -9.589296115041248e-7
          0 -5.532980924954916e-7 -0.0000011065961849909833 0 -7.383328674342927e-8 -1.4766657348685853e-7
          0 0 0 0 -6.398729891764553e-8 -1.2797459783529106e-7
          0 -9.511199817850727e-7 -0.0000019022399635701455 0 -0.000004465863149818974 -0.000008931726299637948
          0 0 0 0 0 0
          0 0 0 0 0 0
          0 0 0 0 0 0
          0 0 0 0 0 0
          0 0 0 -5.6840527747295517e-8 -2.8420263873647758e-8 0
          -5.6840527747295517e-8 -2.8420263873647758e-8 0 0 0 0
          0 0 0 0 -4.794648057520624e-7 -9.589296115041248e-7
          0 -5.532980924954916e-7 -0.0000011065961849909833 0 -7.383328674342927e-8 -1.4766657348685853e-7
          0 -4.0045131547831665e-8 -8.009026309566333e-8 0 -0.0000013613017466654246 -0.000002722603493330849
          -5.842417448181846e-7 -0.000007700601544639171 -0.000014816961344460158 -0.000010235608447590693 -0.000026901798201184584 -0.00004356798795477848
          0 0 0 0 0 0
          0 0 0 0 0 0
          0 0 0 0 0 0
          0 0 0 0 0 0
          0 0 0 0 0 0
          0 0 0 0 0 0
          0 0 0 0 0 0
          0 0 0 0 0 0
          0 -6.817923898685318e-7 -0.0000013635847797370636 -0.000001662373192244112 -0.0000072072240324056095 -0.000012752074872567108
          -0.000015285643901706375 -0.00003045186651297934 -0.0000456180891242523 -0.00006057273708420174 -0.00008429886096804828 -0.0001080249848518948
          0 0 0 0 0 0
          0 0 0 0 0 0
          0 0 0 0 0 0
          0 0 0 0 0 0
          0 0 0 0 0 0
          0 0 0 0 0 0
          0 0 0 0 0 0
          0 0 0 0 0 0
          -0.000001652955550818364 -0.000003626770280542207 -0.0000056005850102660495 -0.00001784407779600206 -0.00002548442914412394 -0.000033124780492245815
          -0.00006810057330388278 -0.00008060208059084511 -0.00009310358787780748 -0.00016671179931458175 -0.00017956910988942642 -0.00019242642046427108
          0 0 0 0 0 0
          0 0 0 0 0 0
          0 0 0 0 0 0
          0 0 0 0 0 0
          0 0 0 0 0 0
          0 0 0 0 0 0
          0 0 0 0 0 0
          0 0 0 -3.1707326305196547e-7 -7.441049444579527e-7 -0.00000117113662586394
          -0.000013697223001216424 -0.00001624279082764574 -0.000018788358654075057 -0.00006414443996811398 -0.00006821339996714685 -0.0000722823599661797
          -0.00016240016506765997 -0.0001639197277314768 -0.0001654392903952936 -0.00031373519259139275 -0.0003097007906261917 -0.00030566638866099055
          0 0 0 -1.4961418547630516e-8 0 -2.992283709526103e-8
          0 -1.4961418547630516e-8 -2.992283709526103e-8 0 0 0
          0 0 0 0 0 0
          0 0 0 0 0 0
          0 0 0 0 0 0
          0 0 0 0 0 0
          0 0 0 0 -1.3105226984925466e-7 -2.621045396985093e-7
          -0.000004124915285518162 -0.000005026383786040825 -0.000005927852286563488 -0.000025036839329971595 -0.000027028924946416584 -0.000029021010562861565
          -0.00008135360453413027 -0.00008358032058171487 -0.00008580703662929947 -0.00018474167285189536 -0.00018488827726027233 -0.00018503488166864927
          -0.0003389505187398621 -0.0003343239680591218 -0.0003296974173783816 -0.0005526407761719007 -0.000542049152569288 -0.0005314575289666754
          -0.000838576563833912 -0.0008227860123182409 -0.0008069954608025696 -0.0012090882597345746 -0.0011909677891793577 -0.0011728473186241408
          -0.000050702710721183386 -0.00009751488109844158 -0.00005155560925388391 -0.00010102325480354241 -0.000052408507786584445 -0.00010453162850864323
          -0.0000019452701719625968 -0.0000010439818521127101 -1.4269353226282338e-7 0 0 0
          0 0 0 0 0 0
          0 0 0 -0.00015578518920000953 -0.0001581760903474047 -0.0001605669914947999
          -0.000282752157565411 -0.0002838770032053296 -0.0002850018488452481 -0.000458519156382525 -0.00045741908453968757 -0.0004563190126968502
          -0.0006901274586525428 -0.0006865072779273641 -0.0006828870972021855 -0.0009872298427657004 -0.0009815845888963112 -0.0009759393350269218
          -0.0015748901056225353 -0.0015737493550096345 -0.0015726086043967337 -0.0013568710167573188 -0.0013505862089466779 -0.0013443014011360367
          -0.0019936090875170504 -0.0019942037792629987 -0.001994798471008947 -0.0018019515538127853 -0.0017969961280105155 -0.0017920407022082453
          -0.0024560234907731056 -0.0024590891259251737 -0.0024621547610772423 -0.002317379994445498 -0.0023155722371769076 -0.0023137644799083174
          -0.002942862122185843 -0.0029487605927358295 -0.002954659063285816 0 0 0
          0 0 0 0 -3.0686357451123487e-8 -6.137271490224697e-8
          0 -0.000002462828398284187 -0.000004925656796568374 -0.000008267124130596327 -0.000021150423175810344 -0.00003403372222102436
          -0.00005563423652696911 -0.00008150985612972908 -0.00010738547573248904 -0.00016619679678215294 -0.00019154170624595656 -0.00021688661570976023
          -0.0003316506979823621 -0.0003406254168871235 -0.00034960013579188483 -0.0005326289082395752 -0.0005222448909871883 -0.0005118608737348014
          -0.000836081858808352 -0.0008207086413386719 -0.0008053354238689919 -0.0016731976011887721 -0.0012398130874680105 -0.0016567633642102539
          -0.0012229239831792074 -0.0016403291272317356 -0.0012060348788904046 -0.00005574690024311791 -0.00010359636141613427 -0.000056858713839243524
          -0.00010815973143887074 -0.00005797052743536914 -0.0001127231014616072 -0.0000039487195350507705 -0.000002778848119808153 -0.0000016089767045655348
          0 0 0 0 0 0
          0 0 0 0 0 0
          0 0 0 0 0 0
          0 0 0 0 0 0
          0 0 0 -4.1596901629844477e-7 -6.901818791679926e-7 -9.643947420375403e-7
          -0.000007902975192534667 -0.000008902004436160773 -0.000009901033679786879 -0.0000306575118930404 -0.00003226941841558068 -0.000033881324938120955
          -0.00007520086764280432 -0.00007744435740812729 -0.00007968784717345023 -0.00044003142145186794 -0.0002802931467067667 -0.00044026298280726506
          -0.00028166791279935556 -0.0004404945441626622 -0.0002830426788919444 -0.0006442013757223131 -0.0006432996805255036 -0.000642397985328694
          -0.0008989383501448193 -0.0008972246502422061 -0.0008955109503395926 -0.0012089029959251037 -0.0012070074639947712 -0.0012051119320644385
          -0.002160041253000175 -0.0017795429994876151 -0.002160221210560019 -0.0017784757619713045 -0.002160401168119863 -0.0017774085244549938
          -0.0025578072181162326 -0.00255959039573744 -0.0025613735733586466 -0.0029544065147648854 -0.002958043327021838 -0.0029616801392787907
          -0.0033205206581766104 -0.003326133766810456 -0.0033317468754443013 -0.002882183639643131 -0.002229357865410694 -0.0028848228354254723
          -0.002218078156267945 -0.0028874620312078136 -0.0022067984471251956 -0.003416312040891503 -0.0034252102002422166 -0.00343410835959293
          -0.003610450088441433 -0.003618089517808589 -0.0036257289471757458
        </DataArray>
        <DataArray type="Float64" Name="pe33" format="ascii" RangeMin="-0.0036803219700727017" RangeMax="0">
          0 0 0 0 0 0
          -0.0000021755024345037986 0 0 0 -0.000004351004869007597 0
          0 0 -0.0000055264400609653755 0 -0.000011052880121930751 0
          0 0 -0.000003350937626461577 0 -0.000006701875252923154 0
          0 0 0 0 0 0
          0 0 0 0 0 0
          0 0 0 0 0 0
          0 0 0 0 0 0
          0 0 0 0 0 0
          0 0 0 0 0 0
          0 0 0 0 0 0
          0 0 0 0 0 0
          0 0 0 0 0 0
          0 0 0 0 0 0
          0 0 0 0 0 0
          -8.492342263848552e-7 -0.0000016984684527697103 -6.421589956293423e-7 -0.0000012843179912586846 -4.3508376487382936e-7 -8.701675297476587e-7
          -8.492342263848552e-7 -0.0000016984684527697103 -6.421589956293423e-7 -0.0000012843179912586846 -4.3508376487382936e-7 -8.701675297476587e-7
          0 0 0 0 0 0
          0 0 0 0 0 0
          0 0 0 0 0 0
          0 0 0 -0.0000021755024345037986 0 -0.000004351004869007597
          0 -0.0000055264400609653755 -0.000011052880121930751 0 -0.000003350937626461577 -0.000006701875252923154
          0 0 0 0 0 0
          0 0 0 0 0 0
          0 0 0 0 0 0
          0 0 0 0 0 0
          0 0 0 0 0 0
          0 0 0 0 0 0
          0 0 0 0 0 0
          0 0 0 0 0 0
          0 0 0 0 0 0
          0 0 0 0 0 0
          0 0 0 0 0 0
          0 0 0 0 0 0
          0 0 0 0 0 0
          0 0 0 0 0 0
          0 0 0 0 0 0
          0 0 0 0 0 0
          0 0 0 0 0 0
          0 -1.572308934602991e-9 -3.144617869205982e-9 0 -4.2302903183880384e-7 -8.460580636776077e-7
          0 0 0 0 0 0
          0 0 0 0 0 0
          0 0 0 0 0 0
          0 0 0 0 0 0
          0 0 0 -6.545793997272035e-8 -3.2728969986360174e-8 0
          -6.545793997272035e-8 -3.2728969986360174e-8 0 0 0 0
          0 0 0 0 -5.427333339175768e-7 -0.0000010854666678351537
          0 -6.30539219649917e-7 -0.000001261078439299834 0 -8.780588573234009e-8 -1.7561177146468017e-7
          0 0 0 0 -6.946992185755453e-8 -1.3893984371510906e-7
          0 -0.000001047646337719066 -0.0000020952926754381323 0 -0.000005151241179985258 -0.000010302482359970516
          0 0 0 0 0 0
          0 0 0 0 0 0
          0 0 0 0 0 0
          0 0 0 0 0 0
          0 0 0 -6.545793997272035e-8 -3.2728969986360174e-8 0
          -6.545793997272035e-8 -3.2728969986360174e-8 0 0 0 0
          0 0 0 0 -5.427333339175768e-7 -0.0000010854666678351537
          0 -6.30539219649917e-7 -0.000001261078439299834 0 -8.780588573234009e-8 -1.7561177146468017e-7
          0 -4.483545120467782e-8 -8.967090240935564e-8 0 -0.0000015384837716446565 -0.000003076967543289313
          -6.191282880077144e-7 -0.000008937912838170495 -0.000017256697388333275 -0.000011496523379806652 -0.000032813455985642364 -0.000054130388591478086
          0 0 0 0 0 0
          0 0 0 0 0 0
          0 0 0 0 0 0
          0 0 0 0 0 0
          0 0 0 0 0 0
          0 0 0 0 0 0
          0 0 0 0 0 0
          0 0 0 0 0 0
          0 -7.900357557048232e-7 -0.0000015800715114096463 -0.0000018914093566806552 -0.000008505880557005523 -0.000015120351757330389
          -0.00001798427385243451 -0.000037328015403928 -0.000056671756955421494 -0.0000758375707025533 -0.00011056225422305898 -0.00014528693774356463
          0 0 0 0 0 0
          0 0 0 0 0 0
          0 0 0 0 0 0
          0 0 0 0 0 0
          0 0 0 0 0 0
          0 0 0 0 0 0
          0 0 0 0 0 0
          0 0 0 0 0 0
          -0.0000020090967582270225 -0.000004392799870885466 -0.000006776502983543908 -0.00002237639009233419 -0.00003201279232641294 -0.000041649194560491694
          -0.0000901814099152476 -0.00010751515636754316 -0.0001248489028198387 -0.00023999943011172363 -0.00026117245156160007 -0.00028234547301147654
          0 0 0 0 0 0
          0 0 0 0 0 0
          0 0 0 0 0 0
          0 0 0 0 0 0
          0 0 0 0 0 0
          0 0 0 0 0 0
          0 0 0 0 0 0
          0 0 0 -3.932156635262589e-7 -9.368453932252372e-7 -0.0000014804751229242155
          -0.00001768598965939211 -0.00002115149960930293 -0.00002461700955921375 -0.00008756786033788975 -0.0000940048014303868 -0.00010044174252288385
          -0.00024143518655589998 -0.0002458957976525875 -0.00025035640874927507 -0.0005160696370860135 -0.0005125769261724231 -0.0005090842152588327
          0 0 0 -1.4927537944664874e-8 0 -2.985507588932975e-8
          0 -1.4927537944664874e-8 -2.985507588932975e-8 0 0 0
          0 0 0 0 0 0
          0 0 0 0 0 0
          0 0 0 0 0 0
          0 0 0 0 0 0
          0 0 0 0 -1.5558838074197257e-7 -3.1117676148394514e-7
          -0.000004932307233205402 -0.0000060941332608199836 -0.000007255959288434565 -0.000031078241877138045 -0.0000340814184364121 -0.000037084594995686156
          -0.00010633823680071327 -0.00011106094524961359 -0.00011578365369851388 -0.0002582627906069847 -0.00026265919650197885 -0.000267055602396973
          -0.0005130707634914868 -0.00051320908733796 -0.0005133474111844331 -0.0009036975648206208 -0.0008948881810545049 -0.0008860787972883891
          -0.001448732907663465 -0.0014253958669528197 -0.0014020588262421746 -0.0021270924997570722 -0.0020846520153564724 -0.0020422115309558725
          -0.000057963529657762365 -0.00011129047092859683 -0.00006343579636076695 -0.00012439330099183908 -0.00006890806306377156 -0.0001374961310550813
          -0.000002318294193463953 -0.0000012391458648474248 -1.5999753623089675e-7 0 0 0
          0 0 0 0 0 0
          0 0 0 -0.00019387061182256924 -0.00019959872962591976 -0.00020532684742927034
          -0.0003656362832973278 -0.000371907239918552 -0.0003781781965397761 -0.0006167804208977014 -0.0006221821439742439 -0.0006275838670507864
          -0.0009610992592467858 -0.0009637606667327705 -0.000966422074218755 -0.0014066072716979502 -0.001403962491012688 -0.0014013177103274256
          -0.0019658121502143864 -0.001963972215344594 -0.0019621322804748023 -0.0019421676476384943 -0.0019315165433309448 -0.0019208654390233948
          -0.002417052082406592 -0.0024117718577043672 -0.002406491633002143 -0.0025352099555102825 -0.0025148724602141724 -0.0024945349649180618
          -0.0028571702511716013 -0.0028486589368383747 -0.0028401476225051485 -0.003135455831222249 -0.003105732848044904 -0.003076009864867559
          -0.003251460473559991 -0.003240102347530526 -0.003228744221501061 0 0 0
          0 0 0 0 -3.547507266958774e-8 -7.095014533917548e-8
          0 -0.0000029591681819869014 -0.000005918336363973803 -0.00000955326747861797 -0.000026657443560180633 -0.000043761619641743294
          -0.00006821978365696352 -0.00010814253567256895 -0.00014806528768817435 -0.00022725724070675728 -0.00027512910359425333 -0.0003230009664817493
          -0.0005234862743915547 -0.0005429937693527832 -0.0005625012643140114 -0.000955337162019669 -0.000937059356336453 -0.0009187815506532372
          -0.0015709358883173813 -0.0015307651420038292 -0.0014905943956902768 -0.0028802663263791267 -0.002327719072856959 -0.0028185500966447746
          -0.002262613220100152 -0.0027568338669104226 -0.0021975073673433454 -0.00006335985748897046 -0.00011767264995431677 -0.00006949385787827437
          -0.00013276296494522293 -0.00007562785826757828 -0.00014785327993612908 -0.000004523532511812078 -0.0000031123754056629046 -0.000001701218299513731
          0 0 0 0 0 0
          0 0 0 0 0 0
          0 0 0 0 0 0
          0 0 0 0 0 0
          0 0 0 -4.7091978430425206e-7 -7.915615997280251e-7 -0.0000011122034151517982
          -0.000009014041918152552 -0.000010281064155745863 -0.000011548086393339172 -0.00003570862397210219 -0.00003808640790154956 -0.00004046419183099693
          -0.00009034488560769827 -0.00009433967917580255 -0.00009833447274390679 -0.0005447046553461975 -0.00033909980986211675 -0.0005503805283287324
          -0.00034462089987626044 -0.0005560564013112673 -0.00035014198989040423 -0.0008117957431411812 -0.0008169757237853484 -0.0008221557044295158
          -0.0011430597995418833 -0.0011468474356580345 -0.0011506350717741854 -0.0015330561879030899 -0.0015344177932350895 -0.0015357793985670896
          -0.002456697285777363 -0.0020862017889669493 -0.0024493836763579985 -0.002081413901614597 -0.0024420700669386345 -0.0020766260142622453
          -0.0027979436753049697 -0.00278874127468469 -0.0027795388740644096 -0.003085806923556093 -0.0030753761820754627 -0.0030649454405948322
          -0.003293000513477441 -0.0032818568056827632 -0.0032707130978880845 -0.0036803219700727017 -0.0036288319737703177 -0.0036436965247988243
          -0.0035534644519583727 -0.0036070710795249473 -0.003478096930146428 -0.0035587293626120177 -0.003544911966761146 -0.003531094570910274
          -0.0033882756145616815 -0.0033768171957327805 -0.0033653587769038786
        </DataArray>
        <DataArray type="Float64" Name="disp_x" format="ascii" RangeMin="0" RangeMax="0.00001418346828133215">
          0 1.3518332748313793e-7 1.356771010636754e-7 0 0 1.3499208420281937e-7
          1.3585501369562956e-7 0 0 1.325277251952435e-7 1.4093089737267814e-7 0
          1.4075011978084793e-7 0 1.402659723221317e-7 0 1.22709258309756e-7 0
          1.3982824498125054e-7 0 1.3981022689870972e-7 0 1.400144589368906e-7 0
          1.3969774967837847e-7 0 1.3967868534892634e-7 0 1.399531317852968e-7 0
          1.4000838808775256e-7 0 1.4001922764270153e-7 0 1.3989836930353022e-7 0
          1.4027102059455304e-7 0 1.40260992292297e-7 0 1.4029069917374876e-7 0
          1.4037577608967042e-7 0 1.4038379029707145e-7 0 1.403886767891698e-7 0
          1.4052595105249755e-7 0 1.4052552510967795e-7 0 1.405295291456129e-7 0
          1.4067721635215183e-7 0 1.406765580649105e-7 0 1.4066924243160448e-7 0
          1.408023360757726e-7 0 1.40803283352086e-7 0 1.408041341078133e-7 0
          1.4092653520298928e-7 0 1.4092707520527895e-7 0 1.409270889848935e-7 0
          1.4114595061764956e-7 0 1.4114404470628814e-7 0 1.4114962739744045e-7 0
          1.4159487908372797e-7 0 1.4159571661177214e-7 0 1.415759614805929e-7 0
          1.421907513648425e-7 0 1.4215952907729648e-7 0 1.4225275310370674e-7 0
          1.4318399452530267e-7 0 1.4322394177659862e-7 0 1.4287206217697742e-7 0
          1.417715636914749e-7 0 1.4162772605819335e-7 0 1.414003109589246e-7 0
          1.4142140006581166e-7 0 1.4191151157980245e-7 0 1.4255403911131938e-7 0
          1.416831689487547e-7 0 1.4168856863550263e-7 0 1.4151876106605297e-7 0
          1.4031594090479683e-7 0 1.4064407396580105e-7 0 1.4074733144480717e-7 0
          2.7016628534119907e-7 2.7206016335431957e-7 2.697705986123538e-7 2.7206808946272635e-7 2.726607130547168e-7 2.6552951552872454e-7
          2.777771489362878e-7 2.784513887022915e-7 3.0275407422235927e-7 2.794422418973097e-7 2.7978215054665013e-7 2.801249925133657e-7
          2.793768603644272e-7 2.7925212662815143e-7 2.7879647191781133e-7 2.8008722395493277e-7 2.801087449274515e-7 2.802349304931782e-7
          2.8051943362723577e-7 2.8051189240116136e-7 2.8046668564472666e-7 2.807476239738191e-7 2.807579401862014e-7 2.807889378936735e-7
          2.8105071033083463e-7 2.810536776067108e-7 2.8105726052730645e-7 2.8134985293329267e-7 2.813498271581724e-7 2.8134482700486926e-7
          2.8160286400849796e-7 2.8160570560897145e-7 2.816076817598305e-7 2.818506529337804e-7 2.818504677305014e-7 2.818506554480917e-7
          2.8228324198697435e-7 2.8228286988142565e-7 2.8228305100646473e-7 2.8314936973847597e-7 2.8314272673013025e-7 2.831367667811739e-7
          2.8446832886325313e-7 2.844091739235898e-7 2.8439916995287086e-7 2.858437185024584e-7 2.8583031792629374e-7 2.85691632521319e-7
          2.834663555019225e-7 2.837132340872405e-7 2.8494031818915495e-7 2.838804888907093e-7 2.842700666665091e-7 2.845281488748488e-7
          2.82940076103397e-7 2.832556712476976e-7 2.833856871910719e-7 2.8041009916139545e-7 2.8133962085980695e-7 2.8202783018688645e-7
          4.055302249163672e-7 4.08576751654486e-7 4.0534190719447367e-7 4.069258365174114e-7 4.057635400780646e-7 4.0417623568437325e-7
          4.141157315738274e-7 4.203310197117691e-7 4.2997679076115984e-7 4.190398924515168e-7 4.1948562830517737e-7 4.200489021823636e-7
          4.1920198083223304e-7 4.189880954593046e-7 4.184352834987984e-7 4.202107222124719e-7 4.202490254657987e-7 4.20416163549992e-7
          4.2074203715742375e-7 4.207379782563269e-7 4.206953013971142e-7 4.2112121788967457e-7 4.211295775082852e-7 4.21155830080881e-7
          4.215823374973768e-7 4.215816507321253e-7 4.2158241011781254e-7 4.2200907585242064e-7 4.220210240000291e-7 4.2202793907656645e-7
          4.2240387033828106e-7 4.2240762350188893e-7 4.224108005431509e-7 4.2278183895333344e-7 4.227797270994381e-7 4.2277474023481893e-7
          4.233958434959009e-7 4.233940974470764e-7 4.233939930358884e-7 4.2465925394420106e-7 4.2464688185059583e-7 4.246408896174885e-7
          4.267568723273213e-7 4.265862723577233e-7 4.2636009431807737e-7 4.282736709726451e-7 4.283191187230767e-7 4.2840461641844297e-7
          4.2650106019892304e-7 4.269703436092319e-7 4.277324402652118e-7 4.2604963553265945e-7 4.265829007878093e-7 4.2703496793473675e-7
          4.2386896996667367e-7 4.248119939138218e-7 4.257452996591234e-7 4.2003388407644927e-7 4.219724767270526e-7 4.246053612762708e-7
          5.421691731782035e-7 5.442892400777982e-7 5.406913547799325e-7 5.428222445578263e-7 5.39076083916521e-7 5.4077737337477e-7
          5.539447927776909e-7 5.574038036372051e-7 5.616661715153468e-7 5.586747098843188e-7 5.588845709925346e-7 5.589776756739337e-7
          5.592513061336969e-7 5.591341357291203e-7 5.589740068947402e-7 5.603514274756928e-7 5.603742108848294e-7 5.604137019364611e-7
          5.609477509027455e-7 5.609490786093539e-7 5.609517652832402e-7 5.614810923842716e-7 5.614885857072395e-7 5.614995396617557e-7
          5.621114388572707e-7 5.62103701952367e-7 5.621076055785592e-7 5.626649501257863e-7 5.627015415290547e-7 5.627050814959708e-7
          5.632123011529122e-7 5.632152305322102e-7 5.632172446559389e-7 5.637103731196259e-7 5.637076966574523e-7 5.637034276767103e-7
          5.644668101131159e-7 5.644597054757596e-7 5.644471008049663e-7 5.661011015529482e-7 5.660752610486903e-7 5.660633203974821e-7
          5.68842359090097e-7 5.687790523505184e-7 5.680912193128147e-7 5.707023384981487e-7 5.707903571045114e-7 5.710650767260897e-7
          5.694035028845821e-7 5.700171227191903e-7 5.706629092801783e-7 5.677302704112123e-7 5.688484320311604e-7 5.701365913630429e-7
          5.643579504440475e-7 5.662637546254957e-7 5.692969917967103e-7 5.590211622946159e-7 5.623760416611237e-7 5.696360678719876e-7
          6.796883846845925e-7 6.808985707692973e-7 6.764879811211108e-7 6.784409970340215e-7 6.710192250676453e-7 6.753627066515868e-7
          6.917115279611436e-7 6.937824983294696e-7 6.957763507280708e-7 6.982026242041338e-7 6.98218400919722e-7 6.977902137346412e-7
          6.995554617105459e-7 6.995547016947659e-7 6.996634323424065e-7 7.004842146890615e-7 7.004854209839849e-7 7.00476443166913e-7
          7.011286008778791e-7 7.011376398192177e-7 7.011515436172617e-7 7.018307112902308e-7 7.018306975873206e-7 7.018374773942475e-7
          7.026115815701964e-7 7.026228320277918e-7 7.026270820527795e-7 7.034182760107386e-7 7.033821136341842e-7 7.033823715106167e-7
          7.040287539157974e-7 7.040303108449515e-7 7.040306171040601e-7 7.046406461372458e-7 7.046370828912478e-7 7.046356295530918e-7
          7.05495831792867e-7 7.054753822221634e-7 7.054460177615876e-7 7.074337656632807e-7 7.073941498707715e-7 7.072991881605913e-7
          7.107695640992175e-7 7.107870252296483e-7 7.114249039762597e-7 7.130443065868664e-7 7.132193363913672e-7 7.132772881921011e-7
          7.116316769015519e-7 7.127393771299772e-7 7.14133673925421e-7 7.087913877263505e-7 7.108541226958387e-7 7.142224320387423e-7
          7.040190961339107e-7 7.076369587539789e-7 7.14905439751252e-7 6.982402849091859e-7 7.03454541014858e-7 7.214002329952987e-7
          8.174538375871496e-7 8.18868567773795e-7 8.120920472687817e-7 8.14295737010991e-7 7.991618243007527e-7 8.082931479442024e-7
          8.270040015735872e-7 8.262712696018691e-7 8.249022246323024e-7 8.377284040221483e-7 8.379668641528162e-7 8.384035862679844e-7
          8.399958149082718e-7 8.399728727387208e-7 8.399696549104225e-7 8.405649399490468e-7 8.405848617814711e-7 8.40621699157418e-7
          8.412901823476577e-7 8.412939049273385e-7 8.41296673769539e-7 8.421518637410546e-7 8.421541700827676e-7 8.421598727711836e-7
          8.431329588002964e-7 8.431374920864426e-7 8.431431789579243e-7 8.440847721142499e-7 8.440724831555188e-7 8.440692702227186e-7
          8.448510590260949e-7 8.448532350760189e-7 8.44855456399214e-7 8.4558556626608e-7 8.455738217491563e-7 8.455689739811379e-7
          8.464919169328839e-7 8.464529573464895e-7 8.463904679678258e-7 8.486195629280834e-7 8.485585486254328e-7 8.48379141516477e-7
          8.525811419208921e-7 8.527232581294848e-7 8.528024825683191e-7 8.551460650361609e-7 8.554840005132783e-7 8.558580420999438e-7
          8.529727995206762e-7 8.550198003876591e-7 8.583139290407134e-7 8.490516569713257e-7 8.525136855142695e-7 8.597848030554056e-7
          8.435577029352987e-7 8.497079395680997e-7 8.699452343349256e-7 8.370117685111277e-7 8.511201638865695e-7 8.923124912393147e-7
          9.527081702084812e-7 9.57155999802114e-7 9.476250733782477e-7 9.473373346622038e-7 9.217757696825774e-7 9.393203097991635e-7
          9.637618714932115e-7 9.641850481959973e-7 9.643953149155295e-7 9.779754848526966e-7 9.77957628794842e-7 9.782933753171173e-7
          9.801737462185049e-7 9.802410880004605e-7 9.80333067539417e-7 9.806314266819372e-7 9.806402403459366e-7 9.80666940662666e-7
          9.814042466569268e-7 9.814114086423562e-7 9.814171376957783e-7 9.824541225865838e-7 9.82456429948372e-7 9.82457324146302e-7
          9.836496783616907e-7 9.836517912715608e-7 9.836581361049582e-7 9.84763461169338e-7 9.847635424621746e-7 9.8477432634751e-7
          9.856789603615794e-7 9.85683137654942e-7 9.85693695867961e-7 9.865644540172035e-7 9.865298840368984e-7 9.864977782758356e-7
          9.874772139702425e-7 9.874094596030449e-7 9.872935700371418e-7 9.895789337659875e-7 9.895322580952481e-7 9.89224294721953e-7
          9.94178625193001e-7 9.943368602158308e-7 9.941130497295994e-7 9.967865335225493e-7 9.975400066881351e-7 9.986097906408126e-7
          9.936640796865998e-7 9.966731118780398e-7 0.0000010031269068683711 9.890305972002391e-7 9.943920829154487e-7 0.0000010115874467115885
          9.869667722515512e-7 9.995752312645703e-7 0.000001036902734143829 9.959297960436742e-7 0.0000010175353350656747 0.000001083017375815513
          0.0000010736946786226524 0.0000010859374796267237 0.0000010745691173657964 0.000001079017272586091 0.000001045634252235731 0.000001070506251141427
          0.0000011032397202624165 0.0000011044161325311484 0.0000011060922938224175 0.0000011183625344378747 0.0000011183175965001575 0.0000011184957581965375
          0.0000011200887741115382 0.000001120195222989675 0.0000011203679890274313 0.0000011206230470274902 0.0000011206352807649607 0.000001120659574228322
          0.000001121464898425516 0.0000011214784463052537 0.0000011214843418688373 0.000001122733832098307 0.000001122736159856118 0.0000011227385113745979
          0.0000011241627572349852 0.0000011241659810029105 0.0000011241735133418895 0.0000011254624120888725 0.0000011254680628842847 0.0000011254943349626096
          0.0000011265120243582923 0.0000011265169647448302 0.0000011265450593874348 0.000001127605467277241 0.0000011275187644016383 0.0000011274071695894198
          0.0000011284876084424216 0.000001128376303880291 0.0000011281350638407588 0.0000011301677902438759 0.0000011302739950083318 0.0000011299203466396944
          0.0000011349835487707044 0.0000011355871798408061 0.000001135562458578042 0.0000011379678385439427 0.0000011393008692591573 0.0000011417365905612772
          0.0000011344298162816493 0.000001137354339250882 0.0000011488122550474959 0.0000011356112200346327 0.0000011424045008952733 0.0000011699416069645346
          0.0000011534612395390564 0.0000011661533405739896 0.0000012157166047050138 0.0000011976601820398944 0.0000012170144914728383 0.000001294302444814798
          0.0000011347180746379651 0.0000012123155801063225 0.0000011599841665583907 0.0000012106869050932885 0.0000011724847542555134 0.0000012047531644880068
          0.0000012460792617587114 0.0000012472975793464571 0.0000012502620671110416 0.0000012583083137101997 0.0000012582965676897203 0.0000012584390909493497
          0.0000012598536193783768 0.0000012599550544743688 0.0000012602292346260882 0.000001260471797016885 0.00000126048178453451 0.000001260526286445402
          0.0000012614826836362754 0.0000012614934695519949 0.000001261511322270332 0.0000012629851449814892 0.0000012629822098679711 0.0000012630051343326946
          0.0000012646636266164968 0.000001264692271141631 0.000001264693558480884 0.0000012662047416499047 0.000001266197165243401 0.00000126622975392208
          0.0000012673778246306397 0.0000012673348760498723 0.0000012674001460596358 0.0000012686697519028866 0.0000012685827891595058 0.0000012682687562153253
          0.000001269498969934309 0.0000012694682488508163 0.0000012689304180744703 0.0000012703011565501724 0.000001270589544731341 0.0000012706702613485653
          0.000001274849029206372 0.0000012758386237030013 0.0000012776391563432953 0.0000012784298579825145 0.0000012798347584929788 0.0000012853836479983703
          0.0000012782280420701188 0.0000012822219576637775 0.0000012974667385463112 0.0000012997355807216436 0.0000013085420509543572 0.0000013376917343313927
          0.0000013523909724622782 0.0000013661704375305727 0.0000014112464769995747 0.0000014536823563208575 0.0000014730883109247667 0.0000015364869001189647
          0.0000016408756702185477 0.0000016656415679003076 0.0000017461640342648292 0.0000019705429040348366 0.000001999106129970254 0.000002090270456088276
          0.0000017512578455950658 0.000001593287502456604 0.0000017638572869825578 0.0000015289587075025952 0.0000017789168782926283 0.0000015572234960814445
          0.000001812988285468945 0.0000018112980216996442 0.0000018110639854468707 0.0000018146150013798221 0.0000018151923830495493 0.000001815899657728706
          0.0000018169637347864878 0.0000018168991683891232 0.000001816987691540072 0.0000018186097944921492 0.0000018186633611372033 0.0000018187248549562216
          0.000001820993113993341 0.0000018210081258702499 0.0000018210135562430983 0.0000018817253478771095 0.000001888488628546952 0.000001908607297200289
          0.000001978613272760163 0.0000019879608967484124 0.0000020147652036858776 0.0000021465482290189427 0.000002158340703329039 0.0000021912185255321167
          0.0000024159569178499697 0.000002429751185220721 0.000002466750757027245 0.000002825513102480979 0.0000028401919904698554 0.0000028769164501485405
          0.000004706013984514279 0.0000047171617300096835 0.0000047569080271211974 0.000003419962122758561 0.0000034339357396124463 0.000003464346360578992
          0.0000057133578445331515 0.000005720932395933452 0.000005752175155870855 0.000004243675129428126 0.000004255092706525418 0.000004273872613044535
          0.0000069873954498305515 0.000006990123347905299 0.000007008850675315023 0.0000053416502342119485 0.000005348997930564074 0.000005352823654040872
          0.000008550089122600145 0.000008547271915087841 0.00000855057060920036 1.3890375323335198e-7 0 1.3973747052947748e-7
          0 1.4035365863627515e-7 0 2.77353455380988e-7 2.794225335183531e-7 2.8190993421705234e-7
          4.148831663086487e-7 4.1920685223552696e-7 4.2651613508378653e-7 5.526800434552763e-7 5.593068734259366e-7 5.76089635976582e-7
          6.896580844001323e-7 7.005895824747645e-7 7.39736630985745e-7 8.420787454714454e-7 8.650767221598336e-7 9.363571643604254e-7
          0.0000010356889088602823 0.000001067100374607404 0.000001166526971179723 0.0000012986746313336462 0.0000013248792631803768 0.0000014317509736948454
          0.000001512129219532821 0.0000015445609955436148 0.0000016746151706444205 0.0000025150837711362206 0.000001916360513968594 0.0000025440957826903544
          0.0000019517650050613892 0.000002636349711788318 0.0000020915755795490955 0.0000023746881260028484 0.0000024992202943000435 0.0000023692803011730377
          0.000002555567768861329 0.0000023677589105950083 0.000002539101453811661 0.000002362930503584536 0.0000023639750695783446 0.0000023631356691901373
          0.000002368866850018627 0.0000023685155645195526 0.0000023683033728064124 0.0000023719568011444096 0.0000023719999821596336 0.0000023718884935630306
          0.0000023758830011280304 0.000002375823978163927 0.0000023757534811039846 0.0000023801778830874977 0.000002380131477089102 0.000002380154800818771
          0.0000018239189290479588 0.0000018239312915048902 0.0000018239538875400667 0.0000023851790202913096 0.0000023850893057987448 0.000002384952601968279
          0.000001826828516272415 0.000001826784549036214 0.0000018268516701666493 0.0000018296092971907137 0.0000018295377715807484 0.0000018293306211084725
          0.0000018313569658262925 0.0000018312838761026944 0.0000018308267444634127 0.0000018315480034008663 0.0000018318444989270314 0.000001832049626991046
          0.0000018321371738754243 0.0000018327133834806637 0.000001834220803459168 0.0000018323114012315743 0.0000018340719347786266 0.0000018394841579627884
          0.0000018422328119905206 0.000001845831959007272 0.0000018573894589914037 0.000002703747333936185 0.0000025409351065442045 0.0000027145328660856427
          0.000002549295740470811 0.00000274776178504299 0.00000257505253874753 0.0000029714353221800395 0.0000029838777563082003 0.0000030230596533419696
          0.000003370371167380122 0.000003383800669459025 0.0000034271700233610438 0.000003935725306647251 0.000003948841535886735 0.000003992808260872238
          0.000007123466959818358 0.000005992147468367352 0.000007134356283885266 0.000006004956880200764 0.000007165616557756031 0.000006042481370818952
          0.000008503697639760329 0.000008511740198462989 0.00000853402432498674 0.000010144082845929943 0.00001014837726504995 0.000010159299809039706
          0.000012043807993996759 0.000012043542634058834 0.000012041001640655623 0.000006763145798592541 0.000003362634799920067 0.0000067651039177748695
          0.0000033885251604061083 0.000006752322748268625 0.000003469748725683218 0.000010416439070306109 0.000010407910746433036 0.000010393939294374006
          0.00001418346828133215 0.000014177985317261689 0.000014160312961625099
        </DataArray>
        <DataArray type="Float64" Name="disp_y" format="ascii" RangeMin="-0.00001137208933462406" RangeMax="0">
          0 0 -1.3212613651198498e-7 -1.323952527601668e-7 0 0
          -1.3213340413714204e-7 -1.3230585730938448e-7 0 0 -1.3084494895942406e-7 -1.3283149639334165e-7
          -2.7064483088630377e-7 -2.7071014362532997e-7 -2.698394937254099e-7 -2.703744502782118e-7 -2.6781743795003326e-7 -2.7043508559234845e-7
          -4.14768657606772e-7 -4.145345424764967e-7 -4.1537439042517415e-7 -4.148294086368031e-7 -4.18512572782298e-7 -4.13684234599696e-7
          -5.5862258433834e-7 -5.586606796212919e-7 -5.587850485453893e-7 -5.587491746567231e-7 -5.582974672906227e-7 -5.591524218890724e-7
          -7.016903205450725e-7 -7.015658346661313e-7 -7.015330142838758e-7 -7.014607595032247e-7 -7.013564773515845e-7 -7.011844423857922e-7
          -8.44257987676948e-7 -8.441212347204412e-7 -8.442449002872103e-7 -8.440724699287408e-7 -8.441660634861778e-7 -8.439739505270699e-7
          -9.86345743111493e-7 -9.862361763781967e-7 -9.86321949291858e-7 -9.862179417876275e-7 -9.862263062907459e-7 -9.861347462652486e-7
          -0.0000011277926946099558 -0.0000011276869333946862 -0.0000011277551611297257 -0.000001127646949084507 -0.0000011276528344871801 -0.0000011275348829278392
          -0.0000012686423034831985 -0.0000012685358713310349 -0.000001268607884065757 -0.000001268493467629353 -0.0000012685130732138664 -0.0000012683926546053774
          -0.0000014089033917871245 -0.0000014088022986783625 -0.0000014088783063989227 -0.0000014087761850607688 -0.0000014087879630066634 -0.0000014086879177222979
          -0.000001548529379094639 -0.0000015484345523771108 -0.0000015484930910236575 -0.0000015484026661802414 -0.000001548393874984892 -0.0000015483028173583727
          -0.000001687595516261423 -0.0000016874975512855831 -0.000001687563148948712 -0.0000016874577389740321 -0.000001687462360085314 -0.0000016873485747504447
          -0.0000018267269685802519 -0.000001826671361085467 -0.0000018266942512615979 -0.000001826620849659482 -0.0000018266087438957124 -0.0000018265300931968795
          -0.0000019668672109300058 -0.000001966870244232238 -0.0000019668627603751083 -0.0000019668607614877123 -0.000001966759400508854 -0.0000019667130416259763
          -0.000002108969294500848 -0.0000021090830080441394 -0.000002108993102942995 -0.0000021091577553441226 -0.0000021092135849761028 -0.0000021096118227171235
          -0.0000022524931402233204 -0.000002252976342693145 -0.0000022525319582136506 -0.000002252918178615647 -0.000002252818232464658 -0.0000022530182562831055
          -0.000002396812782950529 -0.0000023968372982156945 -0.000002396973983365371 -0.000002397036786315641 -0.0000023972030916638447 -0.0000023972033892453317
          -0.0000025438095299820833 -0.0000025438995436047307 -0.0000025438402836305388 -0.0000025439561150809245 -0.0000025440808031396154 -0.0000025442291578961184
          -0.0000026904186483175 -0.0000026902504636958726 -0.000002690333765804166 -0.0000026901987756171685 -0.0000026903843140404964 -0.0000026902513715955355
          0 -1.3201894142113108e-7 0 -1.321794435705636e-7 0 -1.3229321500327422e-7
          -2.7049576382066606e-7 -2.694943231080283e-7 -2.6136564683389864e-7 -4.1489177999932e-7 -4.1528886531131274e-7 -4.243384924848958e-7
          -5.58591676665762e-7 -5.58907156313625e-7 -5.57346572447039e-7 -7.02035665517603e-7 -7.018261785034702e-7 -7.018333692300634e-7
          -8.44623043129701e-7 -8.446400186632204e-7 -8.44538298171834e-7 -9.86656847343455e-7 -9.86623366814875e-7 -9.865320986350627e-7
          -0.000001128086372363077 -0.0000011280538101918851 -0.000001127951456692246 -0.0000012689360237202441 -0.0000012689077751894209 -0.0000012688123110047448
          -0.0000014092077170176794 -0.0000014091792463929681 -0.0000014090893621191783 -0.0000015488304714284398 -0.0000015487945690904815 -0.0000015486957067646147
          -0.0000016878573441393914 -0.0000016878281797619224 -0.0000016877263811466123 -0.0000018268502034572332 -0.0000018268342792158445 -0.0000018267403672893452
          -0.0000019668160212726556 -0.0000019668000457712205 -0.0000019667467004777767 -0.0000021083796974367335 -0.000002108385248362882 -0.00000210833728487508
          -0.0000022515136620526822 -0.0000022516390738636013 -0.0000022520990972945566 -0.0000023964620152984044 -0.00000239652185120149 -0.0000023967705384073086
          -0.0000025433956555229773 -0.0000025433683675687633 -0.0000025435810519292295 -0.0000026909656480944984 -0.0000026906954274323476 -0.0000026905363331434796
          0 -1.3276267493209408e-7 0 -1.3271751851730677e-7 0 -1.3310166814685106e-7
          -2.7055133312551675e-7 -2.6982507350855725e-7 -2.6961424303582375e-7 -4.1388742067029335e-7 -4.1437784582887537e-7 -4.13615772231763e-7
          -5.588586537181739e-7 -5.588843274634646e-7 -5.591616973911305e-7 -7.026428767869616e-7 -7.025561820905524e-7 -7.022778264994249e-7
          -8.452683146439003e-7 -8.452466001843561e-7 -8.451770508557759e-7 -9.872004293911118e-7 -9.87175121032035e-7 -9.87076762244156e-7
          -0.0000011285796555158967 -0.0000011285482742008875 -0.0000011284466456331815 -0.0000012694263592834067 -0.0000012693988843375236 -0.0000012693059191724477
          -0.0000014097131716098674 -0.0000014096830684010134 -0.000001409588675375377 -0.0000015493469046104073 -0.0000015493147110619527 -0.0000015492192933162022
          -0.0000016883342664702155 -0.0000016883046004102695 -0.000001688192143933411 -0.000001827124175042258 -0.0000018270921066261672 -0.0000018269995862816245
          -0.0000019666974451954796 -0.00000196668220723515 -0.0000019666001195123 -0.00000210753604060844 -0.0000021075676077279434 -0.000002107671500372638
          -0.000002250352507922447 -0.000002250421338743081 -0.0000022506745238922517 -0.0000023953881252259414 -0.000002395349310864749 -0.000002395563369892241
          -0.000002542663313386029 -0.0000025424529106175555 -0.0000025424809025264142 -0.0000026919248912684664 -0.0000026912096014953412 -0.0000026904563022343986
          0 -1.330681692304091e-7 0 -1.3307146548147733e-7 0 -1.3326973914805827e-7
          -2.7042726124519506e-7 -2.7025949486771686e-7 -2.700127336573045e-7 -4.1350531898546916e-7 -4.1316212244612383e-7 -4.125027585411125e-7
          -5.592727354926327e-7 -5.592596443104125e-7 -5.591209264352306e-7 -7.035700133555351e-7 -7.035302369417047e-7 -7.034202229259847e-7
          -8.46113980742956e-7 -8.460775114999404e-7 -8.459585388593889e-7 -9.879390932221582e-7 -9.879149199490283e-7 -9.878258090390324e-7
          -0.0000011292587362060748 -0.0000011292322449787368 -0.0000011291307643441579 -0.000001270097392438177 -0.0000012700774626144613 -0.000001269985579498947
          -0.0000014104251075001647 -0.0000014103844479958006 -0.0000014102883101683063 -0.000001550071392859737 -0.0000015500459173921443 -0.0000015499456845309832
          -0.0000016890136830982925 -0.0000016889793355773704 -0.0000016889065774098338 -0.0000018275144629842042 -0.0000018274722963585793 -0.000001827171317401074
          -0.000001966535510699379 -0.0000019665297020674718 -0.0000019665714475292798 -0.000002106702492349854 -0.0000021067028438562096 -0.0000021068071265424714
          -0.000002248824793935474 -0.0000022487840444358163 -0.0000022489001422578716 -0.000002393588978542776 -0.0000023933056353227757 -0.000002393322492681725
          -0.000002541579049708506 -0.0000025408855567117544 -0.0000025401216485911572 -0.000002693674449712665 -0.000002692081283632285 -0.000002689460044645469
          0 -1.3270878824189532e-7 0 -1.3255440979133517e-7 0 -1.327226778777221e-7
          -2.705039527554583e-7 -2.7002350082009695e-7 -2.696660966980006e-7 -4.132158943869254e-7 -4.1297773645595464e-7 -4.118938757891123e-7
          -5.604008317721702e-7 -5.602999729986102e-7 -5.602281383677616e-7 -7.04736429041075e-7 -7.04717636353146e-7 -7.045753093291114e-7
          -8.471668178899893e-7 -8.47126971867103e-7 -8.470254560989139e-7 -9.888639806211646e-7 -9.888397879761254e-7 -9.887442628224379e-7
          -0.000001130126649916107 -0.000001130101823371191 -0.0000011300034599277109 -0.0000012709630279190983 -0.0000012709444490750664 -0.0000012708518881367812
          -0.000001411320181315972 -0.0000014112787734354693 -0.0000014111820921730615 -0.0000015510056134418829 -0.0000015509824887343363 -0.0000015508844003312195
          -0.0000016899146025224973 -0.0000016898842502070728 -0.000001689818606850005 -0.0000018280955174892266 -0.0000018280547483272271 -0.0000018277674081914962
          -0.000001966434403147993 -0.000001966420182842763 -0.000001966456775450553 -0.0000021057793652582534 -0.000002105691969861145 -0.000002105668695666147
          -0.000002246997186895435 -0.000002246705298210728 -0.0000022465932678914747 -0.0000023912477377155056 -0.0000023904988558803014 -0.000002389496323416007
          -0.0000025404989996476193 -0.0000025386665021437493 -0.0000025355377412668214 -0.0000026963320506490122 -0.0000026929773833531692 -0.0000026867061017568053
          0 -1.3075913024867027e-7 0 -1.2999092276755494e-7 0 -1.2897873991520307e-7
          -2.699881587191192e-7 -2.6929704330179533e-7 -2.678961316863666e-7 -4.147560599952099e-7 -4.146421624735609e-7 -4.1398548835944093e-7
          -5.621627296296564e-7 -5.620569871488865e-7 -5.619137028428318e-7 -7.061627802968432e-7 -7.061387381561796e-7 -7.060059581896993e-7
          -8.48415097481594e-7 -8.48377262108078e-7 -8.48279465995798e-7 -9.899679323756284e-7 -9.899447373530387e-7 -9.898486220341183e-7
          -0.0000011311773818230275 -0.000001131151518779406 -0.0000011310535042900308 -0.0000012720261669267007 -0.0000012719983072997605 -0.000001271905099642882
          -0.0000014123899733361062 -0.0000014123628149590152 -0.0000014122659505639032 -0.0000015521446735256082 -0.0000015521201790480384 -0.0000015520307126131324
          -0.0000016910562803300532 -0.0000016910385231737524 -0.0000016909594319769635 -0.0000018289317830611219 -0.0000018289062200958535 -0.0000018288323534782601
          -0.000001966473631680374 -0.000001966425852351005 -0.000001966282799551383 -0.000002104834158996941 -0.0000021045661744521263 -0.000002104281712090843
          -0.0000022449737470402576 -0.000002244250527500489 -0.000002243304318142071 -0.000002388716446098422 -0.000002386946835694728 -0.0000023836300461196183
          -0.0000025395638522787145 -0.000002536339804856403 -0.0000025296903409248814 -0.000002700668948863028 -0.0000026962076447458823 -0.000002684795379602876
          0 -1.261587216941173e-7 0 -1.2479567872713906e-7 0 -1.2110181424971332e-7
          -2.6863664140770326e-7 -2.6815437992392954e-7 -2.669024072744344e-7 -4.183711010830329e-7 -4.182995001757162e-7 -4.1795846679341164e-7
          -5.644698365131469e-7 -5.643926054677175e-7 -5.641829075495144e-7 -7.078547547846655e-7 -7.078246404430821e-7 -7.077209763332458e-7
          -8.498477328520626e-7 -8.498124086157742e-7 -8.497114315909911e-7 -9.912437743668147e-7 -9.912212973495207e-7 -9.911255607154937e-7
          -0.0000011323995641563916 -0.000001132373148701415 -0.0000011322748392075746 -0.0000012732648153948636 -0.000001273236575599679 -0.0000012731419026968833
          -0.0000014136606781329022 -0.0000014136358578967337 -0.000001413542168102126 -0.0000015534698529325675 -0.0000015534517729659369 -0.00000155336647216248
          -0.0000016924554642622364 -0.0000016924482187190495 -0.000001692415196158629 -0.000001830085417336575 -0.0000018300747284177635 -0.0000018300427495128276
          -0.0000019667600434540206 -0.0000019666441575692344 -0.0000019664012555157244 -0.000002104037746222541 -0.000002103458737533125 -0.000002102693643867108
          -0.000002242852588404499 -0.0000022414233048252935 -0.000002238588204873524 -0.000002386119750176651 -0.00000238329117852992 -0.0000023767655728310866
          -0.0000025405444597544816 -0.0000025366265672711923 -0.0000025257958143406642 -0.0000027132951040150373 -0.000002707824153766197 -0.0000026901455784381916
          0 -1.1409429893822283e-7 0 -1.1477801009361539e-7 0 -1.1021587546751488e-7
          -2.703284698650364e-7 -2.696183861632047e-7 -2.6742845374517565e-7 -4.2275616793845853e-7 -4.2273881002034384e-7 -4.2268873980511764e-7
          -5.672718119289365e-7 -5.672217075475342e-7 -5.670196619207623e-7 -7.09813258665811e-7 -7.097772879262956e-7 -7.096849785288672e-7
          -8.514420386853691e-7 -8.51415075797717e-7 -8.513163763405508e-7 -9.926825984996144e-7 -9.926609862112155e-7 -9.925667034435463e-7
          -0.0000011337850263565655 -0.0000011337560486152945 -0.0000011336586949264467 -0.0000012746845178233915 -0.0000012746588179501243 -0.0000012745611076201339
          -0.0000014151236322995775 -0.0000014151006651268582 -0.0000014150129114053628 -0.0000015549667274864553 -0.0000015549543129593228 -0.0000015548882990071828
          -0.0000016941003584294784 -0.0000016941086943554447 -0.0000016941332149405016 -0.000001831692326527765 -0.0000018316659866983588 -0.000001831686493897229
          -0.000001967500909294107 -0.0000019672676062863956 -0.0000019668489238790187 -0.0000021034236297634957 -0.000002102357978898675 -0.00000210039995254326
          -0.0000022406052207317264 -0.0000022383165669698866 -0.0000022329284298606807 -0.0000023858386354143674 -0.0000023823872281423385 -0.000002372086885814534
          -0.0000025497326602191446 -0.0000025446581164713015 -0.0000025283763040128137 -0.000002742517842248005 -0.0000027351490994394074 -0.000002709924303097011
          0 -1.0362424401992273e-7 0 -1.0124157438609616e-7 0 -9.712446121586884e-8
          -2.775557120520941e-7 -2.7655005869915664e-7 -2.7358962045510863e-7 -4.274337076127852e-7 -4.275412827630502e-7 -4.2759865178714064e-7
          -5.704407995082191e-7 -5.703671933162537e-7 -5.70236713643972e-7 -7.119892448885045e-7 -7.119725256155822e-7 -7.118730002334097e-7
          -8.53194337733731e-7 -8.531642838114216e-7 -8.530698662462188e-7 -9.942718936318999e-7 -9.942454372444278e-7 -9.941948687639108e-7
          -0.000001135322312140563 -0.0000011352879666111602 -0.0000011351850144723625 -0.0000012762637144819472 -0.0000012762609493338825 -0.0000012761729343417465
          -0.000001416808814345398 -0.000001416773993790123 -0.0000014166807290559626 -0.0000015565941830251105 -0.000001556610555690715 -0.0000015565592688356674
          -0.0000016959575232414934 -0.0000016959686652197876 -0.000001696075370316034 -0.000001833947901267464 -0.0000018338088990376692 -0.0000018339221476813087
          -0.0000019692841411356954 -0.0000019686663861915062 -0.0000019678178795282498 -0.0000021021846839053143 -0.000002100783328243285 -0.000002096752150406883
          -0.000002239802707854175 -0.0000022372770151428584 -0.0000022284884344353475 -0.0000023939480843749243 -0.000002389789528448227 -0.000002374971820791625
          -0.000002573563526622751 -0.000002567278581629784 -0.000002543971730597779 -0.000002796799841465907 -0.000002787655038717074 -0.0000027532769202813688
          -0.0000030955786438062566 -0.0000030827190933776978 -0.000003036167084310123 -0.000003512461015747303 -0.0000034959207379876595 -0.00000343954547416109
          -1.849833647156774e-7 0 -1.9087286691344288e-7 0 -2.0560484028272985e-7 0
          -3.196480466498956e-7 -3.197019152948297e-7 -3.175208425079351e-7 -4.490634806084908e-7 -4.4881353986855593e-7 -4.493138658269156e-7
          -5.838565389712146e-7 -5.840210309438236e-7 -5.842091759315225e-7 -7.219318781717053e-7 -7.219033856830455e-7 -7.2187711865531e-7
          -8.614735869742984e-7 -8.614508233379441e-7 -8.613931395936068e-7 -0.0000021582214711735083 -0.000002154565207813562 -0.000002143081952392131
          -0.000002354534790109028 -0.000002348789068718208 -0.000002331098817222453 -0.0000026008853876386954 -0.0000025929174610486014 -0.0000025684423240025776
          -0.0000029204844928407424 -0.0000029098476229970656 -0.000002877170953955736 -0.000003344894482956153 -0.0000033316065634005333 -0.000003291292852690411
          -0.000004363011018178145 -0.000004351394188329275 -0.000004315710076205827 -0.000003911914849123599 -0.0000038966520608520555 -0.000003850867596376368
          -0.000005229165165720079 -0.00000521743400079502 -0.000005181724545333152 -0.00000466131338111575 -0.0000046452710638950165 -0.000004597505002149341
          -0.000006294879937296937 -0.000006283888897679868 -0.000006250564518274541 -0.000005631064039096889 -0.000005615832296857682 -0.000005570416159731623
          -0.000007577904783521413 -0.000007568624831680155 -0.000007540597058924288 -0.0000028339156880095057 -0.0000028330724858312604 -0.000002833492479765078
          -0.0000028327766544136964 -0.000002832839585302403 -0.0000028323328103452123 -0.0000028364939251659763 -0.000002835668439059457 -0.0000028345026859459224
          -0.0000028413138899908487 -0.0000028394915992280672 -0.0000028365626925530323 -0.0000028481934418859464 -0.000002844431745098624 -0.0000028370802830769958
          -0.000002857275613105431 -0.000002852265616771477 -0.000002839661612249753 -0.0000028770993654479213 -0.0000028714251777954485 -0.0000028524664963426606
          -0.000002917255720307291 -0.000002909936560415173 -0.0000028829678535598116 -0.0000029870824893793366 -0.0000029767451610554756 -0.000002940687832066714
          -0.000003323016913477964 -0.0000033094509820252764 -0.0000032621147363753666 -0.000004096915673958211 -0.000003800615993919353 -0.000004077498300426778
          -0.000003783861872826068 -0.00000401621094087133 -0.0000037277709658340222 -1.9793460135599984e-7 0 -2.046627751475688e-7
          0 -2.205244224484411e-7 0 -3.329329836544836e-7 -3.344423739593163e-7 -3.3491341720861117e-7
          -4.5994572234419706e-7 -4.594244331389447e-7 -4.596466303730223e-7 -5.930028211577431e-7 -5.932179667613719e-7 -5.934675686777337e-7
          -7.308225802853194e-7 -7.308065066311833e-7 -7.308157930021589e-7 -8.706508887064654e-7 -8.706359505683136e-7 -8.705770755491913e-7
          -0.0000010021012875275186 -0.0000010020732263528008 -0.0000010019471424394214 -0.0000010115329537595575 -0.0000010115310981025354 -0.0000010114348635159848
          -0.000001143159340469807 -0.0000011431342828727444 -0.0000011430590319596835 -0.0000012841982116082748 -0.000001284189307445788 -0.0000012840985103728294
          -0.0000014253009800537566 -0.0000014253343468546817 -0.000001425466600926049 -0.0000015657189238067538 -0.0000015655525587730496 -0.0000015655644061281569
          -0.0000017048139351655994 -0.0000017042198904752027 -0.000001702973937827162 -0.0000018465635116097023 -0.0000018454094164504426 -0.000001842457245923924
          -0.0000019952821752114063 -0.0000019929499193877818 -0.000001986673853260826 -0.000002380056078689156 -0.0000021193688793101545 -0.0000023738478239755816
          -0.000002114733883222018 -0.0000023544601972432492 -0.000002099988058779689 -0.0000027094232267507114 -0.000002701571911243228 -0.0000026770936623851555
          -0.0000031309056510558964 -0.0000031214176247662407 -0.000003091907945751195 -0.000003672640201521039 -0.0000036618388017787204 -0.000003628328223544844
          -0.0000057862230043122254 -0.000004826985473360582 -0.000005776748723613172 -0.000004817068730924767 -0.0000057482272515649245 -0.0000047869117668567946
          -0.00000692085747546608 -0.000006912442198391099 -0.000006887314029121601 -0.00000823594937303057 -0.000008229312254508292 -0.000008209566964179532
          -0.000009726543814114994 -0.000009722489391631842 -0.000009710437633861259 -0.0000068531437523326036 -0.000004899328104923838 -0.00000684045476238738
          -0.000004878603170785511 -0.000006802167748940026 -0.000004818036219558328 -0.000009083982486160597 -0.000009077597077463287 -0.000009058317995199812
          -0.00001137208933462406 -0.000011371468241889669 -0.00001136968367553856
        </DataArray>
        <DataArray type="Float64" Name="disp_z" format="ascii" RangeMin="-0.0000012865686594651306" RangeMax="0">
          0 0 0 0 -5.8262471630113385e-8 -5.755760831956511e-8
          -5.8099292513898525e-8 -5.640726834341432e-8 -1.1515840168976645e-7 -1.1596644964319302e-7 -1.1431100869242611e-7 -1.1563667215584246e-7
          0 0 -5.6700376294105263e-8 -6.376539129658917e-8 -1.2169882436837988e-7 -1.173395317655786e-7
          0 0 -5.8556785282366043e-8 -5.863286218549992e-8 -1.1691169912323835e-7 -1.1699753575130656e-7
          0 0 -5.826187794376256e-8 -5.8269384736914615e-8 -1.1680644618750141e-7 -1.1685800136252836e-7
          0 0 -5.88315940214102e-8 -5.88166477519789e-8 -1.1759540411161668e-7 -1.175828337700804e-7
          0 0 -5.8965649827975504e-8 -5.897632207117092e-8 -1.1792152277367447e-7 -1.179367794327731e-7
          0 0 -5.91196770317674e-8 -5.910923307956443e-8 -1.182519309641243e-7 -1.1822986463860357e-7
          0 0 -5.930869242154172e-8 -5.930929073534707e-8 -1.1862138798250036e-7 -1.1862353774908736e-7
          0 0 -5.949195951015128e-8 -5.949931755881588e-8 -1.1897933646341797e-7 -1.1898906267031843e-7
          0 0 -5.965244618844058e-8 -5.965587972307161e-8 -1.1930623455772744e-7 -1.1930726348542878e-7
          0 0 -5.982975132058618e-8 -5.982570659187689e-8 -1.1966177708299508e-7 -1.1965973923412844e-7
          0 0 -6.001151306477895e-8 -6.00088324831809e-8 -1.2001834817590587e-7 -1.2001527759843466e-7
          0 0 -6.018083122022459e-8 -6.017945447702134e-8 -1.2036498333252144e-7 -1.2037289052383886e-7
          0 0 -6.03415216938564e-8 -6.030482688504822e-8 -1.2061834329377808e-7 -1.2052902879250947e-7
          0 0 -6.050252769701035e-8 -6.064034168981361e-8 -1.2097029696948593e-7 -1.212735246362287e-7
          0 0 -5.908422924583492e-8 -5.923524177162001e-8 -1.1839664332991682e-7 -1.1789615630009924e-7
          0 0 -5.911318447907302e-8 -5.8772070813017495e-8 -1.1865550321914138e-7 -1.184863678812426e-7
          0 0 -5.8776511008887054e-8 -5.8957975925667396e-8 -1.1769460718535549e-7 -1.1784665286783431e-7
          0 0 -5.8042701461717024e-8 -5.8269970462833846e-8 -1.1672462029560715e-7 -1.1695025304372153e-7
          0 0 -5.7205564183236384e-8 -5.9552501671977754e-8 -1.1677177083050992e-7 -1.1320216721718918e-7
          0 -5.0592221095476596e-8 -1.2509951235521404e-7 0 -5.846548826585977e-8 -1.166265516186764e-7
          0 -5.815390892763333e-8 -1.1683297337030349e-7 0 -5.887353483842365e-8 -1.1757334356340935e-7
          0 -5.8948044401771484e-8 -1.1792947078723807e-7 0 -5.9131969902583674e-8 -1.1825875254945058e-7
          0 -5.931010113540675e-8 -1.1862268298976607e-7 0 -5.948515808547783e-8 -1.1897243546930722e-7
          0 -5.965073533347172e-8 -1.1930348027530494e-7 0 -5.9833366576466e-8 -1.196660645271151e-7
          0 -6.00120220421786e-8 -1.2002344117429633e-7 0 -6.019052873108598e-8 -1.2036719296670056e-7
          0 -6.041665077389294e-8 -1.2074974797354224e-7 0 -6.032433698976101e-8 -1.206522411016095e-7
          0 -5.937861236262686e-8 -1.1970802092918069e-7 0 -5.937039259624685e-8 -1.187564056775608e-7
          0 -5.835172061765756e-8 -1.172939125978594e-7 0 -5.739143649945519e-8 -1.1598341804575075e-7
          0 0 -5.886294857110026e-8 -5.713365491253575e-8 -1.1597738813441948e-7 -1.1577544717415235e-7
          0 -6.1014659554003e-8 -1.15491414018335e-7 0 -5.842051494556079e-8 -1.1649271109380427e-7
          0 -5.8289028497532955e-8 -1.1684302591268234e-7 0 -5.87992896486818e-8 -1.1755682184181776e-7
          0 -5.896702610826057e-8 -1.1793139735808774e-7 0 -5.913660882210499e-8 -1.1827555048492358e-7
          0 -5.9315803921068325e-8 -1.1862841508682951e-7 0 -5.9480704616673086e-8 -1.1896980022372275e-7
          0 -5.965210010794274e-8 -1.193047721190598e-7 0 -5.983356178359914e-8 -1.1966576162399458e-7
          0 -6.000888003612542e-8 -1.2001668104160815e-7 0 -6.020266597517135e-8 -1.2039142300698872e-7
          0 -6.051156675239816e-8 -1.2080000260368634e-7 0 -6.029671039516581e-8 -1.206785661636458e-7
          0 -6.004274003341354e-8 -1.201919062346828e-7 0 -5.904626048786978e-8 -1.1862429796103654e-7
          0 -5.776340977143461e-8 -1.1670698316818352e-7 0 -5.646277059362398e-8 -1.1499792384271069e-7
          0 0 -5.9257240140949554e-8 -5.8012242835730505e-8 -1.1675233457498344e-7 -1.1546918765496847e-7
          0 -5.87703581620207e-8 -1.1627988111575543e-7 0 -5.835934238312262e-8 -1.1617042439779403e-7
          0 -5.836007303088679e-8 -1.1689045972015224e-7 0 -5.877930509507385e-8 -1.1752821145787152e-7
          0 -5.897231986177639e-8 -1.1794956842946112e-7 0 -5.914570076579389e-8 -1.1828639226409783e-7
          0 -5.931294215343188e-8 -1.1863078082013096e-7 0 -5.9499118925822774e-8 -1.1897694924586581e-7
          0 -5.965215613283136e-8 -1.1930520435640975e-7 0 -5.983522822019392e-8 -1.196622176915669e-7
          0 -6.000176115805306e-8 -1.2001447840603897e-7 0 -6.022220823637089e-8 -1.2039954681040096e-7
          0 -6.026464272955068e-8 -1.211253644039759e-7 0 -6.03780044065982e-8 -1.2073143775666932e-7
          0 -5.98679237461299e-8 -1.2017298086442963e-7 0 -5.856242339861479e-8 -1.1826902893084537e-7
          0 -5.7188354391490326e-8 -1.1613830625215376e-7 0 -5.6128987779355126e-8 -1.1528399012985786e-7
          0 0 -5.975276877457698e-8 -5.8330356073147206e-8 -1.1647730341813464e-7 -1.1593385481318961e-7
          0 -5.8508011577666925e-8 -1.1105664964375451e-7 0 -5.7884642060233674e-8 -1.1617616871301142e-7
          0 -5.849592857476787e-8 -1.168466173141376e-7 0 -5.875468640680974e-8 -1.1755874534477857e-7
          0 -5.898516195657765e-8 -1.1795565436954932e-7 0 -5.9149495874194466e-8 -1.1829859701979603e-7
          0 -5.931398712397591e-8 -1.1863263633261567e-7 0 -5.950099384516146e-8 -1.1897800382080879e-7
          0 -5.965100353062144e-8 -1.1930275276181735e-7 0 -5.983748367632866e-8 -1.1966228088041606e-7
          0 -6.000397949973746e-8 -1.200095585745433e-7 0 -6.022281487828195e-8 -1.2039736093760647e-7
          0 -6.02911894711607e-8 -1.211252481618745e-7 0 -6.03495265621639e-8 -1.2078663565345128e-7
          0 -5.942646360375004e-8 -1.1993162724708593e-7 0 -5.824230487828907e-8 -1.1806295495463152e-7
          0 -5.694228887659568e-8 -1.1796747838946752e-7 0 -5.7097938719610366e-8 -1.2392886442485532e-7
          0 0 -5.8077577518219455e-8 -5.77997918349993e-8 -1.1381976697358644e-7 -1.1371325760507456e-7
          0 -5.6642669672741774e-8 -1.1063160343816948e-7 0 -5.788020160715834e-8 -1.1609857622108442e-7
          0 -5.851400384115747e-8 -1.1691681573340622e-7 0 -5.877510798653565e-8 -1.1758435439347641e-7
          0 -5.898752827303525e-8 -1.1796508154042546e-7 0 -5.915311734358819e-8 -1.1830681127150272e-7
          0 -5.9318965748150925e-8 -1.1863610533294793e-7 0 -5.948017171788276e-8 -1.1897041680987967e-7
          0 -5.96492926543013e-8 -1.1929934044214085e-7 0 -5.9845898499415e-8 -1.1967061750403672e-7
          0 -6.001396223001273e-8 -1.200019540177959e-7 0 -6.017424746441986e-8 -1.2033094282854536e-7
          0 -6.047795840904247e-8 -1.2085137002999433e-7 0 -6.014979738039094e-8 -1.2082658519297836e-7
          0 -5.9187251455188475e-8 -1.1989623173690646e-7 0 -5.854224460807319e-8 -1.2029449318580657e-7
          0 -5.981495864027591e-8 -1.285568868142554e-7 0 -6.729768084112868e-8 -1.5039675621450128e-7
          0 0 -4.947409266112859e-8 -5.346733153344278e-8 -1.0060111028593744e-7 -1.0820504514179504e-7
          0 -5.6266450688001724e-8 -1.137232060516117e-7 0 -5.809787944001166e-8 -1.1601293931993447e-7
          0 -5.852001516128012e-8 -1.1709988279201256e-7 0 -5.880335654580842e-8 -1.1759535637957489e-7
          0 -5.898658680040005e-8 -1.1797760514176226e-7 0 -5.915533780590793e-8 -1.1830976022399057e-7
          0 -5.931906763033639e-8 -1.186394329223329e-7 0 -5.9481391059365744e-8 -1.1896903443026611e-7
          0 -5.964960019706812e-8 -1.1929915067941204e-7 0 -5.98697105746076e-8 -1.1969207421020897e-7
          0 -6.00190582207864e-8 -1.1998821930499822e-7 0 -6.00103934819036e-8 -1.2010541994793102e-7
          0 -6.009445347125022e-8 -1.2047856369931602e-7 0 -5.990071500062733e-8 -1.208503500903248e-7
          0 -5.997696937875168e-8 -1.211051569489542e-7 0 -6.275200406094715e-8 -1.298531618730159e-7
          0 -7.343388698729005e-8 -1.5445747201887982e-7 0 -9.645949512773858e-8 -2.0142122265635593e-7
          0 0 -1.653904704855065e-8 -4.709457598140703e-8 -7.228551122091431e-8 -1.0074609878830211e-7
          0 -5.709828585171759e-8 -1.1433489232381076e-7 0 -5.8223946645312926e-8 -1.163590212145116e-7
          0 -5.855476898751641e-8 -1.1721274778104393e-7 0 -5.881309334076367e-8 -1.17627405692863e-7
          0 -5.8987114438544566e-8 -1.1798553422970173e-7 0 -5.915089532304704e-8 -1.1830763343157525e-7
          0 -5.931897683051022e-8 -1.1864001980686858e-7 0 -5.949421414600857e-8 -1.1898785684462358e-7
          0 -5.965491360422246e-8 -1.1931115379206967e-7 0 -5.991181057153241e-8 -1.1971359246623328e-7
          0 -6.001563997613228e-8 -1.1994021631098456e-7 0 -5.9590615766247306e-8 -1.195981835373454e-7
          0 -5.909815019209643e-8 -1.195833348093178e-7 0 -5.968809040857536e-8 -1.208527147379785e-7
          0 -6.408370145937021e-8 -1.267226833709284e-7 0 -7.615613089867805e-8 -1.5270275456436802e-7
          0 -1.0182373252623336e-7 -2.00470969089778e-7 0 -1.4497560604569577e-7 -2.815952097952515e-7
          0 0 -1.4280366950494154e-8 -3.9393354396632264e-8 -1.2555741279839632e-9 -1.0035855708749894e-7
          0 -5.916098341034904e-8 -1.1321455740848016e-7 0 -5.813657470841784e-8 -1.1716152074117332e-7
          0 -5.8656688920319753e-8 -1.1709114721849972e-7 0 -5.8806491392108384e-8 -1.1764654728478637e-7
          0 -5.899673696832258e-8 -1.1796926999108453e-7 0 -5.914264872478148e-8 -1.1829418443500446e-7
          0 -5.9306954527971334e-8 -1.1865357314146425e-7 0 -5.953911345415872e-8 -1.1902387290123001e-7
          0 -5.971014191536055e-8 -1.1930141174823603e-7 0 -5.985834581340767e-8 -1.198195215131957e-7
          0 -5.986267902854882e-8 -1.1994662082522993e-7 0 -5.900231391728708e-8 -1.1828665565128462e-7
          0 -5.79927824405334e-8 -1.1647374353017814e-7 0 -5.991964288197807e-8 -1.213658112123058e-7
          0 -7.185501420799394e-8 -1.47921144935687e-7 0 -9.585882499140267e-8 -1.9701026376715585e-7
          0 -1.3610866084591862e-7 -2.778474740842512e-7 0 -1.994454948730915e-7 -4.0389861393653813e-7
          0 -2.902123556045781e-7 -5.82094416105643e-7 0 -4.0446851524596697e-7 -8.043053976040998e-7
          0 0 -5.6843629167226505e-8 -1.1231404453813526e-7 -1.127688307565214e-7 -2.449444382902855e-7
          0 -5.984679465330285e-8 -1.222090743378101e-7 0 -5.999760349201498e-8 -1.1904156360260561e-7
          0 -5.895772832580918e-8 -1.1811106474338512e-7 0 -5.899367346139383e-8 -1.179704175093385e-7
          0 -5.9012814179564626e-8 -1.1806493189155741e-7 0 -8.29782339563453e-8 -1.694468224386425e-7
          0 -1.1106357115244174e-7 -2.2445502543946766e-7 0 -1.5051054051939202e-7 -3.021655905656094e-7
          0 -2.0473464646058454e-7 -4.087092529187051e-7 0 -2.749067184415171e-7 -5.457851708346797e-7
          0 -3.5922289186992424e-7 -7.200112642102182e-7 0 -3.5725492769166474e-7 -7.066686425372069e-7
          0 -4.26933381512459e-7 -8.551037449860492e-7 0 -4.464575165048396e-7 -8.814851331656508e-7
          0 -4.92040506931703e-7 -9.850988057766078e-7 0 -5.351295688141332e-7 -0.0000010563985669374705
          0 -5.499624655299669e-7 -0.0000011004761374465429 0 0 -5.759737770196734e-8
          -5.796815263355929e-8 -1.1648417366068659e-7 -1.1702341520339422e-7 0 -5.6472621271592995e-8 -1.1547146405426153e-7
          0 -5.5529885359043e-8 -1.1524203015766655e-7 0 -5.6552592399373255e-8 -1.1919607144092848e-7
          0 -6.419233781143823e-8 -1.4337659867940843e-7 0 -8.890668338412001e-8 -1.9905572351829478e-7
          0 -1.389408395105324e-7 -2.8663958776388953e-7 0 -2.119885089273498e-7 -4.0938512248399587e-7
          0 -3.06748040817685e-7 -5.888771067189368e-7 0 0 -5.300380641129199e-7
          -4.221962225606379e-7 -0.000001048243671886293 -8.108418594451243e-7 0 0 -6.98606152417879e-8
          -9.136850961091555e-8 -1.2612248509904434e-7 -2.445109319109022e-7 0 -5.8997359523673495e-8 -1.2308020059218604e-7
          0 -6.026690890917759e-8 -1.1939321211608601e-7 0 -5.9052203559672864e-8 -1.1831053232026031e-7
          0 -5.895483537193611e-8 -1.1786000318893767e-7 0 -5.90748703059511e-8 -1.1806745582128622e-7
          0 -5.920506017009084e-8 -1.1838999506189309e-7 0 -5.919645858638582e-8 -1.1833388166470012e-7
          0 -5.938574909537832e-8 -1.1866090365222029e-7 0 -5.952899042075484e-8 -1.1908493936894237e-7
          0 -5.966878511578119e-8 -1.194975423314683e-7 0 -5.883673390383589e-8 -1.1794355091381564e-7
          0 -5.8527353406409e-8 -1.1774348918271694e-7 0 -6.136690058240871e-8 -1.2417459575749815e-7
          0 -6.801790806478352e-8 -1.3787456485553386e-7 0 0 -1.3978958005649707e-7
          -1.0711042522722383e-7 -2.821603269195849e-7 -2.1717387139127916e-7 0 -1.8098332880962522e-7 -3.6465870067362485e-7
          0 -2.3247644343381276e-7 -4.675618785164938e-7 0 -2.92832691246232e-7 -5.877421022563402e-7
          0 0 -4.356665583888712e-7 -3.7962942675805907e-7 -8.681082855319653e-7 -7.569938510620643e-7
          0 -4.866470134378157e-7 -9.694416858590823e-7 0 -5.290321911709042e-7 -0.0000010538346253499477
          0 -5.59043980841861e-7 -0.0000011137348626942401 0 0 -6.149718231365462e-7
          -6.520819229031962e-7 -0.0000012149066426013307 -0.0000012865686594651306 0 -5.951492424476681e-7 -0.00000118999456375402
          0 -5.720396466612405e-7 -0.0000011396508448616304
        </DataArray>
      </PointData>
      <CellData>
        <DataArray type="Int32" Name="libmesh_elem_id" format="ascii" RangeMin="0" RangeMax="1173">
          0 1 2 3 4 5
          6 7 8 9 10 11
          12 13 14 15 16 17
          18 19 20 21 22 23
          24 25 26 27 28 29
          30 31 32 33 34 35
          36 37 38 39 58 59
          60 61 62 63 64 65
          66 67 68 69 70 71
          72 73 74 75 76 77
          78 79 80 81 82 83
          84 85 86 87 88 89
          90 91 92 93 94 95
          96 97 116 117 118 119
          120 121 122 123 124 125
          126 127 128 129 130 131
          132 133 134 135 136 137
          138 139 140 141 142 143
          144 145 146 147 148 149
          150 151 152 153 154 155
          174 175 176 177 178 179
          180 181 182 183 184 185
          186 187 188 189 190 191
          192 193 194 195 196 197
          198 199 200 201 202 203
          204 205 206 207 208 209
          210 211 212 213 232 233
          234 235 236 237 238 239
          240 241 242 243 244 245
          246 247 248 249 250 251
          252 253 254 255 256 257
          258 259 260 261 262 263
          264 265 266 267 268 269
          270 271 290 291 292 293
          294 295 296 297 298 299
          300 301 302 303 304 305
          306 307 308 309 310 311
          312 313 314 315 316 317
          318 319 320 321 322 323
          324 325 326 327 328 329
          348 349 350 351 352 353
          354 355 356 357 358 359
          360 361 362 363 364 365
          366 367 368 369 370 371
          372 373 374 375 376 377
          378 379 380 381 382 383
          384 385 386 387 406 407
          408 409 410 411 412 413
          414 415 416 417 418 419
          420 421 422 423 424 425
          426 427 428 429 430 431
          432 433 434 435 436 437
          438 439 440 441 442 443
          444 445 464 465 466 467
          468 469 470 471 472 473
          474 475 476 477 478 479
          480 481 482 483 484 485
          486 487 488 489 490 491
          492 493 494 495 496 497
          498 499 500 501 502 503
          504 505 506 507 772 773
          774 775 790 791 792 793
          808 809 810 811 826 827
          828 829 844 845 846 847
          862 863 864 865 880 881
          882 883 898 899 916 917
          934 935 952 953 970 971
          988 989 1006 1007 1024 1025
          1026 1027 1042 1043 1044 1045
          1060 1061 1062 1063 1078 1079
          1080 1081 1096 1097 1098 1099
          1100 1101 1114 1115 1116 1117
          1118 1119 1132 1133 1134 1135
          1136 1137 1150 1151 1152 1153
          1154 1155 1168 1169 1170 1171
          1172 1173
        </DataArray>
        <DataArray type="Int32" Name="subdomain_id" format="ascii" RangeMin="103" RangeMax="105">
          103 103 103 103 103 103
          103 103 103 103 103 103
          103 103 103 103 103 103
          103 103 103 103 103 103
          103 103 103 103 103 103
          103 103 103 103 103 103
          103 103 103 103 103 103
          103 103 103 103 103 103
          103 103 103 103 103 103
          103 103 103 103 103 103
          103 103 103 103 103 103
          103 103 103 103 103 103
          103 103 103 103 103 103
          103 103 103 103 103 103
          103 103 103 103 103 103
          103 103 103 103 103 103
          103 103 103 103 103 103
          103 103 103 103 103 103
          103 103 103 103 103 103
          103 103 103 103 103 103
          103 103 103 103 103 103
          103 103 103 103 103 103
          103 103 103 103 103 103
          103 103 103 103 103 103
          103 103 103 103 103 103
          103 103 103 103 103 103
          103 103 103 103 103 103
          103 103 103 103 103 103
          103 103 103 103 103 103
          103 103 103 103 103 103
          103 103 103 103 103 103
          103 103 103 103 103 103
          103 103 103 103 103 103
          103 103 103 103 103 103
          103 103 103 103 103 103
          103 103 103 103 103 103
          103 103 103 103 103 103
          103 103 103 103 103 103
          103 103 103 103 103 103
          103 103 103 103 103 103
          103 103 103 103 103 103
          103 103 103 103 103 103
          103 103 103 103 103 103
          103 103 103 103 103 103
          103 103 103 103 103 103
          103 103 103 103 103 103
          103 103 103 103 103 103
          103 103 103 103 103 103
          103 103 103 103 103 103
          103 103 103 103 103 103
          103 103 103 103 103 103
          103 103 103 103 103 103
          103 103 103 103 103 103
          103 103 103 103 103 103
          103 103 103 103 103 103
          103 103 103 103 103 103
          103 103 103 103 103 103
          103 103 103 103 103 103
          103 103 103 103 103 103
          103 103 103 103 103 103
          103 103 103 103 105 105
          105 105 105 105 105 105
          105 105 105 105 105 105
          105 105 105 105 105 105
          105 105 105 105 105 105
          105 105 105 105 105 105
          105 105 105 105 105 105
          105 105 105 105 105 105
          105 105 105 105 105 105
          105 105 105 105 105 105
          105 105 105 105 105 105
          105 105 105 105 105 105
          105 105 105 105 105 105
          105 105 105 105 105 105
          105 105 105 105 105 105
          105 105
        </DataArray>
        <DataArray type="Int32" Name="processor_id" format="ascii" RangeMin="7" RangeMax="7">
          7 7 7 7 7 7
          7 7 7 7 7 7
          7 7 7 7 7 7
          7 7 7 7 7 7
          7 7 7 7 7 7
          7 7 7 7 7 7
          7 7 7 7 7 7
          7 7 7 7 7 7
          7 7 7 7 7 7
          7 7 7 7 7 7
          7 7 7 7 7 7
          7 7 7 7 7 7
          7 7 7 7 7 7
          7 7 7 7 7 7
          7 7 7 7 7 7
          7 7 7 7 7 7
          7 7 7 7 7 7
          7 7 7 7 7 7
          7 7 7 7 7 7
          7 7 7 7 7 7
          7 7 7 7 7 7
          7 7 7 7 7 7
          7 7 7 7 7 7
          7 7 7 7 7 7
          7 7 7 7 7 7
          7 7 7 7 7 7
          7 7 7 7 7 7
          7 7 7 7 7 7
          7 7 7 7 7 7
          7 7 7 7 7 7
          7 7 7 7 7 7
          7 7 7 7 7 7
          7 7 7 7 7 7
          7 7 7 7 7 7
          7 7 7 7 7 7
          7 7 7 7 7 7
          7 7 7 7 7 7
          7 7 7 7 7 7
          7 7 7 7 7 7
          7 7 7 7 7 7
          7 7 7 7 7 7
          7 7 7 7 7 7
          7 7 7 7 7 7
          7 7 7 7 7 7
          7 7 7 7 7 7
          7 7 7 7 7 7
          7 7 7 7 7 7
          7 7 7 7 7 7
          7 7 7 7 7 7
          7 7 7 7 7 7
          7 7 7 7 7 7
          7 7 7 7 7 7
          7 7 7 7 7 7
          7 7 7 7 7 7
          7 7 7 7 7 7
          7 7 7 7 7 7
          7 7 7 7 7 7
          7 7 7 7 7 7
          7 7 7 7 7 7
          7 7 7 7 7 7
          7 7 7 7 7 7
          7 7 7 7 7 7
          7 7 7 7 7 7
          7 7 7 7 7 7
          7 7 7 7 7 7
          7 7 7 7 7 7
          7 7 7 7 7 7
          7 7 7 7 7 7
          7 7 7 7 7 7
          7 7 7 7 7 7
          7 7 7 7 7 7
          7 7 7 7 7 7
          7 7 7 7 7 7
          7 7 7 7 7 7
          7 7 7 7 7 7
          7 7
        </DataArray>
      </CellData>
      <Points>
        <DataArray type="Float64" Name="Points" NumberOfComponents="3" format="ascii" RangeMin="0" RangeMax="0.009803689505302022">
          0 0 0 0.00011111111111093 0 0
          0.00011111111111095 0.00041379310344969 0 0 0.00041379310344996 0
          0 0 0.00015 0.00011111111111093 0 0.00015
          0.00011111111111095 0.00041379310344969 0.00015 0 0.00041379310344996 0.00015
          0 0 0.0003 0.00011111111111093 0 0.0003
          0.00011111111111095 0.00041379310344969 0.0003 0 0.00041379310344996 0.0003
          0.00011111111111096 0.00082758620689912 0 0 0.00082758620689964 0
          0.00011111111111096 0.00082758620689912 0.00015 0 0.00082758620689964 0.00015
          0.00011111111111096 0.00082758620689912 0.0003 0 0.00082758620689964 0.0003
          0.00011111111111098 0.0012413793103467 0 0 0.0012413793103472 0
          0.00011111111111098 0.0012413793103467 0.00015 0 0.0012413793103472 0.00015
          0.00011111111111098 0.0012413793103467 0.0003 0 0.0012413793103472 0.0003
          0.00011111111111099 0.0016551724137963 0 0 0.0016551724137971 0
          0.00011111111111099 0.0016551724137963 0.00015 0 0.0016551724137971 0.00015
          0.00011111111111099 0.0016551724137963 0.0003 0 0.0016551724137971 0.0003
          0.00011111111111101 0.002068965517246 0 0 0.0020689655172471 0
          0.00011111111111101 0.002068965517246 0.00015 0 0.0020689655172471 0.00015
          0.00011111111111101 0.002068965517246 0.0003 0 0.0020689655172471 0.0003
          0.00011111111111102 0.0024827586206956 0 0 0.002482758620697 0
          0.00011111111111102 0.0024827586206956 0.00015 0 0.002482758620697 0.00015
          0.00011111111111102 0.0024827586206956 0.0003 0 0.002482758620697 0.0003
          0.00011111111111104 0.0028965517241444 0 0 0.002896551724146 0
          0.00011111111111104 0.0028965517241444 0.00015 0 0.002896551724146 0.00015
          0.00011111111111104 0.0028965517241444 0.0003 0 0.002896551724146 0.0003
          0.00011111111111105 0.0033103448275919 0 0 0.0033103448275936 0
          0.00011111111111105 0.0033103448275919 0.00015 0 0.0033103448275936 0.00015
          0.00011111111111105 0.0033103448275919 0.0003 0 0.0033103448275936 0.0003
          0.00011111111111107 0.0037241379310415 0 0 0.0037241379310435 0
          0.00011111111111107 0.0037241379310415 0.00015 0 0.0037241379310435 0.00015
          0.00011111111111107 0.0037241379310415 0.0003 0 0.0037241379310435 0.0003
          0.00011111111111108 0.0041379310344912 0 0 0.0041379310344935 0
          0.00011111111111108 0.0041379310344912 0.00015 0 0.0041379310344935 0.00015
          0.00011111111111108 0.0041379310344912 0.0003 0 0.0041379310344935 0.0003
          0.0001111111111111 0.0045517241379399 0 0 0.0045517241379424 0
          0.0001111111111111 0.0045517241379399 0.00015 0 0.0045517241379424 0.00015
          0.0001111111111111 0.0045517241379399 0.0003 0 0.0045517241379424 0.0003
          0.00011111111111111 0.004965517241389 0 0 0.0049655172413917 0
          0.00011111111111111 0.004965517241389 0.00015 0 0.0049655172413917 0.00015
          0.00011111111111111 0.004965517241389 0.0003 0 0.0049655172413917 0.0003
          0.00011111111111113 0.0053793103448383 0 0 0.0053793103448414 0
          0.00011111111111113 0.0053793103448383 0.00015 0 0.0053793103448414 0.00015
          0.00011111111111113 0.0053793103448383 0.0003 0 0.0053793103448414 0.0003
          0.00011111111111114 0.005793103448287 0 0 0.0057931034482903 0
          0.00011111111111114 0.005793103448287 0.00015 0 0.0057931034482903 0.00015
          0.00011111111111114 0.005793103448287 0.0003 0 0.0057931034482903 0.0003
          0.00011111111111116 0.0062068965517355 0 0 0.0062068965517387 0
          0.00011111111111116 0.0062068965517355 0.00015 0 0.0062068965517387 0.00015
          0.00011111111111116 0.0062068965517355 0.0003 0 0.0062068965517387 0.0003
          0.00011111111111117 0.006620689655183 0 0 0.006620689655186 0
          0.00011111111111117 0.006620689655183 0.00015 0 0.006620689655186 0.00015
          0.00011111111111117 0.006620689655183 0.0003 0 0.006620689655186 0.0003
          0.00011111111111119 0.0070344827586302 0 0 0.007034482758633 0
          0.00011111111111119 0.0070344827586302 0.00015 0 0.007034482758633 0.00015
          0.00011111111111119 0.0070344827586302 0.0003 0 0.007034482758633 0.0003
          0.0001111111111112 0.0074482758620775 0 0 0.00744827586208 0
          0.0001111111111112 0.0074482758620775 0.00015 0 0.00744827586208 0.00015
          0.0001111111111112 0.0074482758620775 0.0003 0 0.00744827586208 0.0003
          0.00011111111111122 0.0078620689655252 0 0 0.0078620689655276 0
          0.00011111111111122 0.0078620689655252 0.00015 0 0.0078620689655276 0.00015
          0.00011111111111122 0.0078620689655252 0.0003 0 0.0078620689655276 0.0003
          0.00022222222222175 0 0 0.00022222222222178 0.00041379310344941 0
          0.00022222222222175 0 0.00015 0.00022222222222178 0.00041379310344941 0.00015
          0.00022222222222175 0 0.0003 0.00022222222222178 0.00041379310344941 0.0003
          0.00022222222222182 0.0008275862068986 0 0.00022222222222182 0.0008275862068986 0.00015
          0.00022222222222182 0.0008275862068986 0.0003 0.00022222222222185 0.0012413793103461 0
          0.00022222222222185 0.0012413793103461 0.00015 0.00022222222222185 0.0012413793103461 0.0003
          0.00022222222222188 0.0016551724137956 0 0.00022222222222188 0.0016551724137956 0.00015
          0.00022222222222188 0.0016551724137956 0.0003 0.00022222222222192 0.0020689655172449 0
          0.00022222222222192 0.0020689655172449 0.00015 0.00022222222222192 0.0020689655172449 0.0003
          0.00022222222222195 0.0024827586206942 0 0.00022222222222195 0.0024827586206942 0.00015
          0.00022222222222195 0.0024827586206942 0.0003 0.00022222222222199 0.0028965517241428 0
          0.00022222222222199 0.0028965517241428 0.00015 0.00022222222222199 0.0028965517241428 0.0003
          0.00022222222222202 0.0033103448275902 0 0.00022222222222202 0.0033103448275902 0.00015
          0.00022222222222202 0.0033103448275902 0.0003 0.00022222222222205 0.0037241379310395 0
          0.00022222222222205 0.0037241379310395 0.00015 0.00022222222222205 0.0037241379310395 0.0003
          0.00022222222222209 0.0041379310344889 0 0.00022222222222209 0.0041379310344889 0.00015
          0.00022222222222209 0.0041379310344889 0.0003 0.00022222222222212 0.0045517241379374 0
          0.00022222222222212 0.0045517241379374 0.00015 0.00022222222222212 0.0045517241379374 0.0003
          0.00022222222222216 0.0049655172413862 0 0.00022222222222216 0.0049655172413862 0.00015
          0.00022222222222216 0.0049655172413862 0.0003 0.00022222222222219 0.0053793103448353 0
          0.00022222222222219 0.0053793103448353 0.00015 0.00022222222222219 0.0053793103448353 0.0003
          0.00022222222222222 0.0057931034482838 0 0.00022222222222222 0.0057931034482838 0.00015
          0.00022222222222222 0.0057931034482838 0.0003 0.00022222222222226 0.0062068965517323 0
          0.00022222222222226 0.0062068965517323 0.00015 0.00022222222222226 0.0062068965517323 0.0003
          0.00022222222222229 0.0066206896551799 0 0.00022222222222229 0.0066206896551799 0.00015
          0.00022222222222229 0.0066206896551799 0.0003 0.00022222222222232 0.0070344827586275 0
          0.00022222222222232 0.0070344827586275 0.00015 0.00022222222222232 0.0070344827586275 0.0003
          0.00022222222222236 0.007448275862075 0 0.00022222222222236 0.007448275862075 0.00015
          0.00022222222222236 0.007448275862075 0.0003 0.00022222222222239 0.0078620689655229 0
          0.00022222222222239 0.0078620689655229 0.00015 0.00022222222222239 0.0078620689655229 0.0003
          0.00033333333333257 0 0 0.00033333333333262 0.00041379310344914 0
          0.00033333333333257 0 0.00015 0.00033333333333262 0.00041379310344914 0.00015
          0.00033333333333257 0 0.0003 0.00033333333333262 0.00041379310344914 0.0003
          0.00033333333333268 0.00082758620689808 0 0.00033333333333268 0.00082758620689808 0.00015
          0.00033333333333268 0.00082758620689808 0.0003 0.00033333333333273 0.0012413793103456 0
          0.00033333333333273 0.0012413793103456 0.00015 0.00033333333333273 0.0012413793103456 0.0003
          0.00033333333333278 0.0016551724137948 0 0.00033333333333278 0.0016551724137948 0.00015
          0.00033333333333278 0.0016551724137948 0.0003 0.00033333333333283 0.0020689655172438 0
          0.00033333333333283 0.0020689655172438 0.00015 0.00033333333333283 0.0020689655172438 0.0003
          0.00033333333333289 0.0024827586206928 0 0.00033333333333289 0.0024827586206928 0.00015
          0.00033333333333289 0.0024827586206928 0.0003 0.00033333333333294 0.0028965517241412 0
          0.00033333333333294 0.0028965517241412 0.00015 0.00033333333333294 0.0028965517241412 0.0003
          0.00033333333333299 0.0033103448275885 0 0.00033333333333299 0.0033103448275885 0.00015
          0.00033333333333299 0.0033103448275885 0.0003 0.00033333333333305 0.0037241379310375 0
          0.00033333333333305 0.0037241379310375 0.00015 0.00033333333333305 0.0037241379310375 0.0003
          0.0003333333333331 0.0041379310344865 0 0.0003333333333331 0.0041379310344865 0.00015
          0.0003333333333331 0.0041379310344865 0.0003 0.00033333333333315 0.0045517241379349 0
          0.00033333333333315 0.0045517241379349 0.00015 0.00033333333333315 0.0045517241379349 0.0003
          0.0003333333333332 0.0049655172413834 0 0.0003333333333332 0.0049655172413834 0.00015
          0.0003333333333332 0.0049655172413834 0.0003 0.00033333333333326 0.0053793103448322 0
          0.00033333333333326 0.0053793103448322 0.00015 0.00033333333333326 0.0053793103448322 0.0003
          0.00033333333333331 0.0057931034482806 0 0.00033333333333331 0.0057931034482806 0.00015
          0.00033333333333331 0.0057931034482806 0.0003 0.00033333333333336 0.006206896551729 0
          0.00033333333333336 0.006206896551729 0.00015 0.00033333333333336 0.006206896551729 0.0003
          0.00033333333333342 0.0066206896551769 0 0.00033333333333342 0.0066206896551769 0.00015
          0.00033333333333342 0.0066206896551769 0.0003 0.00033333333333347 0.0070344827586248 0
          0.00033333333333347 0.0070344827586248 0.00015 0.00033333333333347 0.0070344827586248 0.0003
          0.00033333333333352 0.0074482758620725 0 0.00033333333333352 0.0074482758620725 0.00015
          0.00033333333333352 0.0074482758620725 0.0003 0.00033333333333357 0.0078620689655205 0
          0.00033333333333357 0.0078620689655205 0.00015 0.00033333333333357 0.0078620689655205 0.0003
          0.00044444444444337 0 0 0.00044444444444345 0.00041379310344886 0
          0.00044444444444337 0 0.00015 0.00044444444444345 0.00041379310344886 0.00015
          0.00044444444444337 0 0.0003 0.00044444444444345 0.00041379310344886 0.0003
          0.00044444444444352 0.00082758620689756 0 0.00044444444444352 0.00082758620689756 0.00015
          0.00044444444444352 0.00082758620689756 0.0003 0.00044444444444359 0.0012413793103451 0
          0.00044444444444359 0.0012413793103451 0.00015 0.00044444444444359 0.0012413793103451 0.0003
          0.00044444444444367 0.001655172413794 0 0.00044444444444367 0.001655172413794 0.00015
          0.00044444444444367 0.001655172413794 0.0003 0.00044444444444374 0.0020689655172427 0
          0.00044444444444374 0.0020689655172427 0.00015 0.00044444444444374 0.0020689655172427 0.0003
          0.00044444444444382 0.0024827586206914 0 0.00044444444444382 0.0024827586206914 0.00015
          0.00044444444444382 0.0024827586206914 0.0003 0.00044444444444389 0.0028965517241395 0
          0.00044444444444389 0.0028965517241395 0.00015 0.00044444444444389 0.0028965517241395 0.0003
          0.00044444444444397 0.0033103448275869 0 0.00044444444444397 0.0033103448275869 0.00015
          0.00044444444444397 0.0033103448275869 0.0003 0.00044444444444404 0.0037241379310355 0
          0.00044444444444404 0.0037241379310355 0.00015 0.00044444444444404 0.0037241379310355 0.0003
          0.00044444444444412 0.0041379310344842 0 0.00044444444444412 0.0041379310344842 0.00015
          0.00044444444444412 0.0041379310344842 0.0003 0.00044444444444419 0.0045517241379324 0
          0.00044444444444419 0.0045517241379324 0.00015 0.00044444444444419 0.0045517241379324 0.0003
          0.00044444444444426 0.0049655172413807 0 0.00044444444444426 0.0049655172413807 0.00015
          0.00044444444444426 0.0049655172413807 0.0003 0.00044444444444434 0.0053793103448292 0
          0.00044444444444434 0.0053793103448292 0.00015 0.00044444444444434 0.0053793103448292 0.0003
          0.00044444444444441 0.0057931034482774 0 0.00044444444444441 0.0057931034482774 0.00015
          0.00044444444444441 0.0057931034482774 0.0003 0.00044444444444449 0.0062068965517258 0
          0.00044444444444449 0.0062068965517258 0.00015 0.00044444444444449 0.0062068965517258 0.0003
          0.00044444444444456 0.0066206896551738 0 0.00044444444444456 0.0066206896551738 0.00015
          0.00044444444444456 0.0066206896551738 0.0003 0.00044444444444464 0.007034482758622 0
          0.00044444444444464 0.007034482758622 0.00015 0.00044444444444464 0.007034482758622 0.0003
          0.00044444444444471 0.00744827586207 0 0.00044444444444471 0.00744827586207 0.00015
          0.00044444444444471 0.00744827586207 0.0003 0.00044444444444479 0.0078620689655182 0
          0.00044444444444479 0.0078620689655182 0.00015 0.00044444444444479 0.0078620689655182 0.0003
          0.00055555555555442 0 0 0.0005555555555545 0.00041379310344859 0
          0.00055555555555442 0 0.00015 0.0005555555555545 0.00041379310344859 0.00015
          0.00055555555555442 0 0.0003 0.0005555555555545 0.00041379310344859 0.0003
          0.00055555555555458 0.00082758620689704 0 0.00055555555555458 0.00082758620689704 0.00015
          0.00055555555555458 0.00082758620689704 0.0003 0.00055555555555465 0.0012413793103446 0
          0.00055555555555465 0.0012413793103446 0.00015 0.00055555555555465 0.0012413793103446 0.0003
          0.00055555555555473 0.0016551724137932 0 0.00055555555555473 0.0016551724137932 0.00015
          0.00055555555555473 0.0016551724137932 0.0003 0.00055555555555481 0.0020689655172416 0
          0.00055555555555481 0.0020689655172416 0.00015 0.00055555555555481 0.0020689655172416 0.0003
          0.00055555555555489 0.0024827586206899 0 0.00055555555555489 0.0024827586206899 0.00015
          0.00055555555555489 0.0024827586206899 0.0003 0.00055555555555497 0.0028965517241379 0
          0.00055555555555497 0.0028965517241379 0.00015 0.00055555555555497 0.0028965517241379 0.0003
          0.00055555555555504 0.0033103448275852 0 0.00055555555555504 0.0033103448275852 0.00015
          0.00055555555555504 0.0033103448275852 0.0003 0.00055555555555512 0.0037241379310336 0
          0.00055555555555512 0.0037241379310336 0.00015 0.00055555555555512 0.0037241379310336 0.0003
          0.0005555555555552 0.0041379310344819 0 0.0005555555555552 0.0041379310344819 0.00015
          0.0005555555555552 0.0041379310344819 0.0003 0.00055555555555528 0.0045517241379299 0
          0.00055555555555528 0.0045517241379299 0.00015 0.00055555555555528 0.0045517241379299 0.0003
          0.00055555555555535 0.0049655172413779 0 0.00055555555555535 0.0049655172413779 0.00015
          0.00055555555555535 0.0049655172413779 0.0003 0.00055555555555543 0.0053793103448261 0
          0.00055555555555543 0.0053793103448261 0.00015 0.00055555555555543 0.0053793103448261 0.0003
          0.00055555555555551 0.0057931034482741 0 0.00055555555555551 0.0057931034482741 0.00015
          0.00055555555555551 0.0057931034482741 0.0003 0.00055555555555559 0.0062068965517226 0
          0.00055555555555559 0.0062068965517226 0.00015 0.00055555555555559 0.0062068965517226 0.0003
          0.00055555555555566 0.0066206896551708 0 0.00055555555555566 0.0066206896551708 0.00015
          0.00055555555555566 0.0066206896551708 0.0003 0.00055555555555574 0.0070344827586193 0
          0.00055555555555574 0.0070344827586193 0.00015 0.00055555555555574 0.0070344827586193 0.0003
          0.00055555555555582 0.0074482758620675 0 0.00055555555555582 0.0074482758620675 0.00015
          0.00055555555555582 0.0074482758620675 0.0003 0.0005555555555559 0.0078620689655158 0
          0.0005555555555559 0.0078620689655158 0.00015 0.0005555555555559 0.0078620689655158 0.0003
          0.00066666666666586 0 0 0.0006666666666659 0.00041379310344831 0
          0.00066666666666586 0 0.00015 0.0006666666666659 0.00041379310344831 0.00015
          0.00066666666666586 0 0.0003 0.0006666666666659 0.00041379310344831 0.0003
          0.00066666666666595 0.00082758620689653 0 0.00066666666666595 0.00082758620689653 0.00015
          0.00066666666666595 0.00082758620689653 0.0003 0.00066666666666599 0.0012413793103441 0
          0.00066666666666599 0.0012413793103441 0.00015 0.00066666666666599 0.0012413793103441 0.0003
          0.00066666666666604 0.0016551724137924 0 0.00066666666666604 0.0016551724137924 0.00015
          0.00066666666666604 0.0016551724137924 0.0003 0.00066666666666608 0.0020689655172404 0
          0.00066666666666608 0.0020689655172404 0.00015 0.00066666666666608 0.0020689655172404 0.0003
          0.00066666666666613 0.0024827586206885 0 0.00066666666666613 0.0024827586206885 0.00015
          0.00066666666666613 0.0024827586206885 0.0003 0.00066666666666617 0.0028965517241363 0
          0.00066666666666617 0.0028965517241363 0.00015 0.00066666666666617 0.0028965517241363 0.0003
          0.00066666666666622 0.0033103448275835 0 0.00066666666666622 0.0033103448275835 0.00015
          0.00066666666666622 0.0033103448275835 0.0003 0.00066666666666626 0.0037241379310316 0
          0.00066666666666626 0.0037241379310316 0.00015 0.00066666666666626 0.0037241379310316 0.0003
          0.0006666666666663 0.0041379310344796 0 0.0006666666666663 0.0041379310344796 0.00015
          0.0006666666666663 0.0041379310344796 0.0003 0.00066666666666635 0.0045517241379274 0
          0.00066666666666635 0.0045517241379274 0.00015 0.00066666666666635 0.0045517241379274 0.0003
          0.00066666666666639 0.0049655172413752 0 0.00066666666666639 0.0049655172413752 0.00015
          0.00066666666666639 0.0049655172413752 0.0003 0.00066666666666644 0.0053793103448231 0
          0.00066666666666644 0.0053793103448231 0.00015 0.00066666666666644 0.0053793103448231 0.0003
          0.00066666666666648 0.0057931034482709 0 0.00066666666666648 0.0057931034482709 0.00015
          0.00066666666666648 0.0057931034482709 0.0003 0.00066666666666653 0.0062068965517194 0
          0.00066666666666653 0.0062068965517194 0.00015 0.00066666666666653 0.0062068965517194 0.0003
          0.00066666666666657 0.0066206896551677 0 0.00066666666666657 0.0066206896551677 0.00015
          0.00066666666666657 0.0066206896551677 0.0003 0.00066666666666661 0.0070344827586165 0
          0.00066666666666661 0.0070344827586165 0.00015 0.00066666666666661 0.0070344827586165 0.0003
          0.00066666666666666 0.0074482758620651 0 0.00066666666666666 0.0074482758620651 0.00015
          0.00066666666666666 0.0074482758620651 0.0003 0.0006666666666667 0.0078620689655135 0
          0.0006666666666667 0.0078620689655135 0.00015 0.0006666666666667 0.0078620689655135 0.0003
          0.00077777777777724 0 0 0.00077777777777728 0.00041379310344804 0
          0.00077777777777724 0 0.00015 0.00077777777777728 0.00041379310344804 0.00015
          0.00077777777777724 0 0.0003 0.00077777777777728 0.00041379310344804 0.0003
          0.00077777777777731 0.00082758620689601 0 0.00077777777777731 0.00082758620689601 0.00015
          0.00077777777777731 0.00082758620689601 0.0003 0.00077777777777734 0.0012413793103436 0
          0.00077777777777734 0.0012413793103436 0.00015 0.00077777777777734 0.0012413793103436 0.0003
          0.00077777777777737 0.0016551724137916 0 0.00077777777777737 0.0016551724137916 0.00015
          0.00077777777777737 0.0016551724137916 0.0003 0.0007777777777774 0.0020689655172393 0
          0.0007777777777774 0.0020689655172393 0.00015 0.0007777777777774 0.0020689655172393 0.0003
          0.00077777777777743 0.0024827586206871 0 0.00077777777777743 0.0024827586206871 0.00015
          0.00077777777777743 0.0024827586206871 0.0003 0.00077777777777747 0.0028965517241347 0
          0.00077777777777747 0.0028965517241347 0.00015 0.00077777777777747 0.0028965517241347 0.0003
          0.0007777777777775 0.0033103448275818 0 0.0007777777777775 0.0033103448275818 0.00015
          0.0007777777777775 0.0033103448275818 0.0003 0.00077777777777753 0.0037241379310296 0
          0.00077777777777753 0.0037241379310296 0.00015 0.00077777777777753 0.0037241379310296 0.0003
          0.00077777777777756 0.0041379310344773 0 0.00077777777777756 0.0041379310344773 0.00015
          0.00077777777777756 0.0041379310344773 0.0003 0.00077777777777759 0.0045517241379249 0
          0.00077777777777759 0.0045517241379249 0.00015 0.00077777777777759 0.0045517241379249 0.0003
          0.00077777777777762 0.0049655172413724 0 0.00077777777777762 0.0049655172413724 0.00015
          0.00077777777777762 0.0049655172413724 0.0003 0.00077777777777765 0.00537931034482 0
          0.00077777777777765 0.00537931034482 0.00015 0.00077777777777765 0.00537931034482 0.0003
          0.00077777777777769 0.0057931034482677 0 0.00077777777777769 0.0057931034482677 0.00015
          0.00077777777777769 0.0057931034482677 0.0003 0.00077777777777772 0.0062068965517161 0
          0.00077777777777772 0.0062068965517161 0.00015 0.00077777777777772 0.0062068965517161 0.0003
          0.00077777777777775 0.0066206896551647 0 0.00077777777777775 0.0066206896551647 0.00015
          0.00077777777777775 0.0066206896551647 0.0003 0.00077777777777778 0.0070344827586137 0
          0.00077777777777778 0.0070344827586137 0.00015 0.00077777777777778 0.0070344827586137 0.0003
          0.00077777777777781 0.0074482758620625 0 0.00077777777777781 0.0074482758620625 0.00015
          0.00077777777777781 0.0074482758620625 0.0003 0.00077777777777784 0.0078620689655112 0
          0.00077777777777784 0.0078620689655112 0.00015 0.00077777777777784 0.0078620689655112 0.0003
          0.00088888888888862 0 0 0.00088888888888863 0.00041379310344776 0
          0.00088888888888862 0 0.00015 0.00088888888888863 0.00041379310344776 0.00015
          0.00088888888888862 0 0.0003 0.00088888888888863 0.00041379310344776 0.0003
          0.00088888888888864 0.00082758620689549 0 0.00088888888888864 0.00082758620689549 0.00015
          0.00088888888888864 0.00082758620689549 0.0003 0.00088888888888865 0.0012413793103431 0
          0.00088888888888865 0.0012413793103431 0.00015 0.00088888888888865 0.0012413793103431 0.0003
          0.00088888888888866 0.0016551724137908 0 0.00088888888888866 0.0016551724137908 0.00015
          0.00088888888888866 0.0016551724137908 0.0003 0.00088888888888867 0.0020689655172382 0
          0.00088888888888867 0.0020689655172382 0.00015 0.00088888888888867 0.0020689655172382 0.0003
          0.00088888888888868 0.0024827586206857 0 0.00088888888888868 0.0024827586206857 0.00015
          0.00088888888888868 0.0024827586206857 0.0003 0.00088888888888868 0.002896551724133 0
          0.00088888888888868 0.002896551724133 0.00015 0.00088888888888868 0.002896551724133 0.0003
          0.00088888888888869 0.0033103448275802 0 0.00088888888888869 0.0033103448275802 0.00015
          0.00088888888888869 0.0033103448275802 0.0003 0.0008888888888887 0.0037241379310276 0
          0.0008888888888887 0.0037241379310276 0.00015 0.0008888888888887 0.0037241379310276 0.0003
          0.00088888888888871 0.004137931034475 0 0.00088888888888871 0.004137931034475 0.00015
          0.00088888888888871 0.004137931034475 0.0003 0.00088888888888872 0.0045517241379224 0
          0.00088888888888872 0.0045517241379224 0.00015 0.00088888888888872 0.0045517241379224 0.0003
          0.00088888888888873 0.0049655172413697 0 0.00088888888888873 0.0049655172413697 0.00015
          0.00088888888888873 0.0049655172413697 0.0003 0.00088888888888874 0.005379310344817 0
          0.00088888888888874 0.005379310344817 0.00015 0.00088888888888874 0.005379310344817 0.0003
          0.00088888888888875 0.0057931034482644 0 0.00088888888888875 0.0057931034482644 0.00015
          0.00088888888888875 0.0057931034482644 0.0003 0.00088888888888876 0.0062068965517129 0
          0.00088888888888876 0.0062068965517129 0.00015 0.00088888888888876 0.0062068965517129 0.0003
          0.00088888888888877 0.0066206896551616 0 0.00088888888888877 0.0066206896551616 0.00015
          0.00088888888888877 0.0066206896551616 0.0003 0.00088888888888877 0.007034482758611 0
          0.00088888888888877 0.007034482758611 0.00015 0.00088888888888877 0.007034482758611 0.0003
          0.00088888888888878 0.00744827586206 0 0.00088888888888878 0.00744827586206 0.00015
          0.00088888888888878 0.00744827586206 0.0003 0.00088888888888879 0.0078620689655088 0
          0.00088888888888879 0.0078620689655088 0.00015 0.00088888888888879 0.0078620689655088 0.0003
          0.001 0 0 0.001 0.00041379310344749 0
          0.001 0 0.00015 0.001 0.00041379310344749 0.00015
          0.001 0 0.0003 0.001 0.00041379310344749 0.0003
          0.001 0.00082758620689497 0 0.001 0.00082758620689497 0.00015
          0.001 0.00082758620689497 0.0003 0.001 0.0012413793103426 0
          0.001 0.0012413793103426 0.00015 0.001 0.0012413793103426 0.0003
          0.001 0.0016551724137901 0 0.001 0.0016551724137901 0.00015
          0.001 0.0016551724137901 0.0003 0.001 0.0020689655172371 0
          0.001 0.0020689655172371 0.00015 0.001 0.0020689655172371 0.0003
          0.001 0.0024827586206843 0 0.001 0.0024827586206843 0.00015
          0.001 0.0024827586206843 0.0003 0.001 0.0028965517241314 0
          0.001 0.0028965517241314 0.00015 0.001 0.0028965517241314 0.0003
          0.001 0.0033103448275785 0 0.001 0.0033103448275785 0.00015
          0.001 0.0033103448275785 0.0003 0.001 0.0037241379310256 0
          0.001 0.0037241379310256 0.00015 0.001 0.0037241379310256 0.0003
          0.001 0.0041379310344727 0 0.001 0.0041379310344727 0.00015
          0.001 0.0041379310344727 0.0003 0.001 0.0045517241379199 0
          0.001 0.0045517241379199 0.00015 0.001 0.0045517241379199 0.0003
          0.001 0.0049655172413669 0 0.001 0.0049655172413669 0.00015
          0.001 0.0049655172413669 0.0003 0.001 0.0053793103448139 0
          0.001 0.0053793103448139 0.00015 0.001 0.0053793103448139 0.0003
          0.001 0.0057931034482612 0 0.001 0.0057931034482612 0.00015
          0.001 0.0057931034482612 0.0003 0.001 0.0062068965517097 0
          0.001 0.0062068965517097 0.00015 0.001 0.0062068965517097 0.0003
          0.001 0.0066206896551586 0 0.001 0.0066206896551586 0.00015
          0.001 0.0066206896551586 0.0003 0.001 0.0070344827586082 0
          0.001 0.0070344827586082 0.00015 0.001 0.0070344827586082 0.0003
          0.001 0.0074482758620575 0 0.001 0.0074482758620575 0.00015
          0.001 0.0074482758620575 0.0003 0.001 0.0078620689655065 0
          0.001 0.0078620689655065 0.00015 0.001 0.0078620689655065 0.0003
          0.001 0.0082758620689564 0 0.001 0.0082758620689564 0.00015
          0.001 0.0082758620689564 0.0003 0.001 0.0086896551724064 0
          0.001 0.0086896551724064 0.00015 0.001 0.0086896551724064 0.0003
          0.0014444444444438 0.00041379310344749 0 0.0014444444444438 0 0
          0.0014444444444438 0.00041379310344749 0.00015 0.0014444444444438 0 0.00015
          0.0014444444444438 0.00041379310344749 0.0003 0.0014444444444438 0 0.0003
          0.0014444444444439 0.00082758620689497 0 0.0014444444444439 0.00082758620689497 0.00015
          0.0014444444444439 0.00082758620689497 0.0003 0.001444444444444 0.0012413793103426 0
          0.001444444444444 0.0012413793103426 0.00015 0.001444444444444 0.0012413793103426 0.0003
          0.001444444444444 0.0016551724137901 0 0.001444444444444 0.0016551724137901 0.00015
          0.001444444444444 0.0016551724137901 0.0003 0.0014444444444441 0.0020689655172371 0
          0.0014444444444441 0.0020689655172371 0.00015 0.0014444444444441 0.0020689655172371 0.0003
          0.0014444444444441 0.0024827586206843 0 0.0014444444444441 0.0024827586206843 0.00015
          0.0014444444444441 0.0024827586206843 0.0003 0.0014444444444446 0.0062068965517097 0
          0.0014444444444446 0.0062068965517097 0.00015 0.0014444444444446 0.0062068965517097 0.0003
          0.0014444444444447 0.0066206896551586 0 0.0014444444444447 0.0066206896551586 0.00015
          0.0014444444444447 0.0066206896551586 0.0003 0.0014444444444448 0.0070344827586082 0
          0.0014444444444448 0.0070344827586082 0.00015 0.0014444444444448 0.0070344827586082 0.0003
          0.0014444444444448 0.0074482758620576 0 0.0014444444444448 0.0074482758620576 0.00015
          0.0014444444444448 0.0074482758620576 0.0003 0.0014444444444449 0.0078620689655065 0
          0.0014444444444449 0.0078620689655065 0.00015 0.0014444444444449 0.0078620689655065 0.0003
          0.0018888888888896 0.0078620689655065 0 0.0018888888888896 0.0078620689655065 0.00015
          0.0018888888888896 0.0078620689655065 0.0003 0.0014444444444449 0.0082758620689564 0
          0.0014444444444449 0.0082758620689564 0.00015 0.0014444444444449 0.0082758620689564 0.0003
          0.0018888888888898 0.0082758620689564 0 0.0018888888888898 0.0082758620689564 0.00015
          0.0018888888888898 0.0082758620689564 0.0003 0.001444444444445 0.0086896551724064 0
          0.001444444444445 0.0086896551724064 0.00015 0.001444444444445 0.0086896551724064 0.0003
          0.0018888888888899 0.0086896551724064 0 0.0018888888888899 0.0086896551724064 0.00015
          0.0018888888888899 0.0086896551724064 0.0003 0.0014444444444451 0.0091034482758539 0
          0.0014444444444451 0.0091034482758539 0.00015 0.0014444444444451 0.0091034482758539 0.0003
          0.00188888888889 0.0091034482758539 0 0.00188888888889 0.0091034482758539 0.00015
          0.00188888888889 0.0091034482758539 0.0003 0.00011111111111123 0.0082758620689751 0
          0 0.0082758620689774 0 0.00011111111111123 0.0082758620689751 0.00015
          0 0.0082758620689774 0.00015 0.00011111111111123 0.0082758620689751 0.0003
          0 0.0082758620689774 0.0003 0.00022222222222243 0.0082758620689727 0
          0.00022222222222243 0.0082758620689727 0.00015 0.00022222222222243 0.0082758620689727 0.0003
          0.00033333333333363 0.0082758620689704 0 0.00033333333333363 0.0082758620689704 0.00015
          0.00033333333333363 0.0082758620689704 0.0003 0.00044444444444486 0.0082758620689681 0
          0.00044444444444486 0.0082758620689681 0.00015 0.00044444444444486 0.0082758620689681 0.0003
          0.00055555555555597 0.0082758620689657 0 0.00055555555555597 0.0082758620689657 0.00015
          0.00055555555555597 0.0082758620689657 0.0003 0.00066666666666675 0.0082758620689634 0
          0.00066666666666675 0.0082758620689634 0.00015 0.00066666666666675 0.0082758620689634 0.0003
          0.00077777777777787 0.0082758620689611 0 0.00077777777777787 0.0082758620689611 0.00015
          0.00077777777777787 0.0082758620689611 0.0003 0.0008888888888888 0.0082758620689588 0
          0.0008888888888888 0.0082758620689588 0.00015 0.0008888888888888 0.0082758620689588 0.0003
          0.00088888888888881 0.0086896551724084 0 0.00088888888888881 0.0086896551724084 0.00015
          0.00088888888888881 0.0086896551724084 0.0003 0.001 0.0091034482758539 0
          0.00088888888888882 0.0091034482758559 0 0.001 0.0091034482758539 0.00015
          0.00088888888888882 0.0091034482758559 0.00015 0.001 0.0091034482758539 0.0003
          0.00088888888888882 0.0091034482758559 0.0003 0.0018888888888873 0.00041379310344749 0
          0.0018888888888872 0 0 0.0018888888888873 0.00041379310344749 0.00015
          0.0018888888888872 0 0.00015 0.0018888888888873 0.00041379310344749 0.0003
          0.0018888888888872 0 0.0003 0.0018888888888875 0.00082758620689497 0
          0.0018888888888875 0.00082758620689497 0.00015 0.0018888888888875 0.00082758620689497 0.0003
          0.0018888888888876 0.0012413793103426 0 0.0018888888888876 0.0012413793103426 0.00015
          0.0018888888888876 0.0012413793103426 0.0003 0.0018888888888877 0.0016551724137901 0
          0.0018888888888877 0.0016551724137901 0.00015 0.0018888888888877 0.0016551724137901 0.0003
          0.0018888888888879 0.0020689655172371 0 0.0018888888888879 0.0020689655172371 0.00015
          0.0018888888888879 0.0020689655172371 0.0003 0.001888888888888 0.0024827586206843 0
          0.001888888888888 0.0024827586206843 0.00015 0.001888888888888 0.0024827586206843 0.0003
          0.0014444444444442 0.0028965517241314 0 0.0014444444444442 0.0028965517241314 0.00015
          0.0014444444444442 0.0028965517241314 0.0003 0.0018888888888881 0.0028965517241314 0
          0.0018888888888881 0.0028965517241314 0.00015 0.0018888888888881 0.0028965517241314 0.0003
          0.0014444444444442 0.0033103448275785 0 0.0014444444444442 0.0033103448275785 0.00015
          0.0014444444444442 0.0033103448275785 0.0003 0.0014444444444443 0.0037241379310256 0
          0.0014444444444443 0.0037241379310256 0.00015 0.0014444444444443 0.0037241379310256 0.0003
          0.0014444444444444 0.0041379310344727 0 0.0014444444444444 0.0041379310344727 0.00015
          0.0014444444444444 0.0041379310344727 0.0003 0.0014444444444444 0.0045517241379199 0
          0.0014444444444444 0.0045517241379199 0.00015 0.0014444444444444 0.0045517241379199 0.0003
          0.0014444444444445 0.0049655172413669 0 0.0014444444444445 0.0049655172413669 0.00015
          0.0014444444444445 0.0049655172413669 0.0003 0.0014444444444445 0.0053793103448139 0
          0.0014444444444445 0.0053793103448139 0.00015 0.0014444444444445 0.0053793103448139 0.0003
          0.0014444444444446 0.0057931034482612 0 0.0014444444444446 0.0057931034482612 0.00015
          0.0014444444444446 0.0057931034482612 0.0003 0.0018888888888891 0.0062068965517097 0
          0.001888888888889 0.0057931034482612 0 0.0018888888888891 0.0062068965517097 0.00015
          0.001888888888889 0.0057931034482612 0.00015 0.0018888888888891 0.0062068965517097 0.0003
          0.001888888888889 0.0057931034482612 0.0003 0.0018888888888893 0.0066206896551586 0
          0.0018888888888893 0.0066206896551586 0.00015 0.0018888888888893 0.0066206896551586 0.0003
          0.0018888888888894 0.0070344827586082 0 0.0018888888888894 0.0070344827586082 0.00015
          0.0018888888888894 0.0070344827586082 0.0003 0.0018888888888895 0.0074482758620575 0
          0.0018888888888895 0.0074482758620575 0.00015 0.0018888888888895 0.0074482758620575 0.0003
          0.0023333333333346 0.0078620689655065 0 0.0023333333333344 0.0074482758620575 0
          0.0023333333333346 0.0078620689655065 0.00015 0.0023333333333344 0.0074482758620575 0.00015
          0.0023333333333346 0.0078620689655065 0.0003 0.0023333333333344 0.0074482758620575 0.0003
          0.0023333333333348 0.0082758620689564 0 0.0023333333333348 0.0082758620689564 0.00015
          0.0023333333333348 0.0082758620689564 0.0003 0.002333333333335 0.0086896551724064 0
          0.002333333333335 0.0086896551724064 0.00015 0.002333333333335 0.0086896551724064 0.0003
          0.0023333333333351 0.0091034482758539 0 0.0023333333333351 0.0091034482758539 0.00015
          0.0023333333333351 0.0091034482758539 0.0003 0.0014444444444451 0.0095172413793029 0
          0.001 0.0095172413793029 0 0.0014444444444451 0.0095172413793029 0.00015
          0.001 0.0095172413793029 0.00015 0.0014444444444451 0.0095172413793029 0.0003
          0.001 0.0095172413793029 0.0003 0.0018888888888902 0.0095172413793029 0
          0.0018888888888902 0.0095172413793029 0.00015 0.0018888888888902 0.0095172413793029 0.0003
          0.0023333333333353 0.0095172413793029 0 0.0023333333333353 0.0095172413793029 0.00015
          0.0023333333333353 0.0095172413793029 0.0003
          <InformationKey name="L2_NORM_RANGE" location="vtkDataArray" length="2">
            <Value index="0">
              0
            </Value>
            <Value index="1">
              0.0098036895053
            </Value>
          </InformationKey>
        </DataArray>
      </Points>
      <Cells>
        <DataArray type="Int64" Name="connectivity" format="ascii" RangeMin="0" RangeMax="788">
          0 1 2 3 4 5
          6 7 4 5 6 7
          8 9 10 11 3 2
          12 13 7 6 14 15
          7 6 14 15 11 10
          16 17 13 12 18 19
          15 14 20 21 15 14
          20 21 17 16 22 23
          19 18 24 25 21 20
          26 27 21 20 26 27
          23 22 28 29 25 24
          30 31 27 26 32 33
          27 26 32 33 29 28
          34 35 31 30 36 37
          33 32 38 39 33 32
          38 39 35 34 40 41
          37 36 42 43 39 38
          44 45 39 38 44 45
          41 40 46 47 43 42
          48 49 45 44 50 51
          45 44 50 51 47 46
          52 53 49 48 54 55
          51 50 56 57 51 50
          56 57 53 52 58 59
          55 54 60 61 57 56
          62 63 57 56 62 63
          59 58 64 65 61 60
          66 67 63 62 68 69
          63 62 68 69 65 64
          70 71 67 66 72 73
          69 68 74 75 69 68
          74 75 71 70 76 77
          73 72 78 79 75 74
          80 81 75 74 80 81
          77 76 82 83 79 78
          84 85 81 80 86 87
          81 80 86 87 83 82
          88 89 85 84 90 91
          87 86 92 93 87 86
          92 93 89 88 94 95
          91 90 96 97 93 92
          98 99 93 92 98 99
          95 94 100 101 97 96
          102 103 99 98 104 105
          99 98 104 105 101 100
          106 107 103 102 108 109
          105 104 110 111 105 104
          110 111 107 106 112 113
          109 108 114 115 111 110
          116 117 111 110 116 117
          113 112 118 119 115 114
          663 664 117 116 665 666
          117 116 665 666 119 118
          667 668 1 120 121 2
          5 122 123 6 5 122
          123 6 9 124 125 10
          2 121 126 12 6 123
          127 14 6 123 127 14
          10 125 128 16 12 126
          129 18 14 127 130 20
          14 127 130 20 16 128
          131 22 18 129 132 24
          20 130 133 26 20 130
          133 26 22 131 134 28
          24 132 135 30 26 133
          136 32 26 133 136 32
          28 134 137 34 30 135
          138 36 32 136 139 38
          32 136 139 38 34 137
          140 40 36 138 141 42
          38 139 142 44 38 139
          142 44 40 140 143 46
          42 141 144 48 44 142
          145 50 44 142 145 50
          46 143 146 52 48 144
          147 54 50 145 148 56
          50 145 148 56 52 146
          149 58 54 147 150 60
          56 148 151 62 56 148
          151 62 58 149 152 64
          60 150 153 66 62 151
          154 68 62 151 154 68
          64 152 155 70 66 153
          156 72 68 154 157 74
          68 154 157 74 70 155
          158 76 72 156 159 78
          74 157 160 80 74 157
          160 80 76 158 161 82
          78 159 162 84 80 160
          163 86 80 160 163 86
          82 161 164 88 84 162
          165 90 86 163 166 92
          86 163 166 92 88 164
          167 94 90 165 168 96
          92 166 169 98 92 166
          169 98 94 167 170 100
          96 168 171 102 98 169
          172 104 98 169 172 104
          100 170 173 106 102 171
          174 108 104 172 175 110
          104 172 175 110 106 173
          176 112 108 174 177 114
          110 175 178 116 110 175
          178 116 112 176 179 118
          114 177 669 663 116 178
          670 665 116 178 670 665
          118 179 671 667 120 180
          181 121 122 182 183 123
          122 182 183 123 124 184
          185 125 121 181 186 126
          123 183 187 127 123 183
          187 127 125 185 188 128
          126 186 189 129 127 187
          190 130 127 187 190 130
          128 188 191 131 129 189
          192 132 130 190 193 133
          130 190 193 133 131 191
          194 134 132 192 195 135
          133 193 196 136 133 193
          196 136 134 194 197 137
          135 195 198 138 136 196
          199 139 136 196 199 139
          137 197 200 140 138 198
          201 141 139 199 202 142
          139 199 202 142 140 200
          203 143 141 201 204 144
          142 202 205 145 142 202
          205 145 143 203 206 146
          144 204 207 147 145 205
          208 148 145 205 208 148
          146 206 209 149 147 207
          210 150 148 208 211 151
          148 208 211 151 149 209
          212 152 150 210 213 153
          151 211 214 154 151 211
          214 154 152 212 215 155
          153 213 216 156 154 214
          217 157 154 214 217 157
          155 215 218 158 156 216
          219 159 157 217 220 160
          157 217 220 160 158 218
          221 161 159 219 222 162
          160 220 223 163 160 220
          223 163 161 221 224 164
          162 222 225 165 163 223
          226 166 163 223 226 166
          164 224 227 167 165 225
          228 168 166 226 229 169
          166 226 229 169 167 227
          230 170 168 228 231 171
          169 229 232 172 169 229
          232 172 170 230 233 173
          171 231 234 174 172 232
          235 175 172 232 235 175
          173 233 236 176 174 234
          237 177 175 235 238 178
          175 235 238 178 176 236
          239 179 177 237 672 669
          178 238 673 670 178 238
          673 670 179 239 674 671
          180 240 241 181 182 242
          243 183 182 242 243 183
          184 244 245 185 181 241
          246 186 183 243 247 187
          183 243 247 187 185 245
          248 188 186 246 249 189
          187 247 250 190 187 247
          250 190 188 248 251 191
          189 249 252 192 190 250
          253 193 190 250 253 193
          191 251 254 194 192 252
          255 195 193 253 256 196
          193 253 256 196 194 254
          257 197 195 255 258 198
          196 256 259 199 196 256
          259 199 197 257 260 200
          198 258 261 201 199 259
          262 202 199 259 262 202
          200 260 263 203 201 261
          264 204 202 262 265 205
          202 262 265 205 203 263
          266 206 204 264 267 207
          205 265 268 208 205 265
          268 208 206 266 269 209
          207 267 270 210 208 268
          271 211 208 268 271 211
          209 269 272 212 210 270
          273 213 211 271 274 214
          211 271 274 214 212 272
          275 215 213 273 276 216
          214 274 277 217 214 274
          277 217 215 275 278 218
          216 276 279 219 217 277
          280 220 217 277 280 220
          218 278 281 221 219 279
          282 222 220 280 283 223
          220 280 283 223 221 281
          284 224 222 282 285 225
          223 283 286 226 223 283
          286 226 224 284 287 227
          225 285 288 228 226 286
          289 229 226 286 289 229
          227 287 290 230 228 288
          291 231 229 289 292 232
          229 289 292 232 230 290
          293 233 231 291 294 234
          232 292 295 235 232 292
          295 235 233 293 296 236
          234 294 297 237 235 295
          298 238 235 295 298 238
          236 296 299 239 237 297
          675 672 238 298 676 673
          238 298 676 673 239 299
          677 674 240 300 301 241
          242 302 303 243 242 302
          303 243 244 304 305 245
          241 301 306 246 243 303
          307 247 243 303 307 247
          245 305 308 248 246 306
          309 249 247 307 310 250
          247 307 310 250 248 308
          311 251 249 309 312 252
          250 310 313 253 250 310
          313 253 251 311 314 254
          252 312 315 255 253 313
          316 256 253 313 316 256
          254 314 317 257 255 315
          318 258 256 316 319 259
          256 316 319 259 257 317
          320 260 258 318 321 261
          259 319 322 262 259 319
          322 262 260 320 323 263
          261 321 324 264 262 322
          325 265 262 322 325 265
          263 323 326 266 264 324
          327 267 265 325 328 268
          265 325 328 268 266 326
          329 269 267 327 330 270
          268 328 331 271 268 328
          331 271 269 329 332 272
          270 330 333 273 271 331
          334 274 271 331 334 274
          272 332 335 275 273 333
          336 276 274 334 337 277
          274 334 337 277 275 335
          338 278 276 336 339 279
          277 337 340 280 277 337
          340 280 278 338 341 281
          279 339 342 282 280 340
          343 283 280 340 343 283
          281 341 344 284 282 342
          345 285 283 343 346 286
          283 343 346 286 284 344
          347 287 285 345 348 288
          286 346 349 289 286 346
          349 289 287 347 350 290
          288 348 351 291 289 349
          352 292 289 349 352 292
          290 350 353 293 291 351
          354 294 292 352 355 295
          292 352 355 295 293 353
          356 296 294 354 357 297
          295 355 358 298 295 355
          358 298 296 356 359 299
          297 357 678 675 298 358
          679 676 298 358 679 676
          299 359 680 677 300 360
          361 301 302 362 363 303
          302 362 363 303 304 364
          365 305 301 361 366 306
          303 363 367 307 303 363
          367 307 305 365 368 308
          306 366 369 309 307 367
          370 310 307 367 370 310
          308 368 371 311 309 369
          372 312 310 370 373 313
          310 370 373 313 311 371
          374 314 312 372 375 315
          313 373 376 316 313 373
          376 316 314 374 377 317
          315 375 378 318 316 376
          379 319 316 376 379 319
          317 377 380 320 318 378
          381 321 319 379 382 322
          319 379 382 322 320 380
          383 323 321 381 384 324
          322 382 385 325 322 382
          385 325 323 383 386 326
          324 384 387 327 325 385
          388 328 325 385 388 328
          326 386 389 329 327 387
          390 330 328 388 391 331
          328 388 391 331 329 389
          392 332 330 390 393 333
          331 391 394 334 331 391
          394 334 332 392 395 335
          333 393 396 336 334 394
          397 337 334 394 397 337
          335 395 398 338 336 396
          399 339 337 397 400 340
          337 397 400 340 338 398
          401 341 339 399 402 342
          340 400 403 343 340 400
          403 343 341 401 404 344
          342 402 405 345 343 403
          406 346 343 403 406 346
          344 404 407 347 345 405
          408 348 346 406 409 349
          346 406 409 349 347 407
          410 350 348 408 411 351
          349 409 412 352 349 409
          412 352 350 410 413 353
          351 411 414 354 352 412
          415 355 352 412 415 355
          353 413 416 356 354 414
          417 357 355 415 418 358
          355 415 418 358 356 416
          419 359 357 417 681 678
          358 418 682 679 358 418
          682 679 359 419 683 680
          360 420 421 361 362 422
          423 363 362 422 423 363
          364 424 425 365 361 421
          426 366 363 423 427 367
          363 423 427 367 365 425
          428 368 366 426 429 369
          367 427 430 370 367 427
          430 370 368 428 431 371
          369 429 432 372 370 430
          433 373 370 430 433 373
          371 431 434 374 372 432
          435 375 373 433 436 376
          373 433 436 376 374 434
          437 377 375 435 438 378
          376 436 439 379 376 436
          439 379 377 437 440 380
          378 438 441 381 379 439
          442 382 379 439 442 382
          380 440 443 383 381 441
          444 384 382 442 445 385
          382 442 445 385 383 443
          446 386 384 444 447 387
          385 445 448 388 385 445
          448 388 386 446 449 389
          387 447 450 390 388 448
          451 391 388 448 451 391
          389 449 452 392 390 450
          453 393 391 451 454 394
          391 451 454 394 392 452
          455 395 393 453 456 396
          394 454 457 397 394 454
          457 397 395 455 458 398
          396 456 459 399 397 457
          460 400 397 457 460 400
          398 458 461 401 399 459
          462 402 400 460 463 403
          400 460 463 403 401 461
          464 404 402 462 465 405
          403 463 466 406 403 463
          466 406 404 464 467 407
          405 465 468 408 406 466
          469 409 406 466 469 409
          407 467 470 410 408 468
          471 411 409 469 472 412
          409 469 472 412 410 470
          473 413 411 471 474 414
          412 472 475 415 412 472
          475 415 413 473 476 416
          414 474 477 417 415 475
          478 418 415 475 478 418
          416 476 479 419 417 477
          684 681 418 478 685 682
          418 478 685 682 419 479
          686 683 420 480 481 421
          422 482 483 423 422 482
          483 423 424 484 485 425
          421 481 486 426 423 483
          487 427 423 483 487 427
          425 485 488 428 426 486
          489 429 427 487 490 430
          427 487 490 430 428 488
          491 431 429 489 492 432
          430 490 493 433 430 490
          493 433 431 491 494 434
          432 492 495 435 433 493
          496 436 433 493 496 436
          434 494 497 437 435 495
          498 438 436 496 499 439
          436 496 499 439 437 497
          500 440 438 498 501 441
          439 499 502 442 439 499
          502 442 440 500 503 443
          441 501 504 444 442 502
          505 445 442 502 505 445
          443 503 506 446 444 504
          507 447 445 505 508 448
          445 505 508 448 446 506
          509 449 447 507 510 450
          448 508 511 451 448 508
          511 451 449 509 512 452
          450 510 513 453 451 511
          514 454 451 511 514 454
          452 512 515 455 453 513
          516 456 454 514 517 457
          454 514 517 457 455 515
          518 458 456 516 519 459
          457 517 520 460 457 517
          520 460 458 518 521 461
          459 519 522 462 460 520
          523 463 460 520 523 463
          461 521 524 464 462 522
          525 465 463 523 526 466
          463 523 526 466 464 524
          527 467 465 525 528 468
          466 526 529 469 466 526
          529 469 467 527 530 470
          468 528 531 471 469 529
          532 472 469 529 532 472
          470 530 533 473 471 531
          534 474 472 532 535 475
          472 532 535 475 473 533
          536 476 474 534 537 477
          475 535 538 478 475 535
          538 478 476 536 539 479
          477 537 687 684 478 538
          688 685 478 538 688 685
          479 539 689 686 480 540
          541 481 482 542 543 483
          482 542 543 483 484 544
          545 485 481 541 546 486
          483 543 547 487 483 543
          547 487 485 545 548 488
          486 546 549 489 487 547
          550 490 487 547 550 490
          488 548 551 491 489 549
          552 492 490 550 553 493
          490 550 553 493 491 551
          554 494 492 552 555 495
          493 553 556 496 493 553
          556 496 494 554 557 497
          495 555 558 498 496 556
          559 499 496 556 559 499
          497 557 560 500 498 558
          561 501 499 559 562 502
          499 559 562 502 500 560
          563 503 501 561 564 504
          502 562 565 505 502 562
          565 505 503 563 566 506
          504 564 567 507 505 565
          568 508 505 565 568 508
          506 566 569 509 507 567
          570 510 508 568 571 511
          508 568 571 511 509 569
          572 512 510 570 573 513
          511 571 574 514 511 571
          574 514 512 572 575 515
          513 573 576 516 514 574
          577 517 514 574 577 517
          515 575 578 518 516 576
          579 519 517 577 580 520
          517 577 580 520 518 578
          581 521 519 579 582 522
          520 580 583 523 520 580
          583 523 521 581 584 524
          522 582 585 525 523 583
          586 526 523 583 586 526
          524 584 587 527 525 585
          588 528 526 586 589 529
          526 586 589 529 527 587
          590 530 528 588 591 531
          529 589 592 532 529 589
          592 532 530 590 593 533
          531 591 594 534 532 592
          595 535 532 592 595 535
          533 593 596 536 534 594
          597 537 535 595 598 538
          535 595 598 538 536 596
          599 539 537 597 600 687
          538 598 601 688 538 598
          601 688 539 599 602 689
          687 600 603 690 688 601
          604 691 688 601 604 691
          689 602 605 692 690 603
          693 694 691 604 695 696
          691 604 695 696 692 605
          697 698 606 541 540 607
          608 543 542 609 608 543
          542 609 610 545 544 611
          699 606 607 700 701 608
          609 702 701 608 609 702
          703 610 611 704 612 546
          541 606 613 547 543 608
          613 547 543 608 614 548
          545 610 705 612 606 699
          706 613 608 701 706 613
          608 701 707 614 610 703
          615 549 546 612 616 550
          547 613 616 550 547 613
          617 551 548 614 708 615
          612 705 709 616 613 706
          709 616 613 706 710 617
          614 707 618 552 549 615
          619 553 550 616 619 553
          550 616 620 554 551 617
          711 618 615 708 712 619
          616 709 712 619 616 709
          713 620 617 710 621 555
          552 618 622 556 553 619
          622 556 553 619 623 557
          554 620 714 621 618 711
          715 622 619 712 715 622
          619 712 716 623 620 713
          624 558 555 621 625 559
          556 622 625 559 556 622
          626 560 557 623 717 624
          621 714 718 625 622 715
          718 625 622 715 719 626
          623 716 720 561 558 624
          721 562 559 625 721 562
          559 625 722 563 560 626
          723 720 624 717 724 721
          625 718 724 721 625 718
          725 722 626 719 726 564
          561 720 727 565 562 721
          727 565 562 721 728 566
          563 722 729 567 564 726
          730 568 565 727 730 568
          565 727 731 569 566 728
          732 570 567 729 733 571
          568 730 733 571 568 730
          734 572 569 731 735 573
          570 732 736 574 571 733
          736 574 571 733 737 575
          572 734 738 576 573 735
          739 577 574 736 739 577
          574 736 740 578 575 737
          741 579 576 738 742 580
          577 739 742 580 577 739
          743 581 578 740 744 582
          579 741 745 583 580 742
          745 583 580 742 746 584
          581 743 627 585 582 744
          628 586 583 745 628 586
          583 745 629 587 584 746
          747 627 744 748 749 628
          745 750 749 628 745 750
          751 629 746 752 630 588
          585 627 631 589 586 628
          631 589 586 628 632 590
          587 629 753 630 627 747
          754 631 628 749 754 631
          628 749 755 632 629 751
          633 591 588 630 634 592
          589 631 634 592 589 631
          635 593 590 632 756 633
          630 753 757 634 631 754
          757 634 631 754 758 635
          632 755 636 594 591 633
          637 595 592 634 637 595
          592 634 638 596 593 635
          759 636 633 756 760 637
          634 757 760 637 634 757
          761 638 635 758 639 597
          594 636 640 598 595 637
          640 598 595 637 641 599
          596 638 642 639 636 759
          643 640 637 760 643 640
          637 760 644 641 638 761
          762 642 759 763 764 643
          760 765 764 643 760 765
          766 644 761 767 645 600
          597 639 646 601 598 640
          646 601 598 640 647 602
          599 641 648 645 639 642
          649 646 640 643 649 646
          640 643 650 647 641 644
          768 648 642 762 769 649
          643 764 769 649 643 764
          770 650 644 766 651 603
          600 645 652 604 601 646
          652 604 601 646 653 605
          602 647 654 651 645 648
          655 652 646 649 655 652
          646 649 656 653 647 650
          771 654 648 768 772 655
          649 769 772 655 649 769
          773 656 650 770 657 693
          603 651 658 695 604 652
          658 695 604 652 659 697
          605 653 660 657 651 654
          661 658 652 655 661 658
          652 655 662 659 653 656
          774 660 654 771 775 661
          655 772 775 661 655 772
          776 662 656 773 777 778
          693 657 779 780 695 658
          779 780 695 658 781 782
          697 659 783 777 657 660
          784 779 658 661 784 779
          658 661 785 781 659 662
          786 783 660 774 787 784
          661 775 787 784 661 775
          788 785 662 776
        </DataArray>
        <DataArray type="Int64" Name="offsets" format="ascii" RangeMin="8" RangeMax="3616">
          8 16 24 32 40 48
          56 64 72 80 88 96
          104 112 120 128 136 144
          152 160 168 176 184 192
          200 208 216 224 232 240
          248 256 264 272 280 288
          296 304 312 320 328 336
          344 352 360 368 376 384
          392 400 408 416 424 432
          440 448 456 464 472 480
          488 496 504 512 520 528
          536 544 552 560 568 576
          584 592 600 608 616 624
          632 640 648 656 664 672
          680 688 696 704 712 720
          728 736 744 752 760 768
          776 784 792 800 808 816
          824 832 840 848 856 864
          872 880 888 896 904 912
          920 928 936 944 952 960
          968 976 984 992 1000 1008
          1016 1024 1032 1040 1048 1056
          1064 1072 1080 1088 1096 1104
          1112 1120 1128 1136 1144 1152
          1160 1168 1176 1184 1192 1200
          1208 1216 1224 1232 1240 1248
          1256 1264 1272 1280 1288 1296
          1304 1312 1320 1328 1336 1344
          1352 1360 1368 1376 1384 1392
          1400 1408 1416 1424 1432 1440
          1448 1456 1464 1472 1480 1488
          1496 1504 1512 1520 1528 1536
          1544 1552 1560 1568 1576 1584
          1592 1600 1608 1616 1624 1632
          1640 1648 1656 1664 1672 1680
          1688 1696 1704 1712 1720 1728
          1736 1744 1752 1760 1768 1776
          1784 1792 1800 1808 1816 1824
          1832 1840 1848 1856 1864 1872
          1880 1888 1896 1904 1912 1920
          1928 1936 1944 1952 1960 1968
          1976 1984 1992 2000 2008 2016
          2024 2032 2040 2048 2056 2064
          2072 2080 2088 2096 2104 2112
          2120 2128 2136 2144 2152 2160
          2168 2176 2184 2192 2200 2208
          2216 2224 2232 2240 2248 2256
          2264 2272 2280 2288 2296 2304
          2312 2320 2328 2336 2344 2352
          2360 2368 2376 2384 2392 2400
          2408 2416 2424 2432 2440 2448
          2456 2464 2472 2480 2488 2496
          2504 2512 2520 2528 2536 2544
          2552 2560 2568 2576 2584 2592
          2600 2608 2616 2624 2632 2640
          2648 2656 2664 2672 2680 2688
          2696 2704 2712 2720 2728 2736
          2744 2752 2760 2768 2776 2784
          2792 2800 2808 2816 2824 2832
          2840 2848 2856 2864 2872 2880
          2888 2896 2904 2912 2920 2928
          2936 2944 2952 2960 2968 2976
          2984 2992 3000 3008 3016 3024
          3032 3040 3048 3056 3064 3072
          3080 3088 3096 3104 3112 3120
          3128 3136 3144 3152 3160 3168
          3176 3184 3192 3200 3208 3216
          3224 3232 3240 3248 3256 3264
          3272 3280 3288 3296 3304 3312
          3320 3328 3336 3344 3352 3360
          3368 3376 3384 3392 3400 3408
          3416 3424 3432 3440 3448 3456
          3464 3472 3480 3488 3496 3504
          3512 3520 3528 3536 3544 3552
          3560 3568 3576 3584 3592 3600
          3608 3616
        </DataArray>
        <DataArray type="UInt8" Name="types" format="ascii" RangeMin="12" RangeMax="12">
          12 12 12 12 12 12
          12 12 12 12 12 12
          12 12 12 12 12 12
          12 12 12 12 12 12
          12 12 12 12 12 12
          12 12 12 12 12 12
          12 12 12 12 12 12
          12 12 12 12 12 12
          12 12 12 12 12 12
          12 12 12 12 12 12
          12 12 12 12 12 12
          12 12 12 12 12 12
          12 12 12 12 12 12
          12 12 12 12 12 12
          12 12 12 12 12 12
          12 12 12 12 12 12
          12 12 12 12 12 12
          12 12 12 12 12 12
          12 12 12 12 12 12
          12 12 12 12 12 12
          12 12 12 12 12 12
          12 12 12 12 12 12
          12 12 12 12 12 12
          12 12 12 12 12 12
          12 12 12 12 12 12
          12 12 12 12 12 12
          12 12 12 12 12 12
          12 12 12 12 12 12
          12 12 12 12 12 12
          12 12 12 12 12 12
          12 12 12 12 12 12
          12 12 12 12 12 12
          12 12 12 12 12 12
          12 12 12 12 12 12
          12 12 12 12 12 12
          12 12 12 12 12 12
          12 12 12 12 12 12
          12 12 12 12 12 12
          12 12 12 12 12 12
          12 12 12 12 12 12
          12 12 12 12 12 12
          12 12 12 12 12 12
          12 12 12 12 12 12
          12 12 12 12 12 12
          12 12 12 12 12 12
          12 12 12 12 12 12
          12 12 12 12 12 12
          12 12 12 12 12 12
          12 12 12 12 12 12
          12 12 12 12 12 12
          12 12 12 12 12 12
          12 12 12 12 12 12
          12 12 12 12 12 12
          12 12 12 12 12 12
          12 12 12 12 12 12
          12 12 12 12 12 12
          12 12 12 12 12 12
          12 12 12 12 12 12
          12 12 12 12 12 12
          12 12 12 12 12 12
          12 12 12 12 12 12
          12 12 12 12 12 12
          12 12 12 12 12 12
          12 12 12 12 12 12
          12 12 12 12 12 12
          12 12 12 12 12 12
          12 12 12 12 12 12
          12 12 12 12 12 12
          12 12 12 12 12 12
          12 12 12 12 12 12
          12 12 12 12 12 12
          12 12 12 12 12 12
          12 12 12 12 12 12
          12 12 12 12 12 12
          12 12 12 12 12 12
          12 12
        </DataArray>
      </Cells>
    </Piece>
  </UnstructuredGrid>
</VTKFile>
