<?xml version="1.0"?>
<VTKFile type="UnstructuredGrid" version="0.1" byte_order="LittleEndian" header_type="UInt32" compressor="vtkZLibDataCompressor">
  <UnstructuredGrid>
    <Piece NumberOfPoints="756" NumberOfCells="468">
      <PointData>
        <DataArray type="Int32" Name="libmesh_node_id" format="ascii" RangeMin="120" RangeMax="2168">
          120 121 122 123 124 125
          126 127 128 129 130 131
          132 133 134 135 136 137
          138 139 140 141 142 143
          144 145 146 147 148 149
          150 151 152 153 154 155
          156 157 158 159 160 161
          162 163 164 165 166 167
          168 169 170 171 172 173
          174 175 176 177 178 179
          240 241 242 243 244 245
          246 247 248 249 250 251
          252 253 254 255 256 257
          258 259 260 261 262 263
          264 265 266 267 268 269
          330 331 332 333 334 335
          336 337 338 339 340 341
          342 343 344 345 346 347
          348 349 350 351 352 353
          354 355 356 357 358 359
          420 421 422 423 424 425
          426 427 428 429 430 431
          432 433 434 435 436 437
          438 439 440 441 442 443
          444 445 446 447 448 449
          510 511 512 513 514 515
          516 517 518 519 520 521
          522 523 524 525 526 527
          528 529 530 531 532 533
          534 535 536 537 538 539
          600 601 602 603 604 605
          606 607 608 609 610 611
          612 613 614 615 616 617
          618 619 620 621 622 623
          624 625 626 627 628 629
          690 691 692 693 694 695
          696 697 698 699 700 701
          702 703 704 705 706 707
          708 709 710 711 712 713
          714 715 716 717 718 719
          780 781 782 783 784 785
          786 787 788 789 790 791
          792 793 794 795 796 797
          798 799 800 801 802 803
          804 805 806 807 808 809
          876 877 878 879 880 881
          882 883 884 885 886 887
          888 889 890 891 892 893
          894 895 896 897 898 899
          900 901 902 903 904 905
          906 907 908 909 910 911
          912 913 914 915 916 917
          918 919 920 921 922 923
          924 925 926 927 928 929
          930 931 932 933 934 935
          936 937 938 939 940 941
          942 943 944 945 946 947
          948 949 950 951 952 953
          954 955 956 957 958 959
          960 961 962 963 964 965
          966 967 968 969 970 971
          972 973 974 975 976 977
          978 979 980 981 982 983
          984 985 986 987 988 989
          990 991 992 993 994 995
          996 997 998 999 1000 1001
          1002 1003 1004 1005 1006 1007
          1008 1009 1010 1011 1012 1013
          1014 1015 1016 1017 1018 1019
          1020 1021 1022 1023 1024 1025
          1026 1027 1028 1029 1030 1031
          1032 1033 1034 1035 1036 1037
          1038 1039 1040 1041 1042 1043
          1044 1045 1046 1047 1048 1049
          1050 1051 1052 1053 1054 1055
          1056 1057 1058 1059 1060 1061
          1062 1063 1064 1065 1066 1067
          1068 1069 1070 1071 1072 1073
          1074 1075 1076 1077 1078 1079
          1080 1081 1082 1083 1084 1085
          1086 1087 1088 1089 1090 1091
          1092 1093 1094 1095 1096 1097
          1098 1099 1100 1101 1102 1103
          1104 1105 1106 1107 1108 1109
          1110 1111 1112 1113 1114 1115
          1116 1117 1118 1119 1120 1121
          1122 1123 1124 1125 1126 1127
          1128 1129 1130 1131 1132 1133
          1134 1135 1136 1137 1138 1139
          1140 1141 1142 1143 1144 1145
          1146 1147 1148 1149 1150 1151
          1152 1153 1154 1155 1156 1157
          1158 1159 1160 1161 1162 1163
          1164 1165 1166 1167 1168 1169
          1170 1171 1172 1173 1174 1175
          1176 1177 1178 1179 1180 1181
          1182 1183 1184 1185 1186 1187
          1188 1189 1190 1191 1192 1193
          1194 1195 1196 1197 1198 1199
          1200 1201 1202 1203 1204 1205
          1206 1207 1208 1209 1210 1211
          1212 1213 1214 1215 1216 1217
          1218 1219 1220 1221 1222 1223
          1224 1225 1226 1227 1228 1229
          1230 1231 1232 1233 1234 1235
          1236 1237 1238 1239 1240 1241
          1242 1243 1244 1245 1246 1247
          1248 1249 1250 1251 1252 1253
          1254 1255 1256 1257 1258 1259
          1260 1261 1262 1263 1264 1265
          1266 1267 1268 1269 1270 1271
          1893 1894 1895 1896 1897 1898
          1920 1921 1922 1923 1924 1925
          1947 1948 1949 1974 1975 1976
          2001 2002 2003 2028 2029 2030
          2055 2056 2057 2112 2113 2114
          2115 2116 2117 2124 2125 2126
          2127 2128 2129 2130 2131 2132
          2133 2134 2135 2148 2149 2150
          2151 2152 2153 2164 2166 2168
          1926 1899 1927 1900 1928 1901
          1950 1951 1952 1953 1954 1955
          1977 1978 1979 2004 2005 2006
          2031 2032 2033 2058 2059 2060
          2142 2144 2146 2163 2143 2096
          2165 2145 2100 2167 2147 2104
        </DataArray>
        <DataArray type="Float64" Name="resid_x" format="ascii" RangeMin="-5.585078390115957" RangeMax="0.00018347564686810314">
          -1.686073736184568e-7 -2.5513441090319677 -2.1016514395455488e-7 -5.102583719736205 1.7525283890762466e-8 -2.551194756474607
          -9.030867498260875e-8 -2.5529677542763354 -1.5973600442364955e-7 -5.105786870498459 1.8200212070773603e-7 -2.5527553820193662
          -5.298123124664045e-7 -2.5555648684204586 -6.336309916754601e-7 -5.110910230191802 1.6749115427927563e-8 -2.5552514156078616
          -5.634494351092201e-7 -2.5597746264531023 -6.906263383399391e-7 -5.119209198939347 -2.9639584120388918e-9 -2.5592898334205616
          -6.685180997667572e-7 -2.5668159019639116 -8.680679159933646e-7 -5.133077915641104 3.572808782159598e-8 -2.566025979870001
          -8.460143419153354e-7 -2.5792516203605436 -0.0000011948956450957837 -5.15752057283727 1.6862975482645481e-7 -2.5778622636841853
          -0.000001098585092229598 -2.603114250027614 -0.0000016984625319516056 -5.2042944035429155 4.627714140781336e-7 -2.600354864077018
          -0.0000015030291045103894 -2.654360278530567 -0.000002569808414065733 -5.304437425081814 0.0000013987655798075593 -2.648313364927528
          -7.216503661311435e-7 -2.798798298809883 -0.0000014322943957534306 -5.585078390115957 0.000006983024438689256 -2.780681729853023
          0.000002167948905576478 -1.7211296237100024 0.0000037883426704382606 -3.425952106814321 0.000012979412626318299 -1.6976519435124464
          8.735113896651825e-7 0.0000013460236765183708 7.393911916064866e-7 8.435141511942135e-7 0.0000016218210434626457 9.136219729644068e-7
          6.859976062756346e-7 9.028805623145786e-7 5.806830858379186e-7 5.517576502356292e-7 6.494634192666382e-7 6.531258942565898e-7
          3.401977786143817e-7 2.613987513111482e-7 7.344295698263892e-7 3.016917193843227e-7 -1.0716560305823464e-8 9.585506233200647e-7
          -2.079808980592901e-7 -0.0000010791781808183742 0.0000014103884804494982 -0.0000015697374409207043 -0.0000035036833987422966 0.000003266257267986461
          -0.000001910682783323736 -0.0000030469695444512723 0.000013858168560254569 0.0000035590401477603173 0.000006182748870209309 0.000024368763768267687
          2.8543711394490856e-8 -1.1639307007094146e-7 1.297132328215156e-7 -2.1417740669882335e-7 -3.411704498912371e-7 8.67047382779873e-8
          -3.8477008623694076e-7 -8.260724639885808e-7 -1.4314104790358329e-8 -4.315729438264526e-7 -0.0000010020570091473502 9.395528688393995e-8
          -6.445718356840047e-7 -0.0000014360435667271076 2.3424678818884104e-7 -9.848530748701734e-7 -0.0000021357744810490686 5.733296610799243e-7
          -0.0000016135931764083011 -0.000003368154646521404 0.0000014796536149663808 -0.0000022864783211229422 -0.00000491703809890609 0.000004588318689657811
          -3.448362939639793e-7 -0.0000010141548603126438 0.000019018936391779206 0.000006298718262597036 0.000010757732764030137 0.00003475804093201751
          3.1105598763403464e-8 -1.920723400328228e-7 1.6618380982436065e-7 -2.6940197850322534e-7 -5.133752687402904e-7 9.525577193691959e-8
          -4.408268885480737e-7 -9.548792012648022e-7 3.2986412934477016e-8 -5.536267242423065e-7 -0.0000012434139395889332 1.4189814390164202e-7
          -8.166986578128643e-7 -0.000001757502005705902 3.3617071903968565e-7 -0.0000012223441367975596 -0.0000025771928537920985 7.921496671947637e-7
          -0.0000018824929559624337 -0.000003878391293010708 0.0000020442946948584506 -0.000002409137999315192 -0.0000051153583648932965 0.0000060928868366172395
          4.329242364597974e-7 5.7828108013247e-7 0.00002260955622657157 0.000006892747387909903 0.000013370927301026292 0.00003646776015631126
          1.3744368754231573e-8 -2.978832254196817e-7 1.4946315429753554e-7 -3.320185999466929e-7 -6.774159571065752e-7 1.0139323958213708e-7
          -5.090909367400087e-7 -0.0000011062787224069837 6.452654766064825e-8 -6.602557813817356e-7 -0.0000014629797644438725 1.793296620089535e-7
          -9.57713193860954e-7 -0.000002029470759667973 4.207525903243692e-7 -0.00000139881493144145 -0.0000028983434896545646 0.0000010013229188032824
          -0.000002000770909837968 -0.000004085642735685013 0.0000025918521260326344 -0.0000022290358934196064 -0.000004637694948739224 0.000007448809590471228
          0.0000017277662638370828 0.0000030714996133163197 0.00002455116328858864 0.00000749134021910125 0.00001459275552495587 0.000034865384174131986
          2.385619124467553e-8 -3.813518631989865e-7 1.1355543061419837e-7 -3.864917543783264e-7 -8.162507669773333e-7 1.0225173996403214e-7
          -5.75840009009454e-7 -0.0000012444492092367199 7.658350109629453e-8 -7.505204906443907e-7 -0.0000016367704662734184 1.969083727182408e-7
          -0.0000010633481544175538 -0.0000022160549715266598 4.789373957425624e-7 -0.000001500220249139872 -0.0000030583505767900476 0.0000011810826290314935
          -0.0000019874791186147434 -0.000004015300659743204 0.0000030735776306300977 -0.000001643527928862909 -0.000003406378153991696 0.000008625466236367174
          0.000002749830779746887 0.000005242218369394536 0.000025111545098654986 0.000007246193276855273 0.00001455021963525649 0.00003196946049638383
          -1.4831707861873156e-8 -4.995897666670857e-7 6.508433791907464e-8 -4.4019662026606454e-7 -9.314518021330542e-7 1.0127221328204428e-7
          -6.498470754845442e-7 -0.000001366520509193947 6.779983419136215e-8 -8.444855692513187e-7 -0.0000017619508141386575 1.8831740766778182e-7
          -0.0000011566855238065443 -0.000002313317386981595 5.147945008054933e-7 -0.0000015570857050395404 -0.000003045190028361233 0.0000013200613051544963
          -0.0000018637131220522463 -0.000003646534217915942 0.0000034606798520187 -9.925365662688534e-7 -0.0000020382719372324942 0.000009442959311378729
          0.000004233216006843676 0.000008132111859682212 0.000025259096481100585 0.000007972945887169125 0.000015772298218474923 0.000029428935840680737
          -0.000006672935455531714 -0.000013509892756058406 -0.000005875563556800856 -0.000003847462537898139 -0.000007751416365664454 -0.00000281723538986256
          -2.5650500634633033e-7 -4.3139832772709497e-7 5.519666617104235e-7 -7.123529919272897e-7 -0.0000014717042375878009 2.1414353446047585e-7
          -0.0000012211336382073057 -0.0000024397785391983007 2.873198938768695e-7 -0.0000015549306244810879 -0.0000030327250322148558 0.0000011223643419100426
          -0.0000016233846213964398 -0.0000031573082539537722 0.0000034598667739693667 -2.6698582034079266e-7 -5.230968849190276e-7 0.000009817627162789222
          0.0000054559815416688195 0.000010798519493482317 0.000025406269619665522 0.00000850919165507058 0.000017077328191228425 0.000028612469298805454
          0.0000011412493743367946 0.0000026204226806214592 0.0000034047030990080884 -2.2269248933781682e-7 -3.722418617790879e-7 0.0000035595493816931167
          -0.0000016952689372295993 -0.000003867125545120587 0.000004004427523129905 -0.0000017625018891020972 -0.0000038668939297270555 0.000007169188195765841
          -4.972438836237103e-7 -0.0000012026061433356716 0.000013543878617072735 0.000004295885950078571 0.000008523358320688956 0.00002605647279985135
          0.000016195889509074135 0.00003294764840511277 0.000049314744688500056 0.000022363689937465736 0.00004564344327551151 0.00005209652671156473
          -0.00001815458162867864 -0.000009057181854982277 -0.000008043031630405872 -0.00001270554330083662 -0.00003553879467437654 -0.000017214035122420368
          -0.00001502848642001911 -0.000023942760813071284 -0.000012988227219616622 -0.0000026350291588428387 -0.000002692274475094014 -0.000009211325779842627
          -0.000009129156164106034 -0.000010188636287135344 -0.000017896978022333143 -0.000019001388665255622 -0.000008256023181038574 -0.000008867552988022637
          -0.00001133313331278668 -0.0000064947330927142555 -0.000009012928197823372 -0.00002349436533035515 -0.000012320888320163648 -0.00001843278030249154
          -0.000010794805014556486 -0.000005958956092930873 -0.00000952254803497296 0.00000431072223447404 0.000012817546048260464 0.00000857529063980067
          3.98538917444069e-7 0.000007862549911058503 0.000023795646444835228 0.000018144752414572807 0.000003325122696518079 0.000013006573421653345
          0.000029118813582140746 0.000019608503669832356 0.000008556899745729152 0.000019099109976439266 0.0000087681595722644 -0.000008191300873788832
          0.000010194166844820773 0.00003389970933204145 0.000014572352906666586 -0.000019182388182936716 0.000016018451669722045 0.00005504878732875973
          0.000047011030215093896 0.00001320100920565448 0.00003746208937996376 0.000007409590018603307 0.000009510609108032142 0.000006947811183766195
          0.0000038102172315590543 0.000013837082520506971 0.000017845878288624828 0.00001200597932549119 0.000006981730664212815 0.000022512890864190283
          0.000026346010118527552 0.000018326836543902658 0.00001621163145654192 0.0000058593300342191235 0.0000074168003166841245 0.000009250468766819342
          0.000007955935052206264 0.000011807697318511057 0.000015110848508692598 0.000020816370853965482 0.000017975497662914286 0.000021668684725251186
          0.000021903142887302884 0.000027505464674587587 0.000028479105995349308 0.00000525012070312636 0.000004470064968509213 0.000011112922687239735
          0.000009526382440505632 0.000014481255396381343 0.000014680204971473376 0.0000055207618802066705 0.000011790401410249896 0.000007270993036379014
          0.000019914999364767372 0.000009812816019805215 0.000024730903753766853 -0.000018503353065364714 -0.00000954120598954276 -0.0000047388160997645975
          -0.000032975672730022054 -0.00003871603564233744 -0.00001950177947980178 -0.00001048143830045524 -0.00006975987352681595 -0.00001753093833285757
          -0.00001018975391571704 -0.00000663675820106104 -0.00003539827716941141 1.919386441728843e-7 0.00000189845174891623 9.191553931309215e-7
          -0.45858778075040246 6.991491207364309e-7 0.0000041742397534072495 0.000002880890412171322 -0.9093310115142389 0.0000018802672135664888
          0.00000808418048697801 0.000006642661702777053 -0.44782486768648005 0.000013170238064630357 0.000029181743886108613 0.000023679542928367603
          0.00005587225225472947 0.00002585184368097959 0.000052335156277172334 -0.000008447593362326256 4.999469706556958e-7 -0.000008439924377406927
          -0.000011987885252390251 -0.000014910037670790022 0.0000026170976616390895 -0.000015378460620621426 -0.000022020994779992087 -6.728713269343878e-7
          0.000007751968342045723 -0.000007610308621341932 -0.000010303224790064736 -0.00022487829913886426 -0.00016561550390464808 0.00005286239509194601
          0.00009447428592612717 -0.0004572058041807381 -0.00033579196799793376 0.0001013213850397654 0.00018347564686810314 -0.00020441730432874117
          -0.00015604555730619474 0.00006881815196602137 0.00013760262386192101 -2.5813822502381706e-7 -0.0000021758791100543774 -0.000007252647367127479
          -0.0000014348888023240844 4.0019260807988566e-8 -0.000003921322080538067 -0.000015320880500813844 -0.000003199540209075126 -1.3849485251769128e-7
          -0.0000022219578927644076 -0.00000886723812255387 -0.0000024741188381543003 0.0000024380423810921314 0.000007052382029193449 0.000004294682161176677
          0.000012220579103994211 0.000010736973412306394 0.000020712213016360614 0.000007664449331645784 0.000013304816637749184 0.000020594178384680806
          -0.000022272338982248785 -0.000011040086999786203 -0.00004491993094461744 -0.00002237254757270213 -0.000014606752926832334 -0.000001831523444739691
          -0.000013656644192255873 -0.000005565290499387476 -0.00000691834212079856 -0.000028323243899147643 -0.000011366997029305104 -0.00001286451427534585
          0.0000024978337483383406 0.00001443981740695266 0.000006598986526995532 0.00001772879300468433 0.00002666470535195309 0.000060548392389281336
          0.000036059821481956855 0.00003308356294498549 0.000051121024019717964 0.00011628355427273362 0.00006678496570945713 0.00004599436248939326
          0.00006022260345495134 0.00011150995937697639 0.00007705464065738132 -0.48803967739410037 0.0000010497167726997159 -0.516742413034941
          -0.9653897546871881 0.0000030397702819873196 -1.0205770654408568 -0.47303874633020376 0.0000048573751499081386 -0.4981353390416481
          0.000008085996770663961 0.000005799171318821017 0.000016734482557706487 0.000012589315660116451 0.000022716879120362327 0.00001942095771634289
          -0.000009671307989567168 -0.00012884089778644747 -0.000022353446525069653 -0.00026650512661502423 -0.0000016924360419223738 -0.00012454311492868242
          0.000005468313614587217 0.000002651846927465007 0.000011083889735585828 0.000007201675110979355 0.000023456827708934203 0.000033021886709644344
          -0.7216954493530032 0.000006816905613826751 0.000009079661317176746 -0.8424724369393322 -1.4171576029803963 0.000013320942583328055
          0.000018268244790127508 -1.654426074011102 -0.6825665283447548 0.000010415732261959132 0.000017301242346307033 -0.7953442514866307
          0.000009846494127524474 0.000016316045415298852 0.000009879092240316911 0.000018356672414343578 0.00002949426713094727 0.000017374088857491365
          0.000029119121065040998 0.000041635768450398736 0.000028722308414663722 -0.000002997209565681891 -0.0000024848335031246727 -0.000004729071290345346
          -0.0000045797970237848595 0.0000090003908422287 0.000002569219297143821 0.000011186871980095603 0.000006785300298461916 0.000021322427137593358
          0.000014072476837767578 0.000032713917116622415 0.000022522186730877802 0.00001707911795444106 0.000010714387723709251 0.00003292726531874124
          0.00001802815296669813 0.000054245409892600405 0.00003796810148032348 0.000005506839958646648 0.0000048630740439176146 0.000012173162693751571
          0.000010664236245364056 0.000021264006550281156 0.000021411060168979867 -0.000004604902872606606 -7.24674270320691e-7 -0.000005185712541651982
          -0.000008969096870821425 -8.680291012294616e-7 -0.00000980471441540745 -0.000004772258198925891 -3.36783852451783e-7 -0.000005047681016712852
          0.000006559449149179386 0.000004417341109397288 0.000007551351060286482 0.000014121515051868094 0.000010434866756392491 0.00001610969198601042
          0.000018241471069990745 0.000017509203092624936 0.00002031551649916974 9.319270145857761e-8 0.00000324470787876896 -0.5672169191814852
          -6.516055113536812e-8 0.000005743010909109447 -1.117635532855756 0.0000020503052054060555 0.00000478850992441382 -0.542879711736588
          -0.6266068522660941 -1.232060186708832 -0.5957116239911903 -0.000007704263335815698 -0.0000028758760615005263 -0.000008301869051693944
          -0.000010056432856508923 -0.000014442298153165278 -0.000005058126588491918 -0.00001673408892320649 -0.000019860870218588178 -0.0000075197951633701465
          -0.000003467771154903876 -0.00001108143661299188 -0.000011141127111230498 0.0000036833276174097485 0.00000952184746111362 0.000008445432328252345
          0.00002262990089640926 0.000011747505588355356 0.000024660326300496305 -0.0000017461195126813878 -0.0000036524895101024135 -0.000003079950494713768
          -0.0000064302397260740385 -0.0000024500823652198744 -0.0000035303470591364905 0.000006658154716399078 0.00002333381817910818 0.000027135469767736176
          0.00004816305020689804 0.000022386949657060562 0.00005138321339714924 0.00003561629437076608 0.00005853372259623235 0.00006825598250370657
          0.00011155530029338667 0.00006938468041017831 0.00008896240042111092 -0.000007016088573473522 -0.000013588597022572146 -0.000007992994095248895
          0.000006686893913587788 0.000013402496556125243 0.00001778560254095396 0.000043982197985473204 -0.00019190093345167192 0.00008293380648481674
          -0.00039385713562928304 0.00008657963772748523 -0.0001752960252602298 0.000003231448422624794 0.000007332208893040537 0.000010487338751086206
          -0.00002796634355748534 -0.000060710873072442745 -0.000018581385919608923 -0.000004279928609491647 -0.000008426918850776245 -0.0000045888795311428265
          0.0000024797810624366257 0.000006102696050280798 0.000014630137289972645 -0.000013455940432671731 -0.000025411812111963972 -0.00001827402764914554
          -0.00006952555375727698 -0.000143984909189529 -0.00007270527134803362 -0.00022076898110484633 -0.00045151317971270366 -0.00019104593223040478
          -0.5526247268571705 -1.0879119870115121 -0.5242889976566519 -0.44150929891966173 -0.876884326544771 -0.4335933648285897
          -0.000048071350824074877 -0.00009357332993012446 -0.000051631093254428384 0.000003659862300299944 0.000007896221016523138 0.000003777040034378537
          -6.683039108779099e-7 -0.0000018232183862654239 0.000006522380192164334 -0.0000036665607643371345 -0.000009395585698124265 0.000002350929557914938
          -0.0000036673839669543185 -0.000007049265125180781 0.000007083044294642349 -1.7679758101962761e-7 3.336169671630529e-7 0.000008294598848879176
          -0.0000031548927641456004 -0.000006769767257441828 0.000011018346806057622 2.0910035880561395e-7 3.818947613698498e-7 0.000019804378460941408
          0.000009063934101050108 0.00001858307231406009 0.000035570256611272555 0.00002432115137707136 0.000049878417466509006 0.000057157084132786196
          0.000031204305064092 0.00006432193758210136 0.00006068463345165753 0.000005866231608808725 0.000009263360856714975 0.000011539340745603255
          0.00001911965935519344 0.000014651445222835235 0.00001829731619801267 8.93984300559536e-7 -0.000018187830267635263 -0.000012655371990744069
          0.000003543038486486516 0.000003427030880909232 -0.00003526026130351578 -0.000023465192838967308 0.000008064235063998115 0.0000020811734619263778
          -0.000027180332746512548 -0.000014678340007345803 0.000008530109648852147 -0.000007872157202826191 -0.00001616882169680478 -0.000016069311610467096
          0.000010610750540152036 0.00002198654112117726 0.000016696076791666847 -0.00007139571567147535 -0.00014062423504397625 -0.0000917920975720965
          0.000001002489671275697 0.000005513499071296835 0.0000021427602518997446 0.000011473898673397542 0.0000066028176175514375 0.000008933766934449139
          0.0000039802916651510145 0.000006882491208948238 0.000012137464826755817 0.0000030341663095345695 0.0000056681528235458245 0.000009001381130246955
          0.000007606165771001372 0.000014575566098962156 0.00001886608826451308 0.000012834574737219384 0.000025466013704900092 0.00002646241117876258
          0.000017913701571004026 0.0000356866718584925 0.00003183053666244717 0.000014365507209568307 0.000028414336194160228 0.00002186817613614167
          -8.365259227538502e-7 -0.0000011267894417521518 -0.000004020769285961734 -0.000034339302662056426 -0.000010756171682113624 -0.000017201222034080033
          -0.00006854596601657548 -0.00002334758822342131 -0.00003476009496039545 -0.00004857758153709035 -0.000028171687673994583 -0.00003690757672003553
        </DataArray>
        <DataArray type="Float64" Name="resid_y" format="ascii" RangeMin="-0.0002627989890690019" RangeMax="0.00009780722498807515">
          -4.5442086333419285e-7 -2.453224134946197e-7 -0.0000010848699602064582 -0.0000015515983458613825 -7.812225197648126e-7 -0.0000014185851723892695
          9.87232555720377e-7 -3.693416240780484e-7 0.0000019773613050780986 -0.000002200113038365939 7.5375980197398e-7 -0.000001983691581178282
          0.0000010578834169199663 -7.002649710027842e-7 0.0000026584956755830447 -0.0000024377652174962378 0.0000010690445923066533 -0.000002006615171476836
          0.0000015001717042478074 -6.236949784584056e-7 0.0000036028205290371956 -0.000002351460601880684 0.0000014805476502115222 -0.0000020443430723757205
          0.000002103015130733299 -5.2822502264252e-7 0.000004911796470288832 -0.000002276040583049782 0.000002040504449010369 -0.0000021179558622637373
          0.000003097241152338198 -1.36458133209727e-7 0.0000069628123080880955 -0.0000015343202662693178 0.000002875791972445363 -0.0000018644106265647276
          0.000004754594622635028 7.618315695165356e-7 0.000010263491308264844 2.5836182655780693e-7 0.000004143428675672939 -0.0000011503378957167243
          0.0000075625659446167115 0.0000024215398788871023 0.000015974160196146475 0.0000037601451183810752 0.000005872321924116353 6.158186506566299e-8
          0.00001190393740187895 0.0000050198792462263775 0.000025197346229632878 0.000009519876219998835 0.0000063031961977377815 8.576106561158925e-7
          0.000011251462005833213 0.000005228613875266075 0.000024610281593825944 0.000011310951555973392 0.000004098886166967186 0.0000018133698658495678
          -0.0000021976804149524687 -0.000003203834651265003 -0.0000018572451634044085 -0.000002023154837087031 -0.0000025461912895874406 -0.0000015998944904102586
          -0.000002371232610419785 -0.000003156733644742865 -0.0000019641352365252357 -0.000002155951351235849 -0.000002582653985047645 -0.0000017743820598381532
          -0.0000017397928347880065 -0.0000015464864588886351 -0.0000013756994550282592 -9.448434980623144e-7 1.4150098744114548e-7 -7.144291818573373e-7
          5.979162227397888e-7 0.0000031901714467770514 4.0882235484429597e-7 0.0000034978712419890187 0.000008706732269539094 0.000002000398650928506
          0.000007279749278301523 0.00001631542498565239 0.0000021962193594948602 0.000008382095062514638 0.000018408897966532 0.000001578862349541077
          -9.644915989412417e-7 -0.0000011029079944116504 -0.0000011161876467477572 1.8422741213629246e-7 0.0000017298119652439659 8.177983293333746e-8
          2.5615986773419586e-7 0.00000209866569998024 1.5269046458026708e-7 5.642530561183676e-7 0.000002894684944484624 4.330159550144236e-7
          0.0000010085066231542775 0.0000039435627580508385 8.159989761434908e-7 0.00000174129247564026 0.000005483366245002128 0.0000013884156464017989
          0.0000029660109754454586 0.000007897031970406556 0.0000021981210622354537 0.000004414566973741721 0.000010782844433990593 0.0000027412639932514193
          0.00000592565565837172 0.000013275682498418984 0.0000012705907548593576 0.000006070612176369006 0.00001318891493758828 1.0110590004108744e-9
          -0.000001068074998368529 -0.0000012285315784330009 -0.0000012453644869445113 2.422688039115453e-8 0.0000016034733396081552 -8.21079764730219e-8
          3.012698419034565e-8 0.000001901368300081521 -7.440178273390025e-8 2.893215538129785e-7 0.0000025920559982209714 1.5819737077997845e-7
          6.506250844178635e-7 0.0000034512877650620145 4.5900455253734644e-7 0.0000011985061770152308 0.000004639117001738885 8.71177215058111e-7
          0.0000019951095652295803 0.000006191383024371777 0.0000012866676514493997 0.00000256689400072313 0.000007322960384643917 0.0000011153090644193397
          0.000002145586661173038 0.000005488909378160989 -0.0000017740399599897039 0.000001381971089592371 0.000002687293882225328 -0.0000034672816497938186
          -0.0000011989744757856524 -0.00000142845698617583 -0.0000013902907068305548 -1.0157969936898381e-7 0.0000014757010298028063 -2.0941256819367654e-7
          -1.4536805287746098e-7 0.0000017052784747166594 -2.5177867119083493e-7 6.106287871437271e-8 0.0000022756589094885364 -7.03005944395485e-8
          3.259656970464389e-7 0.000002919549344177451 1.3602111580395676e-7 6.650312943598524e-7 0.000003667609574865144 3.4948123888572935e-7
          9.838714682304517e-7 0.00000429261999396191 3.6150635112155993e-7 6.879439675283594e-7 0.0000036013210397353723 -6.302848198358468e-7
          -0.000001365265875331867 -0.000001309395488598153 -0.000004239893973877196 -0.0000014434376713088693 -0.0000028568720086331358 -0.000004644298583309815
          -0.0000013330419645005143 -0.0000016427742443245186 -0.0000015284232972000156 -2.1804722506149794e-7 0.0000013310459530072732 -3.2915439877575017e-7
          -3.081919589292999e-7 0.000001486592632570817 -4.161678037696223e-7 -1.62838579944799e-7 0.000001922771603104015 -2.943716139866201e-7
          -9.178250427038792e-9 0.000002322985632170413 -1.9007491509209773e-7 1.1281374575483616e-7 0.000002625299690309918 -1.8381066858863537e-7
          -2.130149700727002e-8 0.000002322126888200382 -5.687802124079711e-7 -0.000001214899707370487 -1.2968256322964944e-7 -0.0000022922074369019496
          -0.000003692769106965199 -0.000005831091367473895 -0.00000591380808796782 -0.000003095553153286898 -0.000006074269045456063 -0.000005276105784433535
          -0.000001457920866355239 -0.0000018345579688161529 -0.000001640769233212519 -3.3426476926581156e-7 0.000001170925558760267 -4.4717457298865115e-7
          -4.736149426063513e-7 0.0000012427189815282166 -5.788728559075543e-7 -3.9141251517542386e-7 0.000001534883387959221 -5.189320306450695e-7
          -3.565838867930493e-7 0.0000016852260866472013 -5.269715119549101e-7 -4.629518421533918e-7 0.0000015149124644245338 -7.256917760670167e-7
          -0.0000010084817812783253 3.929143819608738e-7 -0.0000014758075865609066 -0.0000026677893824600396 -0.0000030259336609855803 -0.0000035882363023514996
          -0.0000058426939555378254 -0.000009999365123948556 -0.0000074244018078845064 -0.000004500897407947596 -0.00000866871305743415 -0.0000058621262863500084
          -0.000006691683342621713 -0.000012241756750991373 -0.00000661497204841599 -0.0000054636400198641855 -0.000009062588480671097 -0.000005368817299285927
          -0.0000017879630720869788 -0.0000016135749166812374 -0.0000018700967529573786 -6.765510052152146e-7 9.728188016377287e-7 -7.701726861021607e-7
          -7.099983601356608e-7 0.000001022230702956567 -8.514366147474584e-7 -0.0000010224325562649406 4.304915549452337e-7 -0.000001239100282879324
          -0.0000019273698507460413 -0.0000014081359223927503 -0.0000023060467367400084 -0.000003864565645814166 -0.000005436213295857695 -0.000004639066114822676
          -0.000006755710901799883 -0.000011841030811862024 -0.000008067949989767897 -0.00000521741092934791 -0.000009928981791749655 -0.000006202138211059208
          -0.00000134880230213269 -0.000002309424051001596 -0.0000031840411049838258 -0.0000021681374914525597 -0.0000024827362247320517 -0.00000373203150772633
          -0.00000274326062801606 -5.211448776739486e-7 -0.000003688007138283843 -0.0000041062846996347754 -0.0000032189556406873876 -0.000005338917474674923
          -0.0000071293832286378755 -0.000009394376283482914 -0.0000087441177951883 -0.000012500159479497674 -0.000020260463349075497 -0.000014534611704350442
          -0.000017832796709991994 -0.00003169202175555552 -0.00002040387344565131 -0.000012985989279318266 -0.00002334199283927918 -0.000014140081004629379
          7.387484472921174e-7 0.0000021942481155390325 0.0000025641199649928392 -0.000002342283335780848 0.0000012707493566360348 0.000004075685420240616
          0.000004869354102654544 -0.000004317924741092938 0.0000012633881937753472 0.0000026243029490960468 0.0000021358776265065216 -0.0000030384781234127356
          -0.000004110967269439769 -0.000002765128526147683 -0.000007706874304555522 -0.000005100344681504979 -0.0000038489197742713754 -0.000003366960830862662
          -0.000005208293753711929 -0.000002529952843027816 -0.000002949418558603062 -0.00001022319021894147 -0.000005273133884268338 -0.000005661642027584429
          -0.000004669231104779958 -0.0000030018092003793184 -0.0000025911085484407737 0.000001939981486676068 0.000004822617450717104 0.00000159199962503076
          4.1600413053233254e-7 0.000004168483377753329 0.000009724615713871398 0.0000020070892813757457 9.336254432196212e-7 -0.000001924808915143572
          6.737396175543475e-7 -0.0000028556523127658273 -0.000002218369359999195 0.00004729349141965877 0.00003770945949468224 0.000031350010540429074
          0.00003632962822221891 0.00009556407959149249 0.00007438668695885359 0.00006275173386244282 0.00007225984537580048 0.00006058884777665474
          0.000044911651237912464 0.000040778419073933536 0.00005254252993234371 8.078810348113169e-7 0.000004186715674661667 0.0000017723061606286783
          -0.0000016849752980177546 6.711052153900512e-7 0.000008024422577634915 0.000004721893807308614 -0.0000016403537760611986 -0.0000022752611766978237
          0.000002447584363657329 9.752036011570486e-7 -0.000002768410495734841 0.000003971863155947941 -2.091767881580442e-7 0.0000010642068142335467
          0.000003507374943284569 0.000006636490274328916 -0.0000021577044909647236 7.055189138998469e-7 0.000007185836254315625 0.0000031819670486508966
          -0.0000020036114143362482 -2.0643150332871896e-7 0.000004245047540915592 -0.0000023523039433398507 -0.000002841070167593912 -0.0000048566771145772125
          -0.000006022355970924237 -0.000002987378749451375 -0.0000037211259308923827 -0.0000015287722669454773 0.000006140300003482091 7.071308144868116e-7
          0.00000900782358918134 2.815229521724305e-7 0.000001121580633235697 -0.000010097526238140447 -0.000008553370745720268 -0.000005419221078383028
          -0.00002590478699169424 -0.00002092182803179604 -0.000016549439029332237 -0.000011169255532073909 -0.000054719082998692936 -0.000009529462068086358
          -0.000007391116168040286 -0.00000704921342429372 -0.00002837034725421822 -5.402699520800497e-7 2.592351320412911e-8 2.32257458011257e-7
          8.247820789814009e-7 -0.0000011276791110239985 0.0000028509482962804644 0.000002712792025301447 0.0000022466400911025364 -0.0000029616366959608204
          -9.180411912820818e-7 -0.0000017421896461849301 -3.79027493752071e-7 0.000005679146549766867 0.00000569584231276208 0.000009448780488710562
          0.000011837380486834397 0.0000013596194775589154 0.0000027472364395736415 0.000002848334786142992 0.000009272288902423959 -0.000004202825096930041
          -9.93482067203344e-7 0.000004792633465158791 0.000017822214469736045 -0.000008996904781607973 -0.0000017030172303478253 0.0000011444311621977565
          0.000007341955061314007 -0.000006233353766080252 -0.0000027288132356806383 -0.00011283321580918271 -0.00007146477582295474 -0.000022267967368807748
          -0.0000017056955620778358 -0.00022342820919613038 -0.00014220811383935938 -0.00003945599367944329 0.0000012886155750096995 -0.00010005956542352701
          -0.00006622042154805219 -0.000014047813638735918 0.000011668224291924711 -1.428606391187413e-7 -0.0000016162696938200848 -0.0000017297195658979789
          -3.1730677079464323e-7 -4.1247656851368524e-7 -0.000003233266837224247 -0.0000032676121578863876 -9.670699415570416e-7 -2.693791040807086e-7
          -0.0000016592527855930142 -0.0000010817522994146025 -6.588184695288657e-7 -2.983009546649734e-7 0.0000019755799126955353 -0.000001439445618517561
          0.0000040511944540203015 -0.0000013090151396964733 0.0000020668078906608406 -0.000002102002241585743 0.000001818761390978696 -0.0000012754241068627103
          0.000003765127540453217 0.00000788587559691356 0.000005996105508776495 0.000015822167286766442 0.00000619929899574323 0.000010533790530245501
          0.00001680714244202408 0.000016275872727539165 0.000009474761020644706 0.00003332501523473086 0.00003228557257727027 0.00001858862939740913
          0.000022016486345449726 0.00001944350705784803 0.000010847571290557856 0.00001603027212090935 0.000027005720525971437 0.000048220208135191234
          0.000021288964637600216 0.00003133447974534853 0.00005215851218244149 0.00009780722498807515 0.000043576283231941404 0.00001704293489038916
          0.00002994996753124049 0.00005918974251363507 0.00002247119240880724 0.0000012911822511590954 0.0000014275393250481883 -1.0930185086882593e-7
          0.0000024047169355639886 0.0000029359908349790853 2.680024202839082e-7 -1.361673355876336e-7 -0.0000011372670993756162 -0.0000016274140029540196
          1.146943923863164e-7 -0.000004344978492634016 -2.723649849857568e-7 -0.000009746653921744591 -6.565148546709698e-7 -0.00000623376267252021
          0.000007855444637508424 -0.00008705496438415894 0.000015739161366254417 -0.000177263841856512 0.000015406305534440556 -0.00007866532632513912
          0.000009180236529279795 0.000014500105672124453 0.000017917854831212 0.00002821836517527543 0.000010712317810496197 0.000015965877308343757
          -0.0000059959870979328644 -0.0000048880142420465456 -0.000013281526895801699 -0.000009263109558031724 -0.000010509823876028723 -0.000007618195270550632
          -0.000025319999045751718 -0.00002110524643084144 -0.000006186964577367671 -0.000006268863471152464 -0.000009638736201925124 -0.000008336471575276505
          0.000004583018253418586 0.000010768322439264934 0.0000044728200779028775 0.000008426090471462533 0.00002217190287274063 0.000010071395324959785
          0.000003043150795405125 0.00001193827582705257 0.000004780467506870258 0.000007071233057570625 -8.710123077515508e-7 0.000013988992547772638
          -0.0000017998139505981392 0.000007044308609836791 -9.386348189671656e-7 -0.000003844872595352988 -0.0000036316703196613564 -0.000008753885854730081
          -0.000008569495648569326 -0.000006711422316812987 -0.0000060387531826298566 0.00001699805097912961 0.000013024458686658469 0.0000326711544991181
          0.000027185144526910288 0.000017904971372724454 0.000017387523506856573 0.00000230450532912041 0.000004254185198546145 0.000004729956874838237
          0.000007902144755031482 0.000003100171851080913 0.000004439555086235836 -9.323341646130107e-7 -0.000004728866522602654 -7.511847824560533e-7
          -0.000002201883104967911 -0.000009780914512660943 -0.0000015920660161186997 -0.0000012574273027896737 -0.000005667004461026165 -0.0000010612372182564403
          0.0000012326263998429024 0.0000012368198377410433 0.0000013536059902570508 0.0000015645404344896002 0.000002094075799707884 0.000001831762768413417
          -2.438239636304296e-7 -7.184735489329519e-7 2.109174419978599e-7 3.759448606588389e-8 0.0000012726300238560806 -9.348013599863592e-7
          6.501757178756229e-7 -8.027860671985798e-7 -0.0000019140632773403943 -0.0000018587147426196715 -0.000006954585871424279 -0.0000023512910415357524
          7.741571417946291e-8 -0.000002594428952451544 -0.000005279576899976102 -8.055923283569258e-7 -0.000001028399919916767 -9.64498886422624e-7
          -3.2377704780282845e-7 -0.0000020145189078791745 -0.0000022412304278122963 -0.0000011605507391661274 -9.71945173100161e-7 -0.0000013355121359238248
          -0.0000015080649990867334 -4.995732811007014e-7 -8.847296348989814e-7 -5.975707277165732e-7 -6.710833247158821e-7 -4.3604829624670216e-7
          -0.0000012499986970226917 -0.000003959506941571614 -0.000005313212977767212 -0.0000013971643187653954 -0.000004305959057457169 -0.000002482651830400251
          -0.000009102507881715398 -0.0000015344315198485836 -0.00000489047182058739 -0.00002779669478736313 -0.000008711640446856794 -0.000043025262318113766
          -0.000014840149277065007 -0.00001934377824919231 -0.000008218551967323351 0.0000121884049389398 0.000020173231365439026 0.00002460420732777746
          0.000042020878413095986 0.000013184455118706029 0.000032394855105144504 -0.0000023377584082990947 -0.000003840869884926858 -0.000002482579826375113
          -0.000006330734421425288 -0.000011093117608731995 -0.000006233614563116996 0.000045304620569723564 -0.00011734239569111127 0.00009174355522641349
          -0.0002354558168200238 0.00006553781198977572 -0.0001005680401232889 -0.000003203948862762901 -0.0000061309979767498746 -0.0000031067195597755948
          0.000007399081842652394 0.000014070571198895182 0.000016286038004860448 -2.8690487137352644e-7 -0.0000010268925860253825 -6.90777622116244e-7
          0.000002243528037279563 0.00000473056977039199 0.0000019167283722698603 -0.000002180303989782195 -0.000003493381101692117 -0.000002336343070355462
          -0.000056147284409155396 -0.00011516321016996622 -0.00005677771874702808 -0.00013261066295783275 -0.0002627989890690019 -0.00011112789113715271
          -0.000042937652047370795 -0.00007736161719361714 -0.00003564867876678507 -0.0000013449802554951762 -0.000002301611565336259 -0.0000018392687199941804
          -0.00000840355640141597 -0.000015815122952417097 -0.000008500839394371545 -6.779073381128807e-7 -0.0000016440931638169658 -0.0000012859458305370048
          -0.000008801789329417053 -0.000016953350647816445 -0.000011712486013656931 -0.00000830005316073898 -0.00001452215597461115 -0.000009846984694184685
          -0.000006584322737472614 -0.000009309168402114182 -0.000008321990149735142 -0.000011402332542514992 -0.00002013023902586175 -0.000010520723405672144
          -0.000012236041284224841 -0.000016882028258859844 -0.000012592353789211974 -0.000015002926987757459 -0.000023687051883450327 -0.00001566125749043884
          -0.000020161040615924997 -0.00003395718995179847 -0.00002042696118141618 -0.000021578415772521842 -0.00003653169024585984 -0.000022628625668465185
          -0.000011830850631791567 -0.000018376568700517737 -0.000013786798082393581 -0.0000016164547522456996 0.0000032253334312226656 -0.0000022591696010182405
          0.0000071961330700559545 -0.0000031696387645385737 0.000002335695089644707 0.000002744907940180341 0.000001145906039931588 0.000008664897261825844
          6.478554489038751e-7 0.000005418813080915186 0.00000141980608583947 0.000017577327943663068 0.0000012505183745476628 7.738537298601633e-7
          -0.0000025122348105005576 0.0000059512031584108005 -0.000001980719878095019 0.0000030338105582519703 0.00000843655040819874 0.0000021479544192737343
          -0.000004381857284654206 -0.000003108255058382331 -0.000002705036793653609 -0.0000029792125277698644 -0.0000036225220761791632 -0.000004718558514778606
          -0.000004291643475335533 -0.000006448511182827882 -0.00000881187206464712 -0.000015417881111305654 -0.000006242696700894945 -0.000011204840521193346
          -0.00001566155792346452 -0.00003415526529697288 -0.000020056670168230872 -0.000011382300270579987 -0.000019156321074215166 -0.000013052486399999647
          -0.00001126248101286989 -0.000021795264339527498 -0.000013863525369854635 -0.000014491296414564925 -0.000024782916118862297 -0.000015714148267224892
          -0.000010481693063849051 -0.00001495482002439319 -0.000011617323425583415 -0.000001373475775515165 0.0000031799669313326007 -0.0000030998531034831522
          0.0000020722442442833167 0.000010503927653504608 0.0000011456043125246396 -0.0000013161035023331272 5.182474535347925e-7 0.000010009416947703853
          0.0000028208999035082144 0.00000323696131290796 0.000019557575762496615 -6.368924085597407e-7 -0.0000013600337639557702 0.0000060097477095621965
        </DataArray>
        <DataArray type="Float64" Name="resid_z" format="ascii" RangeMin="0" RangeMax="0">
          0 0 0 0 0 0
          0 0 0 0 0 0
          0 0 0 0 0 0
          0 0 0 0 0 0
          0 0 0 0 0 0
          0 0 0 0 0 0
          0 0 0 0 0 0
          0 0 0 0 0 0
          0 0 0 0 0 0
          0 0 0 0 0 0
          0 0 0 0 0 0
          0 0 0 0 0 0
          0 0 0 0 0 0
          0 0 0 0 0 0
          0 0 0 0 0 0
          0 0 0 0 0 0
          0 0 0 0 0 0
          0 0 0 0 0 0
          0 0 0 0 0 0
          0 0 0 0 0 0
          0 0 0 0 0 0
          0 0 0 0 0 0
          0 0 0 0 0 0
          0 0 0 0 0 0
          0 0 0 0 0 0
          0 0 0 0 0 0
          0 0 0 0 0 0
          0 0 0 0 0 0
          0 0 0 0 0 0
          0 0 0 0 0 0
          0 0 0 0 0 0
          0 0 0 0 0 0
          0 0 0 0 0 0
          0 0 0 0 0 0
          0 0 0 0 0 0
          0 0 0 0 0 0
          0 0 0 0 0 0
          0 0 0 0 0 0
          0 0 0 0 0 0
          0 0 0 0 0 0
          0 0 0 0 0 0
          0 0 0 0 0 0
          0 0 0 0 0 0
          0 0 0 0 0 0
          0 0 0 0 0 0
          0 0 0 0 0 0
          0 0 0 0 0 0
          0 0 0 0 0 0
          0 0 0 0 0 0
          0 0 0 0 0 0
          0 0 0 0 0 0
          0 0 0 0 0 0
          0 0 0 0 0 0
          0 0 0 0 0 0
          0 0 0 0 0 0
          0 0 0 0 0 0
          0 0 0 0 0 0
          0 0 0 0 0 0
          0 0 0 0 0 0
          0 0 0 0 0 0
          0 0 0 0 0 0
          0 0 0 0 0 0
          0 0 0 0 0 0
          0 0 0 0 0 0
          0 0 0 0 0 0
          0 0 0 0 0 0
          0 0 0 0 0 0
          0 0 0 0 0 0
          0 0 0 0 0 0
          0 0 0 0 0 0
          0 0 0 0 0 0
          0 0 0 0 0 0
          0 0 0 0 0 0
          0 0 0 0 0 0
          0 0 0 0 0 0
          0 0 0 0 0 0
          0 0 0 0 0 0
          0 0 0 0 0 0
          0 0 0 0 0 0
          0 0 0 0 0 0
          0 0 0 0 0 0
          0 0 0 0 0 0
          0 0 0 0 0 0
          0 0 0 0 0 0
          0 0 0 0 0 0
          0 0 0 0 0 0
          0 0 0 0 0 0
          0 0 0 0 0 0
          0 0 0 0 0 0
          0 0 0 0 0 0
          0 0 0 0 0 0
          0 0 0 0 0 0
          0 0 0 0 0 0
          0 0 0 0 0 0
          0 0 0 0 0 0
          0 0 0 0 0 0
          0 0 0 0 0 0
          0 0 0 0 0 0
          0 0 0 0 0 0
          0 0 0 0 0 0
          0 0 0 0 0 0
          0 0 0 0 0 0
          0 0 0 0 0 0
          0 0 0 0 0 0
          0 0 0 0 0 0
          0 0 0 0 0 0
          0 0 0 0 0 0
          0 0 0 0 0 0
          0 0 0 0 0 0
          0 0 0 0 0 0
          0 0 0 0 0 0
          0 0 0 0 0 0
          0 0 0 0 0 0
          0 0 0 0 0 0
          0 0 0 0 0 0
          0 0 0 0 0 0
          0 0 0 0 0 0
          0 0 0 0 0 0
          0 0 0 0 0 0
          0 0 0 0 0 0
          0 0 0 0 0 0
          0 0 0 0 0 0
          0 0 0 0 0 0
          0 0 0 0 0 0
          0 0 0 0 0 0
          0 0 0 0 0 0
        </DataArray>
        <DataArray type="Float64" Name="stress_zz" format="ascii" RangeMin="-4800911.1191211995" RangeMax="10507259.957398418">
          -4451.659126282397 -4534.312189511973 -4505.179843618369 -4580.250008276875 -4558.700560954341 -4626.1878270417765
          -6131.807879993113 -6261.302371357915 -6208.616302700659 -6327.213189827711 -6285.424725408204 -6393.124008297507
          -8694.519043588703 -8907.101328527435 -8810.274252453728 -9008.322559655808 -8926.029461318753 -9109.543790784179
          -12691.672190200588 -13056.49079988702 -12896.824909187675 -13246.779401222539 -13101.977628174762 -13437.068002558055
          -19042.28049601378 -19734.22030784175 -19499.44522725133 -20160.683336974747 -19956.609958488876 -20587.14636610774
          -30911.280157703797 -32209.23792833565 -31081.940862370797 -32458.750583836696 -31252.60156703779 -32708.263239337743
          -47918.69729564623 -51466.859614443514 -50108.234584105005 -53245.460932786926 -52297.77187256379 -55024.06225113034
          -47418.09713100341 -59284.25470842623 -60659.498553665144 -74494.40392055592 -73900.89997632687 -89704.5531326856
          -63568.21436782688 -74194.27581289576 -42875.471737101885 -52539.30955824026 -22182.729106376908 -30884.343303584763
          -25912.750406506162 96695.02162241479 89570.55531501709 240352.14883143958 205053.86103654033 384009.2760404644
          -4209.047967704124 -4286.229331364479 -4363.410695024832 -5754.061234829946 -5862.799897725715 -5971.538560621481
          -8073.759608480432 -8231.373188827769 -8388.986769175102 -11612.671488277818 -11864.775502314984 -12116.879516352154
          -17042.015901498795 -17573.891485230262 -18105.76706896173 -27055.39215613858 -27081.88003252005 -27108.367908901517
          -37685.99685776244 -40727.61362779964 -43769.230397836836 -16004.930194685712 -24567.887052628055 -33130.843910570395
          -36116.148949413866 -18021.76113651714 72.6266763795793 -91655.60511503351 -7533.131822944838 76589.34146914384
          -3815.852995384418 -3931.556692509301 -4047.2603896341825 -5145.432654903663 -5303.233941982804 -5461.035229061945
          -7077.690858853488 -7298.9070855084365 -7520.123312163383 -9893.6256776563 -10215.726439722372 -10537.827201788446
          -13858.365260672279 -14490.414768272298 -15122.464275872311 -21084.18797982231 -20981.165504633453 -20878.1430294446
          -21086.752425617797 -24926.20123082689 -28765.65003603598 20348.468489607883 17037.842170450524 13727.215851293164
          21562.790389154685 38278.749126908064 54994.70786466144 -84641.64379318125 -30204.984166220074 24231.675460741077
          -3349.54593710161 -3493.308071779489 -3637.0702064573693 -4411.612443320888 -4602.652961917021 -4793.693480513154
          -5866.56469829287 -6128.362730988491 -6390.160763684114 -7766.905613262126 -8122.9132276338705 -8478.920842005613
          -9968.801226614065 -10646.749031122808 -11324.696835631556 -13314.956530041185 -13034.659277982137 -12754.362025923088
          -2136.600850701572 -6532.899170652312 -10929.19749060305 58222.7290679024 59953.65354605462 61684.57802420683
          68623.51882272711 84377.53672038208 100131.55461803703 -128797.42594650881 -110870.35660270933 -92943.28725890984
          -3098.2550865479316 -3164.046961665016 -3229.838836782101 -3940.5100667202623 -4024.3151798332347 -4108.120292946208
          -4965.163841416996 -5077.095933620757 -5189.028025824518 -5988.282723183581 -6131.203634487227 -6274.1245457908735
          -6379.762798099664 -6741.211926140916 -7102.6610541821665 -5423.538899488078 -4679.097286606859 -3934.6556737256387
          15773.509185598465 11555.498221694084 7337.487257789701 91437.80530561102 97477.08363276543 103516.36195991983
          76518.39025407466 86507.40390502513 96496.41755597555 -152931.68553097127 -164144.2474145635 -175356.80929815568
          -3793.0894397233897 -3448.9071944385882 -3104.7249491537864 -4698.0523992057515 -4238.023352928077 -3777.994306650401
          -5669.914023621297 -5052.565665857061 -4435.217308092826 -6325.18387377757 -5489.659711367942 -4654.135548958315
          -5440.074827780465 -4469.891644791089 -3499.7084618017143 -863.3768798271012 1407.9490373364847 3679.2749545000706
          29334.448762047472 26857.748520919304 24381.048279791135 107997.69542297709 116403.78654370314 124809.87766442918
          81822.20392340397 81727.11255855391 81632.02119370384 -150505.36273258564 -195356.16180769444 -240206.96088280328
          -7160.810323315623 -5307.436917114278 -3454.0635109129335 -8945.961877173282 -6500.634925773123 -4055.307974372964
          -10989.988346661652 -7738.00362024249 -4486.018893823328 -12759.558971389177 -8422.960900446715 -4086.3628295042545
          -12554.037022043281 -6985.287745188352 -1416.538468333423 -5986.491581730226 1690.0407911375523 9366.57316400533
          29747.424641034926 33043.30056823184 36339.17649542876 110021.1111632714 118932.63359793514 127844.1560325989
          101396.3101608591 83200.74249092139 65005.174820983666 -69954.33849469014 -144785.33633459714 -219616.3341745042
          -13464.991679099916 -12298.063747870363 -11131.135816640808 -17020.922978715607 -15511.152885456599 -14001.382792197586
          -21343.339406777937 -19385.662785211305 -17427.986163644673 -25812.22315333748 -23275.337907270943 -20738.452661204414
          -28251.630786160677 -25134.452582225458 -22017.274378290247 -22044.557306443814 -17783.084269634877 -13521.611232825942
          16271.659482711282 17163.92857859229 18056.1976744733 98429.72018009743 105329.58020796657 112229.44023583573
          139501.68086239192 126671.09202816024 113840.50319392861 100922.26547662038 58818.39535578859 16714.525234956807
          -19102.77483777738 -20907.946983581867 -22713.119129386356 -21148.34306485448 -23618.306866308343 -26088.2706677622
          -19481.159225079005 -22827.37245075385 -26173.585676428695 -7300.466226466018 -11231.58759469722 -15162.70896292842
          30529.706535241043 25522.173728059453 20514.640920877864 87875.7291711146 91961.45480396587 96047.18043681714
          108618.10224665678 117083.09434510252 125548.08644354822 17122.972881207344 20322.292585049803 23521.612288892255
          -767211.0070463168 -716002.0221979641 -180932.88839222136 -315226.66784364067 -608463.120253389 -688086.1562070869
          -234277.77433907313 -263883.0880885209 -449715.2334604611 -660170.2902162095 -287622.6602859249 -212539.50833340126
          -533706.7415226838 -404169.0781075362 -410389.28093650844 -263343.95067600126 -287071.82035033323 -122518.82324446645
          -769093.1114829838 -501604.4058609959 -775818.7846933941 -432358.5038909834 -409553.703181691 -665369.6230281695
          -95623.8962989829 -317503.00050238613 -554920.4613629449 -322604.5137819144 -290211.80343228206 131588.75778722396
          -187458.5065841055 -231500.15860443405 -207009.41805711406 143159.70167358892 -97296.22706210619 -140395.8034269538
          -123807.03268194613 154730.64555995387 -7133.947540106921 -248468.5828879451 -273223.0304252083 -1045818.7187204553
          -351973.4911694603 -236378.23933994042 -147327.33672953284 -610382.5097281848 -68944.25173734516 -224287.89579193568
          -21431.643033857363 -174946.30073591432 214084.98769477004 -217829.06397781853 -330436.3175556767 -178318.50901027315
          -121033.0199058851 -155335.77456807237 -266440.4060337178 -100668.87944062847 -38491.5271500278 -92842.48515832622
          -202444.4945117588 -23019.24987098379 44049.96560582949 -211358.74245607224 -41475.140706358856 -84318.67696866198
          -20464.518369200254 -183891.76838488303 22384.34534024314 -54787.33710490932 -33912.555642950625 -156424.79431369383
          86243.83138684515 -25255.997241156652 -47360.592916700945 -40992.42664165238 -225444.46716012276 -34190.686024900904
          -256613.30510520277 -27388.945408149433 -287782.14305028284 -214396.28157509057 -435264.67876179214 -127703.0421754603
          -336401.15869854623 -41009.80277583005 -237537.63863530045 -1949567.0148768597 -1912955.1628155531 -2302330.93220474
          -4598357.917438169 -1181987.0746039553 -1315998.5442432144 -1781230.6553693411 -3596495.1910311566 -414407.13433105085
          -719041.9256708752 -1260130.378533942 -2594632.4646241437 -34961.27356830796 -153314.2575922679 -272700.20940361987
          -151742.3541099118 79607.98852409655 -54190.82468758211 -175569.53944821373 -70281.92379736529 194177.25061650106
          44932.608217103734 -78438.86949280761 11178.50651518121 -504554.1725242583 127977.46922093071 -448251.4314430789
          -70418.07511923404 -391948.69036189956 -268813.61945939873 -8567.429480007957 291473.26411214785 144244.2809591598
          -46104.96210673639 -74865.3643751964 303467.82636655506 87436.68109946193 -70289.52765695693 -141163.29927038483
          315462.3886209622 30629.08123976404 -94474.09320717744 7247777.724571012 10507259.957398418 6935844.012706542
          4190593.0209833095 5399781.25801796 8259206.284064181 5196608.0299218 3007857.2123053214 3551784.791464908
          6011152.610729944 3457372.0471370565 1825121.403627333 -519284.8091759725 -924786.9816417258 -1056878.1176328068
          -554735.9149970668 -489213.468210894 -754881.0766260674 -899650.029664094 -592286.1428695458 -459142.1272458154
          -584975.171610409 -742421.9416953815 -629836.3707420246 -22724.010676160087 -237705.81100991613 86293.89245336545
          -130532.93334909994 195311.79558289098 -23360.055688283755 -184448.45677620498 -91426.52913712093 1595.3985019631218
          -1483503.3208368164 -1239490.0453203914 -1030467.8097766698 -1117245.3203308962 -577432.2987165232 -995000.5953414007
          -1122298.0893729362 -440276.60840475536 -530774.8881227347 -817258.2533323093 -316457.7872691531 -514648.70438778895
          -512218.41729168233 -192638.9661335508 -498522.5206528432 -461855.1122560794 -192419.49013972215 813824.4644986871
          -23434.693273951376 -479114.4139370377 -278738.35641195683 479858.22193211655 -3716.46373685558 -496373.71561799606
          -365057.22268419154 145891.97936554576 16001.765800240217 -280574.13996898895 -442421.7686086295 -467473.0422214307
          -177150.79766212785 -335672.50544416363 -379009.4331273934 -73727.45535526672 -228923.2422796978 -290545.82403335616
          -38556.182269366225 -205861.4401118963 3006.358147397087 -209092.53477742698 44568.89856416042 -212323.62944295758
          -2072033.5448405638 -716637.1634438297 -1351935.5223808303 -148751.2426558196 -631837.4999210967 419134.67813219054
          -104083.09449852754 -98589.67488412175 -5411.493007915463 -70280.65849304636 93260.10848269663 -41971.64210197096
          2867824.691546372 1980959.3264251652 4383946.268288542 5492765.789778457 2294313.092246418 1462437.9107476096
          3138479.939755315 4081956.538845623 1720801.4929464632 943916.4950700537 1893013.6112220879 2671147.287912789
          -256815.81134444696 -174930.9025573471 -277331.29841787886 -151329.39753792615 -119094.22511862344 -215836.42915592762
          -45842.98373140535 -63257.54767989977 -154341.55989397637 39616.15361106035 -82990.81524158506 -31385.462685013954
          -171189.98134848344 -102387.07898108824 -259389.14745538178 -269805.63648093 -220154.64138546 -203058.78510198608
          -193911.59917824174 -136311.93372304202 -167668.5569710234 -320144.7932169904 -562177.8711839858 -267825.48314986884
          -562188.5096645192 -215506.1730827473 -562199.1481450526 -163897.4545015503 96388.0633993563 -173218.69466258681
          83662.54156267867 -182539.9348236234 70937.01972600102 -740002.0548451554 -543430.5156941158 -556322.0176499506
          -695680.2677578896 -455660.4077090301 -506355.5912842425 -651358.4806706235 -367890.2997239445 -456389.16491853446
          -93667.64397447303 96231.20336252493 115233.57183837009 -55227.734854714465 146017.19982353778 131598.4094389842
          -16787.825734955906 195803.19628455065 147963.2470395983 -172779.88169377332 386998.6838006476 -160205.7395566309
          -112786.0254738275 304163.6833177166 -156697.9840230214 -52792.16925388164 221328.68283478566 -153190.22848941188
          835077.8647155291 686552.8932029614 538027.9216903937 -907131.1012486881 -776080.0024154683 -783151.5203529911
          -1444664.1822993485 -805904.9433304125 -608716.9253448098 -768772.9506971613 -1533955.9391530612 -704678.7854121369
          -441353.8482741512 -754394.3810413312 -1623247.6960067735 250163.89373553358 234027.59325315309 223936.68547192184
          -109025.49584025759 197709.47720831007 -452078.58493366826 -639550.1533861554 -627860.9433431121 -519736.398025783
          -562870.2066141205 -399922.64266541065 -497879.4698851289 7982278.599028285 1993935.079462363 6054152.313854479
          1164473.2044933396 4126026.028680676 335011.3295243169 1435832.7344624929 2332011.1014737426 1121228.0087660465
          1352339.7234996741 806623.2830696001 372668.3455256052 -201310.34083051473 -52784.31914109744 95741.70254831988
          -118679.86885103883 -93298.22377687765 -67916.57870271648 1794466.8597983485 3086341.497706709 1420019.0117312807
          2957251.7214028523 1045571.1636642131 2828161.945098996 145511.39887743545 153989.69408089583 162467.98928435624
          -2915738.0537409573 -2144329.9685763023 -1372921.8834116464 -769218.8209214691 -755654.9221915983 -742091.0234617274
          277695.683752149 307966.7548229025 338237.82589365606 -138858.20356221465 -263886.551874129 -388914.90018604335
          -4800911.1191211995 -3823783.7115449943 -2846656.3039687895 4789317.261125156 3788584.058610474 2787850.856095793
          9840551.569320884 7642738.894044376 5444926.218767868 121878.2924665693 257968.43878986553 394058.58511316177
          -548604.8488780215 -779406.3483455789 -1010207.8478131364 -649144.9736162438 -522745.610928623 -396346.24824100215
          8027.323948485309 7637.769564333051 7248.215180180792 24096.08054108401 24781.23414903587 25466.387756987737
          19133.83953867055 18801.711284452613 18469.58303023468 34513.30373031638 35521.12726423287 36528.95079814935
          37760.38940596629 37487.96977911468 37215.55015226308 59583.41722070488 60363.06554978435 61142.71387886382
          55139.657127454346 58481.5762419144 61823.495356374464 -19795.663552937032 -17011.28564055023 -14226.907728163427
          -52857.95284128552 -50306.34428732617 -47754.73573336682 -188995.7431831326 -98752.04604575984 -192796.20914691672
          -100550.35133069115 -196596.67511070077 -102348.65661562243 -246391.25345914325 -81650.89960936582 -8736.555829805224
          -99536.90853610155 -280740.84336155915 -82029.50922058732 -10940.840299597703 -118442.44532247311 -315090.43326397514
          -82408.11883180881 -13145.124769390177 -137347.98210884465 196913.57186916433 183933.0649670414 170952.55806491847
          -32411.548307684483 -36029.92399996747 -39648.29969225046 251399.6681644515 229545.9952584057 207692.32235235994
          21131.084941753852 19010.512350447985 20784.41779935662 18766.14292236387 20437.750656959386 18521.773494279754
          43821.41481855817 44926.23593997593 46031.05706139368 16544.543862320337 15908.68896210883 15272.834061897323
          37836.117612610105 39902.21469123164 41968.31176985317 -11869.906456360926 -11211.399178133488 -10552.891899906055
          -92846.16776941088 -97844.43053937281 -102842.69330933475 -100180.50620352924 -96061.96172078358 -91943.41723803792
          -144602.91148495435 -146353.8788963198 -148104.8463076852 201703.32548549355 160229.94477748586 83267.40185932518
          195805.47832523866 149864.87284210222 75388.85034944247 189907.6311649838 139499.80090671856 67510.29883955975
        </DataArray>
        <DataArray type="Float64" Name="peeq" format="ascii" RangeMin="0" RangeMax="0">
          0 0 0 0 0 0
          0 0 0 0 0 0
          0 0 0 0 0 0
          0 0 0 0 0 0
          0 0 0 0 0 0
          0 0 0 0 0 0
          0 0 0 0 0 0
          0 0 0 0 0 0
          0 0 0 0 0 0
          0 0 0 0 0 0
          0 0 0 0 0 0
          0 0 0 0 0 0
          0 0 0 0 0 0
          0 0 0 0 0 0
          0 0 0 0 0 0
          0 0 0 0 0 0
          0 0 0 0 0 0
          0 0 0 0 0 0
          0 0 0 0 0 0
          0 0 0 0 0 0
          0 0 0 0 0 0
          0 0 0 0 0 0
          0 0 0 0 0 0
          0 0 0 0 0 0
          0 0 0 0 0 0
          0 0 0 0 0 0
          0 0 0 0 0 0
          0 0 0 0 0 0
          0 0 0 0 0 0
          0 0 0 0 0 0
          0 0 0 0 0 0
          0 0 0 0 0 0
          0 0 0 0 0 0
          0 0 0 0 0 0
          0 0 0 0 0 0
          0 0 0 0 0 0
          0 0 0 0 0 0
          0 0 0 0 0 0
          0 0 0 0 0 0
          0 0 0 0 0 0
          0 0 0 0 0 0
          0 0 0 0 0 0
          0 0 0 0 0 0
          0 0 0 0 0 0
          0 0 0 0 0 0
          0 0 0 0 0 0
          0 0 0 0 0 0
          0 0 0 0 0 0
          0 0 0 0 0 0
          0 0 0 0 0 0
          0 0 0 0 0 0
          0 0 0 0 0 0
          0 0 0 0 0 0
          0 0 0 0 0 0
          0 0 0 0 0 0
          0 0 0 0 0 0
          0 0 0 0 0 0
          0 0 0 0 0 0
          0 0 0 0 0 0
          0 0 0 0 0 0
          0 0 0 0 0 0
          0 0 0 0 0 0
          0 0 0 0 0 0
          0 0 0 0 0 0
          0 0 0 0 0 0
          0 0 0 0 0 0
          0 0 0 0 0 0
          0 0 0 0 0 0
          0 0 0 0 0 0
          0 0 0 0 0 0
          0 0 0 0 0 0
          0 0 0 0 0 0
          0 0 0 0 0 0
          0 0 0 0 0 0
          0 0 0 0 0 0
          0 0 0 0 0 0
          0 0 0 0 0 0
          0 0 0 0 0 0
          0 0 0 0 0 0
          0 0 0 0 0 0
          0 0 0 0 0 0
          0 0 0 0 0 0
          0 0 0 0 0 0
          0 0 0 0 0 0
          0 0 0 0 0 0
          0 0 0 0 0 0
          0 0 0 0 0 0
          0 0 0 0 0 0
          0 0 0 0 0 0
          0 0 0 0 0 0
          0 0 0 0 0 0
          0 0 0 0 0 0
          0 0 0 0 0 0
          0 0 0 0 0 0
          0 0 0 0 0 0
          0 0 0 0 0 0
          0 0 0 0 0 0
          0 0 0 0 0 0
          0 0 0 0 0 0
          0 0 0 0 0 0
          0 0 0 0 0 0
          0 0 0 0 0 0
          0 0 0 0 0 0
          0 0 0 0 0 0
          0 0 0 0 0 0
          0 0 0 0 0 0
          0 0 0 0 0 0
          0 0 0 0 0 0
          0 0 0 0 0 0
          0 0 0 0 0 0
          0 0 0 0 0 0
          0 0 0 0 0 0
          0 0 0 0 0 0
          0 0 0 0 0 0
          0 0 0 0 0 0
          0 0 0 0 0 0
          0 0 0 0 0 0
          0 0 0 0 0 0
          0 0 0 0 0 0
          0 0 0 0 0 0
          0 0 0 0 0 0
          0 0 0 0 0 0
          0 0 0 0 0 0
          0 0 0 0 0 0
          0 0 0 0 0 0
          0 0 0 0 0 0
        </DataArray>
        <DataArray type="Float64" Name="pe11" format="ascii" RangeMin="0" RangeMax="0">
          0 0 0 0 0 0
          0 0 0 0 0 0
          0 0 0 0 0 0
          0 0 0 0 0 0
          0 0 0 0 0 0
          0 0 0 0 0 0
          0 0 0 0 0 0
          0 0 0 0 0 0
          0 0 0 0 0 0
          0 0 0 0 0 0
          0 0 0 0 0 0
          0 0 0 0 0 0
          0 0 0 0 0 0
          0 0 0 0 0 0
          0 0 0 0 0 0
          0 0 0 0 0 0
          0 0 0 0 0 0
          0 0 0 0 0 0
          0 0 0 0 0 0
          0 0 0 0 0 0
          0 0 0 0 0 0
          0 0 0 0 0 0
          0 0 0 0 0 0
          0 0 0 0 0 0
          0 0 0 0 0 0
          0 0 0 0 0 0
          0 0 0 0 0 0
          0 0 0 0 0 0
          0 0 0 0 0 0
          0 0 0 0 0 0
          0 0 0 0 0 0
          0 0 0 0 0 0
          0 0 0 0 0 0
          0 0 0 0 0 0
          0 0 0 0 0 0
          0 0 0 0 0 0
          0 0 0 0 0 0
          0 0 0 0 0 0
          0 0 0 0 0 0
          0 0 0 0 0 0
          0 0 0 0 0 0
          0 0 0 0 0 0
          0 0 0 0 0 0
          0 0 0 0 0 0
          0 0 0 0 0 0
          0 0 0 0 0 0
          0 0 0 0 0 0
          0 0 0 0 0 0
          0 0 0 0 0 0
          0 0 0 0 0 0
          0 0 0 0 0 0
          0 0 0 0 0 0
          0 0 0 0 0 0
          0 0 0 0 0 0
          0 0 0 0 0 0
          0 0 0 0 0 0
          0 0 0 0 0 0
          0 0 0 0 0 0
          0 0 0 0 0 0
          0 0 0 0 0 0
          0 0 0 0 0 0
          0 0 0 0 0 0
          0 0 0 0 0 0
          0 0 0 0 0 0
          0 0 0 0 0 0
          0 0 0 0 0 0
          0 0 0 0 0 0
          0 0 0 0 0 0
          0 0 0 0 0 0
          0 0 0 0 0 0
          0 0 0 0 0 0
          0 0 0 0 0 0
          0 0 0 0 0 0
          0 0 0 0 0 0
          0 0 0 0 0 0
          0 0 0 0 0 0
          0 0 0 0 0 0
          0 0 0 0 0 0
          0 0 0 0 0 0
          0 0 0 0 0 0
          0 0 0 0 0 0
          0 0 0 0 0 0
          0 0 0 0 0 0
          0 0 0 0 0 0
          0 0 0 0 0 0
          0 0 0 0 0 0
          0 0 0 0 0 0
          0 0 0 0 0 0
          0 0 0 0 0 0
          0 0 0 0 0 0
          0 0 0 0 0 0
          0 0 0 0 0 0
          0 0 0 0 0 0
          0 0 0 0 0 0
          0 0 0 0 0 0
          0 0 0 0 0 0
          0 0 0 0 0 0
          0 0 0 0 0 0
          0 0 0 0 0 0
          0 0 0 0 0 0
          0 0 0 0 0 0
          0 0 0 0 0 0
          0 0 0 0 0 0
          0 0 0 0 0 0
          0 0 0 0 0 0
          0 0 0 0 0 0
          0 0 0 0 0 0
          0 0 0 0 0 0
          0 0 0 0 0 0
          0 0 0 0 0 0
          0 0 0 0 0 0
          0 0 0 0 0 0
          0 0 0 0 0 0
          0 0 0 0 0 0
          0 0 0 0 0 0
          0 0 0 0 0 0
          0 0 0 0 0 0
          0 0 0 0 0 0
          0 0 0 0 0 0
          0 0 0 0 0 0
          0 0 0 0 0 0
          0 0 0 0 0 0
          0 0 0 0 0 0
          0 0 0 0 0 0
          0 0 0 0 0 0
          0 0 0 0 0 0
        </DataArray>
        <DataArray type="Float64" Name="pe22" format="ascii" RangeMin="0" RangeMax="0">
          0 0 0 0 0 0
          0 0 0 0 0 0
          0 0 0 0 0 0
          0 0 0 0 0 0
          0 0 0 0 0 0
          0 0 0 0 0 0
          0 0 0 0 0 0
          0 0 0 0 0 0
          0 0 0 0 0 0
          0 0 0 0 0 0
          0 0 0 0 0 0
          0 0 0 0 0 0
          0 0 0 0 0 0
          0 0 0 0 0 0
          0 0 0 0 0 0
          0 0 0 0 0 0
          0 0 0 0 0 0
          0 0 0 0 0 0
          0 0 0 0 0 0
          0 0 0 0 0 0
          0 0 0 0 0 0
          0 0 0 0 0 0
          0 0 0 0 0 0
          0 0 0 0 0 0
          0 0 0 0 0 0
          0 0 0 0 0 0
          0 0 0 0 0 0
          0 0 0 0 0 0
          0 0 0 0 0 0
          0 0 0 0 0 0
          0 0 0 0 0 0
          0 0 0 0 0 0
          0 0 0 0 0 0
          0 0 0 0 0 0
          0 0 0 0 0 0
          0 0 0 0 0 0
          0 0 0 0 0 0
          0 0 0 0 0 0
          0 0 0 0 0 0
          0 0 0 0 0 0
          0 0 0 0 0 0
          0 0 0 0 0 0
          0 0 0 0 0 0
          0 0 0 0 0 0
          0 0 0 0 0 0
          0 0 0 0 0 0
          0 0 0 0 0 0
          0 0 0 0 0 0
          0 0 0 0 0 0
          0 0 0 0 0 0
          0 0 0 0 0 0
          0 0 0 0 0 0
          0 0 0 0 0 0
          0 0 0 0 0 0
          0 0 0 0 0 0
          0 0 0 0 0 0
          0 0 0 0 0 0
          0 0 0 0 0 0
          0 0 0 0 0 0
          0 0 0 0 0 0
          0 0 0 0 0 0
          0 0 0 0 0 0
          0 0 0 0 0 0
          0 0 0 0 0 0
          0 0 0 0 0 0
          0 0 0 0 0 0
          0 0 0 0 0 0
          0 0 0 0 0 0
          0 0 0 0 0 0
          0 0 0 0 0 0
          0 0 0 0 0 0
          0 0 0 0 0 0
          0 0 0 0 0 0
          0 0 0 0 0 0
          0 0 0 0 0 0
          0 0 0 0 0 0
          0 0 0 0 0 0
          0 0 0 0 0 0
          0 0 0 0 0 0
          0 0 0 0 0 0
          0 0 0 0 0 0
          0 0 0 0 0 0
          0 0 0 0 0 0
          0 0 0 0 0 0
          0 0 0 0 0 0
          0 0 0 0 0 0
          0 0 0 0 0 0
          0 0 0 0 0 0
          0 0 0 0 0 0
          0 0 0 0 0 0
          0 0 0 0 0 0
          0 0 0 0 0 0
          0 0 0 0 0 0
          0 0 0 0 0 0
          0 0 0 0 0 0
          0 0 0 0 0 0
          0 0 0 0 0 0
          0 0 0 0 0 0
          0 0 0 0 0 0
          0 0 0 0 0 0
          0 0 0 0 0 0
          0 0 0 0 0 0
          0 0 0 0 0 0
          0 0 0 0 0 0
          0 0 0 0 0 0
          0 0 0 0 0 0
          0 0 0 0 0 0
          0 0 0 0 0 0
          0 0 0 0 0 0
          0 0 0 0 0 0
          0 0 0 0 0 0
          0 0 0 0 0 0
          0 0 0 0 0 0
          0 0 0 0 0 0
          0 0 0 0 0 0
          0 0 0 0 0 0
          0 0 0 0 0 0
          0 0 0 0 0 0
          0 0 0 0 0 0
          0 0 0 0 0 0
          0 0 0 0 0 0
          0 0 0 0 0 0
          0 0 0 0 0 0
          0 0 0 0 0 0
          0 0 0 0 0 0
          0 0 0 0 0 0
        </DataArray>
        <DataArray type="Float64" Name="pe33" format="ascii" RangeMin="0" RangeMax="0">
          0 0 0 0 0 0
          0 0 0 0 0 0
          0 0 0 0 0 0
          0 0 0 0 0 0
          0 0 0 0 0 0
          0 0 0 0 0 0
          0 0 0 0 0 0
          0 0 0 0 0 0
          0 0 0 0 0 0
          0 0 0 0 0 0
          0 0 0 0 0 0
          0 0 0 0 0 0
          0 0 0 0 0 0
          0 0 0 0 0 0
          0 0 0 0 0 0
          0 0 0 0 0 0
          0 0 0 0 0 0
          0 0 0 0 0 0
          0 0 0 0 0 0
          0 0 0 0 0 0
          0 0 0 0 0 0
          0 0 0 0 0 0
          0 0 0 0 0 0
          0 0 0 0 0 0
          0 0 0 0 0 0
          0 0 0 0 0 0
          0 0 0 0 0 0
          0 0 0 0 0 0
          0 0 0 0 0 0
          0 0 0 0 0 0
          0 0 0 0 0 0
          0 0 0 0 0 0
          0 0 0 0 0 0
          0 0 0 0 0 0
          0 0 0 0 0 0
          0 0 0 0 0 0
          0 0 0 0 0 0
          0 0 0 0 0 0
          0 0 0 0 0 0
          0 0 0 0 0 0
          0 0 0 0 0 0
          0 0 0 0 0 0
          0 0 0 0 0 0
          0 0 0 0 0 0
          0 0 0 0 0 0
          0 0 0 0 0 0
          0 0 0 0 0 0
          0 0 0 0 0 0
          0 0 0 0 0 0
          0 0 0 0 0 0
          0 0 0 0 0 0
          0 0 0 0 0 0
          0 0 0 0 0 0
          0 0 0 0 0 0
          0 0 0 0 0 0
          0 0 0 0 0 0
          0 0 0 0 0 0
          0 0 0 0 0 0
          0 0 0 0 0 0
          0 0 0 0 0 0
          0 0 0 0 0 0
          0 0 0 0 0 0
          0 0 0 0 0 0
          0 0 0 0 0 0
          0 0 0 0 0 0
          0 0 0 0 0 0
          0 0 0 0 0 0
          0 0 0 0 0 0
          0 0 0 0 0 0
          0 0 0 0 0 0
          0 0 0 0 0 0
          0 0 0 0 0 0
          0 0 0 0 0 0
          0 0 0 0 0 0
          0 0 0 0 0 0
          0 0 0 0 0 0
          0 0 0 0 0 0
          0 0 0 0 0 0
          0 0 0 0 0 0
          0 0 0 0 0 0
          0 0 0 0 0 0
          0 0 0 0 0 0
          0 0 0 0 0 0
          0 0 0 0 0 0
          0 0 0 0 0 0
          0 0 0 0 0 0
          0 0 0 0 0 0
          0 0 0 0 0 0
          0 0 0 0 0 0
          0 0 0 0 0 0
          0 0 0 0 0 0
          0 0 0 0 0 0
          0 0 0 0 0 0
          0 0 0 0 0 0
          0 0 0 0 0 0
          0 0 0 0 0 0
          0 0 0 0 0 0
          0 0 0 0 0 0
          0 0 0 0 0 0
          0 0 0 0 0 0
          0 0 0 0 0 0
          0 0 0 0 0 0
          0 0 0 0 0 0
          0 0 0 0 0 0
          0 0 0 0 0 0
          0 0 0 0 0 0
          0 0 0 0 0 0
          0 0 0 0 0 0
          0 0 0 0 0 0
          0 0 0 0 0 0
          0 0 0 0 0 0
          0 0 0 0 0 0
          0 0 0 0 0 0
          0 0 0 0 0 0
          0 0 0 0 0 0
          0 0 0 0 0 0
          0 0 0 0 0 0
          0 0 0 0 0 0
          0 0 0 0 0 0
          0 0 0 0 0 0
          0 0 0 0 0 0
          0 0 0 0 0 0
          0 0 0 0 0 0
          0 0 0 0 0 0
          0 0 0 0 0 0
          0 0 0 0 0 0
        </DataArray>
        <DataArray type="Float64" Name="disp_x" format="ascii" RangeMin="0" RangeMax="9.35853808479827e-7">
          4.3126683657367515e-8 0 4.312556931750603e-8 0 4.3122177428036547e-8 0
          4.308632374121105e-8 0 4.3084740152503916e-8 0 4.307993155935469e-8 0
          4.30420559185917e-8 0 4.3039734710085185e-8 0 4.303268363668153e-8 0
          4.2995510611966156e-8 0 4.299193805621063e-8 0 4.298113287016912e-8 0
          4.295191116558255e-8 0 4.2946182836224745e-8 0 4.2928798585707066e-8 0
          4.292758180721824e-8 0 4.291751728668626e-8 0 4.2887407432229914e-8 0
          4.297048202676507e-8 0 4.295202606855995e-8 0 4.289638309688214e-8 0
          4.3237186807538036e-8 0 4.319617974375256e-8 0 4.3074679258281515e-8 0
          4.421175774136289e-8 0 4.411786110354413e-8 0 4.382036787971968e-8 0
          4.999306374226021e-8 0 4.9631801916586935e-8 0 4.8527968223275866e-8 0
          8.625896135071255e-8 8.625676348107316e-8 8.62500384462013e-8 8.618041950745384e-8 8.617730798914449e-8 8.616778382608502e-8
          8.609529935141265e-8 8.609072634603808e-8 8.607676804172261e-8 8.600770240878207e-8 8.600067747620246e-8 8.597933046384034e-8
          8.592983673766613e-8 8.59185539730978e-8 8.588420173344315e-8 8.589764034047734e-8 8.587793171811555e-8 8.581878483489762e-8
          8.601600966678937e-8 8.597964204457371e-8 8.586977755258894e-8 8.660875736969997e-8 8.652981602029429e-8 8.629520434625131e-8
          8.878443800986421e-8 8.860206311299752e-8 8.80275073916193e-8 1.002331953329458e-7 9.95790302010634e-8 9.761267007655179e-8
          1.2940227678333623e-7 1.2939908282393149e-7 1.2938918298800003e-7 1.2928987230796143e-7 1.2928534847618032e-7 1.2927133956673612e-7
          1.2917057067062795e-7 1.2916392345904537e-7 1.2914341218321968e-7 1.2905265225728953e-7 1.2904244182436164e-7 1.2901112152347658e-7
          1.2895868795341717e-7 1.2894227669400373e-7 1.28891970596842e-7 1.289505241145066e-7 1.2892194092205488e-7 1.2883561466026992e-7
          1.292052184718983e-7 1.2915245741227037e-7 1.289926603738813e-7 1.302437552575632e-7 1.3013142113131706e-7 1.2979499246909633e-7
          1.3397773546835366e-7 1.3372063117095125e-7 1.3292580006585766e-7 1.5086348357540224e-7 1.5002565122900952e-7 1.4749779386010534e-7
          1.7256189248992644e-7 1.7255784814913453e-7 1.7254508882999246e-7 1.7242192676316795e-7 1.724161919915704e-7 1.7239814592778529e-7
          1.7227812900129667e-7 1.7226969214950035e-7 1.7224328926338278e-7 1.7214540599294374e-7 1.721324508807779e-7 1.7209218619896798e-7
          1.720611532562506e-7 1.7204026650561105e-7 1.7197571244211845e-7 1.7212300839991807e-7 1.720868040104671e-7 1.7197643165074596e-7
          1.7259393327218632e-7 1.7252688223127778e-7 1.723230418171503e-7 1.7426261045303702e-7 1.7412335446027417e-7 1.737044892465462e-7
          1.7984289139992442e-7 1.795294508050782e-7 1.785705549760285e-7 2.0226199141490787e-7 2.0135467493950584e-7 1.9864780154026378e-7
          2.1574277192480277e-7 2.1573807226926134e-7 2.157230165764495e-7 2.155833425001729e-7 2.1557666389707927e-7 2.1555536049062929e-7
          2.1542742119576578e-7 2.1541757314202288e-7 2.1538639782797617e-7 2.1529941977213457e-7 2.1528428320034063e-7 2.1523673530172473e-7
          2.1525743469616896e-7 2.1523294620449024e-7 2.1515681446974e-7 2.1544399728093001e-7 2.154016950352071e-7 2.1527161768015818e-7
          2.1623399844434414e-7 2.1615555075652203e-7 2.1591678772009747e-7 2.187073797761716e-7 2.1854826098961974e-7 2.1806598180241668e-7
          2.264828027721003e-7 2.2613529931952185e-7 2.250878472559015e-7 2.538702153150723e-7 2.529764938987639e-7 2.503422005483863e-7
          2.589496396658306e-7 2.589444121342481e-7 2.5892789603310194e-7 2.587804544093819e-7 2.587730088233483e-7 2.5874958737841154e-7
          2.586270547943123e-7 2.586160565180213e-7 2.5858170453093943e-7 2.5852672426600334e-7 2.5850981153500433e-7 2.5845731678265755e-7
          2.5856394521536715e-7 2.58536557982895e-7 2.584523611909607e-7 2.589380487698461e-7 2.588909732305306e-7 2.587471559315919e-7
          2.6015256221875286e-7 2.600657232318534e-7 2.598022689020738e-7 2.636124224378062e-7 2.6344098910705805e-7 2.629197285536974e-7
          2.737751203629873e-7 2.7341379550635377e-7 2.7233652799717146e-7 3.053265551041154e-7 3.045144807807724e-7 3.021125921652016e-7
          3.021872585693504e-7 3.0218122383035234e-7 3.0216401441728777e-7 3.020194950443827e-7 3.0201092311982356e-7 3.0198642087041265e-7
          3.0188527719033553e-7 3.018726759631248e-7 3.018366042649399e-7 3.0183814511505005e-7 3.0181891695424834e-7 3.0176360808648866e-7
          3.0199491812605573e-7 3.0196409679511784e-7 3.01875153953246e-7 3.026217129099962e-7 3.0256970365529573e-7 3.024178314869558e-7
          3.0436601860893217e-7 3.04272341692193e-7 3.039951434491239e-7 3.0896191499258004e-7 3.0878508021285646e-7 3.082490773010798e-7
          3.215234859341096e-7 3.2116990064005035e-7 3.2010983677393423e-7 3.5636972287157716e-7 3.556763768018816e-7 3.5357759556468085e-7
          3.454614033977376e-7 3.4545265277196513e-7 3.4543399882924117e-7 3.4530785875843237e-7 3.452956639370216e-7 3.4526910851264924e-7
          3.4521157425516846e-7 3.451940773345749e-7 3.451550525406306e-7 3.452456293960502e-7 3.4521978064216115e-7 3.451601950245045e-7
          3.455646379929725e-7 3.4552487569800273e-7 3.4542977944695857e-7 3.465089124094752e-7 3.4644560705373866e-7 3.462854130638184e-7
          3.4887928946672527e-7 3.4877357210791984e-7 3.4848811553001653e-7 3.547068577514938e-7 3.545281961149232e-7 3.539976183147074e-7
          3.695087306629056e-7 3.6919106488359055e-7 3.681985654320463e-7 4.067118971187935e-7 4.0618831799006504e-7 4.044176876925426e-7
          3.886107072802696e-7 3.885924851673407e-7 3.8853701350194487e-7 3.887542480669647e-7 3.8872748972893724e-7 3.886458694001331e-7
          3.8927674112217374e-7 3.892360008208751e-7 3.8911181410347623e-7 3.9059821676249123e-7 3.9053431779760575e-7 3.903386479678429e-7
          3.9367022673742945e-7 3.9356590653525666e-7 3.9324894836966053e-7 4.0077847606714096e-7 4.0060737152491953e-7 4.0009014459695147e-7
          4.17532598393592e-7 4.172432210670239e-7 4.164103944186862e-7 4.5621377277720684e-7 4.5578351927404806e-7 4.545077953503301e-7
          5.715779755813947e-7 5.345791612917307e-7 5.47192484347473e-7 5.846742932099403e-7 5.714509526673147e-7 5.340983727990139e-7
          5.469336870107578e-7 5.847756740057848e-7 5.71784390799643e-7 5.330995121331656e-7 5.46563948358185e-7 5.857006158668301e-7
          6.076909431020804e-7 6.173235075676829e-7 6.079012262014682e-7 6.176840099130574e-7 6.094923892324897e-7 6.197097109981396e-7
          5.988241490290641e-7 6.281056164505304e-7 6.256552172691973e-7 5.988508371779926e-7 6.283466066760242e-7 6.258696264579643e-7
          5.999023734318271e-7 6.303538179272292e-7 6.275778287315729e-7 7.429090906822718e-8 1.1648752583426918e-7 8.602852214407493e-8
          6.013112002936308e-8 7.344023933474346e-8 1.1515622024210378e-7 8.491731116554364e-8 5.9362582950804025e-8 7.048105117542155e-8
          1.1032997334748982e-7 8.070726678916998e-8 5.6562099685290506e-8 3.3586988572926404e-7 3.753472582636895e-7 4.2359114865414177e-7
          3.899895068635014e-7 3.336784083186462e-7 3.7342013022389893e-7 4.2185600474145146e-7 3.8823767190517187e-7 3.239438149484426e-7
          3.6638688849733775e-7 4.147565914335384e-7 3.788268129138402e-7 1.8642860469050309e-7 1.9735345264397364e-7 1.538872306333477e-7
          1.4443926755535636e-7 1.8523072710235564e-7 1.958661680600155e-7 1.5252624343846852e-7 1.4334473807204316e-7 1.813689478325226e-7
          1.9087759330597996e-7 1.4791911330124428e-7 1.397839538417387e-7 3.389277241503022e-7 3.230948522511343e-7 3.8100929166212027e-7
          3.9211814461804753e-7 3.376018096282182e-7 3.2194236682803955e-7 3.801008395079539e-7 3.910463674618411e-7 3.3351515660742743e-7
          3.1838167422426463e-7 3.773171698304509e-7 3.8766267348524445e-7 4.283568280092477e-7 3.822682510254248e-7 4.278027533891284e-7
          3.815407023397268e-7 4.260235124830861e-7 3.79270269577691e-7 1.2304329685594242e-7 1.6154623207641834e-7 1.2184693565643023e-7
          1.5993486660803754e-7 1.1774278094456316e-7 1.5427425042159247e-7 5.765777609044833e-7 6.054236697015728e-7 6.109200577577276e-7
          5.709672770096368e-7 5.76376156026522e-7 6.055080187206568e-7 6.110705995474423e-7 5.708716587292909e-7 5.764037487370632e-7
          6.065427722632311e-7 6.124250071479407e-7 5.705810143581245e-7 2.3731958704283875e-8 5.2879252127279744e-8 3.494347095534809e-8
          0 2.3502859677797445e-8 5.238873602744399e-8 3.454894368562101e-8 0 2.2765862361665045e-8
          5.0764146621885175e-8 3.321127960836397e-8 0 1.3805441251300568e-7 1.1316974856519547e-7 1.3645356770391562e-7
          1.1172601186013307e-7 1.3008354328963714e-7 1.055562207605476e-7 5.578142499763342e-7 5.759894080282979e-7 6.139427501190281e-7
          6.041590924066312e-7 5.577445195783415e-7 5.759140279306064e-7 6.141614090789307e-7 6.043929799547838e-7 5.575555837023313e-7
          5.758203562726384e-7 6.150274455246478e-7 6.057480894459769e-7 2.0495808707007466e-7 1.0436050374358088e-7 9.798797841784845e-8
          1.6089134233934448e-7 2.038222637193049e-7 1.036728381412875e-7 9.71278681194867e-8 1.593350136701707e-7 1.9419152409580503e-7
          9.808569641150044e-8 9.10852269762035e-8 1.5001639173977573e-7 6.452680059936905e-7 6.292536710654436e-7 6.264101425822853e-7
          6.44388053503525e-7 6.454646822133239e-7 6.294243019412975e-7 6.265931345657444e-7 6.445112952022175e-7 6.468580425379039e-7
          6.30839823602433e-7 6.28093736874831e-7 6.459829148053795e-7 2.868362017256142e-7 2.913438059706285e-7 2.855211153744805e-7
          2.8985737518531057e-7 2.814074412091045e-7 2.8511740655770504e-7 9.763195637237896e-8 9.675760576416776e-8 9.383658797683821e-8
          5.421668787190394e-7 5.070613806623364e-7 5.41585233540075e-7 5.061918251590769e-7 5.403071025207813e-7 5.038182163666565e-7
          4.6690464802928845e-7 4.3832647573970837e-7 4.898627970392517e-7 4.655317217479112e-7 4.3690188902081316e-7 4.889583776827917e-7
          4.6101391928293865e-7 4.323687524521649e-7 4.864259177248799e-7 2.5958294256500007e-7 2.852496757615807e-7 2.3707040213255848e-7
          1.9070430249095263e-7 2.5745194569321185e-7 2.8298041165112933e-7 2.348499318009141e-7 1.88664591427016e-7 2.4964405878022005e-7
          2.737469828653785e-7 2.2451214617736305e-7 1.8100815773047498e-7 0 3.265840460128512e-8 0
          0 3.224061161586859e-8 0 0 3.0746870235776063e-8 0
          4.3459684109830756e-7 3.3941461318696484e-7 4.339468440754539e-7 3.3852129997037295e-7 4.3193979256793414e-7 3.358025255383375e-7
          4.60203259443789e-7 4.559775659794343e-7 4.589354073018418e-7 4.5501142450116046e-7 4.5253693992090244e-7 4.4753863648984685e-7
          3.7888835857649735e-7 4.349961144907526e-7 3.7723000731635185e-7 4.338156407899799e-7 3.7181555644810163e-7 4.30301837407662e-7
          0 3.458033820628091e-8 4.522429098282159e-8 0 0 3.407791641783271e-8
          4.467343622797717e-8 0 0 3.192083431905012e-8 4.171306986460562e-8 0
          2.4631718543951566e-7 2.554334570200377e-7 2.0605592781880997e-7 2.4478993746082334e-7 2.5360577359445706e-7 2.04266634694452e-7
          2.397426468844252e-7 2.472253604153956e-7 1.9806150056057864e-7 5.084542036856326e-7 5.134507494313805e-7 5.079242506547683e-7
          5.128808505673982e-7 5.064705219649941e-7 5.114163980122198e-7 2.4004688739923095e-7 2.894415403512639e-7 2.3882902517982704e-7
          2.8839327584987683e-7 2.3497205302618513e-7 2.8516724326780414e-7 3.293801413882278e-7 3.139923993265259e-7 3.2767884779039633e-7
          3.1193307252515216e-7 3.2211426959742673e-7 3.043253565005314e-7 3.873213454433823e-7 4.527045092964265e-7 3.859984419462513e-7
          4.5191132227524077e-7 3.8182841995318286e-7 4.49493394497275e-7 6.44300031274788e-7 6.331815530220272e-7 6.458857257889911e-7
          6.443738761611723e-7 6.334391280879285e-7 6.459606246291349e-7 6.462336213699026e-7 6.357336318084257e-7 6.480233396545963e-7
          5.0513618770561e-7 5.387461443189973e-7 4.568803644001161e-7 5.047057976482091e-7 5.384603514373883e-7 4.562240802815914e-7
          5.035316960397718e-7 5.376878551426609e-7 4.542013190242459e-7 2.7304417989176198e-8 2.2681229288697988e-8 0
          2.6933378172538476e-8 2.2348105644935693e-8 0 2.553388000650897e-8 2.105688202347409e-8 0
          0 0 0 6.53400755862151e-7 6.416360090713169e-7 6.440221641639397e-7
          6.593446181595012e-7 6.534823133785247e-7 6.419362771191858e-7 6.443543274682102e-7 6.594336152849584e-7 6.558475573251163e-7
          6.445792963315256e-7 6.469328643951128e-7 6.618823114142843e-7 5.3584594878763545e-8 6.610257742596176e-8 5.284081149159421e-8
          6.519615166008382e-8 4.995181512092226e-8 6.132213383542136e-8 6.378542971024059e-7 6.488736420559604e-7 6.381462517726772e-7
          6.489526435732922e-7 6.406603452806436e-7 6.511977119012286e-7 5.4309964923464975e-8 9.291683276434089e-8 5.382847969570774e-8
          9.177977007395648e-8 5.038787967977096e-8 8.595618625687515e-8 1.6737226119599894e-7 2.2514351014261223e-7 1.6548795744038853e-7
          2.2334035839827859e-7 1.5677160482504354e-7 2.124808539867846e-7 6.26760398942838e-7 6.271519394870582e-7 6.293772491690608e-7
          4.772295224227603e-7 4.767541296004859e-7 4.7545888803208877e-7 3.053721746222177e-7 3.828885415406203e-7 3.033999655789819e-7
          3.815294721291487e-7 2.9199752145947824e-7 3.710513522072168e-7 4.186407870349293e-7 4.177967293215897e-7 4.151526562895718e-7
          5.064574989744698e-7 5.05504674597796e-7 5.018080547050625e-7 6.439263436311263e-7 6.440142739546791e-7 6.456603855985596e-7
          5.092042343570143e-7 5.087921159189745e-7 5.07467755981121e-7 6.473707869058154e-7 6.479303458798045e-7 6.498406841105679e-7
          5.192415497844374e-7 5.185988903737011e-7 5.152335746335966e-7 2.9902714271596826e-7 2.976266574994593e-7 2.859727169560959e-7
          0 0 0 0 0 0
          6.667216901551868e-7 6.67029335020613e-7 6.692215828958301e-7 6.455951672006904e-7 6.457852404977114e-7 6.472609599025539e-7
          5.637263194354984e-7 5.63694602458899e-7 5.635933861880101e-7 7.399716413734206e-7 7.399423779776437e-7 7.398590532220601e-7
          5.653467468258675e-7 5.6530170455447e-7 5.651583200807005e-7 7.428912476308606e-7 7.428526894728277e-7 7.427432291539734e-7
          5.684773977034822e-7 5.684131253909739e-7 5.682090727535198e-7 5.744689689387041e-7 5.743779065091642e-7 5.740923955817776e-7
          5.859122023814912e-7 5.857898733060775e-7 5.854128260161072e-7 6.073057173194441e-7 6.071498018580976e-7 6.067072664613774e-7
          6.447802254461555e-7 6.446526736015844e-7 6.442552053215122e-7 5.550332697714006e-7 5.868072606028973e-7 5.547682822224709e-7
          5.866529022986247e-7 5.540076639156051e-7 5.861302349034295e-7 6.959388440965942e-7 7.249134979070744e-7 6.501289423609449e-7
          6.175702327114563e-7 6.960204565646578e-7 7.251744690916658e-7 6.503655034597461e-7 6.175151026175004e-7 6.962114869680897e-7
          7.259695631723287e-7 6.511185562712808e-7 6.174984717515101e-7 6.814090572683794e-7 6.818718741461133e-7 6.834216642272808e-7
          6.743969139978128e-7 6.743489592401982e-7 6.741971010026104e-7 7.643051178826016e-7 7.646893260284571e-7 7.659882787159674e-7
          9.211001878909478e-7 9.17026685457317e-7 9.210715254408603e-7 9.1700316175924e-7 9.209835189690059e-7 9.169311058169519e-7
          7.478443260311197e-7 7.477942212480823e-7 7.476529322836637e-7 9.273786657729642e-7 9.273450199310007e-7 9.272412892874764e-7
          7.561664899617325e-7 7.561042187921168e-7 7.559289750938014e-7 7.698730957034068e-7 7.69801510620035e-7 7.695995744936213e-7
          7.914506832535154e-7 7.913882931118216e-7 7.911952982197376e-7 8.217453034553981e-7 8.217225834285909e-7 8.216583629026587e-7
          7.975222104813028e-7 7.97578275948026e-7 7.977518210585732e-7 8.918835118898211e-7 8.148928220125465e-7 9.352409874798258e-7
          8.921192559855025e-7 8.150884674932006e-7 9.354010675623138e-7 8.92907599026872e-7 8.156790628136744e-7 9.35853808479827e-7
        </DataArray>
        <DataArray type="Float64" Name="disp_y" format="ascii" RangeMin="-0.000001525009449271863" RangeMax="-9.324447615069953e-7">
          -9.325731454346456e-7 -9.32509410321983e-7 -9.32557032462458e-7 -9.324932638789563e-7 -9.325086619394323e-7 -9.324447615069953e-7
          -9.760898716577982e-7 -9.76007352240964e-7 -9.760687182306796e-7 -9.75986151816017e-7 -9.760052430448908e-7 -9.759224723745864e-7
          -0.000001018693829441859 -0.0000010185844997727112 -0.0000010186653921737024 -0.0000010185559574641248 -0.000001018580052440232 -0.0000010184702611112812
          -0.0000010601117070109922 -0.0000010599627415019423 -0.0000010600723436935613 -0.0000010599231970533118 -0.0000010599542259637724 -0.0000010598044498501392
          -0.0000010999498462416473 -0.0000010997396956696957 -0.0000010998934190188266 -0.0000010996828657330162 -0.0000010997237337645796 -0.0000010995120289041315
          -0.000001137623511120015 -0.0000011373138760817605 -0.0000011375374947150976 -0.0000011372272795322927 -0.0000011372809080467963 -0.000001136968406531148
          -0.0000011722292444787728 -0.0000011717467048795668 -0.000001172095098241074 -0.0000011716102719977928 -0.00000117168346149615 -0.0000011711934707499356
          -0.000001202349907021115 -0.0000012015450113970481 -0.0000012021173918548258 -0.0000012013098477006727 -0.000001201425555206507 -0.0000012006050110489213
          -0.000001225803716394456 -0.000001224249766806487 -0.0000012253027210878866 -0.0000012237349605582286 -0.0000012237979745616683 -0.0000012221892342686677
          -0.0000012410527218482164 -0.0000012376851727471777 -0.0000012399603990226825 -0.0000012365153962227632 -0.0000012365413027651853 -0.0000012328859812391127
          -9.327637366050972e-7 -9.327477518420596e-7 -9.326998300039281e-7 -9.763366201492757e-7 -9.763156754292698e-7 -9.762528975013256e-7
          -0.0000010190205069159543 -0.0000010189924283668057 -0.00000101890822012712 -0.000001060556327208385 -0.000001060517586706869 -0.0000010604014034569715
          -0.0000011005762145667036 -0.0000011005209529120557 -0.0000011003548072568347 -0.0000011385447655194896 -0.0000011384608766867965 -0.000001138211041593182
          -0.0000011736593794690288 -0.0000011735310275784537 -0.0000011731350302896432 -0.000001204733994179561 -0.0000012045114813377458 -0.0000012038568020052084
          -0.0000012303204630019748 -0.0000012298592307567312 -0.00000122847441851188 -0.00000125061982638065 -0.000001249708883726869 -0.0000012468533557834815
          -9.330793844050631e-7 -9.330636446834325e-7 -9.330164694403613e-7 -9.767448044321742e-7 -9.767242338457002e-7 -9.766626124772425e-7
          -0.0000010195601532422687 -0.000001019532682789693 -0.0000010194503388839532 -0.0000010612893997633074 -0.0000010612516925337792 -0.0000010611386913008792
          -0.000001101606093748034 -0.0000011015527622382527 -0.00000110139234445533 -0.0000011400541083890133 -0.000001139973726374373 -0.0000011397350982946835
          -0.0000011759884033399277 -0.0000011758692556218111 -0.0000011754977460882122 -0.000001208588172261737 -0.0000012083816656818304 -0.0000012077877104353516
          -0.0000012374653988989513 -0.0000012370669747484383 -0.000001235860271742883 -0.0000012646524341954545 -0.0000012639922633547966 -0.000001261907720858812
          -9.335172743613878e-7 -9.335018617303432e-7 -9.334557012052218e-7 -9.773101619633296e-7 -9.772900954940721e-7 -9.77230041442033e-7
          -0.0000010203059607227254 -0.0000010202793132446166 -0.0000010201994937320082 -0.0000010622995105430547 -0.0000010622631930689379 -0.0000010621544972648896
          -0.0000011030193538630369 -0.0000011029686103621726 -0.0000011028159016641266 -0.0000011421136356625456 -0.0000011420380975828873 -0.0000011418146285360742
          -0.0000011791383036144449 -0.0000011790307206771994 -0.000001178691678492899 -0.0000012137526968190403 -0.0000012135690421522521 -0.0000012130533340666829
          -0.0000012465892377425553 -0.0000012462650568883596 -0.0000012452744260302293 -0.0000012819503872179599 -0.0000012815621684833444 -0.0000012803195931214671
          -9.340734606838695e-7 -9.340584449947952e-7 -9.340135319649902e-7 -9.780266939457563e-7 -9.780072433782198e-7 -9.77949112292999e-7
          -0.0000010212484695168093 -0.0000010212228198394826 -0.0000010211461033389554 -0.0000010635709868550629 -0.0000010635363807001169 -0.0000010634329372086827
          -0.0000011047888870943684 -0.000001104741236743656 -0.0000011045979998572725 -0.0000011446711675896852 -0.0000011446016984366364 -0.000001144396517073062
          -0.0000011830153424033189 -0.000001182921163950075 -0.000001182621898388516 -0.00000121996194389372 -0.0000012198051240904935 -0.000001219375925059032
          -0.0000012572238496080526 -0.0000012569849845868705 -0.0000012562419923153211 -0.000001299956171981568 -0.000001299804769202183 -0.000001299260730536614
          -9.347429907446411e-7 -9.347284274155355e-7 -9.346849375286372e-7 -9.788869234353084e-7 -9.788681751564022e-7 -9.788122396403767e-7
          -0.0000010223759156800613 -0.000001022351407422701 -0.000001022278232403302 -0.00000106508465000056 -0.000001065051997026857 -0.0000010649545574842565
          -0.0000011068809845285617 -0.0000011068368424522976 -0.0000011067043612614087 -0.0000011476672114001326 -0.00000114760479409319 -0.0000011474205983555569
          -0.000001187491633284893 -0.0000011874117205444366 -0.0000011871565096781265 -0.0000012269823673957196 -0.0000012268564972682095 -0.0000012265210970541568
          -0.0000012686077394683906 -0.0000012684529852125833 -0.0000012679521266180223 -0.000001317614595411004 -0.0000013176445027246633 -0.0000013176481090643646
          -9.355199878436886e-7 -9.3550592472028e-7 -9.354639578871656e-7 -9.798820191407502e-7 -9.798640485876333e-7 -9.798104670060257e-7
          -0.000001023674562683117 -0.0000010236513152222796 -0.0000010235819536076016 -0.0000010668180554744124 -0.000001066787552954116 -0.0000010666965790168346
          -0.0000011092578686400674 -0.0000011092175587639473 -0.0000011090966944119483 -0.0000011510317605011056 -0.0000011509770646456164 -0.0000011508155042962618
          -0.000001192436872682869 -0.0000011923715565240055 -0.0000011921630918790021 -0.0000012345297465469085 -0.0000012344370413645174 -0.0000012341968541865478
          -0.00000128017113742103 -0.0000012800925220467573 -0.0000012798187291932748 -0.0000013340287891138433 -0.000001334186278555975 -0.000001334566774452272
          -9.363977490578612e-7 -9.363842124774267e-7 -9.363438189752092e-7 -9.810019948762162e-7 -9.809848403349512e-7 -9.80933699028777e-7
          -0.0000010251289232253854 -0.0000010251070067476854 -0.000001025041609318534 -0.0000010687464803805813 -0.0000010687182231502179 -0.0000010686339854290613
          -0.0000011118777505460655 -0.0000011118414491880633 -0.000001111732645574402 -0.0000011546917112676673 -0.0000011546449734775425 -0.0000011545068864555245
          -0.0000011977114953033607 -0.0000011976608839091851 -0.000001197499398346549 -0.000001242331217668822 -0.000001242271561776951 -0.0000012421246322965978
          -0.0000012914719619501968 -0.0000012914633155565456 -0.0000012913920339047924 -0.000001348762887482995 -0.000001348992397420456 -0.0000013496149514281318
          -0.000001026721769837885 -0.000001026701763459416 -0.0000010266400991383685 -0.0000010708428761723626 -0.0000010708176360276766 -0.000001070739801115661
          -0.0000011146964004883117 -0.0000011146649775429475 -0.0000011145678343296698 -0.0000011585709845415302 -0.0000011585331231929645 -0.000001158417832055831
          -0.0000012031806508161305 -0.0000012031430849561445 -0.0000012030279709341194 -0.000001250134507863119 -0.0000012501041163407436 -0.0000012500468761731307
          -0.0000013022338579860102 -0.0000013022626090687348 -0.0000013023880203621131 -0.000001361694127958036 -0.0000013619868187109553 -0.0000013627531505402452
          -0.0000014190638492793093 -0.0000014156983755611576 -0.0000014303435012000891 -0.000001439404854941617 -0.0000014214657502523683 -0.0000014178691856128458
          -0.000001432223200181681 -0.0000014413695987556704 -0.0000014290742418658075 -0.0000014250002937189707 -0.0000014382242586947989 -0.000001447516269808529
          -0.000001428491787863005 -0.0000014456706421403138 -0.0000014308963483896206 -0.0000014477346038058703 -0.0000014381266571278434 -0.0000014539422395006507
          -0.0000014070915353677035 -0.0000014302143700588613 -0.000001412848408784442 -0.0000014098287300652288 -0.0000014326927700714662 -0.0000014155906164473534
          -0.000001418081483989747 -0.0000014399510082097884 -0.0000014235680343946433 -0.0000012487205970068632 -0.0000012598171746006745 -0.0000012523840599237675
          -0.0000012469247774411018 -0.0000012474233146850544 -0.0000012587345623701864 -0.0000012510579342843723 -0.0000012454816809614565 -0.0000012422904547706863
          -0.0000012542281810527054 -0.0000012452759756915765 -0.000001239477148303393 -0.0000013280782838361004 -0.0000013560736942838345 -0.0000013544906385420338
          -0.0000013309176622630113 -0.000001328939550647461 -0.0000013575167927578553 -0.0000013561942047154798 -0.0000013320333131259218 -0.0000013336133806308361
          -0.000001362998813481977 -0.0000013640854209505766 -0.0000013389236343773733 -0.000001281819214467816 -0.000001288596537720376 -0.0000012718340785984133
          -0.0000012667614342845279 -0.0000012813474078147314 -0.0000012882070185503282 -0.0000012711032591065926 -0.0000012659985223466452 -0.000001279606927708255
          -0.0000012866202415024063 -0.000001268216480157191 -0.0000012632736242067665 -0.0000013502484995016668 -0.0000013393699127922314 -0.0000013621007323229779
          -0.0000013738975197212074 -0.000001350830561354836 -0.000001339692475063512 -0.0000013626133922748918 -0.0000013747399711113507 -0.0000013525435705555222
          -0.0000013407118679447787 -0.0000013642185816321978 -0.0000013772877997088764 -0.0000013671077027853882 -0.0000013519131168886126 -0.0000013674540279430702
          -0.0000013521880962892371 -0.00000136867511219746 -0.0000013532150762083973 -0.0000012615645709998984 -0.0000012754523967110945 -0.0000012605953075651347
          -0.0000012747518305711478 -0.0000012567847411638547 -0.0000012718223187171734 -0.0000013837847851494217 -0.0000013839087966662237 -0.0000013537059641368882
          -0.0000013444052827428605 -0.000001386534195853928 -0.0000013868209896921223 -0.0000013565723065136492 -0.000001346710090092504 -0.0000013957305792795117
          -0.000001395701034984121 -0.0000013654989781482877 -0.0000013563992167330502 -0.000001240046770013832 -0.0000012433390146574059 -0.0000012419659159005754
          -0.0000012396666124917306 -0.0000012388288268771567 -0.0000012421372223875513 -0.0000012405656661227755 -0.0000012383074869592006 -0.0000012344186919741795
          -0.0000012377026345105737 -0.0000012351407598618151 -0.00000123321341468538 -0.0000012669866276965554 -0.0000012591203702101378 -0.0000012660308548071097
          -0.0000012578851139632477 -0.000001261744149847946 -0.00000125225458709782 -0.0000014403867239018915 -0.0000014464767384550313 -0.00000146088993471306
          -0.0000014558086977416553 -0.0000014419121622167026 -0.0000014476058587897223 -0.0000014621288226739048 -0.0000014573243462985336 -0.0000014465610968714986
          -0.0000014508082393767908 -0.000001465566767069284 -0.0000014620492992455256 -0.0000012829260114606246 -0.0000012779621228980613 -0.0000012655331537829465
          -0.0000012712989270915137 -0.0000012812817973117958 -0.000001275674197143987 -0.0000012635975178048622 -0.00000127008462206164 -0.0000012749109698589288
          -0.0000012653287317616496 -0.0000012548300578928872 -0.0000012646940594339476 -0.0000013794094807600426 -0.0000013771353012207588 -0.0000013927339309538676
          -0.0000013999452839908233 -0.0000013824342036957232 -0.000001380163292385458 -0.0000013956929825607824 -0.0000014028384905267433 -0.0000013910102963579171
          -0.0000013887912245709395 -0.0000014041676948221522 -0.0000014111413150115749 -0.000001324822053058614 -0.0000013294183112209987 -0.0000013249859867780997
          -0.0000013297337865309917 -0.000001325455949169523 -0.0000013306308521016136 -0.000001252717674654804 -0.0000012516787739792217 -0.0000012477972656960723
          -0.0000013924483419433356 -0.0000013973490228192394 -0.0000013949530297167482 -0.0000013996292210159273 -0.0000014039123381044488 -0.0000014076449917150795
          -0.0000013775897936442584 -0.0000013822671895832516 -0.000001405437800184529 -0.0000013797185824569499 -0.0000013841143672003673 -0.000001407432552448983
          -0.0000013879645399674468 -0.000001390665900455131 -0.0000014139800200157824 -0.0000013132974696807375 -0.0000013176167750189111 -0.000001295691515335056
          -0.0000012852351657597222 -0.0000013136117234097141 -0.0000013181342999233467 -0.0000012955813540979816 -0.0000012848026720268303 -0.0000013143787785677905
          -0.0000013203736476340382 -0.000001295241136343333 -0.0000012826827386983199 -0.000001240672080015483 -0.0000012430919504038164 -0.0000012413558244016136
          -0.0000012391917977684898 -0.0000012415645995350973 -0.0000012397757891797621 -0.0000012333821624632849 -0.0000012353525736566941 -0.0000012332629206232332
          -0.0000013802416267293794 -0.0000013383358135468703 -0.0000013808120576938178 -0.0000013385276708683968 -0.0000013825896159058933 -0.0000013392877706425178
          -0.000001347045211205574 -0.000001317304778156026 -0.0000013487653928945163 -0.0000013182685343332002 -0.0000013576941474640563 -0.0000013261550432077966
          -0.0000013654419965317958 -0.0000013925861365129487 -0.0000013667166680795073 -0.0000013940539659211622 -0.0000013710058278313785 -0.0000013987710302783511
          -0.000001250611140117222 -0.0000012486588590327395 -0.0000012549164152564676 -0.0000012591374266212321 -0.0000012486940980179893 -0.0000012468860532218057
          -0.0000012529765106804114 -0.0000012570125545653145 -0.000001239703335644186 -0.0000012386064498536378 -0.0000012438499704515726 -0.00000124684684420367
          -0.0000013095451767029674 -0.000001314057281811177 -0.0000012926582589509149 -0.0000013095248152128611 -0.000001314256485395783 -0.0000012923672216844987
          -0.000001309249657336847 -0.0000013145404737716386 -0.0000012909306211607307 -0.0000014219769781657792 -0.0000014194871245324265 -0.0000014235451385920244
          -0.0000014212760497381036 -0.0000014283652680865926 -0.0000014269876250685145 -0.0000013028795717189999 -0.0000013203695754367452 -0.00000130270893613796
          -0.000001320409293567556 -0.000001302131970674518 -0.0000013206268120230693 -0.0000013478160375859247 -0.0000013352208534014986 -0.0000013485858741057399
          -0.0000013360230689124385 -0.000001351041362839527 -0.000001338913647140103 -0.0000013727735019182796 -0.0000014000399906917497 -0.0000013737971402913114
          -0.000001401123298313978 -0.000001377143936891284 -0.0000014044529670755643 -0.0000014333177779119008 -0.0000014431782394081303 -0.0000014462451589344515
          -0.0000014357677888643962 -0.000001445402347614897 -0.0000014484379450758834 -0.0000014429585656368647 -0.0000014519188734444665 -0.000001454886920284864
          -0.00000140581736415275 -0.0000014278274938278784 -0.00000139728791318753 -0.0000014064702329861734 -0.0000014286820429999163 -0.0000013981347760633739
          -0.0000014084684820843846 -0.0000014313336437464155 -0.0000014007103089532396 -0.0000012435913041457825 -0.0000012448066595118752 -0.0000012435366778776017
          -0.0000012419824037245902 -0.0000012431099697748766 -0.0000012418473523006335 -0.0000012351682842731787 -0.0000012355518862038262 -0.0000012345817037427886
          -0.0000012461152744340757 -0.0000012443304925455438 -0.0000012362671684345307 -0.0000014661402715524301 -0.0000014614155618184283 -0.0000014684748656434947
          -0.0000014738248243812114 -0.000001467794233517844 -0.0000014631671484125388 -0.000001469961838357545 -0.0000014752338836945978 -0.0000014725332208977674
          -0.0000014682175224978578 -0.0000014742352007332612 -0.0000014789769238660787 -0.0000012470222748690575 -0.0000012509885180713581 -0.000001245463287311521
          -0.0000012494058680819269 -0.0000012386109555663117 -0.0000012420809641837989 -0.0000014535279663755036 -0.0000014570098123920206 -0.000001455501295686879
          -0.0000014589380169367775 -0.0000014612681905546578 -0.0000014645525862949975 -0.0000012620384920017115 -0.0000012579071247976948 -0.0000012599364391827359
          -0.0000012562913287227049 -0.0000012502303785471576 -0.0000012488706587479876 -0.0000012738725331955282 -0.0000012855902393263623 -0.0000012730531581855829
          -0.0000012848642250577508 -0.000001269212295937099 -0.0000012828719715433864 -0.0000014582793008545166 -0.000001459982074561269 -0.0000014650662193898816
          -0.000001383420929353574 -0.0000013838521330730309 -0.0000013851986029020906 -0.0000013064178769779848 -0.0000013032805861222332 -0.0000013065785526014915
          -0.00000130331070045134 -0.0000013093189644064925 -0.000001307635037869089 -0.0000013811927822413138 -0.0000013819546940026496 -0.000001384259648471041
          -0.0000013637353208112968 -0.0000013659395112312089 -0.000001375854221340774 -0.0000014179769272257996 -0.0000014206598251751752 -0.0000014284861271363394
          -0.0000014226231025588104 -0.000001423832748577409 -0.0000014275030943664462 -0.0000014722446293278099 -0.000001473547696306454 -0.000001476889926234742
          -0.0000013311903969007763 -0.000001332801479917599 -0.0000013422363042621635 -0.0000012896470764603698 -0.0000012887278900075526 -0.000001287973164788016
          -0.0000012724537509941321 -0.0000012698955533757715 -0.000001258116864329988 -0.0000012389167160179192 -0.0000012377115388598358 -0.0000012333331543781355
          -0.0000014809824508604774 -0.0000014821580986682622 -0.0000014849696739266053 -0.0000013570913410422116 -0.000001360147508235742 -0.0000013687349570697523
          -0.0000010804473345248634 -0.000001080434245367898 -0.0000010803960463128678 -0.0000010906152393319699 -0.0000010906124694115623 -0.000001090604135148684
          -0.0000011272154970010679 -0.0000011272029940156462 -0.0000011271674309348902 -0.0000011397449365780333 -0.0000011397466656273522 -0.000001139751922511768
          -0.0000011750405794195755 -0.00000117503334330091 -0.0000011750131332006471 -0.0000012248389066551489 -0.0000012248442134875196 -0.000001224866396929738
          -0.000001277899220328367 -0.0000012779390929791464 -0.000001278048282860672 -0.0000013353257483018698 -0.000001335448926752736 -0.0000013357999800340466
          -0.0000013961943814221914 -0.000001396446782807746 -0.0000013972356256841482 -0.0000014041736875392618 -0.0000014236423446703206 -0.000001404613578067015
          -0.000001424167786768481 -0.000001405964451535841 -0.0000014258033604797814 -0.0000014587567025096807 -0.0000014806848053374244 -0.0000014708664284480096
          -0.0000014477957355936011 -0.0000014592299864826143 -0.0000014811867570549979 -0.000001471618050703879 -0.0000014485075540623286 -0.0000014606424261841803
          -0.000001482680170345629 -0.0000014741703408730485 -0.0000014505766549806009 -0.0000014839469897517006 -0.000001484794427668169 -0.0000014871445355195291
          -0.0000014331420976938534 -0.0000014335469969829444 -0.0000014346600977916787 -0.000001515719118265088 -0.0000015161937256973597 -0.0000015173907631262773
          -0.0000011507095577922074 -0.0000011000811949430001 -0.0000011507194612983987 -0.0000011000853201470157 -0.0000011507492660523687 -0.0000011000977378654263
          -0.0000011903108315029303 -0.0000011903220248071706 -0.0000011903547069255807 -0.0000012026416621463513 -0.0000012026610943471629 -0.0000012027193459666182
          -0.0000012429086797494478 -0.0000012429352045894104 -0.0000012430176778807542 -0.0000012979662177923484 -0.0000012980234170584108 -0.0000012981873646624789
          -0.0000013550391345469127 -0.0000013551513593664057 -0.0000013554868714212465 -0.0000014117771342268137 -0.0000014119480042483476 -0.0000014124791485860428
          -0.0000014540692092707454 -0.0000014543373604142379 -0.0000014550901390862004 -0.0000015241368094467793 -0.0000014876121039202944 -0.0000014952544378863534
          -0.0000015243389929842255 -0.00000148793117568728 -0.000001495428003108686 -0.000001525009449271863 -0.0000014889183309372073 -0.0000014959834036786214
        </DataArray>
        <DataArray type="Float64" Name="disp_z" format="ascii" RangeMin="-9.544648177502509e-8" RangeMax="2.0582562384952713e-9">
          0 0 -1.8125958115500754e-8 -1.8126805908284998e-8 -3.6251972703872174e-8 -3.625365385438361e-8
          0 0 -1.8228008129393576e-8 -1.822921737091848e-8 -3.645608331702216e-8 -3.645847712452621e-8
          0 0 -1.8363612065990196e-8 -1.836537427886342e-8 -3.672732503999934e-8 -3.673083334303957e-8
          0 0 -1.8548675488895954e-8 -1.8551378891630297e-8 -3.709750073979832e-8 -3.710285910697251e-8
          0 0 -1.8809756347211533e-8 -1.88140675228538e-8 -3.76197796285677e-8 -3.7628455318412424e-8
          0 0 -1.91942677707531e-8 -1.9201849330654144e-8 -3.8389632794739803e-8 -3.8404357683857644e-8
          0 0 -1.9797716195398002e-8 -1.981083335644467e-8 -3.9592235711435976e-8 -3.962044391307484e-8
          0 0 -2.079955401137516e-8 -2.0831933467796285e-8 -4.160435835560561e-8 -4.166063374798948e-8
          0 0 -2.2625530222446283e-8 -2.269154456828131e-8 -4.530061885923713e-8 -4.546687851033057e-8
          0 0 -2.727330136065617e-8 -2.7599887533744116e-8 -5.426242284716701e-8 -5.479447511952528e-8
          0 -1.8123405914239793e-8 -3.624691232620802e-8 0 -1.8224396203582597e-8 -3.644892493940491e-8
          0 -1.8358329049759245e-8 -3.6716848278230426e-8 0 -1.8540616291524974e-8 -3.708149068859724e-8
          0 -1.879681868387338e-8 -3.759403000474348e-8 0 -1.9172033714990012e-8 -3.834541248917803e-8
          0 -1.9757355982656385e-8 -3.9510396070629937e-8 0 -2.070945350899978e-8 -4.142998280389929e-8
          0 -2.2412410070227225e-8 -4.485016823765756e-8 0 -2.644826902134491e-8 -5.2675050639082973e-8
          0 -1.8119162776207328e-8 -3.6238535394735973e-8 0 -1.8218405838477463e-8 -3.6437085265908015e-8
          0 -1.834958219178448e-8 -3.669953436583448e-8 0 -1.8527306941357722e-8 -3.705510780271182e-8
          0 -1.8775500249143073e-8 -3.755165624114741e-8 0 -1.91357071144391e-8 -3.827319156956097e-8
          0 -1.9690822925032446e-8 -3.937617719854972e-8 0 -2.05665988026572e-8 -4.115161231048808e-8
          0 -2.2070955861557132e-8 -4.4130199473074895e-8 0 -2.5289172553815556e-8 -5.050406241688249e-8
          0 -1.811328033067167e-8 -3.622694830788156e-8 0 -1.8210115629710755e-8 -3.642073634077056e-8
          0 -1.8337507278118765e-8 -3.66756709123764e-8 0 -1.85089872122569e-8 -3.7018882704907434e-8
          0 -1.874629542689125e-8 -3.7493586194104256e-8 0 -1.908624292819003e-8 -3.817518983923493e-8
          0 -1.9600306662924948e-8 -3.91936610655693e-8 0 -2.0377845683449794e-8 -4.0781232798282344e-8
          0 -2.1634685974389774e-8 -4.323246519298027e-8 0 -2.3959439621621688e-8 -4.7887319057328477e-8
          0 -1.810592565826391e-8 -3.621243055140212e-8 0 -1.819976790959585e-8 -3.640028013554658e-8
          0 -1.8322464028574348e-8 -3.664589773479927e-8 0 -1.8486229304639143e-8 -3.697372888124364e-8
          0 -1.8710153057622648e-8 -3.7421834948533596e-8 0 -1.9025351052157793e-8 -3.805363414033706e-8
          0 -1.9489173645225083e-8 -3.897200473391289e-8 0 -2.015228881131718e-8 -4.0332928526680545e-8
          0 -2.1140575930353617e-8 -4.2219947290668604e-8 0 -2.261097212209844e-8 -4.529405085175663e-8
          0 -1.8097572871383778e-8 -3.619563476738557e-8 0 -1.8188009674972035e-8 -3.6376631330543954e-8
          0 -1.8305361676687892e-8 -3.6611490758798677e-8 0 -1.8460337564284836e-8 -3.6921657538238124e-8
          0 -1.866904864151371e-8 -3.733916251694924e-8 0 -1.8956085829660224e-8 -3.791431736418866e-8
          0 -1.9362571384811828e-8 -3.871864564448807e-8 0 -1.9901537021129237e-8 -3.983100681179117e-8
          0 -2.061772224564323e-8 -4.1167807499249884e-8 0 -2.1362291775131318e-8 -4.2849289012390535e-8
          0 -1.808931021262256e-8 -3.6178002449052084e-8 0 -1.817629325611499e-8 -3.635172643877885e-8
          0 -1.8288175493200482e-8 -3.6575139382000023e-8 0 -1.843404685154008e-8 -3.6866403853807755e-8
          0 -1.862681672184757e-8 -3.72511350524841e-8 0 -1.8884002541252342e-8 -3.776538145007226e-8
          0 -1.9228394627306567e-8 -3.8446876439644365e-8 0 -1.9638917468532964e-8 -3.930115804486537e-8
          0 -2.0085780966474183e-8 -4.011823728350365e-8 0 -2.0246696060137005e-8 -4.065615383739649e-8
          0 -1.8083763569934747e-8 -3.616142979681429e-8 0 -1.8168073883485713e-8 -3.6328082753245455e-8
          0 -1.827553287616294e-8 -3.6540254078917944e-8 0 -1.8413590508687774e-8 -3.681271537591006e-8
          0 -1.8591924987798306e-8 -3.716444067602559e-8 0 -1.8820422682308006e-8 -3.7616693945828505e-8
          0 -1.9101504381714943e-8 -3.8172058128270935e-8 0 -1.9380006237121068e-8 -3.8768539420284073e-8
          0 -1.9548277529479316e-8 -3.909578189397066e-8 0 -1.9216368536436685e-8 -3.8717342964082615e-8
          0 -1.826202225775019e-8 -3.653095670504256e-8 0 -1.8391734666152583e-8 -3.6792856360974576e-8
          0 -1.855479805333701e-8 -3.7122402437091674e-8 0 -1.875362247889725e-8 -3.752447685609757e-8
          0 -1.8972056358838044e-8 -3.796186294106179e-8 0 -1.912803482009648e-8 -3.828074051486271e-8
          0 -1.9048480848487644e-8 -3.8049864994986346e-8 0 -1.8333191813266115e-8 -3.662809161213683e-8
          0 0 0 0 -7.3654881431990775e-9 -1.0422027949406583e-8
          -1.076996528040436e-8 -8.245618133353954e-9 -1.4826571900311439e-8 -2.1110879812372403e-8 -2.166504628079726e-8 -1.6598725893968e-8
          0 0 -4.819037487729895e-9 -5.627454558986507e-9 -9.78364448988302e-9 -1.1246074218220882e-8
          0 0 0 -4.325462285715891e-9 -2.9224205302569e-9 -2.1500277689562338e-9
          -8.64253937106702e-9 -5.783000860240026e-9 -4.303528982186174e-9 0 0 0
          0 -3.1436853585212504e-8 -3.1642627451998523e-8 -3.4250075320429844e-8 -3.3426843942305034e-8 -6.238670463347536e-8
          -6.266064429138219e-8 -6.775441788943568e-8 -6.61862220491753e-8 0 0 0
          0 -2.4580081745185767e-8 -2.0269548100586685e-8 -1.794872178631891e-8 -2.1952922523377787e-8 -4.8984678838988756e-8
          -4.040225378148897e-8 -3.55672736952795e-8 -4.31028519255137e-8 0 0 0
          0 -2.567064423800226e-8 -2.6552790247664852e-8 -2.8264404806667993e-8 -2.7087516463613103e-8 -5.126372143549419e-8
          -5.282714967663735e-8 -5.625759274340614e-8 -5.390756112569491e-8 0 0 0
          0 -2.0851184831503745e-8 -2.1206382568421964e-8 -1.9421413020545176e-8 -1.8903832068679537e-8 -4.170049275222985e-8
          -4.231535261804651e-8 -3.877351555407565e-8 -3.7843902475144084e-8 0 0 -1.8585396997523393e-8
          -1.9595498632435662e-8 -3.706156277424046e-8 -3.913359409195271e-8 0 0 -2.9476250877488046e-8
          -2.968269652335233e-8 -5.860343832234843e-8 -5.8798458354779295e-8 0 0 0
          0 -5.711987295597219e-9 -3.141175335203973e-9 -2.220093868364487e-9 -6.35554557902136e-9 -1.0394905861536013e-8
          -5.86098480472213e-9 -3.491568284482143e-9 -1.129760463373556e-8 0 0 0
          0 -2.894558492231977e-8 -2.9136805102693843e-8 -3.128847284710101e-8 -3.0220252375499376e-8 -5.773594838065951e-8
          -5.808714036273709e-8 -6.21377025370651e-8 -6.016837869211345e-8 0 0 -3.2951929021076486e-8
          -3.5803111150833386e-8 -6.520274349589632e-8 -7.09646530355431e-8 0 0 0
          0 -1.1743235350030744e-8 -1.3174336207417207e-8 -1.1158366372956328e-8 -9.320033201899459e-9 -2.38284767084367e-8
          -2.607545578733705e-8 -2.2494540251335795e-8 -1.8681903068546148e-8 0 0 0
          0 -4.062431436281786e-8 -4.506173750510705e-8 -4.2816441805570694e-8 -3.89534329391687e-8 -8.353910300840088e-8
          -9.204162519004312e-8 -8.580738640551637e-8 -7.78490698101609e-8 0 0 0
          0 8.521275408434146e-10 -7.49222205610421e-10 -1.3545823376168546e-9 2.98778930902293e-10 1.29198550341441e-9
          -1.3705376469868585e-9 -2.658974749305473e-9 3.010212641040044e-10 0 0 -2.258370318689596e-8
          -2.2808686338929618e-8 -4.49436552686557e-8 -4.5328516547109876e-8 0 -2.867261432505599e-8 -5.716565021967932e-8
          0 0 -8.585891994367673e-9 -1.1608485603771204e-8 -1.716623678533772e-8 -2.343735155150932e-8
          0 0 0 -1.4324253150584292e-8 -1.6175444218570668e-8 -1.342512108953148e-8
          -2.8638968507272265e-8 -3.246929733218556e-8 -2.6881474900167003e-8 0 0 0
          0 -2.681197296687977e-8 -2.6754197717394375e-8 -3.1730170127391063e-8 -3.063509501613629e-8 -5.324996017577634e-8
          -5.3411046201703707e-8 -6.295980020126071e-8 -6.059715630639823e-8 0 0 0
          -3.191746341415827e-8 -3.32939293524222e-8 -3.3883296928637645e-8 -6.328945505266834e-8 -6.596608920495421e-8 -6.70854682376139e-8
          0 0 -1.8076076494003317e-8 -2.0644241447536753e-8 -3.6189472936482464e-8 -4.1132376447706115e-8
          0 0 -1.603784599659874e-8 -1.89202939254085e-8 -3.074099622156754e-8 -3.7484824755360005e-8
          0 0 -1.957388702524235e-8 -1.6712821486673058e-8 -3.873487741141702e-8 -3.341489875765177e-8
          0 0 0 0 -4.124230089725932e-8 -3.971010343382977e-8
          -4.221836972367231e-8 -4.397917114888373e-8 -8.157204376930962e-8 -7.875996074517068e-8 -8.449265565697859e-8 -8.785585466686581e-8
          0 0 0 -2.457913737053874e-8 -2.5413598374058788e-8 -2.756558490411462e-8
          -4.889459579318156e-8 -5.0558870266350266e-8 -5.493692481342812e-8 0 0 -1.3676468114980168e-8
          -1.2686302088237901e-8 -2.761913536048569e-8 -2.565291656034666e-8 0 0 -2.3815170873594845e-8
          -2.202148743505352e-8 -4.748189435749692e-8 -4.395017039763756e-8 0 0 -2.1737443787630603e-8
          -2.36870669360741e-8 -4.3336235506745875e-8 -4.733198762483312e-8 0 0 -1.9004845504381777e-8
          -1.6644508903335945e-8 -3.828346810623322e-8 -3.329943128457093e-8 0 0 0
          -1.2816808949676957e-9 -3.5771361771954374e-9 -2.2764416403791568e-9 -2.721576585278751e-9 -7.1227714031634086e-9 -4.685851887430762e-9
          0 0 0 -1.659101746090912e-8 -1.504782552780196e-8 -1.701601694334237e-8
          -3.31269113688147e-8 -3.003622184495013e-8 -3.4038977130857406e-8 0 0 0
          -3.497053005814068e-8 -3.71702299076356e-8 -3.603095828502212e-8 -6.915989302079462e-8 -7.342978673984214e-8 -7.130962429003894e-8
          0 -3.8524883286483796e-8 -7.600806802205721e-8 0 0 0
          0 -4.635389466329002e-9 -5.455125909397507e-9 -6.876641462725639e-9 -5.940055178688322e-9 -9.290012217234035e-9
          -1.0690347802807956e-8 -1.3586310457230257e-8 -1.1739229388468391e-8 0 0 -3.5807928520847146e-8
          -3.800653246725317e-8 -7.075053962180693e-8 -7.520354489801012e-8 0 0 -4.414715271272771e-9
          -3.4071159036012144e-9 -8.770014939030239e-9 -6.90488843851766e-9 0 0 -4.37676424667517e-8
          -3.991220724293773e-8 -8.863011446704001e-8 -7.95503037799347e-8 0 0 -3.503587102032953e-8
          -3.525832746379938e-8 -6.917679604348199e-8 -7.105771918147e-8 0 -6.878041408961336e-9 -1.3396402180629902e-8
          0 -1.7701906732134038e-8 -3.51814465723415e-8 0 0 -2.91466315654193e-8
          -2.6653867214270615e-8 -5.790915650124551e-8 -5.322176644379488e-8 0 -1.8139150796276893e-8 -3.6361150989975275e-8
          0 -1.169464244255215e-8 -2.280109991940875e-8 0 -4.166816311245879e-10 -1.0171423788254713e-9
          0 -1.4659820946037062e-8 -2.9381667570070327e-8 0 -8.932150058492717e-9 -1.8339648750216957e-8
          0 -1.1841972843061081e-8 -2.2514136559902552e-8 0 -3.431460478727836e-8 -6.937820564519866e-8
          0 -4.672949856862918e-8 -9.544648177502509e-8 0 -2.8736738988017568e-8 -5.739179242015016e-8
          0 -7.091257784501254e-9 -1.513566098323289e-8 0 1.203087123419359e-9 2.0582562384952713e-9
          0 -1.8184088406786555e-8 -3.6363370744703815e-8 0 -1.8009017698443878e-8 -3.602057774530533e-8
          0 -1.825180714510282e-8 -3.649697466988213e-8 0 -1.8012772114519434e-8 -3.602914925603117e-8
          0 -1.8304232871540334e-8 -3.659891367769022e-8 0 -1.830430880747493e-8 -3.659990632181882e-8
          0 -1.818915686016909e-8 -3.636401412731259e-8 0 -1.7830435526038405e-8 -3.5670496046462285e-8
          0 -1.678883698197283e-8 -3.36128137027202e-8 0 0 -1.675827843099101e-8
          -1.591666079082328e-8 -3.361057951950173e-8 -3.191508124602744e-8 0 0 0
          0 -1.4656249145641627e-8 -1.3227688554557218e-8 -1.2433117574098924e-8 -1.4503471131066831e-8 -2.9435461253612696e-8
          -2.637245094949857e-8 -2.5156170363205116e-8 -2.897258012262978e-8 0 -1.0573012798930841e-8 -2.0189562407265968e-8
          0 -1.563810417080845e-8 -3.113002537289108e-8 0 -1.1454412434772895e-8 -2.3019253947849866e-8
          0 0 -1.781732900997402e-8 -1.7854694644969044e-8 -3.56337034722731e-8 -3.5708707756686906e-8
          0 -1.7980040302560016e-8 -3.596497623362145e-8 0 -1.7738689754703015e-8 -3.547599406876938e-8
          0 -1.7876711609599334e-8 -3.576168528011879e-8 0 -1.765659829680523e-8 -3.531407858884033e-8
          0 -1.7238025447667064e-8 -3.4477373884289064e-8 0 -1.6409456620727626e-8 -3.2810339475410966e-8
          0 -1.543022404870107e-8 -3.086163644754753e-8 0 0 0
          -1.3615616690492048e-8 -1.4286940984686167e-8 -1.5063687954045235e-8 -2.7132033445138612e-8 -2.8519074473756254e-8 -3.0166397941924696e-8
        </DataArray>
      </PointData>
      <CellData>
        <DataArray type="Int32" Name="libmesh_elem_id" format="ascii" RangeMin="40" RangeMax="1373">
          40 41 42 43 44 45
          46 47 48 49 50 51
          52 53 54 55 56 57
          98 99 100 101 102 103
          104 105 106 107 108 109
          110 111 112 113 114 115
          156 157 158 159 160 161
          162 163 164 165 166 167
          168 169 170 171 172 173
          214 215 216 217 218 219
          220 221 222 223 224 225
          226 227 228 229 230 231
          272 273 274 275 276 277
          278 279 280 281 282 283
          284 285 286 287 288 289
          330 331 332 333 334 335
          336 337 338 339 340 341
          342 343 344 345 346 347
          388 389 390 391 392 393
          394 395 396 397 398 399
          400 401 402 403 404 405
          446 447 448 449 450 451
          452 453 454 455 456 457
          458 459 460 461 462 463
          508 509 510 511 512 513
          514 515 516 517 518 519
          520 521 522 523 524 525
          526 527 528 529 530 531
          532 533 534 535 536 537
          538 539 540 541 542 543
          544 545 546 547 548 549
          550 551 552 553 554 555
          556 557 558 559 560 561
          562 563 564 565 566 567
          568 569 570 571 572 573
          574 575 576 577 578 579
          580 581 582 583 584 585
          586 587 588 589 590 591
          592 593 594 595 596 597
          598 599 600 601 602 603
          604 605 606 607 608 609
          610 611 612 613 614 615
          616 617 618 619 620 621
          622 623 624 625 626 627
          628 629 630 631 632 633
          634 635 636 637 638 639
          640 641 642 643 644 645
          646 647 648 649 650 651
          652 653 654 655 656 657
          658 659 660 661 662 663
          664 665 666 667 668 669
          670 671 672 673 674 675
          676 677 678 679 680 681
          682 683 684 685 686 687
          688 689 690 691 692 693
          694 695 696 697 698 699
          700 701 702 703 704 705
          706 707 708 709 710 711
          712 713 714 715 716 717
          718 719 720 721 722 723
          724 725 726 727 728 729
          730 731 732 733 734 735
          736 737 738 739 740 741
          742 743 744 745 746 747
          748 749 750 751 752 753
          754 755 756 757 758 759
          760 761 762 763 764 765
          766 767 768 769 770 771
          1186 1187 1188 1189 1190 1191
          1204 1205 1206 1207 1208 1209
          1222 1223 1224 1225 1240 1241
          1242 1243 1258 1259 1260 1261
          1276 1277 1278 1279 1300 1301
          1304 1305 1306 1307 1314 1315
          1316 1317 1326 1327 1328 1329
          1330 1331 1338 1339 1344 1345
          1348 1349 1356 1357 1358 1359
          1360 1361 1366 1367 1372 1373
        </DataArray>
        <DataArray type="Int32" Name="subdomain_id" format="ascii" RangeMin="103" RangeMax="143">
          103 103 103 103 103 103
          103 103 103 103 103 103
          103 103 103 103 103 103
          103 103 103 103 103 103
          103 103 103 103 103 103
          103 103 103 103 103 103
          103 103 103 103 103 103
          103 103 103 103 103 103
          103 103 103 103 103 103
          103 103 103 103 103 103
          103 103 103 103 103 103
          103 103 103 103 103 103
          103 103 103 103 103 103
          103 103 103 103 103 103
          103 103 103 103 103 103
          103 103 103 103 103 103
          103 103 103 103 103 103
          103 103 103 103 103 103
          103 103 103 103 103 103
          103 103 103 103 103 103
          103 103 103 103 103 103
          103 103 103 103 103 103
          103 103 103 103 103 103
          103 103 103 103 103 103
          103 103 103 103 103 103
          103 103 103 103 103 103
          103 103 104 104 104 104
          104 104 104 104 104 104
          104 104 104 104 104 104
          104 104 104 104 104 104
          104 104 104 104 104 104
          104 104 104 104 104 104
          104 104 104 104 104 104
          104 104 104 104 104 104
          104 104 104 104 104 104
          104 104 104 104 104 104
          104 104 104 104 104 104
          104 104 104 104 104 104
          104 104 104 104 104 104
          104 104 104 104 104 104
          104 104 104 104 104 104
          104 104 104 104 104 104
          104 104 104 104 104 104
          104 104 104 104 104 104
          104 104 104 104 104 104
          104 104 104 104 104 104
          104 104 104 104 104 104
          104 104 104 104 104 104
          104 104 104 104 104 104
          104 104 104 104 104 104
          104 104 104 104 104 104
          104 104 104 104 104 104
          104 104 104 104 104 104
          104 104 104 104 104 104
          104 104 104 104 104 104
          104 104 104 104 104 104
          104 104 104 104 104 104
          104 104 104 104 104 104
          104 104 104 104 104 104
          141 141 141 141 141 141
          141 141 141 141 141 141
          141 141 141 141 141 141
          141 141 141 141 141 141
          141 141 141 141 141 141
          141 141 141 141 141 141
          141 141 141 141 141 141
          141 141 141 141 141 141
          141 141 141 141 141 141
          105 105 105 105 105 105
          105 105 105 105 105 105
          105 105 105 105 105 105
          105 105 105 105 105 105
          105 105 105 105 106 106
          106 106 106 106 106 106
          106 106 106 106 106 106
          106 106 106 106 106 106
          106 106 106 106 106 106
          143 143 143 143 143 143
        </DataArray>
        <DataArray type="Int32" Name="processor_id" format="ascii" RangeMin="5" RangeMax="5">
          5 5 5 5 5 5
          5 5 5 5 5 5
          5 5 5 5 5 5
          5 5 5 5 5 5
          5 5 5 5 5 5
          5 5 5 5 5 5
          5 5 5 5 5 5
          5 5 5 5 5 5
          5 5 5 5 5 5
          5 5 5 5 5 5
          5 5 5 5 5 5
          5 5 5 5 5 5
          5 5 5 5 5 5
          5 5 5 5 5 5
          5 5 5 5 5 5
          5 5 5 5 5 5
          5 5 5 5 5 5
          5 5 5 5 5 5
          5 5 5 5 5 5
          5 5 5 5 5 5
          5 5 5 5 5 5
          5 5 5 5 5 5
          5 5 5 5 5 5
          5 5 5 5 5 5
          5 5 5 5 5 5
          5 5 5 5 5 5
          5 5 5 5 5 5
          5 5 5 5 5 5
          5 5 5 5 5 5
          5 5 5 5 5 5
          5 5 5 5 5 5
          5 5 5 5 5 5
          5 5 5 5 5 5
          5 5 5 5 5 5
          5 5 5 5 5 5
          5 5 5 5 5 5
          5 5 5 5 5 5
          5 5 5 5 5 5
          5 5 5 5 5 5
          5 5 5 5 5 5
          5 5 5 5 5 5
          5 5 5 5 5 5
          5 5 5 5 5 5
          5 5 5 5 5 5
          5 5 5 5 5 5
          5 5 5 5 5 5
          5 5 5 5 5 5
          5 5 5 5 5 5
          5 5 5 5 5 5
          5 5 5 5 5 5
          5 5 5 5 5 5
          5 5 5 5 5 5
          5 5 5 5 5 5
          5 5 5 5 5 5
          5 5 5 5 5 5
          5 5 5 5 5 5
          5 5 5 5 5 5
          5 5 5 5 5 5
          5 5 5 5 5 5
          5 5 5 5 5 5
          5 5 5 5 5 5
          5 5 5 5 5 5
          5 5 5 5 5 5
          5 5 5 5 5 5
          5 5 5 5 5 5
          5 5 5 5 5 5
          5 5 5 5 5 5
          5 5 5 5 5 5
          5 5 5 5 5 5
          5 5 5 5 5 5
          5 5 5 5 5 5
          5 5 5 5 5 5
          5 5 5 5 5 5
          5 5 5 5 5 5
          5 5 5 5 5 5
          5 5 5 5 5 5
          5 5 5 5 5 5
          5 5 5 5 5 5
        </DataArray>
      </CellData>
      <Points>
        <DataArray type="Float64" Name="Points" NumberOfComponents="3" format="ascii" RangeMin="0.0082758620689774" RangeMax="0.013139935358843113">
          0.00011111111111123 0.0082758620689751 0 0 0.0082758620689774 0
          0.00011111111111123 0.0082758620689751 0.00015 0 0.0082758620689774 0.00015
          0.00011111111111123 0.0082758620689751 0.0003 0 0.0082758620689774 0.0003
          0.00011111111111125 0.0086896551724226 0 0 0.0086896551724246 0
          0.00011111111111125 0.0086896551724226 0.00015 0 0.0086896551724246 0.00015
          0.00011111111111125 0.0086896551724226 0.0003 0 0.0086896551724246 0.0003
          0.00011111111111126 0.0091034482758696 0 0 0.0091034482758716 0
          0.00011111111111126 0.0091034482758696 0.00015 0 0.0091034482758716 0.00015
          0.00011111111111126 0.0091034482758696 0.0003 0 0.0091034482758716 0.0003
          0.00011111111111128 0.0095172413793168 0 0 0.0095172413793185 0
          0.00011111111111128 0.0095172413793168 0.00015 0 0.0095172413793185 0.00015
          0.00011111111111128 0.0095172413793168 0.0003 0 0.0095172413793185 0.0003
          0.00011111111111129 0.0099310344827632 0 0 0.0099310344827645 0
          0.00011111111111129 0.0099310344827632 0.00015 0 0.0099310344827645 0.00015
          0.00011111111111129 0.0099310344827632 0.0003 0 0.0099310344827645 0.0003
          0.00011111111111131 0.01034482758621 0 0 0.01034482758621 0
          0.00011111111111131 0.01034482758621 0.00015 0 0.01034482758621 0.00015
          0.00011111111111131 0.01034482758621 0.0003 0 0.01034482758621 0.0003
          0.00011111111111132 0.010758620689657 0 0 0.010758620689657 0
          0.00011111111111132 0.010758620689657 0.00015 0 0.010758620689657 0.00015
          0.00011111111111132 0.010758620689657 0.0003 0 0.010758620689657 0.0003
          0.00011111111111134 0.011172413793104 0 0 0.011172413793104 0
          0.00011111111111134 0.011172413793104 0.00015 0 0.011172413793104 0.00015
          0.00011111111111134 0.011172413793104 0.0003 0 0.011172413793104 0.0003
          0.00011111111111135 0.011586206896551 0 0 0.011586206896551 0
          0.00011111111111135 0.011586206896551 0.00015 0 0.011586206896551 0.00015
          0.00011111111111135 0.011586206896551 0.0003 0 0.011586206896551 0.0003
          0.00011111111111137 0.012 0 0 0.012 0
          0.00011111111111137 0.012 0.00015 0 0.012 0.00015
          0.00011111111111137 0.012 0.0003 0 0.012 0.0003
          0.00022222222222243 0.0082758620689727 0 0.00022222222222243 0.0082758620689727 0.00015
          0.00022222222222243 0.0082758620689727 0.0003 0.00022222222222246 0.0086896551724206 0
          0.00022222222222246 0.0086896551724206 0.00015 0.00022222222222246 0.0086896551724206 0.0003
          0.00022222222222249 0.0091034482758676 0 0.00022222222222249 0.0091034482758676 0.00015
          0.00022222222222249 0.0091034482758676 0.0003 0.00022222222222253 0.0095172413793151 0
          0.00022222222222253 0.0095172413793151 0.00015 0.00022222222222253 0.0095172413793151 0.0003
          0.00022222222222256 0.0099310344827619 0 0.00022222222222256 0.0099310344827619 0.00015
          0.00022222222222256 0.0099310344827619 0.0003 0.0002222222222226 0.010344827586209 0
          0.0002222222222226 0.010344827586209 0.00015 0.0002222222222226 0.010344827586209 0.0003
          0.00022222222222263 0.010758620689656 0 0.00022222222222263 0.010758620689656 0.00015
          0.00022222222222263 0.010758620689656 0.0003 0.00022222222222266 0.011172413793103 0
          0.00022222222222266 0.011172413793103 0.00015 0.00022222222222266 0.011172413793103 0.0003
          0.0002222222222227 0.011586206896551 0 0.0002222222222227 0.011586206896551 0.00015
          0.0002222222222227 0.011586206896551 0.0003 0.00022222222222273 0.012 0
          0.00022222222222273 0.012 0.00015 0.00022222222222273 0.012 0.0003
          0.00033333333333363 0.0082758620689704 0 0.00033333333333363 0.0082758620689704 0.00015
          0.00033333333333363 0.0082758620689704 0.0003 0.00033333333333368 0.0086896551724185 0
          0.00033333333333368 0.0086896551724185 0.00015 0.00033333333333368 0.0086896551724185 0.0003
          0.00033333333333373 0.0091034482758657 0 0.00033333333333373 0.0091034482758657 0.00015
          0.00033333333333373 0.0091034482758657 0.0003 0.00033333333333379 0.0095172413793133 0
          0.00033333333333379 0.0095172413793133 0.00015 0.00033333333333379 0.0095172413793133 0.0003
          0.00033333333333384 0.0099310344827607 0 0.00033333333333384 0.0099310344827607 0.00015
          0.00033333333333384 0.0099310344827607 0.0003 0.00033333333333389 0.010344827586208 0
          0.00033333333333389 0.010344827586208 0.00015 0.00033333333333389 0.010344827586208 0.0003
          0.00033333333333394 0.010758620689656 0 0.00033333333333394 0.010758620689656 0.00015
          0.00033333333333394 0.010758620689656 0.0003 0.000333333333334 0.011172413793103 0
          0.000333333333334 0.011172413793103 0.00015 0.000333333333334 0.011172413793103 0.0003
          0.00033333333333405 0.011586206896551 0 0.00033333333333405 0.011586206896551 0.00015
          0.00033333333333405 0.011586206896551 0.0003 0.0003333333333341 0.012 0
          0.0003333333333341 0.012 0.00015 0.0003333333333341 0.012 0.0003
          0.00044444444444486 0.0082758620689681 0 0.00044444444444486 0.0082758620689681 0.00015
          0.00044444444444486 0.0082758620689681 0.0003 0.00044444444444493 0.0086896551724165 0
          0.00044444444444493 0.0086896551724165 0.00015 0.00044444444444493 0.0086896551724165 0.0003
          0.00044444444444501 0.0091034482758637 0 0.00044444444444501 0.0091034482758637 0.00015
          0.00044444444444501 0.0091034482758637 0.0003 0.00044444444444508 0.0095172413793116 0
          0.00044444444444508 0.0095172413793116 0.00015 0.00044444444444508 0.0095172413793116 0.0003
          0.00044444444444516 0.0099310344827594 0 0.00044444444444516 0.0099310344827594 0.00015
          0.00044444444444516 0.0099310344827594 0.0003 0.00044444444444523 0.010344827586207 0
          0.00044444444444523 0.010344827586207 0.00015 0.00044444444444523 0.010344827586207 0.0003
          0.00044444444444531 0.010758620689655 0 0.00044444444444531 0.010758620689655 0.00015
          0.00044444444444531 0.010758620689655 0.0003 0.00044444444444538 0.011172413793103 0
          0.00044444444444538 0.011172413793103 0.00015 0.00044444444444538 0.011172413793103 0.0003
          0.00044444444444546 0.011586206896551 0 0.00044444444444546 0.011586206896551 0.00015
          0.00044444444444546 0.011586206896551 0.0003 0.00044444444444553 0.012 0
          0.00044444444444553 0.012 0.00015 0.00044444444444553 0.012 0.0003
          0.00055555555555597 0.0082758620689657 0 0.00055555555555597 0.0082758620689657 0.00015
          0.00055555555555597 0.0082758620689657 0.0003 0.00055555555555605 0.0086896551724145 0
          0.00055555555555605 0.0086896551724145 0.00015 0.00055555555555605 0.0086896551724145 0.0003
          0.00055555555555613 0.0091034482758618 0 0.00055555555555613 0.0091034482758618 0.00015
          0.00055555555555613 0.0091034482758618 0.0003 0.00055555555555621 0.0095172413793099 0
          0.00055555555555621 0.0095172413793099 0.00015 0.00055555555555621 0.0095172413793099 0.0003
          0.00055555555555629 0.0099310344827581 0 0.00055555555555629 0.0099310344827581 0.00015
          0.00055555555555629 0.0099310344827581 0.0003 0.00055555555555636 0.010344827586206 0
          0.00055555555555636 0.010344827586206 0.00015 0.00055555555555636 0.010344827586206 0.0003
          0.00055555555555644 0.010758620689655 0 0.00055555555555644 0.010758620689655 0.00015
          0.00055555555555644 0.010758620689655 0.0003 0.00055555555555652 0.011172413793102 0
          0.00055555555555652 0.011172413793102 0.00015 0.00055555555555652 0.011172413793102 0.0003
          0.0005555555555566 0.011586206896551 0 0.0005555555555566 0.011586206896551 0.00015
          0.0005555555555566 0.011586206896551 0.0003 0.00055555555555667 0.012 0
          0.00055555555555667 0.012 0.00015 0.00055555555555667 0.012 0.0003
          0.00066666666666675 0.0082758620689634 0 0.00066666666666675 0.0082758620689634 0.00015
          0.00066666666666675 0.0082758620689634 0.0003 0.00066666666666679 0.0086896551724125 0
          0.00066666666666679 0.0086896551724125 0.00015 0.00066666666666679 0.0086896551724125 0.0003
          0.00066666666666684 0.0091034482758598 0 0.00066666666666684 0.0091034482758598 0.00015
          0.00066666666666684 0.0091034482758598 0.0003 0.00066666666666688 0.0095172413793081 0
          0.00066666666666688 0.0095172413793081 0.00015 0.00066666666666688 0.0095172413793081 0.0003
          0.00066666666666693 0.0099310344827568 0 0.00066666666666693 0.0099310344827568 0.00015
          0.00066666666666693 0.0099310344827568 0.0003 0.00066666666666697 0.010344827586205 0
          0.00066666666666697 0.010344827586205 0.00015 0.00066666666666697 0.010344827586205 0.0003
          0.00066666666666701 0.010758620689654 0 0.00066666666666701 0.010758620689654 0.00015
          0.00066666666666701 0.010758620689654 0.0003 0.00066666666666706 0.011172413793102 0
          0.00066666666666706 0.011172413793102 0.00015 0.00066666666666706 0.011172413793102 0.0003
          0.0006666666666671 0.01158620689655 0 0.0006666666666671 0.01158620689655 0.00015
          0.0006666666666671 0.01158620689655 0.0003 0.00066666666666715 0.012 0
          0.00066666666666715 0.012 0.00015 0.00066666666666715 0.012 0.0003
          0.00077777777777787 0.0082758620689611 0 0.00077777777777787 0.0082758620689611 0.00015
          0.00077777777777787 0.0082758620689611 0.0003 0.00077777777777791 0.0086896551724104 0
          0.00077777777777791 0.0086896551724104 0.00015 0.00077777777777791 0.0086896551724104 0.0003
          0.00077777777777794 0.0091034482758578 0 0.00077777777777794 0.0091034482758578 0.00015
          0.00077777777777794 0.0091034482758578 0.0003 0.00077777777777797 0.0095172413793064 0
          0.00077777777777797 0.0095172413793064 0.00015 0.00077777777777797 0.0095172413793064 0.0003
          0.000777777777778 0.0099310344827555 0 0.000777777777778 0.0099310344827555 0.00015
          0.000777777777778 0.0099310344827555 0.0003 0.00077777777777803 0.010344827586205 0
          0.00077777777777803 0.010344827586205 0.00015 0.00077777777777803 0.010344827586205 0.0003
          0.00077777777777806 0.010758620689654 0 0.00077777777777806 0.010758620689654 0.00015
          0.00077777777777806 0.010758620689654 0.0003 0.00077777777777809 0.011172413793101 0
          0.00077777777777809 0.011172413793101 0.00015 0.00077777777777809 0.011172413793101 0.0003
          0.00077777777777813 0.01158620689655 0 0.00077777777777813 0.01158620689655 0.00015
          0.00077777777777813 0.01158620689655 0.0003 0.00077777777777816 0.012 0
          0.00077777777777816 0.012 0.00015 0.00077777777777816 0.012 0.0003
          0.0008888888888888 0.0082758620689588 0 0.0008888888888888 0.0082758620689588 0.00015
          0.0008888888888888 0.0082758620689588 0.0003 0.00088888888888881 0.0086896551724084 0
          0.00088888888888881 0.0086896551724084 0.00015 0.00088888888888881 0.0086896551724084 0.0003
          0.00088888888888882 0.0091034482758559 0 0.00088888888888882 0.0091034482758559 0.00015
          0.00088888888888882 0.0091034482758559 0.0003 0.00088888888888883 0.0095172413793047 0
          0.00088888888888883 0.0095172413793047 0.00015 0.00088888888888883 0.0095172413793047 0.0003
          0.00088888888888884 0.0099310344827542 0 0.00088888888888884 0.0099310344827542 0.00015
          0.00088888888888884 0.0099310344827542 0.0003 0.00088888888888885 0.010344827586204 0
          0.00088888888888885 0.010344827586204 0.00015 0.00088888888888885 0.010344827586204 0.0003
          0.00088888888888885 0.010758620689653 0 0.00088888888888885 0.010758620689653 0.00015
          0.00088888888888885 0.010758620689653 0.0003 0.00088888888888886 0.011172413793101 0
          0.00088888888888886 0.011172413793101 0.00015 0.00088888888888886 0.011172413793101 0.0003
          0.00088888888888887 0.01158620689655 0 0.00088888888888887 0.01158620689655 0.00015
          0.00088888888888887 0.01158620689655 0.0003 0.00088888888888888 0.012 0
          0.00088888888888888 0.012 0.00015 0.00088888888888888 0.012 0.0003
          0.001 0.0091034482758539 0 0.001 0.0091034482758539 0.00015
          0.001 0.0091034482758539 0.0003 0.001 0.0095172413793029 0
          0.001 0.0095172413793029 0.00015 0.001 0.0095172413793029 0.0003
          0.001 0.0099310344827529 0 0.001 0.0099310344827529 0.00015
          0.001 0.0099310344827529 0.0003 0.001 0.010344827586203 0
          0.001 0.010344827586203 0.00015 0.001 0.010344827586203 0.0003
          0.001 0.010758620689653 0 0.001 0.010758620689653 0.00015
          0.001 0.010758620689653 0.0003 0.001 0.0111724137931 0
          0.001 0.0111724137931 0.00015 0.001 0.0111724137931 0.0003
          0.001 0.01158620689655 0 0.001 0.01158620689655 0.00015
          0.001 0.01158620689655 0.0003 0.001 0.012 0
          0.001 0.012 0.00015 0.001 0.012 0.0003
          0.00067947077571632 0.012798245728111 0 0.00068678568032061 0.012710429785181 0
          0.00076344362314339 0.012698069087358 0 0.00078000626700894 0.012788238676479 0
          0.00067947077571632 0.012798245728111 0.00015 0.00068678568032061 0.012710429785181 0.00015
          0.00076344362314339 0.012698069087358 0.00015 0.00078000626700894 0.012788238676479 0.00015
          0.00067947077571632 0.012798245728111 0.0003 0.00068678568032061 0.012710429785181 0.0003
          0.00076344362314339 0.012698069087358 0.0003 0.00078000626700894 0.012788238676479 0.0003
          0.0007101811699723 0.012881232243155 0 0.00078737528777453 0.012884598822829 0
          0.0007101811699723 0.012881232243155 0.00015 0.00078737528777453 0.012884598822829 0.00015
          0.0007101811699723 0.012881232243155 0.0003 0.00078737528777453 0.012884598822829 0.0003
          0.00063149088332091 0.012876508075697 0 0.00071156048039536 0.012943694476106 0
          0.00064992343237843 0.012944046337553 0 0.00063149088332091 0.012876508075697 0.00015
          0.00071156048039536 0.012943694476106 0.00015 0.00064992343237843 0.012944046337553 0.00015
          0.00063149088332091 0.012876508075697 0.0003 0.00071156048039536 0.012943694476106 0.0003
          0.00064992343237843 0.012944046337553 0.0003 0.00014271480927744 0.012184528409521 0
          0.00021074182908597 0.012239195039162 0 0.00014617236906556 0.012274772666576 0
          0.00010836971036758 0.0122326927564 0 0.00014271480927744 0.012184528409521 0.00015
          0.00021074182908597 0.012239195039162 0.00015 0.00014617236906556 0.012274772666576 0.00015
          0.00010836971036758 0.0122326927564 0.00015 0.00014271480927744 0.012184528409521 0.0003
          0.00021074182908597 0.012239195039162 0.0003 0.00014617236906556 0.012274772666576 0.0003
          0.00010836971036758 0.0122326927564 0.0003 0.00040316247653445 0.012523054457121 0
          0.00050524235438491 0.012516470580574 0 0.00047556583290331 0.012611926172403 0
          0.00040677839563254 0.01259579728731 0 0.00040316247653445 0.012523054457121 0.00015
          0.00050524235438491 0.012516470580574 0.00015 0.00047556583290331 0.012611926172403 0.00015
          0.00040677839563254 0.01259579728731 0.00015 0.00040316247653445 0.012523054457121 0.0003
          0.00050524235438491 0.012516470580574 0.0003 0.00047556583290331 0.012611926172403 0.0003
          0.00040677839563254 0.01259579728731 0.0003 0.00038389728538556 0.012111104172094 0
          0.00037958632650406 0.012195366170904 0 0.00029855370140418 0.012181148574691 0
          0.00029802321336891 0.012105931916082 0 0.00038389728538556 0.012111104172094 0.00015
          0.00037958632650406 0.012195366170904 0.00015 0.00029855370140418 0.012181148574691 0.00015
          0.00029802321336891 0.012105931916082 0.00015 0.00038389728538556 0.012111104172094 0.0003
          0.00037958632650406 0.012195366170904 0.0003 0.00029855370140418 0.012181148574691 0.0003
          0.00029802321336891 0.012105931916082 0.0003 0.00062435778703091 0.012280526392523 0
          0.00063694887874418 0.012191685157308 0 0.00075163746499696 0.012211869018538 0
          0.0007101306235237 0.012330652999586 0 0.00062435778703091 0.012280526392523 0.00015
          0.00063694887874418 0.012191685157308 0.00015 0.00075163746499696 0.012211869018538 0.00015
          0.0007101306235237 0.012330652999586 0.00015 0.00062435778703091 0.012280526392523 0.0003
          0.00063694887874418 0.012191685157308 0.0003 0.00075163746499696 0.012211869018538 0.0003
          0.0007101306235237 0.012330652999586 0.0003 0.00090036231429234 0.012108977226849 0
          0.00080269198720626 0.012096984730608 0 0.00090036231429234 0.012108977226849 0.00015
          0.00080269198720626 0.012096984730608 0.00015 0.00090036231429234 0.012108977226849 0.0003
          0.00080269198720626 0.012096984730608 0.0003 0.00023865656240352 0.012177237347116 0
          0.00029061852669854 0.01224857812735 0 0.00023865656240352 0.012177237347116 0.00015
          0.00029061852669854 0.01224857812735 0.00015 0.00023865656240352 0.012177237347116 0.0003
          0.00029061852669854 0.01224857812735 0.0003 0.00056164385173704 0.012835416164401 0
          0.00056508360468666 0.012898794448667 0 0.00049240387645224 0.012913175910861 0
          0.00046984631090009 0.012828989929731 0 0.00056164385173704 0.012835416164401 0.00015
          0.00056508360468666 0.012898794448667 0.00015 0.00049240387645224 0.012913175910861 0.00015
          0.00046984631090009 0.012828989929731 0.00015 0.00056164385173704 0.012835416164401 0.0003
          0.00056508360468666 0.012898794448667 0.0003 0.00049240387645224 0.012913175910861 0.0003
          0.00046984631090009 0.012828989929731 0.0003 0.000050495613361417 0.012066083920595 0
          0.00011131843390441 0.012086989142678 0 0.000069577205110887 0.012153607960951 0
          0 0.012111111111109 0 0.000050495613361417 0.012066083920595 0.00015
          0.00011131843390441 0.012086989142678 0.00015 0.000069577205110887 0.012153607960951 0.00015
          0 0.012111111111109 0.00015 0.000050495613361417 0.012066083920595 0.0003
          0.00011131843390441 0.012086989142678 0.0003 0.000069577205110887 0.012153607960951 0.0003
          0 0.012111111111109 0.0003 0.00022470825547396 0.012306913365418 0
          0.00017103954025546 0.012340304715306 0 0.00022470825547396 0.012306913365418 0.00015
          0.00017103954025546 0.012340304715306 0.00015 0.00022470825547396 0.012306913365418 0.0003
          0.00017103954025546 0.012340304715306 0.0003 0.00085640575367095 0.012657655614724 0
          0.001 0.012571428571438 0 0.001 0.012714285714292 0
          0.00089085524488654 0.012778191533234 0 0.00085640575367095 0.012657655614724 0.00015
          0.001 0.012571428571438 0.00015 0.001 0.012714285714292 0.00015
          0.00089085524488654 0.012778191533234 0.00015 0.00085640575367095 0.012657655614724 0.0003
          0.001 0.012571428571438 0.0003 0.001 0.012714285714292 0.0003
          0.00089085524488654 0.012778191533234 0.0003 0.00017101007138246 0.012530153689505 0
          0.000086824088695593 0.01250759612347 0 0.00010015626416536 0.012463076177022 0
          0.00018026894988108 0.012457509098897 0 0.00017101007138246 0.012530153689505 0.00015
          0.000086824088695593 0.01250759612347 0.00015 0.00010015626416536 0.012463076177022 0.00015
          0.00018026894988108 0.012457509098897 0.00015 0.00017101007138246 0.012530153689505 0.0003
          0.000086824088695593 0.01250759612347 0.0003 0.00010015626416536 0.012463076177022 0.0003
          0.00018026894988108 0.012457509098897 0.0003 0.00055555555555552 0.013 0
          0.00054972466987376 0.012958523613261 0 0.00059017772624368 0.012950117696029 0
          0.00061111111111072 0.013 0 0.00055555555555552 0.013 0.00015
          0.00054972466987376 0.012958523613261 0.00015 0.00059017772624368 0.012950117696029 0.00015
          0.00061111111111072 0.013 0.00015 0.00055555555555552 0.013 0.0003
          0.00054972466987376 0.012958523613261 0.0003 0.00059017772624368 0.012950117696029 0.0003
          0.00061111111111072 0.013 0.0003 0.00056012017374448 0.012193168747791 0
          0.00054338833040714 0.012250054231166 0 0.00056012017374448 0.012193168747791 0.00015
          0.00054338833040714 0.012250054231166 0.00015 0.00056012017374448 0.012193168747791 0.0003
          0.00054338833040714 0.012250054231166 0.0003 0.00020164702899907 0.012111009853496 0
          0.00020164702899907 0.012111009853496 0.00015 0.00020164702899907 0.012111009853496 0.0003
          0.00058698867508036 0.01276393301723 0 0.00061242021253103 0.012689969395149 0
          0.00058698867508036 0.01276393301723 0.00015 0.00061242021253103 0.012689969395149 0.00015
          0.00058698867508036 0.01276393301723 0.0003 0.00061242021253103 0.012689969395149 0.0003
          0.00054704952286259 0.01264760123259 0 0.00058547756026548 0.012574831423214 0
          0.00066845126455385 0.012625352450745 0 0.00054704952286259 0.01264760123259 0.00015
          0.00058547756026548 0.012574831423214 0.00015 0.00066845126455385 0.012625352450745 0.00015
          0.00054704952286259 0.01264760123259 0.0003 0.00058547756026548 0.012574831423214 0.0003
          0.00066845126455385 0.012625352450745 0.0003 0.00040316497174951 0.012375710115571 0
          0.00038996592658543 0.012448925709731 0 0.00030251984068288 0.012451026681152 0
          0.00030273327950676 0.012339921797294 0 0.00040316497174951 0.012375710115571 0.00015
          0.00038996592658543 0.012448925709731 0.00015 0.00030251984068288 0.012451026681152 0.00015
          0.00030273327950676 0.012339921797294 0.00015 0.00040316497174951 0.012375710115571 0.0003
          0.00038996592658543 0.012448925709731 0.0003 0.00030251984068288 0.012451026681152 0.0003
          0.00030273327950676 0.012339921797294 0.0003 0 0.012166666666663 0
          0.000060257043043922 0.012213388328671 0 0 0.012222222222217 0
          0 0.012166666666663 0.00015 0.000060257043043922 0.012213388328671 0.00015
          0 0.012222222222217 0.00015 0 0.012166666666663 0.0003
          0.000060257043043922 0.012213388328671 0.0003 0 0.012222222222217 0.0003
          0.00086766031505541 0.012218873949421 0 0.00070802748250363 0.01210226547145 0
          0.00086766031505541 0.012218873949421 0.00015 0.00070802748250363 0.01210226547145 0.00015
          0.00086766031505541 0.012218873949421 0.0003 0.00070802748250363 0.01210226547145 0.0003
          0.00045681564832724 0.012667985356076 0 0.00038302222240927 0.012678606196169 0
          0.00045681564832724 0.012667985356076 0.00015 0.00038302222240927 0.012678606196169 0.00015
          0.00045681564832724 0.012667985356076 0.0003 0.00038302222240927 0.012678606196169 0.0003
          0.00057343997443155 0.012462111372123 0 0.00067467937701806 0.012497336760124 0
          0.00057343997443155 0.012462111372123 0.00015 0.00067467937701806 0.012497336760124 0.00015
          0.00057343997443155 0.012462111372123 0.0003 0.00067467937701806 0.012497336760124 0.0003
          0 0.012388888888886 0 0.00004805763346656 0.012364070531781 0
          0.000052775834931525 0.012418323433379 0 0 0.012444444444443 0
          0 0.012388888888886 0.00015 0.00004805763346656 0.012364070531781 0.00015
          0.000052775834931525 0.012418323433379 0.00015 0 0.012444444444443 0.00015
          0 0.012388888888886 0.0003 0.00004805763346656 0.012364070531781 0.0003
          0.000052775834931525 0.012418323433379 0.0003 0 0.012444444444443 0.0003
          0.0004655657017567 0.012222981448331 0 0.0004403524252846 0.012306679111378 0
          0.00036518397892919 0.012268658791136 0 0.0004655657017567 0.012222981448331 0.00015
          0.0004403524252846 0.012306679111378 0.00015 0.00036518397892919 0.012268658791136 0.00015
          0.0004655657017567 0.012222981448331 0.0003 0.0004403524252846 0.012306679111378 0.0003
          0.00036518397892919 0.012268658791136 0.0003 0.00079059026611164 0.012574208252283 0
          0.00074033738884001 0.012629472897336 0 0.00079059026611164 0.012574208252283 0.00015
          0.00074033738884001 0.012629472897336 0.00015 0.00079059026611164 0.012574208252283 0.0003
          0.00074033738884001 0.012629472897336 0.0003 0.00049134001885305 0.012124425854677 0
          0.00060162315338905 0.012101782274206 0 0.00049134001885305 0.012124425854677 0.00015
          0.00060162315338905 0.012101782274206 0.00015 0.00049134001885305 0.012124425854677 0.0003
          0.00060162315338905 0.012101782274206 0.0003 0.00055165526617401 0.012365152711649 0
          0.00046621557592763 0.012427373679685 0 0.00055165526617401 0.012365152711649 0.00015
          0.00046621557592763 0.012427373679685 0.00015 0.00055165526617401 0.012365152711649 0.0003
          0.00046621557592763 0.012427373679685 0.0003 0.00065175768920993 0.012395993188634 0
          0.00078658012555766 0.01242031863996 0 0.00065175768920993 0.012395993188634 0.00015
          0.00078658012555766 0.01242031863996 0.00015 0.00065175768920993 0.012395993188634 0.0003
          0.00078658012555766 0.01242031863996 0.0003 0.00072222222222142 0.013 0
          0.00076767785213736 0.012949407633443 0 0.00077777777777722 0.013 0
          0.00072222222222142 0.013 0.00015 0.00076767785213736 0.012949407633443 0.00015
          0.00077777777777722 0.013 0.00015 0.00072222222222142 0.013 0.0003
          0.00076767785213736 0.012949407633443 0.0003 0.00077777777777722 0.013 0.0003
          0.001 0.01228571428572 0 0.001 0.012428571428581 0
          0.00085243404696798 0.012340254950119 0 0.001 0.01228571428572 0.00015
          0.001 0.012428571428581 0.00015 0.00085243404696798 0.012340254950119 0.00015
          0.001 0.01228571428572 0.0003 0.001 0.012428571428581 0.0003
          0.00085243404696798 0.012340254950119 0.0003 0.000047305708530005 0.012255757186949 0
          0.000035989657241992 0.012305788523607 0 0 0.012277777777773 0
          0.000047305708530005 0.012255757186949 0.00015 0.000035989657241992 0.012305788523607 0.00015
          0 0.012277777777773 0.00015 0.000047305708530005 0.012255757186949 0.0003
          0.000035989657241992 0.012305788523607 0.0003 0 0.012277777777773 0.0003
          0 0.01233333333333 0 0 0.01233333333333 0.00015
          0 0.01233333333333 0.0003 0.00088888888888861 0.013 0
          0.00086852226729803 0.012945143609779 0 0.00092105077811413 0.012923509600428 0
          0.0009444444444442 0.013 0 0.00088888888888861 0.013 0.00015
          0.00086852226729803 0.012945143609779 0.00015 0.00092105077811413 0.012923509600428 0.00015
          0.0009444444444442 0.013 0.00015 0.00088888888888861 0.013 0.0003
          0.00086852226729803 0.012945143609779 0.0003 0.00092105077811413 0.012923509600428 0.0003
          0.0009444444444442 0.013 0.0003 0.000088322519872331 0.012287262323421 0
          0.000098057359918883 0.01234321954228 0 0.000088322519872331 0.012287262323421 0.00015
          0.000098057359918883 0.01234321954228 0.00015 0.000088322519872331 0.012287262323421 0.0003
          0.000098057359918883 0.01234321954228 0.0003 0.00082037799021753 0.012949927278989 0
          0.00083333333333302 0.013 0 0.00082037799021753 0.012949927278989 0.00015
          0.00083333333333302 0.013 0.00015 0.00082037799021753 0.012949927278989 0.0003
          0.00083333333333302 0.013 0.0003 0.000055423585756317 0.01245648439217 0
          0.00011750487062481 0.01240389197138 0 0.000055423585756317 0.01245648439217 0.00015
          0.00011750487062481 0.01240389197138 0.00015 0.000055423585756317 0.01245648439217 0.0003
          0.00011750487062481 0.01240389197138 0.0003 0.00022703795328819 0.012397087263253 0
          0.00024412512388832 0.012487409031957 0 0.00022703795328819 0.012397087263253 0.00015
          0.00024412512388832 0.012487409031957 0.00015 0.00022703795328819 0.012397087263253 0.0003
          0.00024412512388832 0.012487409031957 0.0003 0.00086622784349606 0.012879340816766 0
          0.00086622784349606 0.012879340816766 0.00015 0.00086622784349606 0.012879340816766 0.0003
          0.001 0.01214285714286 0 0.001 0.01214285714286 0.00015
          0.001 0.01214285714286 0.0003 0.00032807036377433 0.012530514194312 0
          0.00032139380548758 0.012616977778981 0 0.00032807036377433 0.012530514194312 0.00015
          0.00032139380548758 0.012616977778981 0.00015 0.00032807036377433 0.012530514194312 0.0003
          0.00032139380548758 0.012616977778981 0.0003 0.00078653837511981 0.012300730611142 0
          0.00078653837511981 0.012300730611142 0.00015 0.00078653837511981 0.012300730611142 0.0003
          0.00050187285486533 0.012723776617989 0 0.00050187285486533 0.012723776617989 0.00015
          0.00050187285486533 0.012723776617989 0.0003 0.00066666666666612 0.013 0
          0.00066666666666612 0.013 0.00015 0.00066666666666612 0.013 0.0003
          0.00086640285866826 0.012499721374928 0 0.00086640285866826 0.012499721374928 0.00015
          0.00086640285866826 0.012499721374928 0.0003 0.001 0.012857142857146 0
          0.001 0.012857142857146 0.00015 0.001 0.012857142857146 0.0003
          0.00043301270230906 0.012750000000722 0 0.00043301270230906 0.012750000000722 0.00015
          0.00043301270230906 0.012750000000722 0.0003 0.00025000000019401 0.01256698729822 0
          0.00025000000019401 0.01256698729822 0.00015 0.00025000000019401 0.01256698729822 0.0003
          0 0.0125 0 0 0.0125 0.00015
          0 0.0125 0.0003 0 0.012055555555554 0
          0 0.012055555555554 0.00015 0 0.012055555555554 0.0003
          0.001 0.013 0 0.001 0.013 0.00015
          0.001 0.013 0.0003 0.0005 0.013 0
          0.0005 0.013 0.00015 0.0005 0.013 0.0003
          0.0014444444444451 0.0095172413793029 0 0.0014444444444451 0.0095172413793029 0.00015
          0.0014444444444451 0.0095172413793029 0.0003 0.0018888888888902 0.0095172413793029 0
          0.0018888888888902 0.0095172413793029 0.00015 0.0018888888888902 0.0095172413793029 0.0003
          0.0014444444444452 0.0099310344827529 0 0.0014444444444452 0.0099310344827529 0.00015
          0.0014444444444452 0.0099310344827529 0.0003 0.0018888888888903 0.0099310344827529 0
          0.0018888888888903 0.0099310344827529 0.00015 0.0018888888888903 0.0099310344827529 0.0003
          0.0014444444444452 0.010344827586203 0 0.0014444444444452 0.010344827586203 0.00015
          0.0014444444444452 0.010344827586203 0.0003 0.0014444444444453 0.010758620689653 0
          0.0014444444444453 0.010758620689653 0.00015 0.0014444444444453 0.010758620689653 0.0003
          0.0014444444444453 0.0111724137931 0 0.0014444444444453 0.0111724137931 0.00015
          0.0014444444444453 0.0111724137931 0.0003 0.0014444444444454 0.01158620689655 0
          0.0014444444444454 0.01158620689655 0.00015 0.0014444444444454 0.01158620689655 0.0003
          0.0014444444444455 0.012 0 0.0014444444444455 0.012 0.00015
          0.0014444444444455 0.012 0.0003 0.0011659770658264 0.012184916069452 0
          0.0011978981211319 0.012291694091132 0 0.0011659770658264 0.012184916069452 0.00015
          0.0011978981211319 0.012291694091132 0.00015 0.0011659770658264 0.012184916069452 0.0003
          0.0011978981211319 0.012291694091132 0.0003 0.0014134281085546 0.012468353283698 0
          0.001412897365997 0.01265802692797 0 0.0011710921098332 0.012660749606473 0
          0.0011928404820732 0.012464476127519 0 0.0014134281085546 0.012468353283698 0.00015
          0.001412897365997 0.01265802692797 0.00015 0.0011710921098332 0.012660749606473 0.00015
          0.0011928404820732 0.012464476127519 0.00015 0.0014134281085546 0.012468353283698 0.0003
          0.001412897365997 0.01265802692797 0.0003 0.0011710921098332 0.012660749606473 0.0003
          0.0011928404820732 0.012464476127519 0.0003 0.0011801499871676 0.012824831216028 0
          0.0011801499871676 0.012824831216028 0.00015 0.0011801499871676 0.012824831216028 0.0003
          0.0014335559245349 0.012265987585326 0 0.0014335559245349 0.012265987585326 0.00015
          0.0014335559245349 0.012265987585326 0.0003 0.0014444444444455 0.013 0
          0.0014444444444455 0.013 0.00015 0.0014444444444455 0.013 0.0003
          0.0023333333333355 0.0099310344827529 0 0.0023333333333353 0.0095172413793029 0
          0.0023333333333355 0.0099310344827529 0.00015 0.0023333333333353 0.0095172413793029 0.00015
          0.0023333333333355 0.0099310344827529 0.0003 0.0023333333333353 0.0095172413793029 0.0003
          0.0018888888888904 0.010344827586203 0 0.0018888888888904 0.010344827586203 0.00015
          0.0018888888888904 0.010344827586203 0.0003 0.0023333333333357 0.010344827586203 0
          0.0023333333333357 0.010344827586203 0.00015 0.0023333333333357 0.010344827586203 0.0003
          0.0018888888888905 0.010758620689653 0 0.0018888888888905 0.010758620689653 0.00015
          0.0018888888888905 0.010758620689653 0.0003 0.0018888888888907 0.0111724137931 0
          0.0018888888888907 0.0111724137931 0.00015 0.0018888888888907 0.0111724137931 0.0003
          0.0018888888888908 0.01158620689655 0 0.0018888888888908 0.01158620689655 0.00015
          0.0018888888888908 0.01158620689655 0.0003 0.0018888888888909 0.012 0
          0.0018888888888909 0.012 0.00015 0.0018888888888909 0.012 0.0003
          0.0017386847932316 0.012348636106575 0 0.0017386847932316 0.012348636106575 0.00015
          0.0017386847932316 0.012348636106575 0.0003 0.0018888888888909 0.013 0
          0.001702980389272 0.012655949584096 0 0.0020604062010233 0.012679406151259 0
          0.0018888888888909 0.013 0.00015 0.001702980389272 0.012655949584096 0.00015
          0.0020604062010233 0.012679406151259 0.00015 0.0018888888888909 0.013 0.0003
          0.001702980389272 0.012655949584096 0.0003 0.0020604062010233 0.012679406151259 0.0003
          <InformationKey name="L2_NORM_RANGE" location="vtkDataArray" length="2">
            <Value index="0">
              0.008275862069
            </Value>
            <Value index="1">
              0.013139935359
            </Value>
          </InformationKey>
        </DataArray>
      </Points>
      <Cells>
        <DataArray type="Int64" Name="connectivity" format="ascii" RangeMin="0" RangeMax="755">
          1 0 6 7 3 2
          8 9 3 2 8 9
          5 4 10 11 7 6
          12 13 9 8 14 15
          9 8 14 15 11 10
          16 17 13 12 18 19
          15 14 20 21 15 14
          20 21 17 16 22 23
          19 18 24 25 21 20
          26 27 21 20 26 27
          23 22 28 29 25 24
          30 31 27 26 32 33
          27 26 32 33 29 28
          34 35 31 30 36 37
          33 32 38 39 33 32
          38 39 35 34 40 41
          37 36 42 43 39 38
          44 45 39 38 44 45
          41 40 46 47 43 42
          48 49 45 44 50 51
          45 44 50 51 47 46
          52 53 49 48 54 55
          51 50 56 57 51 50
          56 57 53 52 58 59
          0 60 63 6 2 61
          64 8 2 61 64 8
          4 62 65 10 6 63
          66 12 8 64 67 14
          8 64 67 14 10 65
          68 16 12 66 69 18
          14 67 70 20 14 67
          70 20 16 68 71 22
          18 69 72 24 20 70
          73 26 20 70 73 26
          22 71 74 28 24 72
          75 30 26 73 76 32
          26 73 76 32 28 74
          77 34 30 75 78 36
          32 76 79 38 32 76
          79 38 34 77 80 40
          36 78 81 42 38 79
          82 44 38 79 82 44
          40 80 83 46 42 81
          84 48 44 82 85 50
          44 82 85 50 46 83
          86 52 48 84 87 54
          50 85 88 56 50 85
          88 56 52 86 89 58
          60 90 93 63 61 91
          94 64 61 91 94 64
          62 92 95 65 63 93
          96 66 64 94 97 67
          64 94 97 67 65 95
          98 68 66 96 99 69
          67 97 100 70 67 97
          100 70 68 98 101 71
          69 99 102 72 70 100
          103 73 70 100 103 73
          71 101 104 74 72 102
          105 75 73 103 106 76
          73 103 106 76 74 104
          107 77 75 105 108 78
          76 106 109 79 76 106
          109 79 77 107 110 80
          78 108 111 81 79 109
          112 82 79 109 112 82
          80 110 113 83 81 111
          114 84 82 112 115 85
          82 112 115 85 83 113
          116 86 84 114 117 87
          85 115 118 88 85 115
          118 88 86 116 119 89
          90 120 123 93 91 121
          124 94 91 121 124 94
          92 122 125 95 93 123
          126 96 94 124 127 97
          94 124 127 97 95 125
          128 98 96 126 129 99
          97 127 130 100 97 127
          130 100 98 128 131 101
          99 129 132 102 100 130
          133 103 100 130 133 103
          101 131 134 104 102 132
          135 105 103 133 136 106
          103 133 136 106 104 134
          137 107 105 135 138 108
          106 136 139 109 106 136
          139 109 107 137 140 110
          108 138 141 111 109 139
          142 112 109 139 142 112
          110 140 143 113 111 141
          144 114 112 142 145 115
          112 142 145 115 113 143
          146 116 114 144 147 117
          115 145 148 118 115 145
          148 118 116 146 149 119
          120 150 153 123 121 151
          154 124 121 151 154 124
          122 152 155 125 123 153
          156 126 124 154 157 127
          124 154 157 127 125 155
          158 128 126 156 159 129
          127 157 160 130 127 157
          160 130 128 158 161 131
          129 159 162 132 130 160
          163 133 130 160 163 133
          131 161 164 134 132 162
          165 135 133 163 166 136
          133 163 166 136 134 164
          167 137 135 165 168 138
          136 166 169 139 136 166
          169 139 137 167 170 140
          138 168 171 141 139 169
          172 142 139 169 172 142
          140 170 173 143 141 171
          174 144 142 172 175 145
          142 172 175 145 143 173
          176 146 144 174 177 147
          145 175 178 148 145 175
          178 148 146 176 179 149
          150 180 183 153 151 181
          184 154 151 181 184 154
          152 182 185 155 153 183
          186 156 154 184 187 157
          154 184 187 157 155 185
          188 158 156 186 189 159
          157 187 190 160 157 187
          190 160 158 188 191 161
          159 189 192 162 160 190
          193 163 160 190 193 163
          161 191 194 164 162 192
          195 165 163 193 196 166
          163 193 196 166 164 194
          197 167 165 195 198 168
          166 196 199 169 166 196
          199 169 167 197 200 170
          168 198 201 171 169 199
          202 172 169 199 202 172
          170 200 203 173 171 201
          204 174 172 202 205 175
          172 202 205 175 173 203
          206 176 174 204 207 177
          175 205 208 178 175 205
          208 178 176 206 209 179
          180 210 213 183 181 211
          214 184 181 211 214 184
          182 212 215 185 183 213
          216 186 184 214 217 187
          184 214 217 187 185 215
          218 188 186 216 219 189
          187 217 220 190 187 217
          220 190 188 218 221 191
          189 219 222 192 190 220
          223 193 190 220 223 193
          191 221 224 194 192 222
          225 195 193 223 226 196
          193 223 226 196 194 224
          227 197 195 225 228 198
          196 226 229 199 196 226
          229 199 197 227 230 200
          198 228 231 201 199 229
          232 202 199 229 232 202
          200 230 233 203 201 231
          234 204 202 232 235 205
          202 232 235 205 203 233
          236 206 204 234 237 207
          205 235 238 208 205 235
          238 208 206 236 239 209
          210 240 243 213 211 241
          244 214 211 241 244 214
          212 242 245 215 213 243
          246 216 214 244 247 217
          214 244 247 217 215 245
          248 218 216 246 249 219
          217 247 250 220 217 247
          250 220 218 248 251 221
          219 249 252 222 220 250
          253 223 220 250 253 223
          221 251 254 224 222 252
          255 225 223 253 256 226
          223 253 256 226 224 254
          257 227 225 255 258 228
          226 256 259 229 226 256
          259 229 227 257 260 230
          228 258 261 231 229 259
          262 232 229 259 262 232
          230 260 263 233 231 261
          264 234 232 262 265 235
          232 262 265 235 233 263
          266 236 234 264 267 237
          235 265 268 238 235 265
          268 238 236 266 269 239
          246 270 273 249 247 271
          274 250 247 271 274 250
          248 272 275 251 249 273
          276 252 250 274 277 253
          250 274 277 253 251 275
          278 254 252 276 279 255
          253 277 280 256 253 277
          280 256 254 278 281 257
          255 279 282 258 256 280
          283 259 256 280 283 259
          257 281 284 260 258 282
          285 261 259 283 286 262
          259 283 286 262 260 284
          287 263 261 285 288 264
          262 286 289 265 262 286
          289 265 263 287 290 266
          264 288 291 267 265 289
          292 268 265 289 292 268
          266 290 293 269 294 295
          296 297 298 299 300 301
          298 299 300 301 302 303
          304 305 306 294 297 307
          308 298 301 309 308 298
          301 309 310 302 305 311
          312 306 313 314 315 308
          316 317 315 308 316 317
          318 310 319 320 321 322
          323 324 325 326 327 328
          325 326 327 328 329 330
          331 332 333 334 335 336
          337 338 339 340 337 338
          339 340 341 342 343 344
          345 346 347 348 349 350
          351 352 349 350 351 352
          353 354 355 356 357 358
          359 360 361 362 363 364
          361 362 363 364 365 366
          367 368 267 369 370 237
          268 371 372 238 268 371
          372 238 269 373 374 239
          375 347 376 322 377 351
          378 326 377 351 378 326
          379 355 380 330 381 382
          383 384 385 386 387 388
          385 386 387 388 389 390
          391 392 393 394 395 396
          397 398 399 400 397 398
          399 400 401 402 403 404
          323 322 405 406 327 326
          407 408 327 326 407 408
          331 330 409 410 411 412
          413 414 415 416 417 418
          415 416 417 418 419 420
          421 422 423 424 425 426
          427 428 429 430 427 428
          429 430 431 432 433 434
          435 436 437 438 439 440
          441 442 439 440 441 442
          443 444 445 446 447 358
          357 448 449 362 361 450
          449 362 361 450 451 366
          365 452 54 87 453 394
          56 88 454 398 56 88
          454 398 58 89 455 402
          456 457 295 294 458 459
          299 298 458 459 299 298
          460 461 303 302 457 462
          463 464 459 465 466 467
          459 465 466 467 461 468
          469 470 456 294 312 381
          458 298 315 385 458 298
          315 385 460 302 318 389
          471 472 473 474 475 476
          477 478 475 476 477 478
          479 480 481 482 483 395
          484 485 486 399 487 488
          486 399 487 488 489 403
          490 491 370 492 359 493
          372 494 363 495 372 494
          363 495 374 496 367 497
          237 370 493 207 238 372
          495 208 238 372 495 208
          239 374 497 209 336 335
          498 499 340 339 500 501
          340 339 500 501 344 343
          502 503 463 334 504 505
          466 338 506 507 466 338
          506 507 469 342 508 509
          510 511 512 513 514 515
          516 517 514 515 516 517
          518 519 520 521 522 523
          524 346 525 526 527 350
          525 526 527 350 528 529
          530 354 531 532 464 505
          533 534 467 507 533 534
          467 507 535 536 470 509
          537 147 177 538 539 148
          178 540 539 148 178 540
          541 149 179 542 523 543
          544 471 526 545 546 475
          526 545 546 475 529 547
          548 479 549 360 550 505
          551 364 552 507 551 364
          552 507 553 368 554 509
          555 313 556 557 558 316
          559 560 558 316 559 560
          561 319 562 563 564 565
          566 492 567 568 569 494
          567 568 569 494 570 571
          572 496 573 574 575 485
          576 577 578 488 576 577
          578 488 579 580 581 491
          582 574 511 510 583 577
          515 514 583 577 515 514
          584 580 519 518 87 117
          348 453 88 118 352 454
          88 118 352 454 89 119
          356 455 504 334 544 543
          506 338 546 545 506 338
          546 545 508 342 548 547
          585 586 587 588 589 590
          591 592 589 590 591 592
          593 594 595 596 574 597
          598 511 577 599 600 515
          577 599 600 515 580 601
          602 519 375 322 321 453
          377 326 325 454 377 326
          325 454 379 330 329 455
          557 556 603 604 560 559
          605 606 560 559 605 606
          563 562 607 608 425 609
          512 610 429 611 516 612
          429 611 516 612 433 613
          520 614 207 493 538 177
          208 495 540 178 208 495
          540 178 209 497 542 179
          615 473 616 426 617 477
          618 430 617 477 618 430
          619 481 620 434 297 414
          621 307 301 418 622 309
          301 418 622 309 305 422
          623 311 492 369 624 564
          494 371 625 567 494 371
          625 567 496 373 626 570
          627 333 336 628 629 337
          340 630 629 337 340 630
          631 341 344 632 360 633
          566 550 364 634 569 552
          364 634 569 552 368 635
          572 554 457 456 636 462
          459 458 637 465 459 458
          637 465 461 460 638 468
          357 360 549 543 361 364
          551 545 361 364 551 545
          365 368 553 547 295 464
          532 296 299 467 534 300
          299 467 534 300 303 470
          536 304 639 314 313 555
          640 317 316 558 640 317
          316 558 641 320 319 561
          471 474 524 523 475 478
          527 526 475 478 527 526
          479 482 530 529 426 610
          406 615 430 612 408 617
          430 612 408 617 434 614
          410 619 504 543 549 505
          506 545 551 507 506 545
          551 507 508 547 553 509
          566 565 642 550 569 568
          643 552 569 568 643 552
          572 571 644 554 610 512
          511 598 612 516 515 600
          612 516 515 600 614 520
          519 602 621 414 645 587
          622 418 646 591 622 418
          646 591 623 422 647 595
          405 474 615 406 407 478
          617 408 407 478 617 408
          409 482 619 410 381 384
          636 456 385 388 637 458
          385 388 637 458 389 392
          638 460 648 499 498 636
          649 501 500 637 649 501
          500 637 650 503 502 638
          616 651 423 426 618 652
          427 430 618 652 427 430
          620 653 431 434 324 597
          573 484 328 599 576 487
          328 599 576 487 332 601
          579 490 642 412 411 531
          643 416 415 533 643 416
          415 533 644 420 419 535
          538 358 447 537 540 362
          449 539 540 362 449 539
          542 366 451 541 524 376
          347 346 527 378 351 350
          527 378 351 350 530 380
          355 354 627 651 616 473
          629 652 618 477 629 652
          618 477 631 653 620 481
          405 322 376 474 407 326
          378 478 407 326 378 478
          409 330 380 482 306 307
          556 313 308 309 559 316
          308 309 559 316 310 311
          562 319 345 117 147 537
          349 118 148 539 349 118
          148 539 353 119 149 541
          414 297 296 411 418 301
          300 415 418 301 300 415
          422 305 304 419 621 586
          603 307 622 590 605 309
          622 590 605 309 623 594
          607 311 544 334 333 472
          546 338 337 476 546 338
          337 476 548 342 341 480
          348 347 375 453 352 351
          377 454 352 351 377 454
          356 355 379 455 531 505
          550 642 533 507 552 643
          533 507 552 643 535 509
          554 644 321 324 484 395
          325 328 487 399 325 328
          487 399 329 332 490 403
          598 597 323 406 600 599
          327 408 600 599 327 408
          602 601 331 410 447 448
          522 537 449 450 525 539
          449 450 525 539 451 452
          528 541 513 512 609 654
          517 516 611 655 517 516
          611 655 521 520 613 656
          604 603 586 585 606 605
          590 589 606 605 590 589
          608 607 594 593 463 462
          335 334 466 465 339 338
          466 465 339 338 469 468
          343 342 438 437 314 639
          442 441 317 640 442 441
          317 640 446 445 320 641
          436 383 382 437 440 387
          386 441 440 387 386 441
          444 391 390 445 393 657
          55 54 397 658 57 56
          397 658 57 56 401 659
          59 58 312 314 437 382
          315 317 441 386 315 317
          441 386 318 320 445 390
          346 345 537 522 350 349
          539 525 350 349 539 525
          354 353 541 528 498 335
          462 636 500 339 465 637
          500 339 465 637 502 343
          468 638 369 267 291 624
          371 268 292 625 371 268
          292 625 373 269 293 626
          358 538 493 359 362 540
          495 363 362 540 495 363
          366 542 497 367 394 453
          321 395 398 454 325 399
          398 454 325 399 402 455
          329 403 587 645 660 588
          591 646 661 592 591 646
          661 592 595 647 662 596
          448 543 523 522 450 545
          526 525 450 545 526 525
          452 547 529 528 472 333
          627 473 476 337 629 477
          476 337 629 477 480 341
          631 481 436 435 663 383
          440 439 664 387 440 439
          664 387 444 443 665 391
          411 296 532 531 415 300
          534 533 415 300 534 533
          419 304 536 535 609 425
          424 654 611 429 428 655
          611 429 428 655 613 433
          432 656 492 566 633 359
          494 569 634 363 494 569
          634 363 496 572 635 367
          393 394 54 397 398 56
          397 398 56 401 402 58
          413 414 645 417 418 646
          417 418 646 421 422 647
          628 627 651 630 629 652
          630 629 652 632 631 653
          117 348 345 118 352 349
          118 352 349 119 356 353
          565 642 412 568 643 416
          568 643 416 571 644 420
          457 295 464 459 299 467
          459 299 467 461 303 470
          463 464 505 466 467 507
          466 467 507 469 470 509
          499 336 628 501 340 630
          501 340 630 503 344 632
          384 636 648 388 637 649
          388 637 649 392 638 650
          492 369 370 494 371 372
          494 371 372 496 373 374
          473 474 615 477 478 617
          477 478 617 481 482 619
          381 382 312 385 386 315
          385 386 315 389 390 318
          471 472 544 475 476 546
          475 476 546 479 480 548
          582 574 575 583 577 578
          583 577 578 584 580 581
          312 306 294 315 308 298
          315 308 298 318 310 302
          524 376 474 527 378 478
          527 378 478 530 380 482
          396 393 657 400 397 658
          400 397 658 404 401 659
          483 395 396 486 399 400
          486 399 400 489 403 404
          357 448 543 361 450 545
          361 450 545 365 452 547
          485 573 484 488 576 487
          488 576 487 491 579 490
          621 586 587 622 590 591
          622 590 591 623 594 595
          324 597 323 328 599 327
          328 599 327 332 601 331
          603 307 556 605 309 559
          605 309 559 607 311 562
          610 425 426 612 429 430
          612 429 430 614 433 434
          360 633 359 364 634 363
          364 634 363 368 635 367
          598 610 406 600 612 408
          600 612 408 602 614 410
          574 597 573 577 599 576
          577 599 576 580 601 579
          672 276 273 666 673 277
          274 667 673 277 274 667
          674 278 275 668 675 672
          666 669 676 673 667 670
          676 673 667 670 677 674
          668 671 720 675 669 721
          722 676 670 723 722 676
          670 723 724 677 671 725
          678 279 276 672 679 280
          277 673 679 280 277 673
          680 281 278 674 726 678
          672 675 727 679 673 676
          727 679 673 676 728 680
          674 677 729 726 675 720
          730 727 676 722 730 727
          676 722 731 728 677 724
          681 282 279 678 682 283
          280 679 682 283 280 679
          683 284 281 680 732 681
          678 726 733 682 679 727
          733 682 679 727 734 683
          680 728 684 285 282 681
          685 286 283 682 685 286
          283 682 686 287 284 683
          735 684 681 732 736 685
          682 733 736 685 682 733
          737 686 683 734 687 288
          285 684 688 289 286 685
          688 289 286 685 689 290
          287 686 738 687 684 735
          739 688 685 736 739 688
          685 736 740 689 686 737
          690 291 288 687 691 292
          289 688 691 292 289 688
          692 293 290 689 741 690
          687 738 742 691 688 739
          742 691 688 739 743 692
          689 740 693 694 564 624
          695 696 567 625 695 696
          567 625 697 698 570 626
          699 700 701 702 703 704
          705 706 703 704 705 706
          707 708 709 710 702 701
          412 565 706 705 416 568
          706 705 416 568 710 709
          420 571 413 701 711 645
          417 705 712 646 417 705
          712 646 421 709 713 647
          690 741 744 714 691 742
          745 715 691 742 745 715
          692 743 746 716 714 699
          702 694 715 703 706 696
          715 703 706 696 716 707
          710 698 694 702 565 564
          696 706 568 567 696 706
          568 567 698 710 571 570
          747 717 748 749 750 718
          751 752 750 718 751 752
          753 719 754 755 699 744
          748 700 703 745 751 704
          703 745 751 704 707 746
          754 708 711 701 700 717
          712 705 704 718 712 705
          704 718 713 709 708 719
          714 694 693 690 715 696
          695 691 715 696 695 691
          716 698 697 692 291 690
          693 624 292 691 695 625
          292 691 695 625 293 692
          697 626 711 717 660 645
          712 718 661 646 712 718
          661 646 713 719 662 647
          714 699 744 715 703 745
          715 703 745 716 707 746
          748 700 717 751 704 718
          751 704 718 754 708 719
          413 701 412 417 705 416
          417 705 416 421 709 420
        </DataArray>
        <DataArray type="Int64" Name="offsets" format="ascii" RangeMin="8" RangeMax="3624">
          8 16 24 32 40 48
          56 64 72 80 88 96
          104 112 120 128 136 144
          152 160 168 176 184 192
          200 208 216 224 232 240
          248 256 264 272 280 288
          296 304 312 320 328 336
          344 352 360 368 376 384
          392 400 408 416 424 432
          440 448 456 464 472 480
          488 496 504 512 520 528
          536 544 552 560 568 576
          584 592 600 608 616 624
          632 640 648 656 664 672
          680 688 696 704 712 720
          728 736 744 752 760 768
          776 784 792 800 808 816
          824 832 840 848 856 864
          872 880 888 896 904 912
          920 928 936 944 952 960
          968 976 984 992 1000 1008
          1016 1024 1032 1040 1048 1056
          1064 1072 1080 1088 1096 1104
          1112 1120 1128 1136 1144 1152
          1160 1168 1176 1184 1192 1200
          1208 1216 1224 1232 1240 1248
          1256 1264 1272 1280 1288 1296
          1304 1312 1320 1328 1336 1344
          1352 1360 1368 1376 1384 1392
          1400 1408 1416 1424 1432 1440
          1448 1456 1464 1472 1480 1488
          1496 1504 1512 1520 1528 1536
          1544 1552 1560 1568 1576 1584
          1592 1600 1608 1616 1624 1632
          1640 1648 1656 1664 1672 1680
          1688 1696 1704 1712 1720 1728
          1736 1744 1752 1760 1768 1776
          1784 1792 1800 1808 1816 1824
          1832 1840 1848 1856 1864 1872
          1880 1888 1896 1904 1912 1920
          1928 1936 1944 1952 1960 1968
          1976 1984 1992 2000 2008 2016
          2024 2032 2040 2048 2056 2064
          2072 2080 2088 2096 2104 2112
          2120 2128 2136 2144 2152 2160
          2168 2176 2184 2192 2200 2208
          2216 2224 2232 2240 2248 2256
          2264 2272 2280 2288 2296 2304
          2312 2320 2328 2336 2344 2352
          2360 2368 2376 2384 2392 2400
          2408 2416 2424 2432 2440 2448
          2456 2464 2472 2480 2488 2496
          2504 2512 2520 2528 2536 2544
          2552 2560 2568 2576 2584 2592
          2600 2608 2616 2624 2632 2640
          2648 2656 2664 2672 2680 2688
          2696 2704 2712 2720 2728 2736
          2744 2752 2760 2768 2776 2784
          2792 2800 2808 2816 2824 2832
          2838 2844 2850 2856 2862 2868
          2874 2880 2886 2892 2898 2904
          2910 2916 2922 2928 2934 2940
          2946 2952 2958 2964 2970 2976
          2982 2988 2994 3000 3006 3012
          3018 3024 3030 3036 3042 3048
          3054 3060 3066 3072 3078 3084
          3090 3096 3102 3108 3114 3120
          3126 3132 3138 3144 3150 3156
          3164 3172 3180 3188 3196 3204
          3212 3220 3228 3236 3244 3252
          3260 3268 3276 3284 3292 3300
          3308 3316 3324 3332 3340 3348
          3356 3364 3372 3380 3388 3396
          3404 3412 3420 3428 3436 3444
          3452 3460 3468 3476 3484 3492
          3500 3508 3516 3524 3532 3540
          3548 3556 3564 3572 3580 3588
          3594 3600 3606 3612 3618 3624
        </DataArray>
        <DataArray type="UInt8" Name="types" format="ascii" RangeMin="12" RangeMax="13">
          12 12 12 12 12 12
          12 12 12 12 12 12
          12 12 12 12 12 12
          12 12 12 12 12 12
          12 12 12 12 12 12
          12 12 12 12 12 12
          12 12 12 12 12 12
          12 12 12 12 12 12
          12 12 12 12 12 12
          12 12 12 12 12 12
          12 12 12 12 12 12
          12 12 12 12 12 12
          12 12 12 12 12 12
          12 12 12 12 12 12
          12 12 12 12 12 12
          12 12 12 12 12 12
          12 12 12 12 12 12
          12 12 12 12 12 12
          12 12 12 12 12 12
          12 12 12 12 12 12
          12 12 12 12 12 12
          12 12 12 12 12 12
          12 12 12 12 12 12
          12 12 12 12 12 12
          12 12 12 12 12 12
          12 12 12 12 12 12
          12 12 12 12 12 12
          12 12 12 12 12 12
          12 12 12 12 12 12
          12 12 12 12 12 12
          12 12 12 12 12 12
          12 12 12 12 12 12
          12 12 12 12 12 12
          12 12 12 12 12 12
          12 12 12 12 12 12
          12 12 12 12 12 12
          12 12 12 12 12 12
          12 12 12 12 12 12
          12 12 12 12 12 12
          12 12 12 12 12 12
          12 12 12 12 12 12
          12 12 12 12 12 12
          12 12 12 12 12 12
          12 12 12 12 12 12
          12 12 12 12 12 12
          12 12 12 12 12 12
          12 12 12 12 12 12
          12 12 12 12 12 12
          12 12 12 12 12 12
          12 12 12 12 12 12
          12 12 12 12 12 12
          12 12 12 12 12 12
          12 12 12 12 12 12
          12 12 12 12 12 12
          12 12 12 12 12 12
          12 12 12 12 12 12
          12 12 12 12 12 12
          12 12 12 12 12 12
          12 12 12 12 12 12
          13 13 13 13 13 13
          13 13 13 13 13 13
          13 13 13 13 13 13
          13 13 13 13 13 13
          13 13 13 13 13 13
          13 13 13 13 13 13
          13 13 13 13 13 13
          13 13 13 13 13 13
          13 13 13 13 13 13
          12 12 12 12 12 12
          12 12 12 12 12 12
          12 12 12 12 12 12
          12 12 12 12 12 12
          12 12 12 12 12 12
          12 12 12 12 12 12
          12 12 12 12 12 12
          12 12 12 12 12 12
          12 12 12 12 12 12
          13 13 13 13 13 13
        </DataArray>
      </Cells>
    </Piece>
  </UnstructuredGrid>
</VTKFile>
