<?xml version="1.0"?>
<VTKFile type="UnstructuredGrid" version="0.1" byte_order="LittleEndian" header_type="UInt32" compressor="vtkZLibDataCompressor">
  <UnstructuredGrid>
    <Piece NumberOfPoints="783" NumberOfCells="456">
      <PointData>
        <DataArray type="Int32" Name="libmesh_node_id" format="ascii" RangeMin="1863" RangeMax="4982">
          1863 1864 1865 1887 1888 1889
          1890 1891 1892 1899 1900 1901
          1902 1903 1904 1905 1906 1907
          1908 1909 1910 1911 1912 1913
          1914 1915 1916 1917 1918 1919
          1926 1927 1928 1929 1930 1931
          1932 1933 1934 1935 1936 1937
          1938 1939 1940 1941 1942 1943
          1944 1945 1946 1950 1951 1952
          1953 1954 1955 1956 1957 1958
          1959 1960 1961 1962 1963 1964
          1965 1966 1967 1968 1969 1970
          1971 1972 1973 1977 1978 1979
          1980 1981 1982 1983 1984 1985
          1986 1987 1988 1989 1990 1991
          1992 1993 1994 1995 1996 1997
          1998 1999 2000 2004 2005 2006
          2007 2008 2009 2010 2011 2012
          2013 2014 2015 2016 2017 2018
          2019 2020 2021 2022 2023 2024
          2025 2026 2027 2031 2032 2033
          2034 2035 2036 2037 2038 2039
          2040 2041 2042 2043 2044 2045
          2046 2047 2048 2049 2050 2051
          2052 2053 2054 2058 2059 2060
          2061 2062 2063 2064 2065 2066
          2067 2068 2069 2070 2071 2072
          2073 2074 2075 2076 2077 2078
          2079 2080 2081 2082 2083 2084
          2085 2086 2087 2088 2089 2090
          2091 2092 2093 2094 2095 2096
          2097 2098 2099 2100 2101 2102
          2103 2104 2105 2106 2107 2108
          2109 2110 2111 2118 2119 2120
          2121 2122 2123 2136 2137 2138
          2139 2140 2141 2142 2143 2144
          2145 2146 2147 2154 2155 2156
          2157 2158 2159 2160 2161 2162
          2163 2165 2167 2169 2170 2171
          2172 2173 2174 2175 2176 2177
          2178 2179 2180 2181 2182 2183
          2209 2213 2217 2232 2233 2234
          2235 2236 2237 2238 2239 2240
          2241 2242 2243 2245 2247 2249
          2310 2311 2312 2313 2314 2315
          2364 2365 2366 2367 2368 2369
          2370 2371 2372 2373 2374 2375
          2574 2575 2576 2577 2578 2579
          2586 2587 2588 2589 2590 2591
          2634 2635 2636 2637 2638 2639
          2640 2641 2642 2673 2674 2675
          2676 2677 2678 2679 2680 2681
          2682 2683 2684 2727 2728 2729
          2730 2731 2732 2733 2734 2735
          2826 2827 2828 2829 2830 2831
          2832 2833 2834 2835 2836 2837
          2874 2875 2876 2877 2878 2879
          2901 2902 2903 2904 2905 2906
          2907 2908 2909 2910 2911 2912
          3003 3004 3005 3006 3007 3008
          3009 3010 3011 3012 3013 3014
          3015 3016 3017 3024 3025 3026
          3027 3028 3029 3030 3031 3032
          3033 3034 3035 3037 3038 3041
          3042 3045 3046 3048 3049 3050
          3051 3052 3053 3105 3106 3107
          3108 3109 3110 3168 3169 3170
          3171 3172 3173 3174 3175 3176
          3177 3178 3179 3228 3229 3230
          3231 3232 3233 3234 3235 3236
          3237 3238 3239 3246 3247 3248
          3249 3250 3251 3264 3265 3266
          3267 3268 3269 3375 3376 3377
          3393 3394 3395 3396 3397 3398
          3423 3424 3425 3426 3427 3428
          3429 3430 3431 3432 3433 3434
          3441 3442 3443 3444 3445 3446
          3465 3466 3467 3468 3469 3470
          3471 3472 3473 3474 3475 3476
          3477 3478 3479 3480 3481 3482
          3516 3517 3518 3546 3547 3548
          3549 3550 3551 3552 3553 3554
          3573 3574 3575 3576 3577 3578
          3600 3601 3602 3663 3664 3665
          3666 3667 3668 3705 3706 3707
          3723 3724 3725 3726 3727 3728
          3729 3730 3731 3732 3733 3734
          3789 3790 3791 3810 3811 3812
          3813 3814 3815 3819 3820 3821
          3840 3841 3842 3843 3844 3845
          3864 3865 3866 3891 3892 3893
          3894 3895 3896 3897 3898 3899
          3933 3934 3935 3936 3937 3938
          3945 3946 3947 3948 3949 3950
          3996 3997 3998 3999 4000 4001
          4002 4003 4004 4005 4006 4007
          4038 4039 4040 4071 4072 4073
          4074 4075 4076 4083 4084 4085
          4110 4111 4112 4113 4114 4115
          4131 4132 4133 4134 4135 4136
          4137 4138 4139 4140 4141 4142
          4143 4144 4145 4239 4240 4241
          4242 4243 4244 4245 4246 4247
          4248 4249 4250 4329 4330 4331
          4332 4333 4334 4356 4357 4358
          4359 4360 4361 4362 4363 4364
          4392 4393 4394 4419 4420 4421
          4446 4447 4448 4449 4450 4451
          4467 4468 4469 4479 4480 4481
          4503 4504 4505 4512 4513 4514
          4524 4525 4526 4542 4543 4544
          4548 4549 4550 4563 4564 4565
          4575 4576 4577 4596 4597 4598
          4632 4633 4634 4674 4675 4676
          4686 4687 4688 4755 4756 4757
          4758 4759 4760 4776 4777 4778
          4824 4825 4826 4827 4828 4829
          4839 4840 4841 4959 4960 4961
          4980 4981 4982 3036 3039 3040
          3043 3044 3047 3609 3693 3610
          3613 3695 3614 3617 3697 3618
          4021 4024 4027 4020 4023 4026
          4009 4008 4013 4012 4017 4016
          3671 4188 3675 4189 3679 4190
          2402 2409 2405 2410 2408 2411
          2389 4395 2393 4396 2397 4397
          2400 2403 2406 3939 4287 3941
          4288 3943 4289 3694 3696 3698
          4599 4380 4600 4384 4601 4388
          4830 4831 4832 4022 4025 4028
          4656 4657 4658
        </DataArray>
        <DataArray type="Float64" Name="resid_x" format="ascii" RangeMin="-0.04043593809645074" RangeMax="0.015276439070310843">
          -0.003189091142733247 -0.0061627503585768295 0.003734760721152419 -0.00185800923603896 -0.0053797621883902025 0.0017226719926366485
          -0.00012233764892233268 -0.0015136089042346867 0.0034027325111463114 -0.0021372228316058894 -0.005019115148922282 0.001871080608469633
          -0.00018489976594793234 -0.00026699555792175644 0.005994261532298317 -0.0010490417151909348 -0.0010229563090717875 0.006526442346993289
          -0.0008662310684779406 -0.0013293344899576454 0.006675970802986431 -0.004629960697084545 -0.0017695147070622141 0.005790510399239501
          -0.0002681925267160601 -0.003735849404279179 0.0006584520083370293 -0.0001358403712474754 -0.0010381026402077609 0.0017101783284854122
          -0.00035124988687584846 -0.002551957324623544 0.005409505180294261 0.0004470903279285565 0.0002548564035125267 0.00785618123414178
          -0.001213128777238559 -0.0006094681342299069 0.007853500336812758 -0.001416645911383796 0.00034085091998203865 0.007553492827454988
          -0.003368412183069047 -0.0006030972105479648 0.004639272784014992 -0.004190650847143651 -0.002949863583266321 -0.00006808315385153918
          -0.0035611322433632964 -0.0016065183363336288 -0.0010685505069520929 -0.002398405240825241 -0.0024429678964104085 0.009948402341547258
          0.0005840412519422244 0.00025557190841496435 0.009446611169040331 0.0006691062108030721 0.0017784770228788105 0.010310012497628307
          -0.002465626375604657 -0.0010656853823345358 0.007819368776307734 -0.0034403616759002276 -0.0019024843289310311 0.004917653278709189
          -0.0041999236706598 -0.002487587421649451 0.0009387514194525437 -0.005048219109319518 -0.0033563132615119784 -0.0023290362785512997
          -0.004384569965119933 -0.001528320361158464 -0.004193276073515939 -0.0007382977904164534 -0.0019188607979430117 0.0125391204261458
          0.0008401991703603784 0.002478381773421745 0.01350083547752412 -0.0014956941530348544 0.00048583046831218724 0.010135774946540721
          -0.002758858688201471 -0.0009544837965691499 0.006417586455206958 -0.003944781108819129 -0.002404073128977835 0.002001175119218601
          -0.004614336721028955 -0.002680939817265582 -0.0015079549276357795 -0.005282266600728391 -0.0030756280218540155 -0.004330687766693764
          -0.0039982872601456165 -0.00086390508625378 -0.004763168084610747 0.00008931579963977754 -0.00018754276971932882 0.015276439070310843
          0.0004871264290136068 0.002179731946099217 0.013780697393143804 -0.0033769500465350433 -0.002309179638980474 0.006736760432901612
          -0.0042698614469376395 -0.0027915236491509177 0.001967659971512603 -0.0046664185803235725 -0.002841343154918796 -0.0014892965197379482
          -0.004804036984349835 -0.002303110535826214 -0.0036609103298914647 -0.005308815376480425 -0.0029713455457400784 -0.0058211695997929525
          -0.004080413612082001 -0.0006228987457697066 -0.005841453917159178 -0.001290980384545115 -0.003061943070454376 0.01431204363619365
          -0.0012964771802552733 -0.0013719586777378723 0.008640667966130167 -0.005088965713422766 -0.004822610715196518 0.00035538500343079704
          -0.004922577179438115 -0.003290514346942608 -0.0025416692506841088 -0.0048263139064737 -0.002394394087925633 -0.004007710188366431
          -0.004895022530964965 -0.0018421016575791427 -0.005077928889465788 -0.005372155348193353 -0.00256649090312866 -0.006559113266439098
          -0.0042552028001061615 -0.0004056871469906298 -0.0065280540071741555 -0.0043419828691515505 -0.00919073922225877 0.003253380138681372
          -0.002504484000124929 -0.0031523066400960253 0.0010422592773529082 -0.005001248322403895 -0.0041903551417286355 -0.004754887401842739
          -0.0046069538394339915 -0.0023535576913986667 -0.005037362054301386 -0.004599237170577641 -0.001979690617886387 -0.005062143477490011
          -0.004783556504602604 -0.0018102093271523678 -0.005627911079832071 -0.005370570046381307 -0.002709336497789039 -0.00711853446963806
          -0.00464620663256099 -0.0005768081085788523 -0.007505538397405864 -0.002185518229967709 -0.002351808263039601 -0.0000515519197827885
          -0.0005635616497436935 -0.0018997323614837747 -0.003408240133358831 -0.002212964870440093 -0.004682829836208935 -0.005401531307071661
          -0.006834193558193036 -0.005513795159862944 -0.007194104223403386 -0.002082847996165871 0.00040737225801067145 -0.0007678620439501849
          -0.0008531710367387646 -0.002765229117365209 0.00016786291824415905 -0.0034196586932528916 -0.0018190506326920541 -0.00511608034182176
          -0.005686205741187153 -0.004546681001353914 -0.003064838987576479 -0.004884275516622516 -0.0021260730309760056 -0.004177106658798557
          -0.001070198426021296 -0.006164252709451645 -0.006655394342339083 -0.006603795668465917 -0.006656518458111993 -0.0035211753569472926
          -0.003380160758823525 -0.00616732961844324 -0.005519108658858407 -0.007672644914655358 -0.002842830892271265 -0.00748985316142603
          -0.0021637988841690554 -0.008877340553469448 -0.005007238224463459 -0.006799577065203621 -0.00914158402958698 -0.010690225390591834
          -0.014912978129731691 -0.0040136083167974235 -0.007266101053100993 -0.008912238403248729 -0.008101303507884197 -0.014937372541616867
          -0.014228559469711674 -0.009485442193132965 -0.011399060979904216 -0.006664726021586631 -0.002885313472146045 -0.008682749262506562
          -0.01370948118225046 -0.026231280238467214 -0.014612558047317314 -0.0116714614840574 -0.016840818296957938 -0.002796835554282673
          -0.010221314675322724 -0.007787817381179618 -0.02299964932510523 -0.012399843996586668 -0.019933554982961343 -0.009329181149614119
          -0.010176183987357756 -0.012920932980800437 -0.008839190572555555 -0.01053060601366429 -0.014100035601703809 -0.012149421145204897
          -0.006023375787293617 -0.008111708324562983 0.0037374025995298155 -0.004786052923740236 -0.004562448031807165 -0.0000488801727067667
          0.00045485766580721787 -0.005192481887907885 -0.004137115696921434 -0.0005786204597466593 0.0006810680723186024 -0.011471361649094014
          -0.009374117543202942 -0.005757689864813287 -0.00645520205394412 -0.006194154590446033 -0.009336776193633156 -0.0018507446594124843
          -0.00033491846116051605 -0.008017897423638232 0.0016150985635396964 -0.007649173176983659 -0.009677569567243527 -0.01279136993175456
          -0.00012751987111681018 0.00033666398531639885 -0.0004953205527602478 -0.00013792055352279675 -0.001698309871962067 -0.002164784281302179
          -0.003335065674452853 -0.0023178624235127288 -0.0036434106770606434 -0.002674225722754997 -0.0019390249100843526 -0.0015362788234138947
          -0.0014012150350835029 -0.0048899181619446175 3.015136798012463e-7 -0.00591457048044397 -0.005391894893900684 -0.008585608255224919
          -0.0019335939928559753 -0.0033125410113079568 -0.00130281918626185 -0.0025914073741128973 -0.0005443877500361793 -0.004054500378543047
          -0.0025412392317565313 -0.002359962687344286 -0.005983688269467713 -0.002999676356325587 -0.0011067186835465037 -0.009011153363905677
          -0.008804480353124866 -0.01359213543109572 -0.010430575506843454 0.00018987090605548929 0.000648346285801793 -0.000012589696048781462
          0.0017739991207816885 -0.002625964244115764 -0.005627461845150172 -0.004449488989713313 -0.0051042096162889905 -0.013472827224930484
          -0.01566976790543606 -0.018198391856620866 -0.018585621626793447 -0.002936538715607284 -0.0002762771049216184 -0.0006304737751490208
          -0.0031220991426254008 -0.0012604859310942906 -0.00534864086076503 -0.003566866864445739 -0.005146501225105737 -0.007506606464788845
          -0.002946848306049077 -0.007843360755154904 -0.003788129278291863 0.0012132495220282813 -0.005950809698322956 -0.018781783162106436
          -0.009798219095840444 -0.00018091746077741888 -0.010522239399199051 -0.015091162438528816 -0.01594209997048468 -0.008667618298208168
          -0.005244168527235082 -0.0022187994631091 -0.0046354695544792435 -0.00048246006559526933 -0.005441026338864674 -0.004076648861013332
          -0.00038011559403905437 -0.002310636597938398 -0.0023391855227163916 0.0007530705223643963 -0.0030183539216253052 -0.0018702721267587208
          -0.010266990010420862 -0.006231234861167501 -0.013200757868256474 -0.012158922543326511 -0.021184484816801685 -0.016735632111778642
          -0.0033480415234050653 -0.00502585973552927 -0.0005804492572556441 -0.001524068742776219 -0.0043110834142447985 -0.0016791182081670186
          -0.008568104078773509 -0.005386664174439559 -0.0030338604579860373 -0.010128065822098797 -0.007644404990181819 -0.006785894367678402
          -0.0037156008334386925 -0.014070683237283 -0.013055022613561285 0.00007665508528820197 -0.0005902384560592111 -0.0005304441318063624
          0.0014968218185078541 -0.0022730354462492386 -0.0022581681256585995 -0.005402488583346354 -0.003065718568858955 -0.012190781717487553
          -0.013918290024814262 -0.012377460971595866 -0.013606262248130996 -0.007371374026080346 -0.005426614753631265 -0.01571058277827353
          -0.01279888627952186 -0.014516820513502449 -0.013812615008790718 -0.0005144717021128287 -0.0013315530368929185 -0.0012653074317636737
          -0.004556110001800118 -0.010928011789874681 -0.010315732372054853 -0.004717217046263378 -0.0041792587977314 -0.0030248563755227442
          -0.0029912004492009814 -0.005390951935394739 -0.006641624700096216 0.00019488389551547414 0.0007269903614544049 0.0011654156412213013
          0.0013362784959785046 -0.0021577847097660197 -0.005555608492038289 -0.0014762612130203578 -0.003137964145552896 -0.01072042701307474
          -0.012781364491911695 -0.010108595723052005 -0.013702438297065633 -0.012798063174181529 -0.009235612387466396 -0.014125843077815503
          -0.004970150564651554 -0.004796039884245928 0.0006783498055389359 -0.0033721778372095557 -0.004929330855798497 -0.005231301019746226
          -0.006479675761941195 0.0003491026931854435 -0.00013599200907954412 -0.007508337697215595 -0.007783266842583458 -0.00547073707279111
          -0.005417788877150276 -0.009840632046081765 -0.00989687229189995 -0.01197575978494303 -0.00834287939027778 -0.018167432319792454
          -0.008671150230208369 -0.019438523812590702 -0.010912373282446985 -0.007814456340990539 -0.003616539336590563 -0.010293632356559002
          -0.01244397094333305 -0.007725693978244408 -0.005873212462761401 -0.001703571885092181 -0.008896848635173704 -0.007900703148534305
          -0.005136225349655632 -0.0004363666920230713 0.0006524642211473974 -0.0011444841849170828 -0.005521760372096729 -0.0026184581064185863
          -0.0045054224571616786 -0.003695552905989885 -0.014705597041507978 -0.013114961742538789 -0.01465925316225114 -0.013704019207524176
          -0.0016332554214821826 -0.0026070373619302423 -0.003052372223140587 -0.002475065210102656 -0.010116321933682393 -0.008375925626547875
          -0.01679433696305299 -0.01562481401169924 -0.015035285109924246 -0.025373019126359253 -0.00888871818068493 -0.02458937137825945
          -0.017902491932418663 -0.014128762216808699 -0.017487915066125126 -0.0045965313209870295 -0.007671246232082041 -0.00190288657630866
          -0.006102464450169265 -0.0028917274967339424 -0.0012345802286581886 -0.009478341295617199 -0.007169461267312549 -0.0037387540854316725
          -0.006607394174938275 -0.002371011124972955 -0.009313586913388794 -0.004547540453704091 -0.0032420479205441666 -0.003386027203548192
          -0.0030483293577701076 -0.0036083692803412504 -0.0023016078892625913 -0.0011564530248433513 -0.002333414496537678 -0.003342966838861372
          -0.0049390574618146665 -0.006232740239211054 0.00004087203201397216 0.0004054850131502974 -0.0075756161830184965 -0.008045936409719623
          -0.011271872222609503 -0.00487492972044512 -0.020621831558239823 -0.0034340864547841576 -0.0009220222556391988 -0.006799747282190793
          -0.00026393670716973183 -0.00030259821134759335 0.0011207937571822146 -0.006495769591838396 -0.010100159910685136 0.00024729141271606636
          -0.00938966780511663 -0.009780815520867403 -0.004267480668727508 -0.0034285244806766535 -0.02131489828698907 -0.022245872726912808
          -0.008378279453390647 -0.005905645605732257 -0.01704838512675977 -0.014697093210858103 -0.009536204374094304 -0.009383206450534143
          -0.017549628739457646 -0.02672689584042054 -0.019289570018191426 -0.001054221900543162 -0.007138627937722575 0.0009975967924802376
          -0.007072125704058685 -0.007714303220288876 -0.012696673057923213 -0.006198197685273854 -0.001792448025432769 -0.005269135960738858
          -0.0025275365449122233 -0.003465220603807939 -0.001880526572371366 -0.0024635206464023174 0.00008852141830217874 -0.0015395811384056879
          -0.01228226680703326 -0.021341557522252863 -0.01806934175521402 -0.015922619052004983 -0.016566589897983874 -0.0212868558337167
          -0.0285373944256877 -0.019328746801506647 -0.04043593809645074 -0.018681007349102607 -0.016048235235775365 -0.022341110678416598
          -0.009354133807552678 -0.0064043067993460046 -0.004096813977207958 -0.002100865511234007 -0.008180808785423821 -0.00799960060622551
          -0.01955766097447942 -0.018865766103024262 -0.010226864904030908 -0.013420888659775532 -0.014478157422360027 -0.014542480791852164
          -0.0035291848261342906 -0.005840278694614565 -0.0011531865653244822 -0.007068442837990574 -0.01469527618067712 -0.012342403007696845
          -0.005037694334485199 -0.007405425680969913 -0.0010775154960445121 -0.008150217986467645 -0.009168687965177114 -0.00884859835902585
          -0.012363763243005366 -0.013782564113983486 -0.014441003957784249 -0.012748493850450515 -0.0067465195175167025 -0.014356273445603307
          -0.014431746569182557 -0.019304117892049 -0.014828539897742132 -0.010822764368594306 -0.007620525286872848 -0.007264971782828589
          -0.00999394173361079 0.0019239295877007123 -0.007375795784354544 -0.0019908939885064925 0.00018574803966231457 0.0012442703913393416
          -0.017050130636314442 -0.018195263188880872 -0.010126181355167851 -0.01403651195455069 -0.013618713257339543 -0.016079890409030462
          -0.009382845960999253 -0.008017827779418063 -0.006373773281672157 -0.005207875819439156 -0.00884718286787245 -0.01375037308343785
          -0.008040273902654604 -0.0026726941700729867 -0.019544734272440856 -0.012458657217751856 -0.002772152295934305 -0.00647804835847321
          -0.006389969544571383 -0.005247002804467549 -0.008108700787149203 -0.002742377986387823 -0.006298797279807644 -0.0017866074386576614
          -0.0037017418772212762 -0.00691954503273795 -0.005618620652278139 -0.02173439795548937 -0.02297945166001858 -0.029236716572230037
          -0.03208809910143273 -0.022140129032836242 -0.025109839733609363 -0.004528834226833034 -0.0004213203513074859 -0.001088227465469771
          -0.02097665947629057 -0.02889938172465012 -0.019108965410278955 -0.01601014931834488 -0.021750807875222655 -0.0205874162489339
          -0.012093810998282883 -0.003901555067860496 -0.008007705650929786 -0.007204495781206521 -0.008729426745831326 -0.00209378784283043
          -0.010026819410965171 -0.0059482050896928484 -0.010203326044524452 -0.014610548090951525 -0.006170372304628913 -0.011909982852028378
          -0.0031175634417928144 -0.0017301312065649554 0.006828645584624482 -0.003583201621804477 -0.00178839550208032 0.003297421073326312
          -0.0058598511411736 -0.005673173516751895 -0.0037046488849190595 -0.0047382579354238175 -0.003159196950251797 -0.00043414670226171737
          -0.007349715999998452 -0.009632688833906222 -0.007545045816817364 -0.0065075942528594055 -0.004043982473322938 -0.002750913420106027
          -0.008578381211700403 -0.00264161634324811 -0.00928504379668027 -0.014861182221346247 -0.008704818423015404 -0.012291069846059877
          -0.00847302343382772 -0.002314122947967512 -0.009522914704032992 -0.012784923014871552 -0.0017089330595894126 -0.008691415373401234
          -0.014989315702419681 -0.002942622149732621 -0.009442753805592119 -0.01309492227095621 -0.008956475969573496 -0.011733153178303812
          -0.017452688553377005 -0.0037822764152268817 -0.01184618429467088 -0.00595702483605276 -0.005642295719034074 -0.000916028860406648
          -0.0008681935697101295 -0.0007249852942763368 -0.0018086151369240966 -0.006618503429970168 -0.002103861427467102 -0.00015322016036733999
          -0.012008366959167738 -0.014697969814964296 -0.004238596536163541 -0.018472848188524793 -0.00783568028447501 -0.012033039420858316
          -0.01335153101212816 -0.004144466360925136 -0.004606205324927615 -0.020256404940467654 -0.029591943685709943 -0.019039259278692988
          -0.01727565422583144 -0.00817025181592701 -0.01235115277916865 -0.011226132275231393 -0.00980466504429156 -0.014200022921752264
          -0.013398704570827036 -0.00967369921688288 -0.009898999524749819 -0.007715203367592238 -0.01646129448828182 -0.0006377272320854388
          -0.01592835191908648 -0.023149981806658282 -0.004425458769007129 -0.025284646204255523 -0.017068204227244532 -0.010361024995377388
          -0.012315437657367312 -0.020587973605259435 -0.013445236918715686 -0.016898118856778943 -0.02011032644233879 -0.016355920063577223
          -0.007467285430532655 -0.01809625261271819 -0.01646437668908618 -0.03761799537839394 -0.013602764958900337 -0.021555933208830425
          -0.0034728964534114226 -0.013295448190313586 -0.012006424015838846 -0.014667959893623461 -0.019328000486400043 -0.01449021671571682
          -0.022984973133789666 -0.02277014095511376 -0.035240690437195354 -0.02840278434747745 -0.0255937409300806 -0.02063972046013962
          -0.003085754282911246 -0.02098949537187167 -0.011725266571202653 -0.028030192024402822 -0.020445755267068044 -0.022602888517290864
          -0.02258884594638566 -0.03248429464884239 -0.025741061981388924 -0.0031527395330113173 -0.0028337318650235588 -0.004467474701003837
          -0.003378543515768939 0.0012015382272849706 -0.0010222293125039528 -0.011660016558570518 -0.015283766130870902 -0.017780167144771042
          -0.007889550521744226 -0.002695209232820517 -0.01376323226362608 -0.006278267523548209 -0.009004791139288315 -0.006627034629874906
          -0.008916184552184347 -0.010400031743492022 -0.00969177152625278 -0.014053528762147494 -0.018612746873277075 -0.013984655657900191
          -0.005044867035178591 -0.00654049896874298 -0.008195337437597594
        </DataArray>
        <DataArray type="Float64" Name="resid_y" format="ascii" RangeMin="-0.005524364509779514" RangeMax="0.024596575733840442">
          0.002065638105491985 0.0017199264964000704 0.0009420611685177216 -0.00041640312756907605 0.00004087814463260564 0.0016905571268944763
          -0.0007210914825673265 -0.0000655695505786813 0.0015454360965296843 -0.0008976471560802057 -0.0015305316933937885 -0.00003461154755540763
          0.00019032618862102613 0.0012694879318526642 0.001232857661225495 0.0017325075176608529 0.003987304577088402 0.002395899041554128
          0.0018408638109745912 0.004098115474332253 0.0025084432486293107 0.0012093107822930271 0.0018834308579565029 0.0017972267185764057
          -0.0009959959599353807 -0.0015868793183344554 0.0009708415945535176 -0.0002578460806831606 -0.00016257834236121926 0.0017477673346991268
          -0.0004323605166432487 -0.001107346045598423 -0.00041029430957530144 -0.00023935824826504248 -0.00048317821212995327 0.00021182925088503168
          0.0004532921373943122 0.0007840610298123218 0.001062464715665623 0.00029648460545528277 0.0003582745089494299 0.0009831818128345216
          0.0007921055499415797 0.00002304351661486237 0.000608590271417464 0.001987958098633835 0.0013333497658769566 0.0018447899272549528
          0.00040271060452071183 -0.0006324780870666513 0.0015258252191306665 0.00044107862775388806 0.00008633804791524646 0.00012252145730073938
          0.0014723885473776899 0.0015701541314889766 0.0006803327363361089 0.0013914142156208342 0.0018607269045332053 0.0016578819180312898
          0.0016669950644871978 0.0017939143901405386 0.0019601568163852834 0.0014904134525937085 0.0009196298115551338 0.0017444083271511701
          0.0012116211378153108 -0.0001260282132998225 0.001411797875822185 0.001593660248767087 0.00037165144169368225 0.0019882889562942846
          0.0011001252176989704 0.00006519440172803037 0.0025353825799244536 0.0015896624530121195 0.002458082639663628 0.0016105620773198825
          0.002232223662688604 0.0032153351619563786 0.0024045234121579107 0.0013340535479744453 0.0012488373064460934 0.001639569278764741
          0.0008703258843204553 -0.0003808607377216999 0.0008875245128501241 0.0011711631297453562 -0.0004690333599718932 0.0011633102113179916
          0.0014932729160789249 -0.0002061861034700352 0.0017452370025214103 0.002009452731644268 0.0005332672336395214 0.0024503793995737863
          0.0016045825141147163 0.0003542673260064355 0.002380479740563421 0.003933894704492791 0.006296504613023668 0.0038227277045713715
          0.00198007525402355 0.0028833729355576265 0.0023319558225392 0.0006454991142983424 -0.0007769523383543975 0.0005213246537580929
          0.0007559014554200938 -0.0011072485075673266 0.0006819398506707208 0.0014172805287186452 -0.00031836517351380156 0.0016120739810261964
          0.0018888028894928494 0.00017946027780647855 0.0022682478649658465 0.0024423315396192363 0.0011216660810514367 0.003035679533473473
          0.0017829766698387595 0.000961432132219317 0.0029898782056017176 0.003951014250648477 0.005414382906480775 0.002857340472367742
          0.0005478614433874762 -0.0008190484145722543 -0.000048132991667282354 0.00009039762123957962 -0.002381236311572388 -0.00020433246452367104
          0.0011591672320451496 -0.0007077506614015794 0.001290190864613433 0.0017976131314869775 0.00009916247231349373 0.0021707188145697227
          0.002181796503071747 0.0003493003487797658 0.002577342203747314 0.002677658392293801 0.0011336195491333245 0.0032002396027238506
          0.0019919426715767075 0.0008834681192817079 0.003162997632513709 -0.00025006682624684196 -0.0038699173672922527 -0.0037969129738872898
          -0.0000216741753448213 -0.00236187224314488 -0.0008239456623896357 0.0006270883344979827 -0.0013476851134352485 0.001307348988374174
          0.0019599255009161848 0.0004428019469710498 0.0020929957784351985 0.002148986837585548 0.0004038418379995051 0.002284550423366727
          0.002396653625032781 0.0004606963275867876 0.0025991288022490233 0.002821010407658378 0.0011367576381007966 0.0033980226480385817
          0.0023828556985671656 0.0011398491776846847 0.003804139301638948 0.001335837999908867 0.0012183493174283966 -0.0003574102588334155
          0.00039052080623392174 0.0007387487441024056 0.002173159426401415 0.0001029532702980264 0.0010365405631441813 0.002772523513269516
          0.004387186581775712 0.0017522780704330373 0.0014817762432024085 0.000793325144711643 0.00033901398677195146 0.00044525788350480155
          0.0015962473653969855 0.0008123453494888466 -0.003499716765393508 0.000931069347958946 0.0017047956164989442 0.002789007853296832
          -0.004807147721124033 0.001588969090206005 0.002672800574602091 0.002799462471601691 -0.00005112920356456496 0.0033671273657261474
          -0.0007604214010134003 0.0037180861403507542 0.0011903352055687988 0.002728937118649563 0.0034845161812484676 0.0009640253213367977
          0.0035536042837747556 0.001557082723178893 0.00415656818483115 0.004482489455030519 -0.00025146736281270177 0.0061792403020987235
          -0.00039281618782287253 0.0065733501773131975 0.0011887595783488941 0.00003974154790076234 0.0001444397095750529 -0.0012553698831547777
          -0.000352131210352059 0.00022894623309954731 0.00020951047842203419 0.003784649897829659 0.003435626393188611 0.004557362976298079
          0.003636795069777682 0.0029338756492940446 0.0028100385820588047 0.004163235948447391 0.004005156144130606 0.005393485940329706
          0.0005406420028454817 -0.0023072835399364777 -0.0012969352067825346 0.0021396225551619102 0.0027521446290094953 0.004846772722699663
          0.003015203892775209 0.0015753383710457591 0.005080557956324533 0.0009453468076737193 0.005902635718377736 0.001358099755869202
          0.003327893128570486 0.0023422388297856117 0.0012911336882063251 0.0021457673428253443 0.0008486820245201671 0.002474859038803276
          -0.00012976379145934747 0.0012054152175789423 0.0035210919947052943 0.0014212790581558665 0.0011573311206371784 0.00004076010615790965
          -0.00017279189476222118 0.00233957770392873 0.001887425925971964 0.001303546078437967 0.0009526234082951196 0.004465056413065452
          0.003414289463350914 0.003118668967785475 0.0041521370078888425 0.00035478063112850955 0.0005989494635985637 0.0021364241320289967
          0.0010984563608195386 0.005312976547981796 0.0010840235566948464 0.00394514724534463 0.005405268729900506 0.004892553312069212
          0.0002919510344040338 0.0002029199131431958 -0.0002524709296246874 -0.0006135065754352687 0.0008120983871612447 0.0014562843529328379
          0.00023841723973413997 0.0006349597003029173 0.003349554003230032 0.002205973545496759 0.002460733070900417 0.00381749767472786
          0.002695441938597609 0.0011520251096667003 0.0009277253634155658 0.0007125633405895698 0.002304624516902165 0.002421451124552696
          0.0038295021120620942 0.0027425001589126904 0.0030921144735030076 0.0013245537781750236 0.004093738533601232 0.0033811294098666927
          0.00039607535978831987 -0.0022205626546629997 0.0022713026642705997 0.001283821302907981 -0.0002410940858768723 0.0025631157331083565
          0.004758726441425221 0.0065674960534062715 0.003226749115433955 0.0001493559377007403 0.00002017690836698255 -0.00105464765307281
          -0.0005961335862617878 0.0017577217162857983 0.0027675791616891474 0.00015669580883904966 0.0048983773561854654 0.007810358939367504
          0.008277293886579926 0.01004145113630081 0.011562437703266634 0.0008530925645630072 -0.00019730543384804955 0.000867660086014306
          0.0017218762404863641 0.0002996327621836298 0.0016508530646981365 0.0024911208102735977 0.0030024205543655175 0.004151006225227405
          0.004033200666613217 0.004959255123110046 0.005323522132341579 0.00021527200441284755 0.008492632297801584 0.011045237417660309
          0.010724267732750037 -0.0002669610817715995 0.0075613830810305205 0.007791713204588942 0.009214899989893277 0.0020723608169029017
          0.0012867452964606951 0.0008725883811306948 0.0017196687895837948 -0.0008724335065014369 0.0023327675529294933 0.0009544936603639708
          0.00029973301683701437 0.0030987172247239625 0.00754442559153402 -0.00024102585089920067 0.0013025268103405915 0.004262797738792595
          0.010138279048089227 -0.0008988971391439386 0.0061383675143780805 0.008357447761419987 0.012760486093740496 0.0057685609290902586
          0.002282922996802085 0.00118371984700949 0.000642685391459414 0.0005442458072099574 0.00007927995959897127 -0.00018211151771510906
          0.0037026464997914482 0.0016327398771509988 0.0006810180695033669 0.003343424460278098 0.0006965216011532022 0.0025058966499876822
          0.001942177964152178 0.007627261627923536 0.008503569394359561 0.00008064971035744335 0.003554293922885275 -0.000036414773661279376
          -0.001135585253909559 0.0009582460375991073 0.004388223267514764 0.0030340600250733027 0.0000477854636569304 0.00581537890149114
          0.009862392296050876 0.00818150554174546 0.007098603122448642 0.0004187892467331193 -0.0008465090046345589 0.002524807517942717
          0.0016171558906055497 0.006123735604539854 0.005677557385736567 0.0016224649592405244 0.0028597152018289274 -0.0002713539691487771
          -0.00006620827137787666 0.004276364972363299 0.0029978505992840423 0.002548900179918656 0.0013448262752851076 0.002940632909905344
          0.0011700429770217305 0.0036342142840792013 0.0035188750693015414 0.00003710909572657295 -0.00025979505578474504 -0.0007325721345448483
          -0.0005647942152954902 0.0009059896370353857 0.0007110970060858202 0.0012191143601436166 0.003046544646533679 0.005291657423556778
          0.005305573246419143 0.006610403070215987 0.007883453643851693 0.008846578850317824 0.007164547787606175 0.00961052919648276
          0.0007333219006979697 0.0005433627182820921 0.0026554201426420843 -0.0005222325474530942 -0.0005863816913165842 -0.0033705565270832905
          -0.002683648064526478 -0.0003947510841978974 -0.00017482471934643362 0.0020700852326387548 0.0021707941347150622 0.0015699027224850143
          0.0029066940181995543 0.003317044043108966 0.0051113709403811936 0.004259967589606076 0.004179147122723367 0.002742700926546729
          0.002974817967662899 0.00476523622606774 0.004135534127231805 0.00517151478510669 0.0019846415151274915 0.004065757274085924
          0.004452635528248296 0.003957999686325514 0.002206070360366179 0.001514003117774429 0.004298120378524388 0.003718306323898135
          0.006314157979253776 0.0003168352095420657 -0.00011781502927864229 0.001460499163490503 0.004949985670790941 0.000016207759479247574
          0.0004612936333044104 0.00252532077523631 0.008043300086425939 0.004755756115118283 0.005477333503006526 0.007748454089605894
          0.005279490645034794 0.0029337928143735627 0.004190741113184453 0.0023487974294397716 0.006116042341410166 0.004388414961825349
          0.002789434310858069 0.0008867998244358744 0.007992551092641131 0.002060639884758783 -0.0008682261194358221 0.00606999722001729
          0.0025784413959794583 0.003497038884807263 0.004944852383971118 0.0054880107751960824 0.00293402610604495 0.001240104523739738
          0.003259114936296298 0.000809268307269212 0.0005067582825139527 0.004623424247430598 0.0034275899745068103 0.0019738157816907714
          0.002523195280119947 0.0006175027689438173 0.005106574898114211 0.003945692647395076 0.0029424526757699417 0.003596288324831373
          0.002784832773675139 0.0008593709565629798 0.002656627049084745 0.00009111336187528352 0.0031037420644914604 0.0018938312285596837
          0.004360802267928662 0.0032298173663328766 0.0030708402316080297 0.000039683100459722565 0.004615631284224236 0.0026065321463997065
          0.004898264144174332 0.0007168833769930008 0.01283651418588958 -0.0006235458673048144 0.0008959513038774292 -0.001740428115338033
          -0.00023182197784457625 -0.000394990688998037 0.0005868531904757446 0.003609906350327957 0.004246904886397257 0.002962129640357497
          0.005646730271227557 0.004571340168001953 -0.002709395021020182 0.0040566130415292945 0.012816219189908523 0.010135699088825972
          -0.005524364509779514 0.009094260777604002 0.008573658764576442 0.006433970164130581 -0.0007550681560290345 0.008821546838567146
          0.005893954648112987 0.002468427355322031 0.003988432486141696 0.0022520042656763023 0.006558181700215826 0.0015232872033214828
          0.003997271664666263 0.005906444856555282 0.005927434902863543 0.005436485648853018 0.0018081001798986307 0.00244648573675324
          0.0014808717227348112 0.0022673248085545716 0.000040080698620353905 0.00003927127587594059 0.0010411912188440509 0.001729692558611301
          0.004014348139351309 0.008056842535530462 0.006919357927801489 0.004291505386283673 0.0028380334383718564 0.0017034632250525015
          0.0023982752552227284 -0.0002068716605832452 0.0034344616370956572 0.0037213097024468324 0.003941220674205569 0.00331004719610699
          0.006201973817442193 0.0030235388530005097 0.003658354139827992 0.00044571627807066944 0.003998968033040524 0.003386863074786299
          0.00850435706083949 0.008589882548658286 0.004042393428062341 0.0027297213930191216 0.007927344057416214 0.006908356806104021
          0.0018087222397071279 0.0015146950413237846 0.00041577262034232787 0.0023498231845769067 0.008514067386617946 0.006988437598039689
          0.007279233421365591 0.005888610247112236 0.003489882226783314 0.002964596323840274 0.005567584479217319 0.002968082651042439
          0.012110606449327127 0.01663705019399409 0.011777019238501607 0.010524565747562503 0.005387872437367946 0.008679015281917687
          0.014557061360751043 0.022099466037337354 0.012602101369915023 0.005745602839079614 0.00501959270449787 0.0049931539254792
          0.005200640121153352 0.0005945931018469484 0.005975131549572851 0.002122616584189621 0.0004998208244204605 0.0019999898589997123
          0.002093990084904171 0.009558664500516914 -0.0011325282844438858 0.00822507181918064 0.003857726212340075 0.009570697206480627
          0.006972767733740497 0.002417908656798834 0.01019998212656885 -0.00005316690437168203 0.006905846031614787 0.0038319075608315156
          0.0054925044355532 0.0001720848699268262 0.008273323075176212 0.007166394273255095 0.0025808107334443224 0.005592116215244736
          0.0022200965134192008 0.000053138635434171744 0.003916086595885812 0.0003468272630282043 0.00015042019148661656 0.002407827768234859
          0.0029349856773557004 0.0025029961604400436 0.0037817223720401916 0.008267935032398754 0.006068683414951981 0.011138261649813241
          0.007909816184272972 0.008922408652280084 0.00808654873143587 0.001938217259619568 -0.000505817279624704 0.0014631666911667784
          0.005905232968320642 0.0024061204316800575 0.003022085958125559 0.010253425580706396 0.012661481089411952 0.010843338053124457
          0.005459063472510461 0.0006483622423574531 0.00272247889769546 0.004160688187430789 0.004298774261733154 0.0033839147305834566
          0.004837520653092592 0.0027387498878046618 0.004652137593072439 0.006826121535886881 0.0004359404640182085 0.006064243657930665
          0.002094478846501213 0.0017058416821672528 0.00127724502150528 0.0019459625745090747 0.0015806767903329133 0.001976811311102944
          0.004661121881466557 0.005082412007420267 0.003089141648123739 0.0018878909609102434 0.001468743306818343 0.0021856077783716787
          0.005697866776895794 0.007060956861322298 0.00440672471872447 0.0018188393197105523 0.001154687508943375 0.0023190111056639595
          0.005926097757331855 0.0022938761650608125 0.004350080625402625 0.008794990708495667 0.005129693743599395 0.006409816776689531
          0.004139733042116289 0.0009599641550008947 0.0047011638930419125 0.006382933596400436 0.003589312877948267 0.006601259460406711
          0.008586377043210205 0.0030510267882668946 0.00592234574926323 0.01067987006265142 0.007937910753835875 0.007573569347428456
          0.011582831635604557 0.003679015132074942 0.0070004387828377646 0.0015586242200024553 0.0026226995708979323 -0.00019679669427483115
          0.0004004100232689392 0.0010448419419288868 0.0013539082519534174 0.0038887750624701928 0.0021450795613676826 0.0021595045875352215
          0.004869052230673493 0.0025842062957250195 0.0003070154152981647 0.0008254548866137579 0.0021696715756627932 0.0012212151722974796
          0.007877601091803112 0.003922090149924069 0.004724231307598047 0.007508753164726611 0.005101890143813549 0.00446471728938095
          0.006527172464075769 0.004257117253495125 0.007190649145119521 0.0075288497607978455 0.002822143903420643 0.0024445701442016438
          0.0010209629737175513 0.0032453073559414666 0.0035374475031028016 0.007321768537210421 0.010529384811636261 0.0034908492467511376
          0.015422991679995779 0.015599989651836177 0.00825940207043771 0.013102471127904386 0.008628978715300134 0.0069442370667436165
          0.008980638435603622 0.01816245416662557 0.011236434509941648 0.010493688178635163 0.01585996040396101 0.01186619737284103
          0.0008364474484784806 -0.0009223119300928364 0.0014059942479400234 -0.00018586462461552683 0.0037561247414766435 0.0028836661184649635
          0.000012331936693987106 0.0034047991146125937 0.0023792361703529295 -0.002664010351690449 0.00882574940716687 0.003319034186822882
          0.013111599049782902 0.012867150509286829 0.024596575733840442 0.01571635346530098 0.015169891804541952 0.009012327330856829
          0.0041074999110427834 0.012765689442069267 0.008848030650692201 0.011912296743093187 0.008544312550940611 0.008085708889988164
          0.012703010775738266 0.01593329755878381 0.010458403153442986 0.0048984806502856415 0.005377131163689208 0.00714111898178138
          0.008165223938754407 0.0035557746032574 0.005550414331774833 0.008108320868607022 0.013930147972122026 0.010320274072522291
          0.00815568643191611 0.0011782043697226297 0.011605913191351735 0.003328486392052965 0.006290752474360367 0.004281540758951152
          0.0062662117665631956 0.008409639975315103 0.005318739745155503 -0.001061578577550168 -0.0028557544230260745 0.0013244886166930425
          0.005275810889637134 0.006078641974838428 0.0049229810028921656
        </DataArray>
        <DataArray type="Float64" Name="resid_z" format="ascii" RangeMin="0" RangeMax="0">
          0 0 0 0 0 0
          0 0 0 0 0 0
          0 0 0 0 0 0
          0 0 0 0 0 0
          0 0 0 0 0 0
          0 0 0 0 0 0
          0 0 0 0 0 0
          0 0 0 0 0 0
          0 0 0 0 0 0
          0 0 0 0 0 0
          0 0 0 0 0 0
          0 0 0 0 0 0
          0 0 0 0 0 0
          0 0 0 0 0 0
          0 0 0 0 0 0
          0 0 0 0 0 0
          0 0 0 0 0 0
          0 0 0 0 0 0
          0 0 0 0 0 0
          0 0 0 0 0 0
          0 0 0 0 0 0
          0 0 0 0 0 0
          0 0 0 0 0 0
          0 0 0 0 0 0
          0 0 0 0 0 0
          0 0 0 0 0 0
          0 0 0 0 0 0
          0 0 0 0 0 0
          0 0 0 0 0 0
          0 0 0 0 0 0
          0 0 0 0 0 0
          0 0 0 0 0 0
          0 0 0 0 0 0
          0 0 0 0 0 0
          0 0 0 0 0 0
          0 0 0 0 0 0
          0 0 0 0 0 0
          0 0 0 0 0 0
          0 0 0 0 0 0
          0 0 0 0 0 0
          0 0 0 0 0 0
          0 0 0 0 0 0
          0 0 0 0 0 0
          0 0 0 0 0 0
          0 0 0 0 0 0
          0 0 0 0 0 0
          0 0 0 0 0 0
          0 0 0 0 0 0
          0 0 0 0 0 0
          0 0 0 0 0 0
          0 0 0 0 0 0
          0 0 0 0 0 0
          0 0 0 0 0 0
          0 0 0 0 0 0
          0 0 0 0 0 0
          0 0 0 0 0 0
          0 0 0 0 0 0
          0 0 0 0 0 0
          0 0 0 0 0 0
          0 0 0 0 0 0
          0 0 0 0 0 0
          0 0 0 0 0 0
          0 0 0 0 0 0
          0 0 0 0 0 0
          0 0 0 0 0 0
          0 0 0 0 0 0
          0 0 0 0 0 0
          0 0 0 0 0 0
          0 0 0 0 0 0
          0 0 0 0 0 0
          0 0 0 0 0 0
          0 0 0 0 0 0
          0 0 0 0 0 0
          0 0 0 0 0 0
          0 0 0 0 0 0
          0 0 0 0 0 0
          0 0 0 0 0 0
          0 0 0 0 0 0
          0 0 0 0 0 0
          0 0 0 0 0 0
          0 0 0 0 0 0
          0 0 0 0 0 0
          0 0 0 0 0 0
          0 0 0 0 0 0
          0 0 0 0 0 0
          0 0 0 0 0 0
          0 0 0 0 0 0
          0 0 0 0 0 0
          0 0 0 0 0 0
          0 0 0 0 0 0
          0 0 0 0 0 0
          0 0 0 0 0 0
          0 0 0 0 0 0
          0 0 0 0 0 0
          0 0 0 0 0 0
          0 0 0 0 0 0
          0 0 0 0 0 0
          0 0 0 0 0 0
          0 0 0 0 0 0
          0 0 0 0 0 0
          0 0 0 0 0 0
          0 0 0 0 0 0
          0 0 0 0 0 0
          0 0 0 0 0 0
          0 0 0 0 0 0
          0 0 0 0 0 0
          0 0 0 0 0 0
          0 0 0 0 0 0
          0 0 0 0 0 0
          0 0 0 0 0 0
          0 0 0 0 0 0
          0 0 0 0 0 0
          0 0 0 0 0 0
          0 0 0 0 0 0
          0 0 0 0 0 0
          0 0 0 0 0 0
          0 0 0 0 0 0
          0 0 0 0 0 0
          0 0 0 0 0 0
          0 0 0 0 0 0
          0 0 0 0 0 0
          0 0 0 0 0 0
          0 0 0 0 0 0
          0 0 0 0 0 0
          0 0 0 0 0 0
          0 0 0 0 0 0
          0 0 0 0 0 0
          0 0 0 0 0 0
          0 0 0 0 0 0
          0 0 0 0 0 0
          0 0 0
        </DataArray>
        <DataArray type="Float64" Name="stress_zz" format="ascii" RangeMin="-10968504.784219481" RangeMax="9062570.609377768">
          -3027698.738424911 -3511384.2343091024 -3995069.730193293 -3557031.7959631416 -3644318.421100598 -3731605.0462380545
          -4352553.48599153 -4790052.438442791 -5227551.390894052 5547626.507172076 5364636.77654722 5181647.045922364
          3390591.041640078 3238274.982985352 3085958.924330627 798403.1824847279 758473.1048335994 718543.027182471
          -1282065.1297986736 -1339063.1185960188 -1396061.107393364 -3139523.5885905763 -2945728.041216819 -2751932.4938430623
          -4409540.352306264 -4486334.596828098 -4563128.84134993 -4848127.904179739 -5196836.525506974 -5545545.146834209
          3706934.6046210844 3551223.9647088293 3395513.324796574 1002879.1866737397 846383.9377910327 689888.6889083255
          -1670674.589562243 -1716315.055353078 -1761955.5211439126 -3374292.6440260243 -3405950.1758874147 -3437607.707748805
          -4266913.972763088 -4099803.0014753323 -3932692.0301875765 -4201613.335917244 -4222593.568413005 -4243573.800908765
          -4021081.61401028 -4160026.301671963 -4298970.9893336445 2786870.6310208067 3254585.089627789 3722299.5482347705
          676928.2196839517 544765.6280734362 412603.0364629205 -2240894.1388992686 -2382271.4648710247 -2523648.7908427804
          -4336895.386713124 -4367611.732065268 -4398328.077417412 -4865207.865435312 -4828847.608761306 -4792487.3520873
          -4326887.163960985 -4180339.0857966836 -4033791.0076323827 -3255919.574488499 -3214963.216842858 -3174006.8591972166
          -2655870.930585791 -2674965.7635524725 -2694060.596519154 -87612.49890097883 -196945.90339504404 -306279.30788910924
          -3635826.157430979 -3767155.8603589055 -3898485.563286833 -5783428.088170844 -5848169.98132693 -5912911.874483018
          -5880950.556253927 -5822983.337229823 -5765016.118205719 -4729425.023747256 -4617212.30952051 -4504999.595293764
          -3283545.6785405744 -3166613.5338679063 -3049681.389195239 -2302152.2640126436 -2254756.3899351754 -2207360.5158577077
          -1755719.730076335 -1770899.206682241 -1786078.6832881472 -3987379.9401032915 -5387299.406641156 -6787218.873179022
          -8540503.066549852 -8679264.465403166 -8818025.864256479 -6985192.425011897 -6850667.911322945 -6716143.397633993
          -4775025.338523298 -4654623.628798981 -4534221.919074665 -2973467.1199843753 -2869632.101488161 -2765797.0829919465
          -1849934.915756613 -1795977.4082583217 -1742019.9007600308 -1642941.4050572377 -1641377.8236813084 -1639814.242305379
          -925099.5205832939 -951924.649161123 -978749.777738952 -6922087.446536092 -8945296.115377788 -10968504.784219481
          -7917512.937498413 -7498760.199712225 -7080007.461926037 -4317848.016217931 -3883109.4747249642 -3448370.933231998
          -1367321.4711721444 -1331749.9525057587 -1296178.4338393728 -687266.0507694811 -700964.1824901571 -714662.3142108332
          -867280.8958732369 -859493.9170980027 -851706.9383227688 -1082474.9006590468 -1101822.3368854513 -1121169.7731118556
          -551770.5489009742 -624411.8936295188 -697053.2383580634 3006754.518261866 2737842.318492902 2468930.1187239373
          -1246423.1290567312 -566587.3514937791 113248.42606917291 -609031.5830765158 -362579.9756307773 -116128.36818503952
          2180619.8390638675 2027634.392805238 1874648.946546609 329974.01600754826 229228.15997341785 128482.30393928743
          -852119.6286030454 -832501.0562092378 -812882.4838154302 -704350.7089930695 -709990.9125912552 -715631.1161894408
          -7139.28536656042 -66145.1224684489 -125150.95957033739 553459.6186711846 -907794.9729551892 -447035.02247539646
          171044.10096246697 542357.3897242832 -927801.2934627867 -539081.8659222835 253177.277966154 531255.1607773821
          -947807.6139703842 -631128.7093691705 335310.454969841 -2460621.352428315 -1372279.2382018827 1479751.9142719174
          1728260.059616719 -2403393.7895773444 -1208178.905606683 1236538.8256160324 1711178.9692864688 -2346166.2267263737
          -1044078.5730114833 993325.7369601468 1694097.8789562187 362525.03554123035 2947205.8532059486 99284.671034011
          2653430.541081133 -163955.69347320823 2359655.228956318 1592459.529397238 2867963.4236344285 1533618.0326053337
          2659718.523586049 1474776.5358134296 2451473.62353767 -1206604.9636256981 3053.867208454758 -1251829.4826454327
          -42624.314801878296 -1297054.0016651675 -88302.49681221141 8855281.200621676 5176884.587320279 8958925.904999722
          4106569.869446491 9062570.609377768 3036255.1515727034 1823381.0858889804 243924.39286207702 1818295.203772279
          237285.488182054 1813209.3216555775 230646.58350203125 -499971.48141948006 -549689.6951399964 -599407.9088605127
          1859033.9872181942 1794425.6261711186 1729817.265124043 -2998125.9337676046 -2341566.546482926 -1685007.159198247
          -5039984.266627386 2513043.5429221457 -4916130.543111962 2235601.4765367964 -4792276.819596538 1958159.4101514476
          1118981.7695132142 1151002.6257177615 1183023.481922309 -328986.59732108726 -320106.932598125 -311227.2678751629
          -773883.5224936629 -308880.8888221214 156121.74484941998 225103.7753651125 272909.4733997819 242750.597995935
          -24235.501243216568 172983.83236766525 249027.7242550759 248426.08894053425 39193.849214395996 120863.88937021799
          225145.9751103699 254101.5798851334 102623.19967200854 302054.49597128085 557433.5106103565 812812.5252494325
          -957523.1481035843 -210686.14932213703 -904783.6243909549 -168616.75854579185 -852044.1006783256 -126547.36776944669
          -4594287.898947987 -4872333.933436005 -4056992.233819144 -4178402.89404877 -4575318.440767685 -5062501.29698175
          -4501969.733888589 -4433478.94795337 -4556348.982587383 -5252668.660527495 -4946947.233958034 -4688555.00185797
          223254.86747335555 -688805.9404586353 154548.33506801087 -676426.4190047017 85841.80266266617 -664046.8975507681
          -2415902.2389333853 -3198719.289878135 -2605944.1352486117 -3096203.5144682555 -2795986.031563838 -2993687.7390583754
          -1486862.301117757 -562452.7585770296 -1310289.7515073298 -1627834.1270905077 -643388.6058546468 -1469830.6901327735
          -1768805.953063258 -724324.4531322643 -1629371.6287582172 280952.42333498324 17055.57683461254 -266794.48409801646
          354971.1587614877 268361.63501275773 103893.29658523717 -264287.7388478157 301966.1548514202 255770.8466905323
          190731.01633586176 -261780.99359761493 248961.15094135274 -2462024.269492236 -281082.6944682908 -1367551.2463936587
          -2356231.396840517 -273567.8612574928 -1238784.87871395 -2250438.5241887984 -266053.0280466949 -1110018.5110342414
          1680.564043881325 1042499.7302159304 -364641.05173482886 -902026.9568544658 -117076.03132864891 1204426.4090712809
          -260774.63402621922 -986639.9941117803 -235832.62670117905 1366353.0879266316 -156908.2163176098 -1071253.031369095
          -1554881.99033745 -404202.32183450944 -1528922.5942163244 -417277.7620817971 -1502963.198095199 -430353.20232908474
          99201.76760018739 83706.82341067411 -86364.81051135203 -101768.81771351304 73353.62333349841 58203.88296100909
          -111513.77785919208 -144154.5573371941 47505.47906680945 32700.942511344067 -136662.7452070321 -186540.29696087522
          -18561.94318355932 -1537978.225271113 -474236.79101199866 -128323.04902331778 -1253876.7698408423 -243783.00169197202
          -238084.15486307623 -969775.3144105712 -13329.212371945343 132122.97600700115 171664.10124882706 118040.63445200096
          172528.81615393827 103958.29289700076 173393.53105904948 87787.97551198036 300919.1677375265 291339.0331609939
          52855.44654894962 78205.58934034221 272973.0394498574 317957.15351580153 78487.10974039677 68623.20316870409
          245026.9111621882 344575.27387060935 104118.77293184391 328270.98096958955 575059.3770490357 303704.6193897682
          588885.659068777 279138.25780994695 602711.9410885181 -1643327.3908025634 -1684110.7943576553 -1660689.5221835999
          -1773611.183962431 -1678051.6535646361 -1863111.5735672065 -2637077.759864518 -672014.4843161844 -2564455.8541403096
          -679705.7537804749 -2491833.9484161017 -687397.0232447651 643155.0379722049 70734.40372170196 200951.3063763993
          536291.4344071653 688597.7756647688 49075.68409581123 148367.8435786203 556503.2842853207 734040.5133573327
          27416.964469920495 95784.38078084127 576715.134163476 469826.4176764169 405087.74343680206 340349.0691971873
          -1764532.1904019264 -1435256.597661388 -1105981.0049208505 -1118218.1786426401 -3480077.915141602 -1184550.0442813651
          -3541265.1141032046 -1250881.90992009 -3602452.3130648066 -470064.5586129195 -648264.6709344913 -467797.8090596624
          -662757.2257257821 -465531.05950640526 -677249.7805170729 408646.5492033884 -646178.5862627529 464812.0439067345
          -439566.8703193899 520977.53861008055 -232955.15437602694 -171137.20798559053 -271249.786735483 -371362.3654853754
          55331.40485896612 -425550.90035771055 16351.612005314006 -423811.67404200335 -22628.180848338106 -422072.4477262961
          251413.2378871119 143803.3034161746 333217.03147225187 172370.09121420042 243758.63153725464 147676.54730690387
          338126.2347249454 180506.10739604686 236104.02518739735 151549.79119763314 343035.4379776388 188642.1235778933
          452539.986054934 -576648.8474812898 402806.33471784956 -554882.830913332 353072.68338076514 -533116.8143453742
          1268470.4677433278 517803.0144578606 239148.7540853047 1197903.960055787 489109.2537559029 237933.86952269505
          1127337.4523682464 460415.493053945 236718.9849600854 246938.92005667154 106636.9182998827 -478111.79870344035
          226169.48497167142 20923.492126683137 -483372.51539055863 205400.0498866713 -64789.9340465164 -488633.2320776769
          -145235.98800361654 -121311.6998787088 -97387.41175380093 -2438869.574990767 -2414244.311589664 -2389619.048188561
          -1533439.2113325892 -710874.817673326 -1770144.9717906436 -812462.6445290637 -2006850.7322486984 -914050.4713848016
          -895818.9575840519 -601168.9951332186 -962538.4758003905 -597945.4287525789 -1029257.9940167288 -594721.8623719394
          -276104.7843899536 -249260.52996591007 -222416.27554186658 -4026730.2344849044 -5585042.7893397845 -4013551.734893026
          -6091213.028631865 -4000373.2353011477 -6597383.267923944 2284308.1276329216 2354558.4585804474 2424808.789527974
          -1297982.4869284255 -926063.1440047474 -532689.2217515187 -981333.821050677 -1267629.7643570807 -937852.7997149915
          -501841.23883798404 -916185.7852302223 -1237277.0417857363 -949642.4554252358 -470993.2559244494 -851037.7494097676
          -38895.61842160919 -29239.765770715967 -19583.91311982274 253200.51479343223 75343.99635142312 271423.0345961923
          78682.28353250874 289645.5543989523 82020.57071359435 -199569.27646633034 -377692.976394463 -555816.6763225956
          -3886329.6361689344 -2187834.420861149 -4282892.7904550815 -2129799.9546437087 -4679455.944741227 -2071765.4884262683
          -1942963.512913711 -1995705.3162866395 -2048447.1196595682 -242447.5808229274 70350.63567666119 -150587.84481189022
          -234457.43986795674 74340.19650724031 -145230.60372433235 -226467.29891298607 78329.75733781946 -139873.36263677446
          -1359751.9450274406 -1304505.296316564 -1313623.714766066 -1293846.4307483234 -1267495.4845046913 -1283187.5651800826
          -756741.7524020114 -745086.5056044182 -763487.114502332 -723786.6581522108 -770232.476602653 -702486.8107000033
          -99454.01978683421 554943.6256026691 -90274.5139279454 513622.34786001826 -81095.0080690567 472301.0701173673
          -1994476.6316508679 -2021853.6344939675 -2063364.9451249295 -2121395.0381079675 -2132253.258598991 -2220936.4417219684
          -330093.447944111 -338602.5819610947 -347111.7159780783 26049.761634323397 48365.90309711066 70682.04455989796
          293251.27628611226 326117.61378102924 358983.9512759462 1281909.2677085928 1374238.1028452418 1466566.9379818907
          362034.320662054 369318.276955768 376602.2332494819 -3274124.97223574 -3297205.259524347 -3320285.5468129534
          106927.64415742079 205607.13139664993 107047.16462956513 192486.42176458993 107166.68510170946 179365.71213252994
          -1585235.1411501449 -1608415.298613971 -1448180.6803611564 -1483886.9799706356 -1311126.2195721678 -1359358.6613273
          -1168135.4772816163 -1133248.0936307209 -1098360.7099798254 349214.1520985272 366855.25725790154 384496.36241727584
          -1192330.4596066177 -869216.9285388433 -1626181.8836068516 -1020483.2504979542 -692278.5802875094 -1695067.6011230317
          -848636.0413892908 -515340.2320361755 -1763953.3186392118 -1743569.8345202296 -730480.464203851 -1777441.4050693058
          -745145.7095441184 -1811312.9756183825 -759810.9548843858 -2119122.662166674 -1633414.6042907527 -1147706.5464148312
          -128870.7931769222 -135087.62141673244 -141304.44965654265 -1414394.4473553756 -1382361.4499344288 -1350328.4525134822
          -1287305.82576994 -1363571.9840169284 -1439838.1422639163 -1482339.295701768 -1407857.7226041039 -1333376.1495064418
          1157925.4016333385 1234540.9806415024 1311156.5596496665 301684.66784850135 326650.5735567379 351616.47926497454
          -1999824.7736508965 -1587757.72942675 -1175690.6852026032 -3556555.9696812583 -3197400.281813875 -2838244.59394649
          1556076.8060481565 2124877.382334854 2693677.9586215517 -3319617.386333082 -2950021.119174118 -2580424.8520151544
          698224.3216067201 806188.9895879322 914153.6575691442 -2725958.8781329533 -2235148.9916173494 -1744339.1051017463
          -319277.8316829323 -300751.6790903068 -282225.52649768133 781914.1583815827 700879.9309616329 619845.7035416831
          -689125.5907431246 -675083.6139549082 -661041.637166692 22143.011714381777 28991.885568969854 35840.75942355794
          -108300.49001638021 -108538.00619836025 -108775.52238034026 631555.879704972 804033.5426409739 976511.2055769758
          -742395.5193369958 -768310.7868954217 -794226.0544538473 -1200448.3461700785 -849844.3845239424 -871184.1837058017
          -532483.96725279 -541920.0212415247 -215123.54998163763 -1556855.6463746214 -1257762.5237836835 -958669.4011927461
          -313865.4089957093 -260224.01967839446 -231514.59170019472 -242249.72979833998 -149163.77440468004 -224275.43991828559
          76564.94283535877 110440.20098234719 144315.45912933568 -122962.72634178647 -140235.84529327042 -157508.96424475434
          -562043.5403148223 -545424.9570288872 -528806.373742952 -92594.0522984424 -182055.25584856578 -35514.645760283136
          -133903.5977991653 21564.760777876087 -85751.9397497648 -1301514.8247190057 -525678.1205400673 -1340429.7429078252
          -1404379.298281528 -475839.0452134734 -1414823.9857080353 -1507243.7718440504 -425999.96988687955 -1489218.2285082461
          -428074.17230765405 -450433.00008582073 -472791.8278639875 18777.803558513493 17813.06610900268 16848.328659491868
          135052.1618312342 243197.78695920965 138102.06753944492 214706.23387105588 141151.97324765564 186214.68078290217
          888496.5936500682 213824.33703438635 868500.4241959718 223394.4054276912 848504.2547418755 232964.47382099606
          -848232.7335939277 -1178543.0848361219 -854738.4582934596 -1120696.8600288662 -861244.1829929916 -1062850.635221611
          -986318.9151964657 -1113065.7420532966 -1055454.4464143396 -1201883.278606864 -1124589.9776322136 -1290700.8151604314
          -1339272.7206818447 -1419950.2238338152 -1500627.7269857859 2015341.8995897998 -1260974.0102095422 2059325.6924123166
          -1256982.276433985 2103309.485234834 -1252990.5426584273 -1314343.24358318 -1201609.4207432903 -1088875.5979034007
          -3690063.6502051502 -4252084.442004126 -3806732.1602865253 -4373749.868821333 -3923400.6703678984 -4495415.295638541
          -2325016.071903156 -2441177.7737532295 -2557339.475603302 -795365.0452745347 -862882.8123929014 -930400.5795112681
          -4633305.474052734 -4663013.482682558 -4692721.49131238
        </DataArray>
        <DataArray type="Float64" Name="peeq" format="ascii" RangeMin="0.00004753412769833461" RangeMax="0.009224098364475866">
          0.004351459002673859 0.004347586195761454 0.00434371338884905 0.004453393594997114 0.00445280073456549 0.0044522078741338665
          0.0035339743468565154 0.0035342713762641373 0.0035345684056717597 0.008287909990177986 0.008285120591799732 0.008282331193421477
          0.007815730541533061 0.007809186142700897 0.007802641743868733 0.006941420386383139 0.006938026822527015 0.006934633258670889
          0.005818713452363277 0.005820519969089449 0.005822326485815621 0.004632900926203031 0.004637881158718826 0.004642861391234621
          0.003573818763456131 0.00357644677972251 0.00357907479598889 0.002759764782366492 0.002762847426275644 0.002765930070184796
          0.008456057933270148 0.008455115300055178 0.008454172666840207 0.007508971304117894 0.007506148756595612 0.007503326209073329
          0.006255900506121062 0.006256770127822211 0.0062576397495233615 0.004910957024074481 0.0049163658949165625 0.004921774765758646
          0.0036860955343305645 0.003693385384639515 0.0037006752349484653 0.00273949594113327 0.002744173561772646 0.002748851182412022
          0.002118739211212573 0.0021233487784103992 0.0021279583456082253 0.009224098364475866 0.009222674656100105 0.009221250947724344
          0.008192647345820994 0.00819423367520367 0.008195820004586345 0.006796543414208213 0.006798936220026774 0.006801329025845333
          0.0052703602569875154 0.005276225937226368 0.005282091617465222 0.0038718902273445193 0.0038801234057510422 0.0038883565841575643
          0.0027850066254516935 0.002792948043815073 0.0028008894621784517 0.002074808849104866 0.0020800671364228154 0.002085325423740764
          0.0016614569902869251 0.0016661859988281072 0.0016709150073692895 0.00890922582932208 0.008912777725219824 0.008916329621117568
          0.007371124873360291 0.00737678247926783 0.007382440085175368 0.005661671669773775 0.005670275808891094 0.00567887994800841
          0.004090751633183731 0.004100430257287718 0.004110108881391704 0.002875437765670749 0.0028840837049938484 0.002892729644316947
          0.002082586560816859 0.0020892710323707313 0.002095955503924604 0.0016609521488732727 0.001665538037913486 0.0016701239269536995
          0.0015168065196942073 0.0015201085837410482 0.0015234106477878893 0.007816695925247731 0.007829433269630311 0.007842170614012892
          0.005923770573199273 0.005934757502505068 0.005945744431810863 0.004220100199903977 0.00423320099021031 0.004246301780516642
          0.0029391076937110364 0.0029489070706450096 0.0029587064475789827 0.002114224725521795 0.0021205194468573085 0.002126814168192822
          0.0016667235837746703 0.0016712082939526352 0.0016756930041306004 0.0014893038532959976 0.001492616893276783 0.001495929933257568
          0.0015016985139446317 0.0015040441881736964 0.0015063898624027609 0.005843832482354622 0.005863368982210412 0.005882905482066202
          0.004025419686680734 0.004037484721568923 0.004049549756457113 0.002787463083853459 0.0027994241627122083 0.0028113852415709594
          0.002063291432424399 0.002069402626779058 0.002075513821133717 0.0016782797789238997 0.0016811791788522656 0.0016840785787806314
          0.001506761015295943 0.0015092135288214408 0.0015116660423469387 0.0014817934537076285 0.0014837495679043454 0.0014857056821010624
          0.0015687774335254663 0.0015701935756015552 0.0015716097176776446 0.00347192913333488 0.0034855056638427723 0.0034990821943506637
          0.0022708725295189046 0.0022781911476606807 0.0022855097658024573 0.0015981800869932661 0.0016048191371044733 0.00161145818721568
          0.0015646227549194788 0.0015665081193699068 0.001568393483820335 0.0015059967767151446 0.0015065196487946985 0.0015070425208742527
          0.0015007296213274978 0.0015016112045221348 0.0015024927877167718 0.0015627754887554688 0.0015633542353108722 0.0015639329818662757
          0.001677449749113319 0.0016781192841646138 0.0016787888192159085 0.0014696457466789321 0.0015603552408104788 0.0016370146026046287
          0.0014859325271955198 0.0014690287277337258 0.0015599116723298643 0.001635346151996016 0.0014846387946544804 0.0014684117087885194
          0.0015594681038492496 0.0016336777013874037 0.0014833450621134412 0.0009594546922541752 0.00045731096358647363 0.0003686166949237675
          0.0011043185588919492 0.0009653635081457002 0.0004615914020185681 0.0003724673194535704 0.0011091878643713208 0.0009712723240372252
          0.0004658718404506626 0.0003763179439833734 0.0011140571698506926 0.001118357779334034 0.0009754684403516412 0.0011205701122752284
          0.000975086749962955 0.001122782445216423 0.0009747050595742689 0.0012825596942211154 0.001349452593470503 0.0012805644084262868
          0.0013486877401626364 0.001278569122631458 0.0013479228868547703 0.001679286422098626 0.0017854173190342015 0.001678659043131922
          0.0017837377375261843 0.001678031664165218 0.0017820581560181665 0.0015618035955945488 0.0004697745403744476 0.0015675916221410328
          0.0004695608384214311 0.0015733796486875166 0.0004693471364684144 0.0018307147070358988 0.0015922881056981036 0.0018284928385622263
          0.001590371298086486 0.0018262709700885538 0.0015884544904748677 0.001818212669964189 0.0018184172162723773 0.0018186217625805658
          0.00006101283495158822 0.00006323669984921707 0.00006546056474684593 0.00004753412769833461 0.00005290748215577789 0.00005828083661322117
          0.00037889383270472065 0.0009253347151470348 0.0003823194224499678 0.0009236684870407173 0.00038574501219521484 0.0009220022589343999
          0.0012743752859249008 0.0012721177621436313 0.0012698602383623618 0.001894266203317671 0.001893709802836858 0.001893153402356045
          0.0034590273370121993 0.0034696235577809367 0.0034802197785496736 0.0017158682168447164 0.0016209485111782051 0.0017665594660522753
          0.0018711553269288 0.0017174193489219094 0.0016225750995948409 0.001767339746398196 0.001872595479612005 0.0017189704809991027
          0.0016242016880114764 0.0017681200267441167 0.00187403563229521 0.0035128073917976704 0.0035208159897461735 0.0035288245876946766
          0.002047745930844261 0.0018189927083739068 0.0020492557914772312 0.0018208570765360773 0.0020507656521102013 0.001822721444698248
          0.0018391269991819268 0.0019023424252708348 0.0022561386619593853 0.0024557977704906015 0.0018427051586047103 0.00190519787487263
          0.002262016863506278 0.0024607642753738754 0.0018462833180274939 0.0019080533244744248 0.00226789506505317 0.00246573078025715
          0.0016653206373056992 0.0015536655515740252 0.0016666979924280176 0.0015564980523124039 0.0016680753475503353 0.0015593305530507825
          0.002589530487168514 0.001872837677078454 0.002593215445205331 0.0018780373370684558 0.002596900403242148 0.001883236997058458
          0.0023328932507425326 0.002378565116707681 0.002145091301870378 0.002331629235307171 0.0023779271206497213 0.0021447365186890847
          0.002330365219871809 0.002377289124591762 0.0021443817355077913 0.002494135331067777 0.0026481640832085743 0.0028354564003847307
          0.0027075042269102917 0.002494147724919641 0.002649256084035315 0.0028363105714931305 0.002707208050175835 0.0024941601187715044
          0.002650348084862056 0.0028371647426015294 0.0027069118734413776 0.0016396419728701365 0.0016515001208459682 0.0016563561970821016
          0.0016442698277481323 0.0016546877648692345 0.0016592017663659311 0.001648897682626128 0.0016578754088925013 0.0016620473356497606
          0.0019323271600717475 0.0021526930261413133 0.002263115338756976 0.0019512143570149056 0.001934816021531963 0.002156034525932453
          0.0022667633454266315 0.001952794210773919 0.0019373048829921789 0.0021593760257235914 0.0022704113520962874 0.001954374064532933
          0.0015221584174501623 0.0015693072556326167 0.0015266460545199049 0.0015730022953305502 0.0015311336915896478 0.001576697335028483
          0.002935137924749677 0.00276097350095374 0.0028955614690234074 0.0030479332103469474 0.0029340495892958333 0.002759932534486868
          0.0028949825428263936 0.003047128181812491 0.0029329612538419895 0.002758891568019996 0.00289440361662938 0.0030463231532780336
          0.001639625687071181 0.0015716808937642117 0.0015568789963180086 0.0016411859199871703 0.0015786520505499501 0.001562947911410535
          0.0016427461529031598 0.001585623207335689 0.0015690168265030616 0.002790524073762384 0.002604146816265897 0.002789812175190081
          0.0026036397742831455 0.002789100276617779 0.0026031327323003937 0.0032619324807250114 0.0031685991739675845 0.003230443193715072
          0.0033128295236648604 0.0032609954970174667 0.0031676169178242856 0.0032304024353753 0.003312497514316767 0.003260058513309923
          0.003166634661680987 0.003230361677035529 0.0033121655049686734 0.003335796288808202 0.0033779535315285785 0.0033363944165815704
          0.0033788238058693257 0.003336992544354939 0.0033796940802100725 0.0022623302752377613 0.002022402748438637 0.0022650422257063573
          0.0020238001179797615 0.0022677541761749525 0.002025197487520885 0.001650660729774268 0.0016821094554085772 0.0016559947592736071
          0.001685192778144358 0.0016613287887729466 0.0016882761008801387 0.0020404455802855597 0.0018949226653664233 0.0017646318332102708
          0.0018917751412979352 0.00204151064972231 0.0018952088746599083 0.0017650265857594514 0.0018931016516175862 0.00204257571915906
          0.001895495083953394 0.0017654213383086325 0.0018944281619372367 0.0025622389043855375 0.002561412929615785 0.0025605869548460326
          0.0028028558131914234 0.0028149698087912745 0.0028270838043911264 0.003725876357314771 0.0037337375256139057 0.0037301549726841696
          0.0037383385267257797 0.0037344335880535686 0.0037429395278376545 0.0019113279779919591 0.0020367629602358853 0.001911217281259753
          0.0020367130647999418 0.0019111065845275465 0.002036663169363998 0.002298905428117891 0.0020904238731649116 0.002299959693443988
          0.0020929356866016048 0.0023010139587700848 0.002095447500038297 0.0017811075924526647 0.001781009956459449 0.0017809123204662331
          0.0017702680563659741 0.0019069003724288451 0.0017700833816761418 0.001906815997669846 0.0017698987069863093 0.001906731622910847
          0.0029404578666519065 0.0030532570017189086 0.0028812040166182403 0.0027664145416039167 0.0029396975028882734 0.0030524282184525475
          0.002880129893219603 0.0027658137090330877 0.0029389371391246406 0.0030515994351861873 0.002879055769820965 0.002765212876462258
          0.0017203056740687879 0.001769898350179239 0.0017220158239924512 0.0017718256980929403 0.0017237259739161146 0.0017737530460066422
          0.002700016994337068 0.002657850165677114 0.0029298118693722552 0.002698400989003173 0.002656370248274302 0.0029284772309497715
          0.0026967849836692787 0.0026548903308714895 0.0029271425925272883 0.001675272306461685 0.0016765356772296524 0.0016520393543574523
          0.0016765417953207597 0.0016767815525922357 0.0016533268980644497 0.0016778112841798344 0.0016770274279548194 0.001654614441771447
          0.0019331571264180503 0.001934618555747733 0.0019360799850774157 0.0017369070820690193 0.001739323513000813 0.0017417399439326065
          0.001945840606384283 0.001699076451934319 0.0019513831080309179 0.0017035719136116586 0.0019569256096775524 0.001708067375288998
          0.002224192008543458 0.0020682787188244303 0.0022233333837874147 0.0020680229402552978 0.0022224747590313706 0.002067767161686165
          0.0030466919212993973 0.0030474358446908375 0.0030481797680822777 0.003691088620554545 0.0030585118057026733 0.0036968125661270054
          0.0030611739693000013 0.003702536511699466 0.003063836132897329 0.0038765663144075214 0.003881617246208624 0.003886668178009726
          0.0035162238306665947 0.003519615872226208 0.003341221518785979 0.0032247795377596507 0.003516746326782733 0.003520088336729714
          0.003342497814012765 0.003226356057196715 0.0035172688228988724 0.0035205608012332194 0.003343774109239551 0.0032279325766337804
          0.00310108965082553 0.0031002048831605643 0.0030993201154955992 0.0022246279930933288 0.0020581040854103965 0.0022252602744167204
          0.0020584641402887753 0.0022258925557401116 0.002058824195167155 0.0016171673696310912 0.001619845229263693 0.0016225230888962951
          0.0029397756568768606 0.0022873093816505844 0.0029432250642344696 0.00229317262684926 0.0029466744715920773 0.002299035872047935
          0.002858622551687097 0.0028597344784477914 0.002860846405208486 0.0033515261193610554 0.0033443183900230856 0.00338356577240224
          0.0033510543147143206 0.0033443548570067697 0.0033831648612041385 0.0033505825100675858 0.0033443913239904546 0.0033827639500060365
          0.0018594301446845255 0.002012014526894312 0.0018609073717749292 0.0020130603084314884 0.0018623845988653329 0.0020141060899686643
          0.0029946149317799683 0.00315423217788293 0.002995981099445941 0.0031556970315686256 0.002997347267111914 0.0031571618852543207
          0.002280304919146312 0.0021485481799031615 0.0022809336840978046 0.002149058626912272 0.0022815624490492973 0.0021495690739213816
          0.002285253285617208 0.002091572483624463 0.002286877152352946 0.0020925650149289238 0.0022885010190886843 0.0020935575462333847
          0.003330035429463506 0.0033310867287759463 0.0033321380280883863 0.003142131521914569 0.0031424212224181584 0.0031427109229217472
          0.003491768154019797 0.0034922471355346135 0.00349272611704943 0.0020769288886237575 0.002078223920636024 0.00207951895264829
          0.003244720517593006 0.0032456532012898136 0.003246585884986621 0.0028307406636606126 0.0028371640658196627 0.002843587467978712
          0.003178372017185679 0.0030732711376931085 0.0031773521741537475 0.0030721617526544734 0.0031763323311218166 0.0030710523676158387
          0.0025409349510984907 0.002579379538526591 0.0025444568941860334 0.002582146644209914 0.0025479788372735758 0.0025849137498932364
          0.00263484139842391 0.0026366408553083393 0.0026384403121927683 0.003238520802283722 0.0032391946304309817 0.003239868458578241
          0.0018480063461461583 0.0019085925453474078 0.0017216125497826668 0.0018549046673411549 0.0019148401320007841 0.0017258391988195152
          0.0018618029885361512 0.0019210877186541602 0.001730065847856363 0.0029981248461991832 0.003057094420334954 0.0029986625473441093
          0.0030580833572100116 0.0029992002484890362 0.003059072294085069 0.0021857604517652755 0.0021943780746102727 0.00220299569745527
          0.0032245370548993806 0.00322362390920302 0.0032227107635066587 0.0031369376810064216 0.0031383013730750496 0.003139665065143678
          0.001775789105938725 0.0017776639219877044 0.0017795387380366836 0.002872874055659705 0.0028789311475252138 0.0028849882393907227
          0.0022033870083478487 0.00220417902671745 0.002204971045087051 0.0023966315002993408 0.002396705149172745 0.00239677879804615
          0.0034960326090921487 0.0035036162889460635 0.0035111999687999786 0.0028010869180821493 0.0028109537293164607 0.0028208205405507716
          0.002260611125874636 0.0022682565072265452 0.002275901888578455 0.002204159507917866 0.0022143678210423175 0.0022245761341667682
          0.00215377634364003 0.002158126118512377 0.0021624758933847243 0.0017766958974431279 0.0017860418463799454 0.0017953877953167637
          0.0022441695410164593 0.0022443104861551303 0.002244451431293801 0.0023573419579869088 0.0023569789751429404 0.0023566159922989724
          0.0024213389848807723 0.00242107799889635 0.0024208170129119268 0.0024281604141326617 0.0024282715930698468 0.0024283827720070314
          0.002615511261801336 0.0026152708220250555 0.0026150303822487743 0.0025024442107550167 0.0025037927125187522 0.0025051412142824882
          0.002852638767224867 0.002853893350033383 0.0028551479328418994 0.0018670053983032317 0.0016318494951046462 0.0018778236963804009
          0.0016401736716872462 0.0018886419944575698 0.0016484978482698464 0.002287690747981095 0.0022998432375891213 0.0023119957271971483
          0.001957924149822981 0.0020451945697312745 0.001959920113656472 0.002047284837276929 0.0019619160774899617 0.0020493751048225838
          0.003265383624451102 0.0032658505718388443 0.003266317519226588 0.003303909832661862 0.003303075640288271 0.00330224144791468
          0.002558371052610653 0.002557467621867784 0.002556564191124915 0.0034171454005238727 0.0034827848349442605 0.003417877870462816
          0.00348350969474136 0.00341861034040176 0.0034842345545384595 0.0033895906290182937 0.002630483512736764 0.0029819075693963523
          0.003389029139837392 0.0026335091159927467 0.0029824121410742996 0.0033884676506564897 0.0026365347192487294 0.002982916712752247
          0.0035062180138082863 0.0035066510792054026 0.003507084144602519 0.0036883083294825185 0.0036879269920828844 0.0036875456546832503
          0.0034004758025166122 0.003401047672842792 0.0034004974304982696 0.003400678795826628 0.003400519058479927 0.003400309918810464
          0.0038553883195822066 0.0036246741568370594 0.0038548043476055714 0.0036244484291008926 0.0038542203756289366 0.003624222701364726
          0.0035052389348160487 0.0035097790228566664 0.003505513309098741 0.003510297642448255 0.003505787683381433 0.0035108162620398438
          0.003928496934448881 0.003837652911407861 0.003927485403235202 0.003836605461705424 0.0039264738720215225 0.0038355580120029873
          0.003490930477298114 0.003490610214740052 0.003490289952181991 0.004224413941236172 0.0034917300926263174 0.004227939846597727
          0.0034949534995756385 0.004231465751959281 0.003498176906524959 0.0024503264723842824 0.002454205491798342 0.002458084511212402
          0.00248580270779843 0.0028055559608348582 0.0024901035097410883 0.002812178417715242 0.002494404311683747 0.0028188008745956253
          0.002169709212478298 0.0021726822719900785 0.0021756553315018584 0.003701311718771411 0.0037007632341630493 0.0037002147495546877
          0.0024101057533198484 0.002414974084862135 0.0024198424164044224
        </DataArray>
        <DataArray type="Float64" Name="pe11" format="ascii" RangeMin="0.00004688453970485111" RangeMax="0.00920480093049226">
          0.004329408102429118 0.004325281653997942 0.004321155205566766 0.004424915351585889 0.004424213299813271 0.004423511248040654
          0.003514333802441691 0.0035142756177584016 0.0035142174330751114 0.00828048892071557 0.008277594072970792 0.008274699225226017
          0.007795417430914222 0.007788899197474639 0.007782380964035058 0.006906289810602778 0.006902969832777912 0.006899649854953046
          0.005776920847010974 0.005778817040514039 0.005780713234017102 0.004596003067935099 0.0046009922842084865 0.004605981500481875
          0.003549112695088948 0.00355157288775067 0.003554033080412393 0.0027460090381789992 0.0027487380994518536 0.002751467160724707
          0.008436054029854485 0.008435149219558482 0.008434244409262475 0.007469092374563558 0.00746635100647725 0.007463609638390944
          0.006204939721166136 0.00620585030538529 0.006206760889604443 0.004864045126618085 0.004869425736273582 0.004874806345929079
          0.0036539284743957283 0.0036611123188566275 0.0036682961633175267 0.002722997941724905 0.00272748995987814 0.0027319819780313743
          0.0021116768682225345 0.0021160206503916703 0.0021203644325608066 0.00920480093049226 0.009203378458098066 0.009201955985703874
          0.008147140341356256 0.008148777586160238 0.008150414830964221 0.006733347250217182 0.006735729326401656 0.006738111402586133
          0.00521018960113833 0.005215921126219546 0.005221652651300762 0.0038303631329041307 0.003838388995935199 0.003846414858966268
          0.002763958786090242 0.002771718368321197 0.002779477950552153 0.0020669135784087103 0.002072031466013021 0.0020771493536173315
          0.0016592711901219494 0.0016638736188359451 0.0016684760475499404 0.008854372568018798 0.008857780835128252 0.008861189102237703
          0.00728993059269424 0.007295288900528156 0.007300647208362072 0.005582601571217479 0.005590824383279241 0.005599047195341003
          0.004036540269715774 0.004045802378841702 0.00405506448796763 0.0028487305390249478 0.0028570758091340516 0.002865421079243156
          0.002073012952851603 0.0020795486924198568 0.0020860844319881104 0.0016583823440569074 0.0016628977956808092 0.001667413247304711
          0.0015161261665133285 0.0015193784355735562 0.0015226307046337837 0.007699645922722937 0.007711473676883798 0.007723301431044659
          0.005815078081943358 0.005824780515953645 0.005834482949963932 0.00414930881504896 0.004161534252456503 0.004173759689864045
          0.002905485820835179 0.002914737574832199 0.0029239893288292183 0.0021028579445173893 0.002108926688970684 0.002114995433423979
          0.001663855383974563 0.0016682727828455292 0.0016726901817164955 0.0014886809408065753 0.001491969186834031 0.0014952574328614863
          0.0015014862681524185 0.0015038200226616392 0.0015061537771708597 0.005669497818746415 0.005686184068169746 0.005702870317593076
          0.003932712016620367 0.003942578876043908 0.003952445735467449 0.002747915190453821 0.0027589880813698375 0.002770060972285853
          0.00205005898974117 0.0020558011168168334 0.0020615432438924964 0.0016752614921329914 0.0016780614655175859 0.0016808614389021807
          0.0015061230454385744 0.0015085537458582707 0.0015109844462779672 0.00148162412281269 0.0014835725694608945 0.001485521016109099
          0.0015686727684138969 0.0015700875279474075 0.0015715022874809178 0.003337325120762643 0.0033477159579625186 0.003358106795162395
          0.002227956957957861 0.0022336706956974472 0.0022393844334370333 0.0015880379701829982 0.0015942482915608084 0.0016004586129386186
          0.0015611441050990091 0.0015628849317506138 0.0015646257584022182 0.0015053094970087144 0.0015057919849883654 0.0015062744729680165
          0.0015005290885938259 0.0015013962681378027 0.0015022634476817794 0.001562668066939015 0.001563243331300926 0.0015638185956628372
          0.0016773496513631098 0.0016780198634938125 0.0016786900756245154 0.0014693428056116154 0.0015602286752945226 0.0016369171641193836
          0.0014858031400407973 0.001468695359735409 0.0015597711276680887 0.001635238731571319 0.0014844849057684417 0.001468047913859202
          0.0015593135800416554 0.0016335602990232541 0.001483166671496086 0.0009562875169001951 0.00045587422397285696 0.0003641688745655872
          0.001092086753940286 0.0009619247299722031 0.00046004030655722805 0.0003676836296892829 0.0010962931928514639 0.0009675619430442112
          0.000464206389141599 0.00037119838481297846 0.001100499631762642 0.0011169174711628234 0.0009746791744597339 0.001118984558437781
          0.0009742388316801745 0.0011210516457127381 0.0009737984889006147 0.0012822976267729744 0.0013486246150295643 0.0012802698987858657
          0.0013478010989018282 0.0012782421707987573 0.001346977582774092 0.0016791828247208472 0.0017853198392283665 0.0016785546055168897
          0.001783642752459917 0.0016779263863129323 0.0017819656656914676 0.0015109263604274506 0.0004623547409038401 0.001514637153075532
          0.000461637846643352 0.0015183479457236135 0.00046092095238286395 0.001830617041041609 0.0015921952765954022 0.0018283992976860287
          0.0015902669468275668 0.0018261815543304484 0.0015883386170597313 0.0018180809428623456 0.0018182862359073136 0.0018184915289522815
          0.000059425929253960246 0.00006152305050883403 0.00006362017176370782 0.00004688453970485111 0.000052173644576738085 0.00005746274944862505
          0.0003784995289525301 0.0009248905041856171 0.0003819153508084731 0.0009232146245409872 0.0003853311726644161 0.0009215387448963573
          0.0012742249828689928 0.0012719426664107132 0.0012696603499524337 0.0018941324016295998 0.0018935779752946612 0.0018930235489597223
          0.0034433417774752326 0.003453950767175729 0.003464559756876226 0.0017157641772415774 0.0016207996562649647 0.0017664578533229227
          0.0018710591272516424 0.001717315982780043 0.0016224240873826067 0.0017672374835066538 0.0018724976636498478 0.0017188677883185084
          0.0016240485185002485 0.0017680171136903848 0.0018739362000480529 0.003497547181449809 0.003505591684897968 0.0035136361883461266
          0.0020476225368766627 0.0018188911326490762 0.002049128918897682 0.001820755871590825 0.0020506353009187 0.0018226206105325746
          0.0018361521274658896 0.001898620071565215 0.002248580694933821 0.00244671543490479 0.0018396628835061185 0.001901363998890549
          0.002254398055436283 0.0024516305530983694 0.001843173639546347 0.0019041079262158824 0.002260215415938745 0.0024565456712919488
          0.001665130607121643 0.0015533420554097951 0.0016665081963205424 0.0015561518017890386 0.0016678857855194416 0.0015589615481682818
          0.002579843239342989 0.0018700253331529427 0.0025834838365516506 0.0018752019677041832 0.002587124433760311 0.001880378602255424
          0.002332766363324084 0.002378412241681209 0.002144955389723164 0.002331504069537492 0.002377772830111413 0.002144599394803805
          0.0023302417757509004 0.002377133418541617 0.002144243399884446 0.0024937498361212534 0.002647645502338752 0.0028350968978733005
          0.0027071637437565852 0.002493754632083667 0.0026487148364420262 0.0028359340243612006 0.0027068603087605277 0.0024937594280460803
          0.0026497841705453006 0.0028367711508491015 0.00270655687376447 0.0016390476549051297 0.0016511396326481733 0.0016557676838806388
          0.0016436763651153862 0.001654345858721971 0.001658589794973693 0.0016483050753256432 0.0016575520847957686 0.001661411906066747
          0.0019319745907972116 0.002152384786296636 0.0022626848214969742 0.0019510096784655024 0.0019344772226729142 0.0021557175558366026
          0.002266319076183753 0.0019525964814808292 0.0019369798545486171 0.002159050325376569 0.0022699533308705314 0.0019541832844961553
          0.0015216599515753436 0.0015689147071133829 0.001526097338082993 0.0015725902812690718 0.001530534724590642 0.0015762658554247608
          0.002934980205777899 0.002760743458241463 0.0028953236553640937 0.0030477900333546488 0.0029338894789499833 0.0027596991920364185
          0.0028947395270029464 0.0030469821098613233 0.0029327987521220677 0.002758654925831375 0.002894155398641799 0.003046174186367998
          0.001639316432298875 0.0015704589242069686 0.0015560617207640293 0.001640876928899447 0.001577351894830351 0.0015621258934265271
          0.0016424374255000194 0.0015842448654537337 0.0015681900660890246 0.0027903616191771855 0.0026039238184959812 0.0027896477047568693
          0.002603415122605767 0.0027889337903365535 0.0026029064267155534 0.0032618636953740767 0.003168498867256531 0.003230310049509654
          0.003312741383284149 0.003260925719493675 0.003167514322544551 0.003230266059570648 0.0033124081766782924 0.003259987743613273
          0.0031665297778325717 0.003230222069631643 0.0033120749700724355 0.003335638095935483 0.0033777308515707603 0.0033362259198164543
          0.0033785859947542017 0.003336813743697425 0.0033794411379376426 0.0022620161638399186 0.002022178311263379 0.002264720221883197
          0.002023578029652506 0.0022674242799264758 0.002024977748041633 0.0016501326076613023 0.0016818107075373915 0.0016554872769672618
          0.0016849252199543654 0.0016608419462732212 0.0016880397323713395 0.002040251158946545 0.0018948070587666117 0.0017645114900990315
          0.0018916105293498742 0.0020413203553327104 0.0018950941255285233 0.0017649083350729068 0.0018929430855974462 0.0020423895517188754
          0.0018953811922904347 0.0017653051800467815 0.0018942756418450178 0.0025619531347605053 0.002561123901029501 0.0025602946672984967
          0.002789879987863695 0.002801970533916091 0.0028140610799684876 0.003709388236619653 0.003717807408644934 0.0037137735013539888
          0.0037223300341899072 0.003718158766088324 0.00372685265973488 0.0019112326319551196 0.0020366535456247657 0.0019111204416232585
          0.0020366027331212336 0.0019110082512913966 0.002036551920617701 0.0022986934696935385 0.0020902407468592218 0.002299739636207643
          0.0020927435133314145 0.0023007858027217468 0.0020952462798036063 0.0017809806404803826 0.0017808828628281842 0.0017807850851759856
          0.0017701514056850294 0.0019067808432580576 0.0017699667978852425 0.001906695920517425 0.0017697821900854553 0.0019066109977767922
          0.002940351680810963 0.0030531860963774957 0.0028811200579025933 0.002766299094832874 0.0029395890037731006 0.0030523557259207325
          0.002880045103693635 0.002765697334588363 0.002938826326735238 0.00305152535546397 0.002878970149484677 0.0027650955743438515
          0.0017201292739185902 0.0017696983772806142 0.0017218517042303775 0.0017716353924501476 0.0017235741345421646 0.0017735724076196812
          0.0026998806198786354 0.0026577229752196133 0.0029297506224712127 0.002698265729929119 0.002656244755886673 0.002928415551512098
          0.002696650839979603 0.0026547665365537322 0.0029270804805529823 0.0016750094722245887 0.001676318561978838 0.0016513947677402356
          0.0016762815674895824 0.0016765629500363952 0.0016526617225649444 0.001677553662754576 0.001676807338093952 0.0016539286773896535
          0.0019329339098395478 0.0019343996729410669 0.0019358654360425859 0.0017352327637532366 0.0017375750482466958 0.001739917332740155
          0.0019412614333777095 0.0016972158152953104 0.001946757960613122 0.0017016914630853205 0.0019522544878485346 0.0017061671108753308
          0.0022240562634252095 0.0020681354460681 0.0022231994656648564 0.002067880131598857 0.002222342667904504 0.002067624817129614
          0.0030464714230282004 0.0030472044783511044 0.0030479375336740075 0.0036757437480529885 0.0030450533695323763 0.00368135137942917
          0.00304761729983149 0.0036869590108053523 0.0030501812301306024 0.0038618008762147456 0.0038670882882395636 0.0038723757002643816
          0.003515995143996301 0.003519433370611167 0.003341028551134456 0.0032245243877259064 0.0035165041682206485 0.00351989177733116
          0.003342289418993678 0.003226083927611091 0.003517013192444997 0.0035203501840511534 0.0033435502868528993 0.0032276434674962766
          0.003101035045023553 0.0031001494491970797 0.0030992638533706074 0.0022244073191080727 0.0020579427674310025 0.002225042039646841
          0.0020583040543228877 0.0022256767601856096 0.002058665341214773 0.0016164806807702605 0.001619155800930597 0.0016218309210909328
          0.0029272822277461516 0.002280811445519084 0.002930704568428529 0.0022867009900957333 0.002934126909110907 0.0022925905346723825
          0.0028579527526610797 0.002859044996839714 0.002860137241018349 0.0033514634876748856 0.0033442092942856947 0.003383490655382759
          0.0033509914315783805 0.0033442406717532616 0.0033830862919053024 0.0033505193754818758 0.00334427204922083 0.0033826819284278452
          0.0018591824006777913 0.0020117977075586454 0.0018606646056784776 0.0020128422345865446 0.0018621468106791636 0.002013886761614444
          0.002994305639695303 0.003154018569281188 0.002995651217837139 0.003155467824604186 0.0029969967959789755 0.003156917079927184
          0.0022799901943961155 0.00214825853155055 0.002280610321449729 0.0021487721515667654 0.002281230448503342 0.002149285771582981
          0.002284955862292097 0.0020914024013443983 0.0022865702032491804 0.0020923927160440077 0.0022881845442062647 0.0020933830307436167
          0.003329825387989053 0.0033308609558250057 0.0033318965236609583 0.0031419755998689626 0.00314225978640509 0.0031425439729412187
          0.003491491011176727 0.0034919543581807015 0.003492417705184676 0.002076673733649349 0.0020779751867945977 0.002079276639939846
          0.003244525207409453 0.0032454450556284385 0.003246364903847423 0.002819650499323978 0.002826201661646667 0.0028327528239693554
          0.00317830575795915 0.003073172832302526 0.0031772843235458015 0.003072061234076216 0.0031762628891324526 0.0030709496358499056
          0.002540292332220354 0.0025788028004670293 0.002543786699081572 0.0025815404277542316 0.002547281065942789 0.002584278055041432
          0.0026342320194862267 0.0026360037516940807 0.0026377754839019343 0.0032383472021995058 0.0032390128017864657 0.003239678401373427
          0.0018461767167568181 0.001906958389449512 0.00172125209146406 0.0018531174869211508 0.0019132744787582945 0.0017255078638076706
          0.0018600582570854835 0.0019195905680670765 0.001729763636151281 0.002997533328392081 0.0030565598487849984 0.0029980420205470955
          0.003057520809325796 0.0029985507127021104 0.003058481769866594 0.0021814390678091583 0.0021901581324423208 0.002198877197075483
          0.0032244826252928152 0.003223568583608413 0.003222654541924011 0.003136565149648455 0.0031379082549729135 0.0031392513602973727
          0.0017755323536953218 0.0017774259702060128 0.0017793195867167036 0.0028634240749332435 0.002869591464201835 0.0028757588534704267
          0.002203107100402368 0.0022039020831702396 0.0022046970659381107 0.002396368373472623 0.0023964417606535436 0.0023965151478344644
          0.0034785532072120623 0.003485925884039994 0.0034932985608679256 0.0027869166988795865 0.0027965160618054984 0.0028061154247314103
          0.0022566339093206974 0.0022643599783432676 0.0022720860473658382 0.0021960724890135582 0.0022060288348935424 0.0022159851807735257
          0.0021514711694440624 0.0021558670790722346 0.0021602629887004067 0.0017731918384196535 0.0017823656699362744 0.0017915395014528948
          0.002243980787938047 0.0022441227071635468 0.002244264626389047 0.0023570291475153546 0.0023566657205387263 0.0023563022935620976
          0.0024211903490251223 0.00242093058174672 0.002420670814468317 0.0024279505816005055 0.0024280621186635676 0.002428173655726629
          0.002615353593744958 0.002615112603034208 0.002614871612323457 0.002501902479939153 0.002503227164282065 0.0025045518486249765
          0.002852121333817988 0.002853348917030043 0.002854576500242098 0.0018624055849325864 0.001630026270191962 0.001873191729364889
          0.0016383314697704307 0.0018839778737971915 0.0016466366693488992 0.00227802139373067 0.0022901532450452845 0.0023022850963599
          0.0019577389545887354 0.00204493011833999 0.0019597311488917424 0.0020470123730493644 0.0019617233431947494 0.0020490946277587387
          0.0032652302047400813 0.0032656922921173188 0.0032661543794945563 0.0033038510401029873 0.003303016708243959 0.003302182376384931
          0.0025582583806651816 0.002557356958062691 0.0025564555354602005 0.003416999025840612 0.003482537544795419 0.0034177173097964405
          0.0034832474842957763 0.0034184355937522688 0.0034839574237961347 0.003389085044966454 0.0026298776271303204 0.0029814492318347378
          0.0033885126539181533 0.002632890894728316 0.002981949624464512 0.0033879402628698534 0.002635904162326311 0.0029824500170942854
          0.003505980871509353 0.003506398997431176 0.003506817123352999 0.0036879817793840025 0.003687587907947377 0.0036871940365107514
          0.003400377550729 0.0034009672149804254 0.003400387868842376 0.00340058924421689 0.003400398186955752 0.003400211273453355
          0.0038550598071872525 0.003624370930522717 0.0038544632530399447 0.0036241320149570065 0.0038538666988926383 0.0036238930993912955
          0.003504855167675453 0.0035094836783792 0.0035051174918454813 0.0035099889037595628 0.0035053798160155102 0.0035104941291399256
          0.00392812573442131 0.003837353666526177 0.003927105075611033 0.003836295953623936 0.003926084416800757 0.0038352382407216947
          0.0034905013067164964 0.003490171213493925 0.0034898411202713537 0.004211460289983949 0.003480437306084014 0.004215151100955279
          0.003483630226716295 0.004218841911926609 0.0034868231473485765 0.002449909847056491 0.002453790194598373 0.002457670542140255
          0.002481749352702223 0.0028005987870301824 0.0024860243764557076 0.0028072056811905112 0.0024902994002091922 0.0028138125753508396
          0.002169048912010064 0.0021720411699588066 0.0021750334279075486 0.0037010458532294875 0.003700484893685332 0.0036999239341411767
          0.0024091582991312265 0.0024140391726606195 0.0024189200461900125
        </DataArray>
        <DataArray type="Float64" Name="pe22" format="ascii" RangeMin="-0.004845990036305653" RangeMax="-0.000020580448004188207">
          -0.0023142961361014907 -0.0023127454537289734 -0.002311194771356457 -0.0023946498253199183 -0.002394637710573996 -0.002394625595828074
          -0.0018820575290151393 -0.0018795147941128478 -0.0018769720592105564 -0.0042894545840705504 -0.004298329272998178 -0.004307203961925805
          -0.004157293311261068 -0.00416525444654735 -0.004173215581833631 -0.0037529739662026337 -0.00375933434285153 -0.0037656947195004262
          -0.003173806335026265 -0.003177742926471903 -0.00318167951791754 -0.0025272156263190194 -0.0025287603488026674 -0.002530305071286316
          -0.0019224504310088805 -0.001920819885218226 -0.0019191893394275717 -0.0014634648734515748 -0.0014604565808712011 -0.0014574482882908277
          -0.004487631825670271 -0.004498626446003077 -0.004509621066335883 -0.004073560084278015 -0.0040819457033380545 -0.0040903313223980935
          -0.0034302936611303072 -0.0034353640178851007 -0.0034404343746398942 -0.002699583635407538 -0.0027012820126057374 -0.0027029803898039368
          -0.0020120444412778317 -0.0020113895448410305 -0.0020107346484042293 -0.001465482259952865 -0.001462740835707589 -0.0014599994114623126
          -0.001112902108000169 -0.0011099103188423945 -0.00110691852968462 -0.00481336968337087 -0.004829679859838261 -0.004845990036305653
          -0.004442401057688971 -0.004454666469087477 -0.004466931880485981 -0.003747862343307598 -0.003755200200442125 -0.0037625380575766515
          -0.002919927608729044 -0.0029223673584172945 -0.0029248071081055447 -0.0021336441833065857 -0.0021327074653623595 -0.0021317707474181333
          -0.0015101793986790329 -0.0015078259799895812 -0.0015054725613001297 -0.0010959987693129924 -0.0010930753242293218 -0.0010901518791456516
          -0.0008585230309222395 -0.0008566211745186245 -0.0008547193181150093 -0.004760498617553842 -0.004779368969851849 -0.004798239322149855
          -0.004061216569694545 -0.004072796168231395 -0.004084375766768246 -0.0031578032691473136 -0.003162055977115706 -0.0031663086850840984
          -0.0022762138136157048 -0.0022752885865116603 -0.0022743633594076162 -0.0015750255110295855 -0.001572043831521959 -0.001569062152014333
          -0.0011116987957984167 -0.0011087430161855613 -0.0011057872365727059 -0.0008621937322586796 -0.0008598621519410315 -0.0008575305716233833
          -0.0007744961470659893 -0.0007730244209380793 -0.0007715526948101695 -0.0042425412290208004 -0.00425971162257917 -0.00427688201613754
          -0.0032912511357747233 -0.0032981430357468594 -0.003305034935718995 -0.0023632488270753415 -0.0023629744937401537 -0.0023627001604049655
          -0.0016255416878013223 -0.0016221154982983465 -0.0016186893087953703 -0.001137547716592351 -0.0011339910087231932 -0.0011304343008540353
          -0.0008703512562214105 -0.0008678772011333934 -0.0008654031460453764 -0.0007609889989743591 -0.0007594912585849657 -0.0007579935181955723
          -0.0007607456415597567 -0.0007600063865477916 -0.0007592671315358268 -0.0032124801711165994 -0.003216484099779848 -0.0032204880284430965
          -0.0022370336008542945 -0.0022352094755812985 -0.0022333853503083024 -0.001550568808280354 -0.001546860442597013 -0.0015431520769136715
          -0.0011181136197483351 -0.0011142530667308163 -0.0011103925137132978 -0.0008798353890965725 -0.0008770982863714606 -0.0008743611836463487
          -0.0007720580269296499 -0.0007705303625524023 -0.0007690026981751547 -0.0007492994271743513 -0.0007484307477627729 -0.0007475620683511944
          -0.000790490409595358 -0.0007900846552866723 -0.0007896789009779864 -0.001929927912161573 -0.0019184583586841723 -0.0019069888052067718
          -0.0012458168579664419 -0.001238471485827689 -0.0012311261136889356 -0.0008580285268999851 -0.0008549545695795719 -0.0008518806122591585
          -0.0008239185819728038 -0.0008213813310651197 -0.0008188440801574357 -0.000774921387399179 -0.0007735379780807775 -0.0007721545687623761
          -0.0007602934606760217 -0.0007595706145817596 -0.0007588477684874975 -0.0007850936471003084 -0.000784493515885246 -0.0007838933846701834
          -0.0008420193219597426 -0.0008415950432113654 -0.000841170764462988 -0.0007489724556697007 -0.000784036344556404 -0.000819568726716222
          -0.000748273977260885 -0.0007484634735833061 -0.0007836728653213652 -0.0008189797525567904 -0.0007479554668779721 -0.0007479544914969112
          -0.0007833093860863264 -0.0008183907783973585 -0.0007476369564950589 -0.0004955375049121703 -0.0002331015108724278 -0.0001823215184755368
          -0.0005812808860213578 -0.0004951953267090516 -0.00023441175391060784 -0.0001823730550666076 -0.0005770324030254042 -0.0004948531485059329
          -0.00023572199694878794 -0.00018242459165767846 -0.0005727839200294506 -0.0005750829824894792 -0.0004984178807545461 -0.0005742562787043253
          -0.0004978366744631547 -0.0005734295749191715 -0.0004972554681717633 -0.0006494013324650639 -0.0006946670526831023 -0.0006486495915482334
          -0.000693417247082023 -0.0006478978506314028 -0.0006921674414809439 -0.0008389526952651844 -0.0008907681062799369 -0.0008384924531309701
          -0.0008901786762378684 -0.0008380322109967556 -0.0008895892461958 -0.0008535811903468315 -0.00024083210338003176 -0.0008417698893369739
          -0.00023679043357649162 -0.0008299585883271161 -0.00023274876377295142 -0.0009145442760231867 -0.00079743872536416 -0.0009137508324461663
          -0.0007968972972685438 -0.0009129573888691459 -0.0007963558691729274 -0.0009093809685550796 -0.0009089518380338587 -0.0009085227075126376
          -0.000026550503932200366 -0.000027315559976298904 -0.00002808061602039744 -0.000020580448004188207 -0.000022861267377985065 -0.000025142086751781923
          -0.0001954040521169018 -0.0004719782483675748 -0.0001966223669552813 -0.00047106775361607296 -0.0001978406817936608 -0.0004701572588645712
          -0.0006400891317958666 -0.0006395156366617211 -0.0006389421415275756 -0.0009444790730560481 -0.000944041615005743 -0.0009436041569554379
          -0.0018927524691389058 -0.0018939162379779657 -0.0018950800068170258 -0.0008645622760622591 -0.0008202406368407015 -0.0008909059247970332
          -0.0009387037076094575 -0.0008646398950448716 -0.0008201054358097473 -0.0008909206490047212 -0.0009389829035023363 -0.000864717514027484
          -0.0008199702347787932 -0.0008909353732124089 -0.0009392620993952151 -0.0019255316626313823 -0.0019254796455501477 -0.0019254276284689134
          -0.001022805480797208 -0.0009145400924957067 -0.0010229928330137998 -0.0009145776391596633 -0.0010231801852303916 -0.0009146151858236201
          -0.0009585931592228593 -0.0009928290474331331 -0.0012087176685031378 -0.001317783103940371 -0.0009573376249338505 -0.000991253495336101
          -0.0012074695850374407 -0.0013163636030741712 -0.0009560820906448419 -0.0009896779432390687 -0.0012062215015717433 -0.0013149441022079714
          -0.0008452361498098144 -0.0007912866956771357 -0.0008451532927075929 -0.0007909144151171943 -0.0008450704356053716 -0.0007905421345572528
          -0.0013925399431078745 -0.0009834793247613146 -0.0013908352881581514 -0.0009826495242607675 -0.0013891306332084279 -0.0009818197237602205
          -0.0011576650181705556 -0.0011841920958381197 -0.0010647214036806406 -0.0011573798965623687 -0.0011837571278345387 -0.0010645575809899756
          -0.001157094774954182 -0.0011833221598309576 -0.0010643937582993106 -0.0012508046328222587 -0.0013280427930980928 -0.0014186444551938875
          -0.0013560422408040356 -0.0012504817210537151 -0.0013278858686747732 -0.0014186497062813304 -0.0013559631826777754 -0.0012501588092851713
          -0.001327728944251453 -0.0014186549573687733 -0.0013558841245515157 -0.0008474843913100566 -0.0008506153447927359 -0.0008527500692503712
          -0.0008467857755885331 -0.0008500672887170841 -0.0008517437832514487 -0.0008460871598670096 -0.0008495192326414322 -0.0008507374972525261
          -0.0009820919139788505 -0.0010823999320052431 -0.001132547823338786 -0.0009845344068232628 -0.0009809996586197058 -0.0010819462477715549
          -0.001132383588684463 -0.0009837969497145367 -0.0009799074032605611 -0.0010814925635378666 -0.00113221935403014 -0.0009830594926058108
          -0.0007786463119589193 -0.0008023838753730013 -0.0007782672873007174 -0.0008022711376745134 -0.0007778882626425154 -0.0008021583999760255
          -0.0014642842686371118 -0.0013789185478120512 -0.0014478126679470854 -0.0015216797847247025 -0.0014643977838711942 -0.0013788754078387427
          -0.001447859520268923 -0.001521780417129452 -0.0014645112991052765 -0.0013788322678654345 -0.0014479063725907604 -0.001521881049534202
          -0.0008350312244997588 -0.0008143815902312104 -0.0008067045130610296 -0.0008343878021518989 -0.0008140286962129716 -0.0008064252686718669
          -0.0008337443798040389 -0.0008136758021947329 -0.0008061460242827044 -0.0013926340906093417 -0.0013007026227508385 -0.001392762460687708
          -0.001300751101449098 -0.0013928908307660743 -0.0013007995801473575 -0.001628807596652597 -0.0015828838149109354 -0.0016166156435354268
          -0.0016559397050530079 -0.0016284912608629568 -0.0015827861700319847 -0.001616579654254243 -0.0016556503970317435 -0.0016281749250733166
          -0.0015826885251530338 -0.001616543664973059 -0.0016553610890104795 -0.0016692077163495097 -0.0016875801937401486 -0.0016690365511429816
          -0.0016873226696925972 -0.0016688653859364532 -0.0016870651456450457 -0.001135747526646374 -0.0010154223634094358 -0.0011356685855126055
          -0.0010149566866490603 -0.001135589644378837 -0.0010144910098886849 -0.0008533656149006346 -0.0008635211590683233 -0.0008530477112819411
          -0.0008631820870589538 -0.0008527298076632477 -0.0008628430150495842 -0.0010254554441516003 -0.0009517677913172433 -0.0008922855787786091
          -0.0009553272217980829 -0.0010254035406470244 -0.000951466762989697 -0.0008918342595800485 -0.0009553064226570289 -0.0010253516371424487
          -0.0009511657346621505 -0.0008913829403814877 -0.0009552856235159745 -0.0012816381938818878 -0.0012814260240085011 -0.0012812138541351144
          -0.0015327975257724753 -0.0015331984741829804 -0.0015335994225934855 -0.0020323356770223814 -0.002020039719333731 -0.0020326435816996774
          -0.0020214671302463305 -0.0020329514863769733 -0.00202289454115893 -0.0009570740285011168 -0.0010140992022543544 -0.0009568102001889414
          -0.0010139536224399363 -0.0009565463718767657 -0.001013808042625518 -0.0011470108947931126 -0.0010451228501277183 -0.0011467867631176998
          -0.0010453444516390863 -0.0011465626314422874 -0.0010455660531504543 -0.000896933946328455 -0.0008965554027656646 -0.0008961768592028739
          -0.0008919815695424111 -0.0009549382324195363 -0.0008914374261597246 -0.0009545774678210848 -0.0008908932827770384 -0.0009542167032226333
          -0.0014679704567798753 -0.0015243219425805225 -0.0014383156905941183 -0.001380580778105512 -0.0014680615769185209 -0.0015242833778119985
          -0.0014381386932744294 -0.001380612670214595 -0.0014681526970571665 -0.0015242448130434745 -0.0014379616959547402 -0.001380644562323678
          -0.0008752773921634544 -0.000896001867735266 -0.0008749796501747343 -0.0008958676239353638 -0.000874681908186014 -0.0008957333801354616
          -0.0013486236495515056 -0.0013254912455836466 -0.0014621791571248822 -0.0013478231042431304 -0.0013249539312169551 -0.0014619030193704888
          -0.0013470225589347546 -0.0013244166168502633 -0.0014616268816160954 -0.000856085772391975 -0.000852302833798459 -0.0008495594240624064
          -0.0008552254965712733 -0.0008513210642142148 -0.0008479187713745074 -0.0008543652207505716 -0.0008503392946299706 -0.0008462781186866086
          -0.0009733258492741893 -0.0009732634955074133 -0.0009732011417406371 -0.0009002740794287693 -0.000898499302558636 -0.0008967245256885027
          -0.0010309348334571005 -0.0008873531203710484 -0.0010292825015620118 -0.000885614829675793 -0.001027630169666923 -0.0008838765389805374
          -0.001104355776828104 -0.0010309713550101787 -0.0011040750858768312 -0.0010306112098689628 -0.0011037943949255586 -0.0010302510647277473
          -0.001524799989260884 -0.0015249576376773597 -0.001525115286093835 -0.0020077176283801214 -0.0016516952844291188 -0.002008488298533481
          -0.0016500974287869882 -0.0020092589686868416 -0.001648499573144858 -0.0021274168782453194 -0.002127241203131418 -0.0021270655280175165
          -0.0017478200745637312 -0.0017518167222618638 -0.0016662882047901073 -0.001609741091591477 -0.0017475624791335952 -0.0017516855230315894
          -0.0016662962977053064 -0.0016096161813895326 -0.0017473048837034595 -0.0017515543238013152 -0.0016663043906205055 -0.0016094912711875882
          -0.00154764480766209 -0.0015475309434702102 -0.001547417079278331 -0.00111342261869642 -0.0010292523346827915 -0.0011133889311850022
          -0.0010290067500842894 -0.0011133552436735842 -0.0010287611654857874 -0.0008326487082858474 -0.0008313328903289327 -0.0008300170723720182
          -0.0015846404309102667 -0.0012299757535472588 -0.001583728929573141 -0.0012290386000830956 -0.0015828174282360157 -0.0012281014466189325
          -0.001415759295849773 -0.0014153176891176923 -0.0014148760823856116 -0.0016724041385985707 -0.0016734926817920915 -0.0016911275557941626
          -0.001672040258244675 -0.001673244166770168 -0.0016907464000038256 -0.0016716763778907796 -0.0016729956517482444 -0.0016903652442134885
          -0.0009366732885458919 -0.001008388158296535 -0.000936344002023198 -0.0010080167392569734 -0.0009360147155005042 -0.0010076453202174116
          -0.0014952086710631075 -0.0015749795555716393 -0.0014950690244724708 -0.0015750636054492203 -0.0014949293778818344 -0.001575147655326801
          -0.0011432381049911418 -0.0010809147686038321 -0.0011428641535805688 -0.0010806245530869186 -0.0011424902021699957 -0.0010803343375700048
          -0.0011464364481635209 -0.001047671473783002 -0.001146345216998561 -0.0010472205635280135 -0.0011462539858336012 -0.0010467696532730252
          -0.0016619934561881446 -0.0016618748532605016 -0.0016617562503328583 -0.0015722373120078336 -0.0015724297800888578 -0.0015726222481698823
          -0.0017392602409723435 -0.0017388068967578642 -0.0017383535525433852 -0.0010477810202928631 -0.0010478463737358232 -0.0010479117271787837
          -0.0016243456718583176 -0.0016242468828924544 -0.0016241480939265915 -0.0015234638587394568 -0.0015234642783596836 -0.001523464697979911
          -0.0015865824110841784 -0.0015339248695784443 -0.001586410425162272 -0.0015339544057129744 -0.0015862384392403654 -0.0015339839418475041
          -0.0012663101678858084 -0.00128895450391557 -0.001266400013198695 -0.0012890330029956141 -0.0012664898585115815 -0.0012891115020756585
          -0.0013198610239148925 -0.0013198486119183476 -0.0013198361999218024 -0.0016211264945427402 -0.0016211099704765805 -0.0016210934464104209
          -0.0009717273090873364 -0.0009991785332423859 -0.0008845250216636745 -0.0009714650779978862 -0.0009982329778068914 -0.0008840589716308116
          -0.0009712028469084362 -0.0009972874223713969 -0.0008835929215979491 -0.0014869484656089545 -0.0015193356226295834 -0.001486512863176982
          -0.0015189519509245508 -0.0014860772607450095 -0.0015185682792195185 -0.001165933612335506 -0.001165574537048639 -0.001165215461761772
          -0.0016091416881356857 -0.0016089019642854805 -0.0016086622404352753 -0.0015647903356781653 -0.0015644678051265123 -0.0015641452745748592
          -0.0009033464472418618 -0.0009027468116217767 -0.0009021471760016918 -0.0015474417737278876 -0.0015470994943460852 -0.001546757214964283
          -0.0011067032725533249 -0.0011066846329134755 -0.0011066659932736256 -0.0011993493541611012 -0.0011993298713393957 -0.0011993103885176901
          -0.0018893076834067964 -0.0018888998389885526 -0.0018884919945703087 -0.001511735181965261 -0.0015112437557214628 -0.001510752329477665
          -0.001203930749973134 -0.0012034245256225926 -0.0012029183012720514 -0.0011771112199921302 -0.00117649480490904 -0.0011758783898259495
          -0.0011308419788848426 -0.001129270527310171 -0.0011276990757354995 -0.0009363439131297308 -0.0009356562709142225 -0.0009349686286987141
          -0.0011189450751302832 -0.0011188234481748415 -0.0011187018212194001 -0.0011817762466806393 -0.001181424646502105 -0.0011810730463235706
          -0.0012052005819492343 -0.001205282194850927 -0.0012053638077526194 -0.0012124172039210258 -0.0012124903603551937 -0.0012125635167893611
          -0.001304656705798775 -0.0013048104052461624 -0.0013049641046935497 -0.0012556941587503656 -0.0012556080269046142 -0.0012555218950588629
          -0.001427899541986159 -0.0014276138316091432 -0.0014273281212321275 -0.0009965438380408612 -0.0008567026222491253 -0.000996353732359315
          -0.000856346223737913 -0.000996163626677769 -0.0008559898252267007 -0.0012413625553660465 -0.001241528909789162 -0.0012416952642122774
          -0.0009803360207830641 -0.0010206478474599255 -0.0009802526364349443 -0.0010205976173160232 -0.0009801692520868244 -0.0010205473871721209
          -0.0016346458850109299 -0.001634608926276525 -0.0016345719675421196 -0.0016479250352179355 -0.0016475727887581624 -0.0016472205422983898
          -0.0012733092138731382 -0.0012732653866840693 -0.0012732215594950006 -0.0017103691193297342 -0.0017374676846782114 -0.0017104351979884873
          -0.0017375136622424063 -0.0017105012766472402 -0.0017375596398066016 -0.001672712950371063 -0.0013070335079839789 -0.001476782857574489
          -0.0016718632027326152 -0.0013066743413107937 -0.001475859744546855 -0.0016710134550941675 -0.0013063151746376084 -0.001474936631519221
          -0.0017452355531422565 -0.0017449987493896191 -0.0017447619456369818 -0.0018340971736686793 -0.0018334902422355117 -0.0018328833108023444
          -0.0017032092446804107 -0.0017026047529639316 -0.0017030532880361747 -0.0017023529241362212 -0.001702897331391939 -0.0017021010953085108
          -0.00192121104078427 -0.0018031764889086474 -0.0019206142601168501 -0.0018027753223712976 -0.0019200174794494309 -0.001802374155833948
          -0.0017341086717490594 -0.001741105914897702 -0.0017336946969845157 -0.0017406864144580163 -0.0017332807222199724 -0.0017402669140183305
          -0.0019411952601090122 -0.001899597467003231 -0.0019407003351406894 -0.0018991218566552408 -0.001940205410172367 -0.0018986462463072506
          -0.0017261468307157618 -0.0017256048843638154 -0.0017250629380118688 -0.0022901965073712266 -0.0018859325842595725 -0.002290742445711889
          -0.0018849878589374922 -0.0022912883840525513 -0.001884043133615411 -0.0012324403691506517 -0.0012319914156439452 -0.0012315424621372388
          -0.0013048787250516702 -0.0014727766675703203 -0.0013038686473184802 -0.0014724834965360914 -0.00130285856958529 -0.0014721903255018626
          -0.001110304292914853 -0.0011089963689738629 -0.0011076884450328727 -0.001838185997589286 -0.00183779964142274 -0.001837413285256194
          -0.001238244552846899 -0.0012373906195216528 -0.0012365366861964067
        </DataArray>
        <DataArray type="Float64" Name="pe33" format="ascii" RangeMin="-0.0043914312471213905" RangeMax="-0.000026304091700662903">
          -0.002015111966327626 -0.0020125362002689673 -0.002009960434210309 -0.0020302655262659695 -0.002029575589239275 -0.0020288856522125793
          -0.0016322762734265516 -0.0016347608236455533 -0.0016372453738645548 -0.0039910343366450175 -0.003979264799972614 -0.0039674952633002095
          -0.0036381241196531532 -0.0036236447509272896 -0.003609165382201426 -0.0031533158444001434 -0.003143635489926382 -0.0031339551354526204
          -0.002603114511984709 -0.002601074114042135 -0.002599033716099562 -0.0020687874416160795 -0.0020722319354058187 -0.002075676429195558
          -0.0016266622640800671 -0.0016307530025324438 -0.0016348437409848208 -0.0012825441647274247 -0.0012882815185806518 -0.0012940188724338793
          -0.003948422204184214 -0.003936522773555402 -0.00392462334292659 -0.0033955322902855427 -0.0033844053031391957 -0.003373278315992848
          -0.002774646060035829 -0.0027704862875001885 -0.002766326514964548 -0.0021644614912105474 -0.002168143723667845 -0.0021718259561251422
          -0.0016418840331178962 -0.0016497227740155961 -0.0016575615149132966 -0.0012575156817720397 -0.0012647491241705503 -0.001271982566569061
          -0.0009987747602223653 -0.0010061103315492758 -0.0010134459028761861 -0.0043914312471213905 -0.004373698598259803 -0.004355965949398216
          -0.0037047392836672835 -0.003694111117072762 -0.00368348295047824 -0.0029854849069095835 -0.002980529125959532 -0.0029755733450094806
          -0.0022902619924092854 -0.0022935537678022517 -0.002296845543195218 -0.0016967189495975447 -0.0017056815305728395 -0.0017146441115481344
          -0.0012537793874112088 -0.0012638923883316157 -0.0012740053892520227 -0.0009709148090957177 -0.0009789561417836985 -0.0009869974744716793
          -0.0008007481591997099 -0.0008072524443173204 -0.0008137567294349309 -0.0040938739504649555 -0.004078411865276401 -0.0040629497800878465
          -0.0032287140229996934 -0.0032224927322967597 -0.0032162714415938255 -0.0024247983020701646 -0.0024287684061635333 -0.002432738510256903
          -0.0017603264561000692 -0.0017705137923300412 -0.0017807011285600135 -0.0012737050279953623 -0.0012850319776120925 -0.0012963589272288224
          -0.0009613141570531862 -0.0009708056762342955 -0.0009802971954154045 -0.0007961886117982275 -0.0008030356437397776 -0.0008098826756813277
          -0.0007416300194473391 -0.0007463540146354766 -0.0007510780098236142 -0.003457104693702135 -0.0034517620543046273 -0.0034464194149071196
          -0.0025238269461686333 -0.0025266374802067853 -0.0025294480142449365 -0.0017860599879736183 -0.0017985597587163488 -0.0018110595294590789
          -0.001279944133033856 -0.001292622076533852 -0.0013053000200338478 -0.0009653102279250376 -0.0009749356802474908 -0.0009845611325699443
          -0.0007935041277531523 -0.0008003955817121358 -0.0008072870356711192 -0.0007276919418322159 -0.000732477928249065 -0.000737263914665914
          -0.0007407406265926613 -0.000743813636113847 -0.0007468866456350325 -0.002457017647629815 -0.0024696999683898975 -0.00248238228914998
          -0.0016956784157660726 -0.0017073694004626097 -0.0017190603851591469 -0.0011973463821734675 -0.0012121276387728247 -0.0012269088953721819
          -0.0009319453699928347 -0.0009415480500860163 -0.000951150730179198 -0.0007954261030364185 -0.0008009631791461251 -0.0008065002552558318
          -0.0007340650185089243 -0.0007380233833058684 -0.0007419817481028125 -0.0007323246956383384 -0.0007351418216981212 -0.000737958947757904
          -0.0007781823588185383 -0.0007800028726607346 -0.0007818233865029309 -0.001407397208601069 -0.0014292575992783459 -0.0014511179899556227
          -0.000982140099991419 -0.0009951992098697585 -0.001008258319748098 -0.0007300094432830128 -0.0007392937219812363 -0.00074857800067946
          -0.0007372255231262047 -0.0007415036006854934 -0.0007457816782447822 -0.0007303881096095348 -0.0007322540069075872 -0.0007341199042056398
          -0.0007402356279178038 -0.0007418256535560428 -0.0007434156791942819 -0.0007775744198387065 -0.00077874981541568 -0.0007799252109926536
          -0.0008353303294033668 -0.0008364248202824469 -0.000837519311161527 -0.0007203703499419143 -0.0007761923307381186 -0.0008173484374031614
          -0.0007375291627799122 -0.0007202318861521028 -0.0007760982623467238 -0.0008162589790145286 -0.0007365294388904696 -0.0007200934223622909
          -0.000776004193955329 -0.0008151695206258955 -0.000735529715001027 -0.0004607500119880247 -0.00022277271310042912 -0.00018184735609005044
          -0.0005108058679189282 -0.00046672940326315153 -0.00022562855264662008 -0.0001853105746226752 -0.0005192607898260596 -0.00047270879453827845
          -0.000228484392192811 -0.00018877379315529992 -0.0005277157117331912 -0.0005418344886733441 -0.00047626129370518773 -0.0005447282797334555
          -0.00047640215721701947 -0.0005476220707935668 -0.0004765430207288513 -0.0006328962943079105 -0.0006539575623464616 -0.0006316203072376323
          -0.0006543838518198049 -0.0006303443201673542 -0.0006548101412931481 -0.0008402301294556625 -0.0008945517329484298 -0.0008400621523859195
          -0.0008934640762220485 -0.0008398941753161765 -0.0008923764194956672 -0.0006573451700806187 -0.00022152263752380828 -0.000672867263738558
          -0.0002248474130668603 -0.0006883893573964971 -0.00022817218860991237 -0.0009160727650184222 -0.0007947565512312419 -0.0009146484652398622
          -0.0007933696495590229 -0.0009132241654613022 -0.0007919827478868038 -0.0009086999743072655 -0.0009093343978734545 -0.0009099688214396436
          -0.00003287542532175987 -0.00003420749053253512 -0.00003553955574331038 -0.000026304091700662903 -0.00002931237719875302 -0.000032320662696843136
          -0.00018309547683562823 -0.0004529122558180423 -0.00018529298385319177 -0.00045214687092491417 -0.00018749049087075532 -0.00045138148603178605
          -0.0006341358510731261 -0.000632427029748992 -0.0006307182084248579 -0.0009496533285735512 -0.0009495363602889176 -0.000949419392004284
          -0.0015505893083363263 -0.0015600345291977632 -0.0015694797500592002 -0.000851201901179318 -0.0008005590194242629 -0.000875551928525889
          -0.000932355419642185 -0.000852676087735171 -0.0008023186515728589 -0.0008763168345019325 -0.0009335147601475114 -0.0008541502742910241
          -0.0008040782837214549 -0.0008770817404779759 -0.0009346741006528378 -0.0015720155188184261 -0.0015801120393478195 -0.0015882085598772125
          -0.0010248170560794544 -0.0009043510401533692 -0.0010261360858838814 -0.0009061782324311617 -0.0010274551156883084 -0.0009080054247089541
          -0.0008775589682430303 -0.0009057910241320822 -0.0010398630264306832 -0.001128932330964419 -0.0008823252585722675 -0.0009101105035544477
          -0.0010469284703988422 -0.0011352669500241984 -0.0008870915489015046 -0.0009144299829768134 -0.0010539939143670014 -0.0011416015690839778
          -0.0008198944573118285 -0.0007620553597326589 -0.0008213549036129492 -0.0007652373866718438 -0.0008228153499140698 -0.0007684194136110288
          -0.0011873032962351148 -0.0008865460083916278 -0.0011926485483934987 -0.0008925524434434157 -0.001197993800551883 -0.0008985588784952034
          -0.001175101345153528 -0.0011942201458430882 -0.0010802339860425225 -0.0011741241729751229 -0.0011940157022768737 -0.0010800418138138287
          -0.0011731470007967175 -0.001193811258710659 -0.001079849641585135 -0.0012429452032989945 -0.0013196027092406584 -0.001416452442679413
          -0.00135112150295255 -0.0012432729110299517 -0.001320828967767253 -0.0014172843180798704 -0.001350897126082752 -0.0012436006187609085
          -0.0013220552262938475 -0.0014181161934803278 -0.001350672749212954 -0.0007915632635950732 -0.0008005242878554371 -0.0008030176146302677
          -0.0007968905895268534 -0.0008042785700048867 -0.0008068460117222442 -0.0008022179154586334 -0.0008080328521543362 -0.0008106744088142208
          -0.0009498826768183603 -0.001069984854291393 -0.0011301369981581877 -0.0009664752716422397 -0.0009534775640532081 -0.001073771308065048
          -0.0011339354874992894 -0.0009687995317662921 -0.000957072451288056 -0.0010775577618387028 -0.001137733976840391 -0.0009711237918903446
          -0.000743013639616424 -0.0007665308317403813 -0.0007478300507822753 -0.0007703191435945582 -0.0007526464619481268 -0.0007741074554487352
          -0.001470695937140787 -0.001381824910429411 -0.0014475109874170083 -0.001526110248629946 -0.0014694916950787889 -0.0013808237841976755
          -0.0014468800067340233 -0.001525201692731871 -0.0014682874530167905 -0.0013798226579659401 -0.0014462490260510382 -0.0015242931368337957
          -0.0008042852077991157 -0.0007560773339757579 -0.0007493572077029996 -0.0008064891267475479 -0.0007633231986173794 -0.00075570062475466
          -0.0008086930456959803 -0.0007705690632590007 -0.0007620440418063201 -0.001397727528567844 -0.0013032211957451426 -0.0013968852440691619
          -0.0013026640211566691 -0.0013960429595704794 -0.0013021068465681957 -0.00163305609872148 -0.0015856150523455956 -0.0016136944059742262
          -0.0016568016782311404 -0.0016324344586307181 -0.0015847281525125667 -0.0016136864053164052 -0.0016567577796465483 -0.0016318128185399561
          -0.0015838412526795376 -0.001613678404658584 -0.0016567138810619558 -0.001666430379585973 -0.0016901506578306117 -0.0016671893686734723
          -0.001691263325061604 -0.0016679483577609715 -0.0016923759922925967 -0.0011262686371935442 -0.0010067559478539434 -0.001129051636370591
          -0.0010086213430034457 -0.0011318346355476384 -0.0010104867381529482 -0.0007967669927606674 -0.0008182895484690679 -0.0008024395656853203
          -0.0008217431328954113 -0.0008081121386099733 -0.0008251967173217549 -0.0010147957147949452 -0.0009430392674493681 -0.0008722259113204222
          -0.0009362833075517914 -0.0010159168146856856 -0.0009436273625388258 -0.000873074075492858 -0.0009376366629404171 -0.0010170379145764262
          -0.0009442154576282839 -0.0008739222396652939 -0.0009389900183290432 -0.0012803149408786173 -0.0012796978770209997 -0.0012790808131633818
          -0.001257082462091219 -0.0012687720597331106 -0.001280461657375002 -0.0016770525595972718 -0.0016977676893112027 -0.001681129919654311
          -0.0017008629039435763 -0.00168520727971135 -0.0017039581185759498 -0.0009541586034540026 -0.0010225543433704108 -0.0009543102414343168
          -0.0010226491106812969 -0.0009544618794146308 -0.0010227438779921829 -0.0011516825749004255 -0.001045117896731503 -0.0011529528730899422
          -0.0010473990616923278 -0.001154223171279459 -0.0010496802266531525 -0.0008840466941519275 -0.0008843274600625195 -0.0008846082259731115
          -0.0008781698361426183 -0.0009518426108385211 -0.0008785293717255176 -0.00095211845269634 -0.0008788889073084167 -0.0009523942945541589
          -0.0014723812240310882 -0.0015288641537969734 -0.0014428043673084755 -0.0013857183167273624 -0.00147152742685458 -0.0015280723481087342
          -0.0014419064104192055 -0.0013850846643737678 -0.0014706736296780714 -0.001527280542420495 -0.0014410084535299355 -0.0013844510120201736
          -0.0008448518817551355 -0.0008736965095453482 -0.0008468720540556429 -0.0008757677685147839 -0.0008488922263561505 -0.0008778390274842196
          -0.0013512569703271295 -0.0013322317296359664 -0.001467571465346331 -0.0013504426256859886 -0.0013312908246697172 -0.0014665125321416087
          -0.0013496282810448474 -0.0013303499197034679 -0.0014654535989368864 -0.0008189236998326136 -0.0008240157281803788 -0.000801835343677829
          -0.0008210560709183088 -0.0008252418858221801 -0.0008047429511904367 -0.0008231884420040044 -0.0008264680434639815 -0.0008076505587030447
          -0.000959608060565358 -0.0009611361774336532 -0.0009626642943019485 -0.0008349586843244675 -0.0008390757456880596 -0.0008431928070516517
          -0.0009103265999206092 -0.000809862694924262 -0.0009174754590511101 -0.0008160766334095275 -0.0009246243181816111 -0.0008222905718947932
          -0.001119700486597105 -0.001037164091057921 -0.0011191243797880246 -0.0010372689217298936 -0.0011185482729789444 -0.0010373737524018668
          -0.0015216714337673162 -0.001522246840673744 -0.0015228222475801715 -0.0016680261196728666 -0.0013933580851032577 -0.0016728630808956885
          -0.0013975198710445011 -0.0016777000421185104 -0.0014016816569857443 -0.001734383997969426 -0.0017398470851081452 -0.0017453101722468647
          -0.0017681750694325694 -0.0017676166483493027 -0.0016747403463443485 -0.0016147832961344285 -0.001768941689087053 -0.0017682062542995704
          -0.0016759931212883708 -0.0016164677462215584 -0.0017697083087415374 -0.0017687958602498383 -0.0016772458962323932 -0.0016181521963086884
          -0.0015533902373614627 -0.0015526185057268692 -0.0015518467740922757 -0.0011109847004116531 -0.0010286904327482106 -0.0011116531084618391
          -0.001029297304238598 -0.001112321516512025 -0.0010299041757289855 -0.0007838319724844133 -0.0007878229106016639 -0.0007918138487189147
          -0.001342641796835885 -0.0010508356919718249 -0.0013469756388553881 -0.0010576623900126374 -0.0013513094808748913 -0.0010644890880534498
          -0.0014421934568113063 -0.0014437273077220216 -0.0014452611586327367 -0.0016790593490763144 -0.0016707166124936023 -0.001692363099588596
          -0.0016789511733337052 -0.0016709965049830939 -0.0016923398919014762 -0.001678842997591096 -0.001671276397472585 -0.0016923166842143563
          -0.0009225091121318996 -0.00100340954926211 -0.0009243206036552797 -0.0010048254953295712 -0.0009261320951786596 -0.0010062414413970322
          -0.0014990969686321945 -0.0015790390137095482 -0.0015005821933646672 -0.0015804042191549653 -0.0015020674180971404 -0.0015817694246003822
          -0.0011367520894049739 -0.0010673437629467176 -0.0011377461678691598 -0.0010681475984798466 -0.0011387402463333464 -0.0010689514340129758
          -0.0011385194141285758 -0.001043730927561396 -0.0011402249862506198 -0.0010451721525159936 -0.001141930558372663 -0.0010466133774705913
          -0.0016678319318009084 -0.0016689861025645039 -0.0016701402733280992 -0.0015697382878611282 -0.0015698300063162317 -0.0015699217247713356
          -0.001752230770204383 -0.0017531474614228368 -0.001754064152641291 -0.001028892713356486 -0.0010301288130587741 -0.0010313649127610622
          -0.0016201795355511354 -0.0016211981727359828 -0.0016222168099208304 -0.0012961866405845214 -0.0013027373832869829 -0.0013092881259894448
          -0.0015917233468749716 -0.0015392479627240815 -0.0015908738983835293 -0.0015381068283632413 -0.0015900244498920873 -0.0015369656940024015
          -0.0012739821643345448 -0.0012898482965514589 -0.0012773866858828762 -0.0012925074247586161 -0.0012807912074312075 -0.0012951665529657736
          -0.001314370995571334 -0.0013161551397757331 -0.001317939283980132 -0.0016172207076567652 -0.001617902831309885 -0.0016185849549630047
          -0.0008744494076694818 -0.0009077798562071259 -0.0008367270698003856 -0.0008816524089232646 -0.0009150415009514028 -0.0008414488921768586
          -0.0008888554101770473 -0.0009223031456956797 -0.0008461707145533316 -0.001510584862783126 -0.0015372242261554147 -0.0015115291573701134
          -0.001538568858401245 -0.0015124734519571007 -0.0015399134906470754 -0.001015505455473652 -0.0010245835953936815 -0.0010336617353137111
          -0.001615340937157129 -0.0016146666193229326 -0.0016139923014887362 -0.0015717748139702885 -0.0015734404498464007 -0.001575106085722513
          -0.0008721859064534603 -0.000874679158584236 -0.0008771724107150118 -0.001315982301205355 -0.0013224919698557494 -0.0013290016385061436
          -0.0010964038278490434 -0.001097217450256764 -0.0010980310726644846 -0.001197019019311522 -0.001197111889314148 -0.0011972047593167743
          -0.0015892455238052652 -0.001597026045051441 -0.0016048065662976167 -0.0012751815169143254 -0.0012852723060840354 -0.0012953630952537453
          -0.0010527031593475628 -0.0010609354527206748 -0.001069167746093787 -0.0010189612690214283 -0.0010295340299845022 -0.0010401067909475764
          -0.0010206291905592191 -0.0010265965517620632 -0.0010325639129649072 -0.0008368479252899227 -0.0008467093990220517 -0.0008565708727541807
          -0.0011250357128077633 -0.001125299258988705 -0.0011255628051696465 -0.0011752529008347153 -0.001175241074036621 -0.0011752292472385268
          -0.0012159897670758872 -0.0012156483868957923 -0.0012153070067156975 -0.0012155333776794795 -0.0012155717583083735 -0.0012156101389372673
          -0.0013106968879461824 -0.0013103021977880448 -0.0013099075076299074 -0.0012462083211887875 -0.0012476191373774507 -0.0012490299535661137
          -0.0014242217918318284 -0.0014257350854208993 -0.00142724837900997 -0.0008658617468917254 -0.000773323647942837 -0.0008768379970055739
          -0.0007819852460325175 -0.0008878142471194225 -0.0007906468441221982 -0.0010366588383646234 -0.0010486243352561227 -0.0010605898321476219
          -0.000977402933805671 -0.001024282270880064 -0.000979478512456798 -0.001026414755733341 -0.0009815540911079245 -0.0010285472405866178
          -0.0016305843197291512 -0.0016310833658407936 -0.0016315824119524367 -0.0016559260048850518 -0.0016554439194857965 -0.0016549618340865407
          -0.0012849491667920427 -0.0012840915713786209 -0.0012832339759651992 -0.0017066299065108773 -0.001745069860117207 -0.0017072821118079527
          -0.0017457338220533696 -0.001707934317105028 -0.0017463977839895322 -0.0017163720945953906 -0.0013228441191463413 -0.0015046663742602489
          -0.0017166494511855381 -0.0013262165534175217 -0.0015060898799176565 -0.0017169268077756859 -0.0013295889876887021 -0.001507513385575064
          -0.0017607453183670968 -0.001761400248041557 -0.001762055177716017 -0.0018538846057153226 -0.0018540976657118644 -0.0018543107257084062
          -0.0016971683060485886 -0.001698362462016493 -0.0016973345808062007 -0.001698236320080668 -0.0016975008555638127 -0.0016981101781448431
          -0.0019338487664029827 -0.0018211944416140695 -0.0019338489929230946 -0.001821356692585708 -0.0019338492194432063 -0.0018215189435573467
          -0.0017707464959263934 -0.0017683777634814979 -0.0017714227948609654 -0.0017693024893015463 -0.0017720990937955376 -0.0017702272151215949
          -0.0019869304743122982 -0.0019377561995229454 -0.0019864047404703437 -0.0019371740969686944 -0.001985879006628389 -0.0019365919944144435
          -0.001764354476000734 -0.0017645663291301094 -0.0017647781822594847 -0.0019212637826127226 -0.0015945047218244401 -0.0019244086552433898
          -0.001598642367778803 -0.0019275535278740572 -0.0016027800137331655 -0.0012174694779058394 -0.0012217987789544275 -0.0012261280800030159
          -0.0011768706276505528 -0.0013278221194598623 -0.0011821557291372274 -0.0013347221846544194 -0.0011874408306239022 -0.001341622249848977
          -0.0010587446190952106 -0.0010630448009849433 -0.0010673449828746762 -0.0018628598556402012 -0.0018626852522625917 -0.001862510648884982
          -0.001170913746284327 -0.0011766485531389658 -0.0011823833599936052
        </DataArray>
        <DataArray type="Float64" Name="disp_x" format="ascii" RangeMin="0.00001662876250003555" RangeMax="0.00006214047109770948">
          0.000032966784337848036 0.000032953228186698216 0.00003290921195399298 0.00003201270060454827 0.00003200149062055637 0.00003197175681069555
          0.000034321627379511134 0.00003430952222973463 0.000034271286697870235 0.000016656466134773505 0.00001664972546395419 0.00001662876250003555
          0.00002090177181472698 0.000020891449479004344 0.000020859244051480273 0.000024819265651489725 0.000024805741384999975 0.000024765009255876038
          0.00002825377609695265 0.00002823958947235792 0.0000281967588733848 0.00003113282781165428 0.00003112144047896491 0.00003108383151153972
          0.00003347805877422087 0.00003346787622380545 0.00003344065822238004 0.000035396965404911616 0.00003538764724632892 0.000035357339073159246
          0.000019366475891083722 0.000019353831624223064 0.000019315742826217953 0.000023571230885684295 0.000023556639568381412 0.00002351143191982528
          0.00002723991299395527 0.000027224026752076173 0.00002717574227262493 0.00003028027731158398 0.000030265756186738026 0.000030221443742250624
          0.00003270666070255479 0.000032696120533136335 0.00003266190848722862 0.00003462740792523997 0.00003461972743923688 0.00003459819675492103
          0.00003620421337027459 0.0000361983083567316 0.00003617866093063525 0.000017663197721154723 0.000017642664591813515 0.000017588271760468704
          0.0000222148136062666 0.000022197066116820817 0.00002214337781594243 0.000026174418349456375 0.00002615670012863182 0.000026101889491724108
          0.000029419464021101156 0.000029403162654982453 0.00002935291435932391 0.00003195871776242847 0.00003194604704009086 0.000031906600368510754
          0.00003391680966874664 0.00003390861986871051 0.00003388271117625975 0.00003547859466098389 0.00003547385130626355 0.00003545982685248258
          0.00003681979017126997 0.00003681702521548 0.000036808730721253136 0.00002079683645341672 0.00002077455760717717 0.000020707460651214033
          0.000025069932525929292 0.000025048847852808938 0.00002498424880825424 0.000028540166593269488 0.00002852183570568033 0.000028464746388835477
          0.000031206016217479324 0.00003119215406368861 0.00003114853257336318 0.000033214536258792937 0.00003320544899363932 0.000033177069774943464
          0.000034782811154027004 0.00003477773119025173 0.000034762090293406944 0.00003610738362450314 0.000036105280914275166 0.000036099026702125606
          0.00003733131906401017 0.000037331260477240314 0.00003733150682242645 0.00002409012254852354 0.000024068058433864942 0.000023995341951384028
          0.000027731875544886147 0.000027710828865250785 0.000027644783905269275 0.000030465933155187657 0.000030451071774967097 0.000030403953177832294
          0.00003249416936873359 0.00003248527625684938 0.000032457459013542254 0.000034070596737756794 0.000034065616808632504 0.00003405031438655665
          0.000035401192409615634 0.00003539884713961125 0.00003539203100581919 0.00003662297905550904 0.00003662268117088331 0.00003662197695786522
          0.00003782911074058845 0.00003783027110852065 0.000037833824287508226 0.000027287163653216414 0.000027273831224370193 0.00002720927868666414
          0.000029898079868322473 0.000029882647310716597 0.00002983273564022628 0.00003180373649700698 0.00003179564573863725 0.000031771893649142294
          0.000033327526692596764 0.0000333242506813514 0.00003331392908814515 0.000034654394820694554 0.00003465259404985922 0.000034647179397373607
          0.0000358931376987751 0.00003589261236194705 0.000035891272979071035 0.000037102536413014035 0.00003710333162312796 0.00003710557161995259
          0.00003833505573067019 0.000038336546996479755 0.000038341427210928835 0.000029800083017419503 0.00002979471485728222 0.000029768856405847968
          0.00003136765476218429 0.000031361020172023875 0.00003134250741633338 0.000032657180732974304 0.000032655788972992276 0.000032653359156940036
          0.000033885761853904885 0.000033886327566294795 0.000033889018104580735 0.000035115911392914424 0.00003511646936476381 0.000035117382381219336
          0.000036341577746109204 0.00003634230463568775 0.000036344362456648276 0.000037581336168837353 0.00003758260509264133 0.00003758640406538087
          0.00003886540720086042 0.00003886669503982281 0.00003887071009962858 0.00003578493753150747 0.00003692211265602216 0.00003740363999613116
          0.000036339275082981376 0.00003578678068870092 0.000036923870786722655 0.000037405942339094145 0.00003634219164824098 0.00003579181354475098
          0.00003692938868194635 0.000037413390502851324 0.00003635194803833531 0.00003284387795850852 0.00003341462240278872 0.000032523712959325014
          0.000031893835074539216 0.00003284476716877232 0.000033419318583466485 0.000032523734553315275 0.00003189267385813702 0.00003284833887987707
          0.00003343354942428982 0.00003252422702124993 0.000031887169496833915 0.00003377445577360935 0.00003438416186791652 0.000033778116212569916
          0.00003438925411114592 0.00003378879065027278 0.000034405292164085466 0.000035410608003322 0.00003467158549016868 0.00003541456953781051
          0.000034674142551176864 0.00003542478613237227 0.00003468116230136455 0.00003815408132379608 0.000038457275495402696 0.000038155595320894885
          0.000038459217812544015 0.000038159872543973555 0.000038464043521043414 0.000030813186102110825 0.00003188623945015095 0.00003080848748080366
          0.000031885875816946267 0.00003080010666525248 0.00003188340906737112 0.000038811132831708135 0.00003742710435781143 0.00003881328368702708
          0.000037430351004581485 0.000038819289134187216 0.00003744111172215635 0.000039538810705279235 0.00003954004950974518 0.00003954341630338342
          0.000033219710049692086 0.00003322089388084001 0.000033222244282797286 0.00003367711213117137 0.00003367960023277845 0.00003368921178925713
          0.00003425308522043895 0.000035141091403578724 0.000034258370222556384 0.00003514701409949146 0.000034280767312990595 0.00003516370778518349
          0.00003620542493336226 0.000036209186269393795 0.000036221699967123845 0.00004022664712173164 0.000040227752147530585 0.00004023197217466834
          0.00003480410178837783 0.00003479328251091821 0.000034762735451206625 0.000039608125861205285 0.00003897284157676831 0.00004012594941625905
          0.000040876405381452256 0.00003961012432516506 0.00003897486611855192 0.00004012826822389786 0.000040879104108495384 0.000039615708467959136
          0.00003898101621182874 0.00004013543531364396 0.00004088648799704988 0.00003479827971277453 0.00003479027678423194 0.000034768554121546936
          0.000041918204666608396 0.00004027597795916217 0.0000419215302136196 0.000040277933431982635 0.000041932780998368554 0.00004028313678750968
          0.000038865733900610464 0.0000382885085423672 0.00003730238715354495 0.00003713445110976653 0.00003886231991317989 0.000038285570532803764
          0.00003729827480972459 0.0000371296915352703 0.00003885184920174055 0.000038273222959689405 0.00003728552486633869 0.00003711444259028085
          0.00003941000611951871 0.000038391302774682095 0.00003941232078154804 0.0000383927005699279 0.00003941946293984338 0.000038397261493276216
          0.00003727806916590562 0.000039291156919182916 0.00003727209330390158 0.00003928755912954122 0.00003725282764129364 0.0000392766220426936
          0.00004376794252588104 0.00004383478218250159 0.00004264021652806286 0.000043770966470606605 0.000043838464336810094 0.000042643778929589555
          0.000043778885606396505 0.00004384988235614611 0.00004265503081803111 0.000047594402396437045 0.000048921594546095226 0.00005057529262102443
          0.00004904599589796501 0.0000475967975232407 0.000048924131664838864 0.000050577536959679425 0.000049047853735246316 0.00004760317092877032
          0.0000489334753604573 0.00005058416902672566 0.000049053522907976494 0.000040125987674649335 0.00004074790952082756 0.00003979851411513316
          0.000040124924206533234 0.00004074827514647637 0.00003979749883991588 0.00004012155192871212 0.00004075002409795229 0.0000397957498718026
          0.000042377608699687786 0.00004398084760478324 0.00004513723370368895 0.00004356533268627233 0.000042380583415320195 0.00004398462579212275
          0.00004514146392765662 0.000043568103294578844 0.00004238923507738556 0.0000439949818081549 0.00004515500981210176 0.00004357590098921048
          0.00003801591690696047 0.00003859819421799188 0.000038016362129117305 0.00003859953328644855 0.00003801680705683276 0.00003860500926728998
          0.00005005893395015563 0.00004877398349290125 0.000050554982867887377 0.000051949689980041215 0.00005006050020606091 0.00004877595646976221
          0.00005055640604948959 0.000051950599785764893 0.00005006566622075195 0.000048782021144409955 0.000050560629192891944 0.00005195382650865323
          0.00003942265352490902 0.00003778232290702306 0.00003831826849057843 0.00003942460089211289 0.0000377812294356813 0.00003831827049501394
          0.000039430373865968654 0.0000377776106972165 0.00003832136983899712 0.00004824598066386613 0.000047129825437481566 0.000048248282581061276
          0.00004713227650663726 0.000048254656636476695 0.00004713943338063259 0.00005400417058829522 0.00005309705799960016 0.000055110771891920315
          0.000056266475274141826 0.00005400463802704908 0.00005309784636958835 0.000055111148259242815 0.000056266709637818377 0.00005400644046970559
          0.00005310012588950338 0.000055112452521373905 0.00005626760296197657 0.00005874785777197382 0.00005867881643796744 0.00005874872329390098
          0.00005868046940981016 0.000058751710735762596 0.000058685528221037546 0.00004574985794954175 0.00004444211498907943 0.00004575379508204556
          0.00004444508693818446 0.000045764207935500826 0.000044455133411133026 0.00004056033090478272 0.00004160020464997202 0.000040560404598152864
          0.00004160194411754943 0.00004056096790022485 0.00004160686232088469 0.00004367960917917293 0.000042288857453493976 0.00004143610608013338
          0.00004297112665930099 0.00004368163970108523 0.0000422902365534813 0.00004143728461821508 0.00004297262829623763 0.00004368699582900321
          0.0000422951199973292 0.00004144107435446224 0.00004297736827611028 0.0000474797833003487 0.00004748223516780403 0.00004748943273395669
          0.00003587411113812425 0.00003586501378581286 0.00003584370242490275 0.00003483924470449295 0.00003459096078236459 0.000034830998870588534
          0.00003458227350281521 0.000034807217586056513 0.00003455911494916917 0.00004133536490099104 0.000042078234998510146 0.00004133784716902001
          0.00004208135500167596 0.00004134490450389587 0.0000420911606791537 0.000043726364046143086 0.000042136789646268266 0.00004373005652604702
          0.00004213960673519887 0.00004374179187032587 0.00004214770599901069 0.00004051142810306976 0.00004051362475011903 0.000040519415483591375
          0.000040921219963993 0.0000417946140265267 0.00004092306783541844 0.0000417965062352772 0.00004092783519558345 0.00004180194609465288
          0.00004908993795244832 0.00004977683044236962 0.000047664375862574595 0.000047220470226456526 0.00004909186363991692 0.00004977844001562008
          0.00004766619184877569 0.000047222543750260885 0.00004909753119748228 0.00004978330145731241 0.000047672632418696384 0.00004722928650542723
          0.000041677570041246886 0.000042621914788363574 0.000041678769520132304 0.00004262370332040076 0.000041682136016113965 0.00004262895618156363
          0.000045724104996674866 0.000045698093764040655 0.00004786022540563445 0.000045727578401247 0.000045701066040330324 0.00004786269164848012
          0.00004573772473001567 0.000045708634951316036 0.00004786901565849901 0.00004058806638285638 0.0000401660411944493 0.00003944786735495146
          0.000040588881114544863 0.000040167495344304904 0.00003944811486907698 0.00004059134730114945 0.0000401713853318653 0.00003944949797264932
          0.000043790585128905024 0.000043793116474667644 0.00004379998125248221 0.000038786679950727786 0.00003878493179362229 0.000038779006372706076
          0.00003775957025327093 0.000038367867912773694 0.00003775715715052856 0.00003836749104515892 0.00003774845053539785 0.00003836590428313605
          0.00004338475345088826 0.0000426648224658952 0.000043387580219587914 0.00004266726521549016 0.00004339582158545604 0.000042674116435574166
          0.00005291784403233591 0.000052919397952688055 0.000052924007719358197 0.00003458844101730093 0.00003617176308189179 0.00003457920658896519
          0.000036164735249234795 0.00003455441045504901 0.00003614433688648616 0.000034791592642389766 0.00003478486618371087 0.00003476387635151194
          0.000054639491941664464 0.00005546533506981809 0.00005476283938617181 0.00005315679267436182 0.00005464420545316883 0.00005546957389040861
          0.00005476669635820119 0.00005316094517455778 0.0000546595749408261 0.00005548328370009667 0.000054778440355455086 0.00005317328189733167
          0.00005009435281049362 0.00005009617074881352 0.0000501010679300377 0.00004459020473061777 0.00004317647749636835 0.00004459253964935935
          0.00004317856605988739 0.000044599653629885396 0.0000431847142404916 0.00003897222266774107 0.000038973571401147766 0.000038977306710303256
          0.00003674308512437556 0.00003843443858357966 0.00003673613611476569 0.0000384285774530694 0.000036712166048110696 0.000038409955625715256
          0.00004754846959665451 0.00004755540728437947 0.00004757671380810157 0.000057160706434094797 0.00005857987965156874 0.00005957413895535495
          0.000057161234188873105 0.00005858042627007559 0.00005957422229437284 0.00005716234476540008 0.00005858182887438152 0.00005957429619509313
          0.00004345529562478851 0.00004453795904334609 0.00004345816236052851 0.00004454090383026404 0.00004346607086228949 0.000044549938570230965
          0.000051892100032739854 0.000053883252554135434 0.000051895376606884604 0.000053886261594212775 0.000051904125393162945 0.00005389452102098089
          0.00004623712959356385 0.00004506552416989477 0.000046239973673977113 0.000045068045622762915 0.000046247595251159635 0.00004507646284679055
          0.000046157072203831434 0.00004502528418574086 0.000046160583548401493 0.0000450284054830054 0.000046170724377909246 0.000045038355288338075
          0.00005625025478275976 0.00005625306047970064 0.00005626099882763708 0.00005405719813165805 0.000054058272007379684 0.00005406003742275988
          0.000058832904157989915 0.000058835661050298344 0.000058843551725400655 0.000044387716779836386 0.00004439038498173958 0.00004439764742407963
          0.00005605704212779734 0.00005605907801329496 0.000056064427326226166 0.00003731360582315195 0.000037307368470077245 0.00003728582435859035
          0.00005185809229959181 0.00005111985188041546 0.00005185953042023564 0.00005112155477046827 0.00005186306409594568 0.00005112569060409088
          0.00004671670107099424 0.000047293552357977895 0.000046723114675528655 0.00004729897148315112 0.0000467417699296443 0.000047314825373416445
          0.00004820843079114133 0.000048212555078918565 0.000048225348351545004 0.000056377306971134885 0.00005637849243119934 0.000056381552778405875
          0.00003993533353004734 0.000040536108365010365 0.00004129446136451855 0.000039934175667547194 0.00004053740597667561 0.00004129661329080222
          0.00003993066034778696 0.00004054312512255352 0.000041303358914146675 0.00004885558081720667 0.00005014638005708236 0.00004886195822246846
          0.00005015183267918798 0.0000488819747810755 0.00005016742101959756 0.00003906408618908849 0.00003906161209201728 0.00003905132223831751
          0.000052405527166311516 0.00005240696635272703 0.000052410345508220736 0.000051622160303556495 0.000051626787214500424 0.000051639663837477126
          0.000042455173695895394 0.00004245776138249506 0.000042465214669736896 0.000038084150700749185 0.00003808143243050414 0.00003807390458469045
          0.00004502168660199588 0.00004502432174734373 0.00004503242011567095 0.00004602492142300425 0.000046027844947441805 0.00004603579068352388
          0.00003437766769637315 0.00003436458221708517 0.00003431920684642568 0.00003550068901572455 0.000035489560105565625 0.00003545251744460682
          0.00003944487703352491 0.00003944422876913428 0.00003944273946414511 0.00003637304590212113 0.000036365055623595195 0.00003633732152622394
          0.00004068330235482688 0.00004068494780479797 0.00004069279857692943 0.000037083131717729846 0.000037078770060814966 0.000037063357151489875
          0.00004408847525886629 0.000044090963391393454 0.00004409819721525532 0.00004628301985407299 0.00004628591995001865 0.00004629420866204993
          0.00004488858693492026 0.000044891098044358115 0.0000448981152290853 0.00004556597660044959 0.00004556870052644609 0.0000455762044696398
          0.00004654065805350905 0.0000465433241089405 0.00004655046725023633 0.00004782175430255527 0.000047825272574554416 0.00004783460681353289
          0.00005017117416217775 0.00005017530762833283 0.000050186820571381226 0.00003737304711789844 0.00003795714594497296 0.00003736901675132291
          0.00003795609480241479 0.00003735913221475548 0.000037955021275437 0.00003667896168207082 0.00003667252583133178 0.00003665512545229175
          0.00004100668147884696 0.00004194542038233873 0.000041008638213196515 0.000041947632429995577 0.000041012920547049266 0.00004195315445698863
          0.00005660180858152792 0.000056602926176443906 0.000056604651046037606 0.00005476747133601026 0.00005476859203824879 0.000054770836729809496
          0.00004538158923969184 0.00004538423618926609 0.000045391360393002624 0.00006111881006770934 0.00006105977143500766 0.00006112031451989701
          0.00006106187797766372 0.00006112369738036232 0.00006106778364210038 0.0000489836543151428 0.000046128955006170935 0.00004701947145000058
          0.000048990099505727534 0.00004613594451463991 0.00004702674710653661 0.00004900992068202947 0.000046156869971941596 0.000047048615073209454
          0.00005675849156141817 0.000056762108533633994 0.00005677333113117605 0.00005926718051519429 0.0000592707503149144 0.00005928031206799289
          0.00006155816110171721 0.00006199293547466317 0.00006155829774097511 0.00006199257339651295 0.00006155896165812913 0.00006199122776457335
          0.0000621305405478356 0.000061472600899027 0.00006213283524713374 0.00006147530202246367 0.00006214047109770948 0.00006148310227792285
          0.00005208634091543836 0.000053421306235114736 0.00005209213769327979 0.000053426921964641553 0.00005210975517868644 0.00005344329840452505
          0.00005567881367900169 0.00005664666865889175 0.00005568373446244679 0.000056651448407486906 0.00005569920151273472 0.0000566653604523843
          0.00005073384170146809 0.00005074006441129744 0.00005075711434685196 0.000034084543559539204 0.00003747849639301653 0.00003407938943747426
          0.00003747528122129622 0.00003406595021654287 0.000037464666586635206 0.00004445136260848409 0.000044456584895032305 0.000044472802458592377
          0.00004046410504420879 0.00004019252490401732 0.000040464875011426736 0.00004019189740489659 0.00004046716036343129 0.00004018897088626984
          0.000042336907925404187 0.000042340237520575885 0.000042348272750218036 0.000057047235404409105 0.0000570516165812157 0.00005706381496603726
          0.00004224747638119888 0.000042250380711649364 0.000042259517674107936
        </DataArray>
        <DataArray type="Float64" Name="disp_y" format="ascii" RangeMin="-0.00003972714401516625" RangeMax="-0.00001330372446532123">
          -0.000021824790503044293 -0.000021834988082071967 -0.000021866891303803716 -0.000021705368109220978 -0.00002171584193401035 -0.000021748227297248666
          -0.000022847449721915256 -0.000022856918892816193 -0.000022887292981609252 -0.000013307962576061542 -0.000013306929342782105 -0.00001330372446532123
          -0.00001583643280820193 -0.00001584075619996245 -0.00001585401482403718 -0.000018097021512866144 -0.000018105439851785772 -0.000018131164362819114
          -0.000020015632951852864 -0.00002002636768441908 -0.000020059449604564474 -0.00002157069140104676 -0.000021581830236303116 -0.000021616566519942907
          -0.000022780485138238225 -0.000022790594966700117 -0.000022822179711176603 -0.00002368878407870042 -0.000023696747414144025 -0.000023722532270735602
          -0.000015362675512638396 -0.000015366632232089406 -0.000015377923393098697 -0.000017777185429486845 -0.000017785810183655458 -0.000017812233053365738
          -0.000019810954311799114 -0.000019822517254964017 -0.000019858197397687286 -0.000021441584892332026 -0.0000214537457286334 -0.000021491684387030952
          -0.000022698597182637144 -0.000022709312183014454 -0.000022743211413146174 -0.000023646615338531347 -0.000023655215642692318 -0.00002368156053206489
          -0.00002436146945928288 -0.000024366893022659778 -0.000024385348422215556 -0.000014845362772969528 -0.000014849178665898345 -0.000014861249809805714
          -0.000017466301538003397 -0.000017476248660706504 -0.000017505225821408217 -0.00001963855807680413 -0.00001965148551783539 -0.000019691293165298015
          -0.00002134534869960474 -0.000021358898118432568 -0.00002140143856595267 -0.000022635185416237478 -0.00002264696373702306 -0.000022684264392050915
          -0.000023595799480423148 -0.00002360462153896359 -0.00002363221387973209 -0.00002432620192171317 -0.00002433205512504687 -0.000024349875378993217
          -0.000024909967290909217 -0.000024912899069181843 -0.000024921727994389646 -0.000017104155726406546 -0.000017115892547241717 -0.00001715294374944475
          -0.00001949157380821427 -0.000019508147810488638 -0.000019556695930207285 -0.000021305238342548097 -0.000021321048755423467 -0.000021371617807088985
          -0.00002262178824086831 -0.000022635038062735454 -0.000022677565401789044 -0.00002357189252817251 -0.000023581338605643724 -0.000023610884400819332
          -0.00002428786705625608 -0.0000242936479598144 -0.000024310990266218357 -0.000024872704122277155 -0.000024875632891124326 -0.000024883865379377707
          -0.00002539090418026429 -0.000025391677252421012 -0.000025393600780774686 -0.000019254265141230378 -0.000019276986720879645 -0.000019344080983319283
          -0.000021271775047986964 -0.000021292933633847756 -0.000021359309510649742 -0.000022661227617302094 -0.0000226772869407285 -0.000022729454611327308
          -0.000023600731114281578 -0.000023611339753276577 -0.000023644219905050064 -0.000024281510752044797 -0.000024287456076106985 -0.000024304828449023066
          -0.000024839444421506476 -0.000024842114904276808 -0.00002484916420222773 -0.000025350377452840118 -0.000025351014662929997 -0.000025352064151160628
          -0.00002585754888322022 -0.000025856993624144915 -0.000025854662375977794 -0.000021063868442180834 -0.000021092591442094834 -0.000021189580118172968
          -0.00002262676919293345 -0.000022647336818390607 -0.000022714855185277885 -0.000023649189992974648 -0.000023661988418395572 -0.000023703005104180587
          -0.00002431538117030107 -0.000024322302447040142 -0.00002434147644247943 -0.000024841720701401876 -0.000024844463827766225 -0.000024851336370066403
          -0.00002532440099987276 -0.000025324872100174137 -0.000025325351637547926 -0.00002581063185589507 -0.000025809826065230254 -0.000025807019785489194
          -0.00002633294441562866 -0.000026331714979426378 -0.00002632758813359475 -0.00002228241926581929 -0.000022306943634473698 -0.00002238626719958834
          -0.000023494803701605826 -0.000023509955851231297 -0.00002355679033315719 -0.000024323022393966775 -0.00002433157740221214 -0.000024354449894180552
          -0.000024857014051619842 -0.000024861012131835353 -0.000024871547905014862 -0.000025335313777823376 -0.000025336514238804472 -0.000025338625467836714
          -0.00002579359952910154 -0.00002579284526868818 -0.000025790369490084727 -0.000026280409927973936 -0.000026278947389978657 -0.00002627377024013685
          -0.000026826606635971932 -0.000026824991751152206 -0.000026820107210591564 -0.00002583945187485563 -0.00002626982006486293 -0.000026682396472613935
          -0.000026280216196139495 -0.000025839589433536747 -0.000026268736492696778 -0.000026681206366900372 -0.00002628006120824051 -0.000025840459039173348
          -0.000026264401617201543 -0.00002667735931785158 -0.00002627927257701238 -0.000024415469872276195 -0.00002466917783573405 -0.000023538264515326764
          -0.00002361549962095438 -0.00002442360252581899 -0.0000246766449065354 -0.000023549208931231695 -0.000023627404793875312 -0.000024446020416724588
          -0.000024699604570220162 -0.000023582035076784734 -0.000023661101414482578 -0.000025010046550793703 -0.00002540969585200081 -0.000025014100554644355
          -0.00002541300499796982 -0.00002502525453254606 -0.000025422731650961308 -0.0000259183793224344 -0.000025414038916058782 -0.000025919956984733876
          -0.00002541628593402315 -0.00002592437791885064 -0.000025422519874077684 -0.000026795336095230934 -0.00002716176942921549 -0.00002679358199732587
          -0.00002715989257143421 -0.00002678778678348996 -0.000027154675549442678 -0.00002240704401946728 -0.00002250842366202049 -0.00002242655011568384
          -0.000022521358392159364 -0.000022478795188398984 -0.00002256149612488022 -0.00002752448459438175 -0.000026959339364387853 -0.000027522571903445823
          -0.000026958199420304646 -0.000027516730421921157 -0.00002695507963320265 -0.00002745685246341347 -0.000027454854077510614 -0.00002744883065658739
          -0.00002320418144937741 -0.000023215350231203753 -0.000023247711312105747 -0.00002427866883801496 -0.000024288796699767876 -0.000024317950300889843
          -0.000025204608346567208 -0.00002587063121571052 -0.000025210398892390548 -0.000025873097935127386 -0.00002522534741273115 -0.00002588074260887792
          -0.00002644685773045512 -0.00002644760417710843 -0.00002645025881054268 -0.00002811684640349579 -0.000028114687321146482 -0.00002810789967637468
          -0.000022182461268707308 -0.00002219004851063613 -0.000022212210778163305 -0.000026934949550253327 -0.00002638147203167656 -0.00002689121205369083
          -0.000027525966674059662 -0.000026933700894708362 -0.000026380328499757156 -0.000026889855868605963 -0.000027524569486538123 -0.000026929874758030167
          -0.000026376437419375775 -0.00002688648669997817 -0.000027520542370650193 -0.000021957371138016655 -0.000021965008686941385 -0.000021986597896063187
          -0.0000283370900316855 -0.000027529737943527967 -0.00002833537091025707 -0.00002752829120333054 -0.00002833091363719821 -0.000027524455532770714
          -0.000024478479139987284 -0.000024340577505322417 -0.00002383582919307726 -0.000023518928693046748 -0.00002448074887994283 -0.00002434339288855166
          -0.000023840701517621007 -0.000023524061024984898 -0.000024488470439169818 -0.00002435385430473953 -0.000023855178014889302 -0.000023538239901258524
          -0.000026292066504310873 -0.000025868178142244415 -0.00002629081257506038 -0.000025867650739619936 -0.000026286774702571867 -0.00002586512459507711
          -0.000023318196491013187 -0.000024513008170004865 -0.00002332303021935927 -0.00002451558038327512 -0.000023339701819308975 -0.00002452343527988911
          -0.000029118921436612566 -0.000029430224276665112 -0.00002853166799837302 -0.00002911678990080533 -0.00002942823549908143 -0.00002853010953833904
          -0.000029110474533875096 -0.000029422925830382185 -0.00002852444640348349 -0.000029947446443567986 -0.000030650901945526404 -0.000031823966302723916
          -0.00003099730006089018 -0.000029945475324158287 -0.00003064944974716009 -0.000031822409133171354 -0.00003099516467077234 -0.00002993898821817704
          -0.000030644195546608975 -0.000031817954200147136 -0.000030989072649309926 -0.000025159358810863085 -0.000025622146081685244 -0.00002519626508192173
          -0.000025160186636301838 -0.000025621804934145705 -0.000025196900438695913 -0.000025161615076976332 -0.000025619963358327314 -0.0000251982261663261
          -0.000025961742025533673 -0.000026714768451591953 -0.000027568947442833265 -0.00002686369141690324 -0.00002596229308393642 -0.00002671535453567419
          -0.000027568791836527294 -0.000026863237502817076 -0.00002596404052648732 -0.000026717232622364932 -0.000027567742861946323 -0.000026861778943887828
          -0.00002552392255445277 -0.000025693219566028068 -0.000025524140210649357 -0.000025692586993297184 -0.000025523877676868197 -0.000025689659477744746
          -0.00003212295570183463 -0.00003113651490773985 -0.00003211183082438874 -0.000033166082483529854 -0.00003212111154791213 -0.00003113444912949195
          -0.000032110062377190255 -0.00003316455529838082 -0.00003211563494229173 -0.0000311282206294269 -0.000032104384690664024 -0.000033159999016728906
          -0.000025891278062506705 -0.000025133924994976043 -0.000025275978752661655 -0.00002589020639009904 -0.00002513522841015084 -0.00002527620804736976
          -0.00002588658135571797 -0.000025136858532227628 -0.00002527551905147252 -0.00003115375157158574 -0.000030265208682644098 -0.00003115167070289152
          -0.00003026287552480801 -0.00003114530099508368 -0.000030255857801411433 -0.000034861421447923933 -0.0000340854557746756 -0.000035241068240163917
          -0.000036143453738847794 -0.000034860002572276 -0.00003408419988160164 -0.00003523978878403858 -0.00003614218356791377 -0.00003485606395398257
          -0.000034080505741372486 -0.00003523664934780083 -0.00003613825208363695 -0.00003734312574263613 -0.000037120412045528526 -0.00003734261235748963
          -0.000037120403094127484 -0.00003734141148047686 -0.00003712058212643839 -0.000028210600284788476 -0.000027553814505579582 -0.000028209672232230727
          -0.00002755299549693358 -0.000028206048343246792 -0.000027550145449365384 -0.000025294118956075986 -0.0000259953090954 -0.000025294841312090393
          -0.00002599468840825696 -0.000025296255146056643 -0.000025992206042271685 -0.000027918690250706635 -0.000027217647272560935 -0.000026509277746268567
          -0.0000272476768236231 -0.000027916642145785688 -0.000027215915780458935 -0.00002650777060744735 -0.000027245847646881092 -0.000027910367247875074
          -0.000027210837805456615 -0.00002650335711720664 -0.000027240797639302725 -0.000030164597125800237 -0.000030162484791936274 -0.00003015601927036334
          -0.000023124189815516496 -0.000023130824196371922 -0.00002315047050306549 -0.0000213833593510045 -0.000021404948459116025 -0.00002138954817163651
          -0.000021411537862029697 -0.000021405203026532837 -0.00002143088008379276 -0.000027417022527772317 -0.000028055517465349502 -0.000027415384696876626
          -0.000028053782578447432 -0.000027410814294884404 -0.000028047878449973866 -0.000029776474212523664 -0.000028710991952265528 -0.000029774691630688945
          -0.0000287090701290088 -0.00002976832445747811 -0.000028702904456869772 -0.000026731746478446326 -0.000026730373365480477 -0.000026726093709482334
          -0.000026569649266699848 -0.000027295091018016622 -0.00002656826577168478 -0.00002729337032280918 -0.000026563925889315694 -0.000027288116902350397
          -0.00003189474744559036 -0.00003256432498075128 -0.00003145416407501055 -0.000030914107389052575 -0.00003189289926267606 -0.00003256248814324406
          -0.000031452068980672916 -0.00003091199170659576 -0.000031887273245194254 -0.000032557170437526356 -0.000031445831449721885 -0.000030905537818865916
          -0.000026309478376242378 -0.000026717730514466042 -0.00002630826401257474 -0.000026716349693785332 -0.00002630425359650734 -0.00002671203614079686
          -0.00003078541111116034 -0.000030436770752563716 -0.00003186904610268717 -0.000030782861674349655 -0.00003043466321563267 -0.000031866944904172846
          -0.00003077492366519454 -0.00003042816297631228 -0.000031860594456692425 -0.000025821539548969897 -0.000025918853286010858 -0.000025308483746010912
          -0.000025820827102855 -0.000025917825668148594 -0.000025308746600270816 -0.000025817501649119505 -0.00002591464098568582 -0.00002530856879479126
          -0.000027527971591178855 -0.000027526328530023566 -0.00002752089487527806 -0.000024748049557211536 -0.000024750193570781107 -0.000024756521002415098
          -0.000024294803577011886 -0.0000248257185686185 -0.00002429841526533231 -0.000024827683439810094 -0.000024311200850467593 -0.00002483245173785479
          -0.000028667810052049833 -0.00002802552271487493 -0.000028665685256888113 -0.000028023543137511494 -0.000028658658066949676 -0.000028017182239800663
          -0.00003345612395290327 -0.00003345497120095314 -0.00003345146462718395 -0.000021609130498479874 -0.00002250814915208307 -0.00002161730027381548
          -0.000022514257249598703 -0.000021639717901995877 -0.000022533411440384413 -0.000021124415545491412 -0.000021131376302380435 -0.000021148737453450297
          -0.00003372512363455763 -0.000034401517564582166 -0.00003418656783279481 -0.000033074800187878485 -0.00003372563596614449 -0.00003440215463683465
          -0.00003418683817445447 -0.0000330748295636043 -0.000033727575709496735 -0.00003440421589709512 -0.00003418726155901134 -0.00003307510845321977
          -0.000033032536823174785 -0.000033030866217793316 -0.000033025206828770503 -0.00002866944297217351 -0.00002796000292594824 -0.000028667128933446017
          -0.000027958048255907695 -0.000028660025926557037 -0.00002795205844721756 -0.000025367962418391366 -0.000025368014170575556 -0.000025366738083526396
          -0.000022700885613539083 -0.000023742119387907462 -0.000022706812956187854 -0.000023746247041422227 -0.000022724557903997202 -0.00002375974708395866
          -0.00002868173491114527 -0.000028682028257854265 -0.00002868326957712719 -0.0000369032778395806 -0.00003744193420220114 -0.00003829555502176729
          -0.00003690190532970897 -0.00003744114566784397 -0.000038294372760734765 -0.000036897033276422005 -0.00003743860162248874 -0.000038290824473194836
          -0.000027088753006332566 -0.00002783708143079874 -0.00002708761246137531 -0.000027835754011580912 -0.00002708444718797229 -0.000027831020049667078
          -0.000032499605382870646 -0.000033849271273161595 -0.00003249906756557181 -0.00003384908740673295 -0.000032497327754641906 -0.00003384765304381554
          -0.000028940665482599353 -0.000028405294377813965 -0.000028938977091713738 -0.000028403182475943625 -0.00002893397139845862 -0.00002839671121283781
          -0.00002867567153358826 -0.00002801762454687368 -0.000028674511046336312 -0.000028016607000693782 -0.000028671142098648363 -0.00002801279272019056
          -0.000035381973700009516 -0.00003538222599359028 -0.00003538293458837583 -0.000034397651204200186 -0.000034396679950763304 -0.000034393112047440425
          -0.00003699666386984372 -0.000036997424988140306 -0.000036999937629336893 -0.00002811559450572773 -0.0000281137481897343 -0.000028108087523378338
          -0.00003545885506662678 -0.00003545869396864102 -0.0000354577322780883 -0.000022871061973376787 -0.00002287678595295578 -0.000022895530600133228
          -0.000033679315733896514 -0.00003298961990874786 -0.0000336778938980846 -0.00003298818432814862 -0.00003367338445850671 -0.000032983565856553026
          -0.000028462926733753406 -0.000029013915523974047 -0.000028462891447321637 -0.00002901380613197651 -0.000028463528841198973 -0.000029012232425786692
          -0.000029893612554214004 -0.00002989285566756649 -0.000029890369518072723 -0.00003584057116863864 -0.00003584008431379787 -0.000035837843955537294
          -0.000024700162678737188 -0.00002486625223333048 -0.000025572313530818375 -0.000024702385466519982 -0.000024868385819764527 -0.000025572598563676937
          -0.000024707235133456118 -0.000024873811713646748 -0.00002557280262252468 -0.000029701971846812958 -0.00003077824069869968 -0.000029702369662350644
          -0.00003077859258528156 -0.000029704116022314357 -0.00003077981592940766 -0.000023958696163278158 -0.000023962980933602557 -0.000023975400574746885
          -0.00003426760344846346 -0.000034266101950723586 -0.00003426108754546963 -0.0000319336259282355 -0.00003193393839660174 -0.00003193424871589997
          -0.000026371027795477788 -0.000026370473740131162 -0.000026368763660662954 -0.00002311393533501975 -0.000023119417916425628 -0.00002313893999676186
          -0.000028624678429492376 -0.000028622582334556046 -0.0000286156171420575 -0.000029404224104298166 -0.00002940201570099246 -0.000029394628178261687
          -0.00002241055658176248 -0.000022419536354566067 -0.00002244736085699034 -0.000023295085919485502 -0.000023302488654662247 -0.000023324332450069615
          -0.000024036410061840137 -0.000024040895056140197 -0.000024055994103189303 -0.000024006376854748566 -0.000024012009695774636 -0.000024029734133734052
          -0.000024726528644121337 -0.000024730286873876524 -0.000024739520952336795 -0.000024603469988152232 -0.00002460704195896295 -0.000024616630366280468
          -0.000028719071079403723 -0.000028716860330448136 -0.000028709714020143953 -0.00002927303158322762 -0.00002927097057063279 -0.000029264280486287
          -0.00002941873692779205 -0.000029416535378794673 -0.00002940959736192007 -0.00002945986517681852 -0.000029457627630523338 -0.000029450400367267074
          -0.000030266147298845794 -0.000030264108879352434 -0.000030257486189968014 -0.000029859531751624466 -0.000029858406650737183 -0.000029855034494494746
          -0.00003128426526998836 -0.00003128380719298709 -0.000031281965306084694 -0.0000244046949222553 -0.00002492692070592104 -0.00002440830421615976
          -0.000024928403318093735 -0.000024419407572355417 -0.00002493251334959496 -0.00002380636475258752 -0.00002381196535833417 -0.000023828849201992332
          -0.000028152887387475954 -0.00002890478187017247 -0.000028150974391632975 -0.000028902356925762575 -0.00002814439471678592 -0.000028893504891857543
          -0.00003611435820113315 -0.00003611375310060138 -0.00003611087497010562 -0.00003556124991139323 -0.00003555996344804116 -0.00003555549998850796
          -0.00002995497529704205 -0.00002995306975716265 -0.000029947083721446886 -0.00003882708947741657 -0.00003860852852335095 -0.00003882756959414492
          -0.00003860930649223532 -0.000038828278725164797 -0.00003861129867927703 -0.000028794986050625417 -0.000027718810434762503 -0.00002779823588661435
          -0.000028795972764725197 -0.000027719477380346665 -0.000027799372537092493 -0.000028799143455756466 -0.000027720890367851112 -0.000027801987859886764
          -0.0000354509439719288 -0.00003545167651078563 -0.000035454195432498916 -0.00003695359741645595 -0.00003695505882254469 -0.00003695927373242937
          -0.00003927824108272445 -0.00003972714401516625 -0.000039278091768304374 -0.00003972644591518599 -0.00003927738285110633 -0.00003972441838082822
          -0.000038647792995229734 -0.00003862668911451612 -0.000038649369346664644 -0.000038627950026804114 -0.00003865438572581264 -0.00003863071067125253
          -0.00003152368968845572 -0.00003269457695126252 -0.00003152474576731298 -0.00003269554712134089 -0.000031528522778170905 -0.00003269817629874651
          -0.00003362475164634805 -0.0000346601502958023 -0.00003362600237301112 -0.00003466183810429995 -0.00003362990382320732 -0.00003466558977753508
          -0.00003030248246212475 -0.00003030376669408441 -0.000030307046389026263 -0.000020388515936875205 -0.000022239369711046884 -0.00002039603739589966
          -0.00002224660581616783 -0.000020422520008563928 -0.00002226606508689267 -0.000026595191473710536 -0.00002659646730066364 -0.000026600826360812158
          -0.000024232902717891636 -0.000023690269186290786 -0.000024237269116147453 -0.00002369466766626972 -0.000024252129689701392 -0.0000237069773347114
          -0.0000255521596707394 -0.000025553799321971704 -0.00002555899662934466 -0.00003529130104024404 -0.00003529255281000373 -0.00003529673047397979
          -0.00002507945803296898 -0.0000250821024161566 -0.00002508889814817161
        </DataArray>
        <DataArray type="Float64" Name="disp_z" format="ascii" RangeMin="-0.0000014377268740660894" RangeMax="0">
          0 -3.656864248501307e-7 -7.308583073524037e-7 0 -3.534135096542233e-7 -7.055650001537069e-7
          0 -3.0214730478908404e-7 -6.05502078463531e-7 0 -6.618263761276353e-7 -0.0000013193316080582885
          0 -6.073633447540101e-7 -0.0000012094279615159584 0 -5.310501186428782e-7 -0.00000105866164460046
          0 -4.4389402987502484e-7 -8.86854067591222e-7 0 -3.585380869963581e-7 -7.191275754678473e-7
          0 -2.9022260649898017e-7 -5.810367353824538e-7 0 -2.463744827073248e-7 -4.955034151939282e-7
          0 -6.543620996750466e-7 -0.000001304320837179024 0 -5.684687128536507e-7 -0.0000011326003407394603
          0 -4.70133532600267e-7 -9.386048186596943e-7 0 -3.730332523995493e-7 -7.473199521190577e-7
          0 -2.9046842661198807e-7 -5.845316247666026e-7 0 -2.3300382906019556e-7 -4.680792375664039e-7
          0 -2.0073468429473893e-7 -4.047633516336508e-7 0 -7.207237054660362e-7 -0.0000014377268740660894
          0 -6.161352639266836e-7 -0.0000012281477092437747 0 -5.025748806740701e-7 -0.000001002776198627377
          0 -3.9125238611593497e-7 -7.83682103036051e-7 0 -2.969794375442416e-7 -5.975796296257993e-7
          0 -2.2990176195380452e-7 -4.6400259604391275e-7 0 -1.9116294726545387e-7 -3.8533751971885805e-7
          0 -1.7239328526529046e-7 -3.474290003373124e-7 0 -6.77994758268983e-7 -0.0000013504559502218033
          0 -5.408525107198528e-7 -0.0000010785302286082934 0 -4.108927085664752e-7 -8.23206722493593e-7
          0 -3.037853887510289e-7 -6.118859599897063e-7 0 -2.3017389760835434e-7 -4.649515444159603e-7
          0 -1.874911932490589e-7 -3.78752354327277e-7 0 -1.6732632275774935e-7 -3.373821758303208e-7
          0 -1.636062087139578e-7 -3.2902261820690377e-7 0 -5.824132644347208e-7 -0.0000011570956225493446
          0 -4.2649330886485906e-7 -8.546346462056586e-7 0 -3.0260975170361474e-7 -6.106085653382541e-7
          0 -2.2789384806012422e-7 -4.6100918155430044e-7 0 -1.8690406020530675e-7 -3.775376035147927e-7
          0 -1.6700159455812786e-7 -3.3666787626582126e-7 0 -1.614166058611166e-7 -3.247293862013649e-7
          0 -1.6568380840108414e-7 -3.325294735653548e-7 0 -4.242711130409129e-7 -8.487205210096607e-7
          0 -2.8067477140899466e-7 -5.677651723428865e-7 0 -2.0958699218221154e-7 -4.261689853767887e-7
          0 -1.8260833185450783e-7 -3.686773894913636e-7 0 -1.6829334040497728e-7 -3.384367623383651e-7
          0 -1.6321889867718262e-7 -3.280434948038036e-7 0 -1.6463222195425074e-7 -3.3036872527614396e-7
          0 -1.7310904587044763e-7 -3.466980763657708e-7 0 -2.152829155613558e-7 -4.331175522156252e-7
          0 -1.7001968045677362e-7 -3.459829480844757e-7 0 -1.5125777600562432e-7 -3.058437592477499e-7
          0 -1.6129782191156085e-7 -3.240236689334059e-7 0 -1.6442769145774556e-7 -3.290038134530018e-7
          0 -1.6655423765650616e-7 -3.3392397000133325e-7 0 -1.7295695823106028e-7 -3.4623734632239844e-7
          0 -1.8192594195181972e-7 -3.6412515159342605e-7 0 0 0
          0 -1.6447172475431627e-7 -1.737755121844173e-7 -1.8404228937762006e-7 -1.6562980388423695e-7 -3.2908714291776316e-7
          -3.471711752089725e-7 -3.6817092051764195e-7 -3.303957179397878e-7 0 0 0
          0 -1.2265037192235974e-7 -8.478382496997657e-8 -7.633809594278231e-8 -1.251525247347718e-7 -2.4866340652037837e-7
          -1.6995597325988268e-7 -1.5417993312476453e-7 -2.531637774272365e-7 0 0 -1.3682392743745626e-7
          -1.2835705865698757e-7 -2.751628191121047e-7 -2.5617408941405814e-7 0 0 -1.523350697874558e-7
          -1.5415866027123923e-7 -3.0415646619679263e-7 -3.077660279799905e-7 0 0 -1.855283682899743e-7
          -1.9232251504452565e-7 -3.710428626675604e-7 -3.839116098553869e-7 0 0 -1.4026858053794317e-7
          -8.41771647203301e-8 -2.914115762008195e-7 -1.6811460055870783e-7 0 0 -1.993820180386169e-7
          -1.8265933255005389e-7 -3.9795399844091107e-7 -3.649855601160559e-7 0 -1.935844653257989e-7 -3.870982633859863e-7
          0 -3.295193589878984e-8 -6.637618706395505e-8 0 -4.083691539779758e-8 -8.143565011076637e-8
          0 0 -8.206422625545035e-8 -1.2732632372808378e-7 -1.6754106164530616e-7 -2.539477171496139e-7
          0 -1.5527233486028402e-7 -3.0967349584079954e-7 0 -2.0847332449556777e-7 -4.16954792815873e-7
          0 -2.7254671257044146e-7 -5.500533549028479e-7 0 0 0
          0 -1.851088144388802e-7 -1.7642931555308565e-7 -1.886768568265471e-7 -1.9512444644809583e-7 -3.706689163653901e-7
          -3.5337129372704483e-7 -3.775507600877486e-7 -3.904918232037628e-7 0 -2.833400885506426e-7 -5.692386169418975e-7
          0 0 -2.086909640252455e-7 -1.9133012050921052e-7 -4.1824872498217627e-7 -3.8375267144645786e-7
          0 0 0 0 -1.8433142079876837e-7 -1.9293585143354602e-7
          -2.1440240176811612e-7 -2.2019515982525019e-7 -3.7017516906598783e-7 -3.8724930994633153e-7 -4.3143462731565053e-7 -4.4207906257419674e-7
          0 0 -1.8028396898418208e-7 -1.6846133301877952e-7 -3.607347336805192e-7 -3.3810056989937904e-7
          0 0 -2.2869068241216714e-7 -1.8107835165094406e-7 -4.581905889815829e-7 -3.646573265635665e-7
          0 0 0 -2.3709673355143595e-7 -2.406915277255895e-7 -2.239943910035234e-7
          -4.733010226247719e-7 -4.812997301661297e-7 -4.481441638709477e-7 0 0 0
          0 -2.438291744053845e-7 -2.531150172815344e-7 -2.688863478494044e-7 -2.608683226245049e-7 -4.876944393244888e-7
          -5.071303064719978e-7 -5.378074235928868e-7 -5.217248721984441e-7 0 0 0
          -1.7104532120256336e-7 -1.7377836471554165e-7 -1.7122502118075077e-7 -3.441835269477003e-7 -3.491804648157915e-7 -3.4405383333944797e-7
          0 0 0 0 -1.975022390734991e-7 -2.1150716867318943e-7
          -2.212571308598841e-7 -2.0099542200768894e-7 -3.9601223593033484e-7 -4.233615901635428e-7 -4.4436447462890954e-7 -4.027802200313558e-7
          0 0 -1.6444526085018193e-7 -1.6898576797106242e-7 -3.309701808589803e-7 -3.3956942841761827e-7
          0 0 0 0 -2.797927661951602e-7 -2.658717619717962e-7
          -2.7557360448821213e-7 -2.8901744107282065e-7 -5.590571195021549e-7 -5.313302886527664e-7 -5.508245132927488e-7 -5.77631790128223e-7
          0 0 0 -1.7789490810438096e-7 -1.627915352545419e-7 -1.6464584620461518e-7
          -3.5633283544904925e-7 -3.2831608705613574e-7 -3.3133953717260797e-7 0 0 -2.689795485110949e-7
          -2.5374540345970474e-7 -5.376603232462787e-7 -5.072413679287165e-7 0 0 0
          0 -3.031461031943531e-7 -2.9657173287711463e-7 -2.998143223387132e-7 -3.0542955111556877e-7 -6.06049836838413e-7
          -5.927293922439518e-7 -5.997004329907869e-7 -6.109181727474685e-7 0 0 -3.0754936359502804e-7
          -3.1016200410805407e-7 -6.153462854869466e-7 -6.208027178783436e-7 0 0 -2.2606149726381736e-7
          -2.0826604301594044e-7 -4.53087994551858e-7 -4.1701806770652203e-7 0 0 -1.6995463498223612e-7
          -1.769246240199016e-7 -3.4273741324476303e-7 -3.5508908973444137e-7 0 0 0
          0 -2.0808610294554367e-7 -1.987688304784022e-7 -1.8729990553081997e-7 -1.9569628794202416e-7 -4.166594581977074e-7
          -3.978570317353759e-7 -3.747208869061826e-7 -3.9189079127317364e-7 0 -2.5023553609244767e-7 -5.000715717530131e-7
          0 -2.3227341492360044e-7 -4.6930593822991195e-7 0 0 -3.059770601293619e-7
          -3.0390849039688766e-7 -6.131338156297971e-7 -6.079037719111144e-7 0 0 -2.010435903761209e-7
          -2.1123466956033497e-7 -4.022706616137922e-7 -4.224111953722655e-7 0 0 -2.3555317971415405e-7
          -2.0837792036873739e-7 -4.719429799826035e-7 -4.1685859550117333e-7 0 -1.9089199913032392e-7 -3.81511230073343e-7
          0 0 -1.8811512281520161e-7 -1.9990194499545561e-7 -3.759928581982037e-7 -3.999785027966307e-7
          0 0 0 0 -2.7980367636643016e-7 -2.8832821577497143e-7
          -2.757314226735466e-7 -2.663111761240747e-7 -5.59339432226801e-7 -5.763665746861442e-7 -5.513818419178555e-7 -5.323798904943756e-7
          0 0 -1.8176309269871015e-7 -1.8619106488285248e-7 -3.6392423364994643e-7 -3.7310939327310164e-7
          0 0 0 -2.656767346893065e-7 -2.5858867462044e-7 -2.8187204704753537e-7
          -5.311359444061926e-7 -5.165544614885074e-7 -5.631042656117512e-7 0 0 0
          -1.7811954725104186e-7 -1.7936478549700778e-7 -1.7346891523398656e-7 -3.5710575565439066e-7 -3.587926673369333e-7 -3.481141260929406e-7
          0 -2.0002387288281438e-7 -4.0095814502263474e-7 0 -1.7696986464040594e-7 -3.5534658523352393e-7
          0 0 -1.8820654694931676e-7 -1.7181783291101415e-7 -3.7834016009626157e-7 -3.45874462603479e-7
          0 0 -2.2813777440893147e-7 -2.1331677848081044e-7 -4.5604140882626605e-7 -4.2669214040733195e-7
          0 -2.8443872707845416e-7 -5.690842199213869e-7 0 0 -2.9611589699213495e-7
          -2.713690049170808e-7 -5.940005016924631e-7 -5.461183686623367e-7 0 -2.964166928679006e-7 -5.952458457179211e-7
          0 0 0 0 -3.2290564461543354e-7 -3.237931504862033e-7
          -3.074452071555839e-7 -2.976357687359984e-7 -6.46129787632281e-7 -6.478608801665688e-7 -6.152235090199232e-7 -5.958388727321872e-7
          0 -2.9499077770404625e-7 -5.897936694517726e-7 0 0 -2.2365950188885837e-7
          -2.1118815027215331e-7 -4.476548120565411e-7 -4.2270232884270436e-7 0 -1.7197981761622585e-7 -3.452248820542965e-7
          0 0 -2.569406277791917e-7 -2.013561384865322e-7 -5.144530912296688e-7 -4.0451782956282124e-7
          0 -2.746719788663557e-7 -5.490877750739208e-7 0 0 0
          -3.147107704340356e-7 -3.075193492407764e-7 -3.155217529460745e-7 -6.294569303599835e-7 -6.151165376240743e-7 -6.309307814398248e-7
          0 0 -1.9317016311364743e-7 -2.063730672851116e-7 -3.8703247967062334e-7 -4.128725579973109e-7
          0 0 -2.810460862717995e-7 -2.9378054859734146e-7 -5.625968172696559e-7 -5.883247412425443e-7
          0 0 -2.271288637158259e-7 -2.1678956378018053e-7 -4.5482618259938034e-7 -4.3371647093095274e-7
          0 0 -2.2863566971881662e-7 -2.1466784744982267e-7 -4.579702097754104e-7 -4.300151141093176e-7
          0 -3.065056392442409e-7 -6.132730982476595e-7 0 -2.934046284177529e-7 -5.86809518448352e-7
          0 -3.190738947428165e-7 -6.386744778810807e-7 0 -2.0900882873597475e-7 -4.1838276672605684e-7
          0 -2.992118358584709e-7 -5.987793463304004e-7 0 -2.4310152851595565e-7 -4.890162838604131e-7
          0 0 -2.9716501887872817e-7 -2.8991649920945595e-7 -5.940182895043614e-7 -5.793595704558992e-7
          0 0 -2.47342691356422e-7 -2.471664952506417e-7 -4.959536956180255e-7 -4.953337607388474e-7
          0 -2.5346179017736126e-7 -5.077245063493553e-7 0 -2.987799549042487e-7 -5.978101651212816e-7
          0 0 0 -1.7492847894628004e-7 -1.8335952487573285e-7 -1.773042284636965e-7
          -3.5353936466449644e-7 -3.691665568429932e-7 -3.5597164477730987e-7 0 0 -2.8668383524910356e-7
          -2.8635316335723276e-7 -5.737160157610525e-7 -5.729200282294541e-7 0 -1.9279372256854794e-7 -3.907120847645976e-7
          0 -3.0443220667275543e-7 -6.087478969178368e-7 0 -2.9203631634033455e-7 -5.846322614992133e-7
          0 -1.8687534338000006e-7 -3.7433973545064106e-7 0 -2.4153680865877346e-7 -4.856669103836627e-7
          0 -2.195494771550727e-7 -4.3959845811835227e-7 0 -2.3705400243457026e-7 -4.741312076760082e-7
          0 -2.742853015521052e-7 -5.513884881870224e-7 0 -2.3463483499444528e-7 -4.7276145383637816e-7
          0 -1.964208330672806e-7 -3.941250465075016e-7 0 -1.9656647115138546e-7 -3.961672686939286e-7
          0 -2.0491554549480374e-7 -4.129295587483187e-7 0 -1.708876364519849e-7 -3.4547411293467563e-7
          0 -2.265915885493674e-7 -4.5335610500252435e-7 0 -2.3478211511327778e-7 -4.694283142621186e-7
          0 -2.420375709503025e-7 -4.839524472410464e-7 0 -2.4042736068522556e-7 -4.808019892258406e-7
          0 -2.557459444821449e-7 -5.113859300213782e-7 0 -2.384185144499339e-7 -4.763724427898102e-7
          0 -2.729745636759097e-7 -5.465812791485298e-7 0 0 -1.7633754726452505e-7
          -1.6470374114410829e-7 -3.5775833672208224e-7 -3.3353068758555986e-7 0 -2.0267893194569627e-7 -4.1108999324624384e-7
          0 0 -2.0123575389441453e-7 -2.2023139627134961e-7 -4.034919619037739e-7 -4.420793000744457e-7
          0 -3.0137285324461277e-7 -6.030051898191953e-7 0 -3.1046391834775246e-7 -6.207874669585264e-7
          0 -2.51079874968348e-7 -5.019712304829413e-7 0 0 -3.1221620811582216e-7
          -3.182167843592241e-7 -6.248538549643518e-7 -6.367685110866464e-7 0 0 0
          -3.1911999832166103e-7 -2.5659874540548765e-7 -2.830920348726994e-7 -6.380691729860205e-7 -5.155620693568858e-7 -5.655513988499912e-7
          0 -3.214247657577474e-7 -6.430852070584949e-7 0 -3.3608663549901205e-7 -6.723314074602205e-7
          0 0 -3.112447624436473e-7 -3.146869251225604e-7 -6.22507572895811e-7 -6.293359753898008e-7
          0 0 -3.4740970770962923e-7 -3.303750222927903e-7 -6.944154725185461e-7 -6.607741973525022e-7
          0 0 -3.2371651898611624e-7 -3.2266664127198636e-7 -6.478164278938057e-7 -6.460207291379e-7
          0 0 -3.5748646226054917e-7 -3.512463894082088e-7 -7.14277005696393e-7 -7.020145172355562e-7
          0 -3.2619772526070737e-7 -6.522277363128048e-7 0 0 -3.2983447281938373e-7
          -2.9135231211970364e-7 -6.612138583758668e-7 -5.843465621701438e-7 0 -2.3309168723735757e-7 -4.6813166060777323e-7
          0 0 -2.25003089678034e-7 -2.552060797988719e-7 -4.505832430954947e-7 -5.130203524759945e-7
          0 -2.1415304878150363e-7 -4.294383549425262e-7 0 -3.3884110488620935e-7 -6.774874908528103e-7
          0 -2.2820937308908135e-7 -4.585129452697081e-7
        </DataArray>
      </PointData>
      <CellData>
        <DataArray type="Int32" Name="libmesh_elem_id" format="ascii" RangeMin="1184" RangeMax="3139">
          1184 1185 1192 1193 1194 1195
          1196 1197 1198 1199 1200 1201
          1202 1203 1210 1211 1212 1213
          1214 1215 1216 1217 1218 1219
          1220 1221 1226 1227 1228 1229
          1230 1231 1232 1233 1234 1235
          1236 1237 1238 1239 1244 1245
          1246 1247 1248 1249 1250 1251
          1252 1253 1254 1255 1256 1257
          1262 1263 1264 1265 1266 1267
          1268 1269 1270 1271 1272 1273
          1274 1275 1280 1281 1282 1283
          1284 1285 1286 1287 1288 1289
          1290 1291 1292 1293 1294 1295
          1296 1297 1298 1299 1302 1303
          1308 1309 1310 1311 1312 1313
          1318 1319 1320 1321 1322 1323
          1324 1325 1332 1333 1334 1335
          1336 1337 1340 1341 1342 1343
          1346 1347 1350 1351 1352 1353
          1354 1355 1362 1363 1364 1365
          1368 1369 1370 1371 1382 1383
          1396 1397 1408 1409 1452 1453
          1456 1457 1468 1469 1476 1477
          1486 1487 1510 1511 1518 1519
          1532 1533 1558 1559 1560 1561
          1564 1565 1566 1567 1570 1571
          1586 1587 1602 1603 1618 1619
          1622 1623 1628 1629 1634 1635
          1680 1681 1686 1687 1696 1697
          1700 1701 1708 1709 1710 1711
          1728 1729 1740 1741 1750 1751
          1754 1755 1764 1765 1766 1767
          1782 1783 1804 1805 1814 1815
          1836 1837 1868 1869 1880 1881
          1884 1885 1890 1891 1900 1901
          1908 1909 1918 1919 1928 1929
          1948 1949 1952 1953 1968 1969
          1970 1971 1972 1973 1986 1987
          2004 2005 2006 2007 2008 2009
          2014 2015 2018 2019 2020 2021
          2030 2031 2040 2041 2044 2045
          2050 2051 2062 2063 2064 2065
          2068 2069 2082 2083 2092 2093
          2120 2121 2128 2129 2130 2131
          2134 2135 2146 2147 2160 2161
          2180 2181 2184 2185 2186 2187
          2208 2209 2214 2215 2216 2217
          2230 2231 2234 2235 2248 2249
          2262 2263 2270 2271 2276 2277
          2286 2287 2292 2293 2294 2295
          2296 2297 2302 2303 2304 2305
          2314 2315 2316 2317 2320 2321
          2330 2331 2332 2333 2344 2345
          2354 2355 2362 2363 2366 2367
          2374 2375 2382 2383 2390 2391
          2400 2401 2404 2405 2408 2409
          2410 2411 2412 2413 2414 2415
          2430 2431 2440 2441 2448 2449
          2456 2457 2460 2461 2474 2475
          2486 2487 2494 2495 2498 2499
          2500 2501 2506 2507 2520 2521
          2522 2523 2564 2565 2572 2573
          2578 2579 2586 2587 2592 2593
          2596 2597 2600 2601 2620 2621
          2624 2625 2658 2659 2660 2661
          2670 2671 2688 2689 2694 2695
          2722 2723 2754 2755 2764 2765
          2778 2779 2780 2781 2796 2797
          2824 2825 2832 2833 2846 2847
          2848 2849 2862 2863 2870 2871
          2878 2879 2880 2881 2886 2887
          2902 2903 2930 2931 2940 2941
          2958 2959 2968 2969 2988 2989
          3062 3063 3064 3065 3090 3091
          3106 3107 3132 3133 3138 3139
        </DataArray>
        <DataArray type="Int32" Name="subdomain_id" format="ascii" RangeMin="105" RangeMax="143">
          105 105 105 105 105 105
          105 105 105 105 105 105
          105 105 105 105 105 105
          105 105 105 105 105 105
          105 105 105 105 105 105
          105 105 105 105 105 105
          105 105 105 105 105 105
          105 105 105 105 105 105
          105 105 105 105 105 105
          105 105 105 105 105 105
          105 105 105 105 105 105
          105 105 105 105 105 105
          105 105 105 105 105 105
          105 105 105 105 106 106
          106 106 106 106 106 106
          106 106 106 106 106 106
          106 106 106 106 106 106
          106 106 106 106 106 106
          106 106 106 106 106 106
          106 106 106 106 106 106
          106 106 143 143 143 143
          143 143 143 143 107 107
          107 107 107 107 107 107
          107 107 107 107 107 107
          107 107 107 107 107 107
          107 107 107 107 107 107
          107 107 107 107 107 107
          107 107 107 107 107 107
          107 107 107 107 107 107
          107 107 107 107 107 107
          107 107 107 107 107 107
          107 107 107 107 107 107
          107 107 107 107 107 107
          107 107 107 107 107 107
          107 107 107 107 107 107
          107 107 107 107 107 107
          107 107 107 107 107 107
          107 107 107 107 107 107
          107 107 107 107 107 107
          107 107 107 107 107 107
          107 107 107 107 107 107
          107 107 107 107 107 107
          107 107 107 107 107 107
          107 107 107 107 107 107
          107 107 107 107 107 107
          107 107 107 107 107 107
          107 107 107 107 107 107
          107 107 107 107 107 107
          107 107 107 107 107 107
          107 107 107 107 107 107
          107 107 107 107 107 107
          107 107 107 107 107 107
          107 107 107 107 107 107
          107 107 107 107 107 107
          107 107 107 107 107 107
          107 107 107 107 107 107
          107 107 107 107 107 107
          107 107 107 107 107 107
          107 107 107 107 107 107
          107 107 107 107 107 107
          107 107 107 107 107 107
          107 107 107 107 107 107
          107 107 107 107 107 107
          107 107 107 107 107 107
          107 107 107 107 107 107
          107 107 107 107 107 107
          107 107 107 107 107 107
          107 107 107 107 107 107
          107 107 107 107 107 107
          107 107 107 107 107 107
          107 107 107 107 107 107
          107 107 107 107 107 107
          107 107 107 107 107 107
          107 107 107 107 107 107
          107 107 107 107 107 107
          107 107 107 107 107 107
        </DataArray>
        <DataArray type="Int32" Name="processor_id" format="ascii" RangeMin="4" RangeMax="4">
          4 4 4 4 4 4
          4 4 4 4 4 4
          4 4 4 4 4 4
          4 4 4 4 4 4
          4 4 4 4 4 4
          4 4 4 4 4 4
          4 4 4 4 4 4
          4 4 4 4 4 4
          4 4 4 4 4 4
          4 4 4 4 4 4
          4 4 4 4 4 4
          4 4 4 4 4 4
          4 4 4 4 4 4
          4 4 4 4 4 4
          4 4 4 4 4 4
          4 4 4 4 4 4
          4 4 4 4 4 4
          4 4 4 4 4 4
          4 4 4 4 4 4
          4 4 4 4 4 4
          4 4 4 4 4 4
          4 4 4 4 4 4
          4 4 4 4 4 4
          4 4 4 4 4 4
          4 4 4 4 4 4
          4 4 4 4 4 4
          4 4 4 4 4 4
          4 4 4 4 4 4
          4 4 4 4 4 4
          4 4 4 4 4 4
          4 4 4 4 4 4
          4 4 4 4 4 4
          4 4 4 4 4 4
          4 4 4 4 4 4
          4 4 4 4 4 4
          4 4 4 4 4 4
          4 4 4 4 4 4
          4 4 4 4 4 4
          4 4 4 4 4 4
          4 4 4 4 4 4
          4 4 4 4 4 4
          4 4 4 4 4 4
          4 4 4 4 4 4
          4 4 4 4 4 4
          4 4 4 4 4 4
          4 4 4 4 4 4
          4 4 4 4 4 4
          4 4 4 4 4 4
          4 4 4 4 4 4
          4 4 4 4 4 4
          4 4 4 4 4 4
          4 4 4 4 4 4
          4 4 4 4 4 4
          4 4 4 4 4 4
          4 4 4 4 4 4
          4 4 4 4 4 4
          4 4 4 4 4 4
          4 4 4 4 4 4
          4 4 4 4 4 4
          4 4 4 4 4 4
          4 4 4 4 4 4
          4 4 4 4 4 4
          4 4 4 4 4 4
          4 4 4 4 4 4
          4 4 4 4 4 4
          4 4 4 4 4 4
          4 4 4 4 4 4
          4 4 4 4 4 4
          4 4 4 4 4 4
          4 4 4 4 4 4
          4 4 4 4 4 4
          4 4 4 4 4 4
          4 4 4 4 4 4
          4 4 4 4 4 4
          4 4 4 4 4 4
          4 4 4 4 4 4
        </DataArray>
      </CellData>
      <Points>
        <DataArray type="Float64" Name="Points" NumberOfComponents="3" format="ascii" RangeMin="0.009206309225653747" RangeMax="0.01648243122598367">
          0.005 0.0086896551724064 0 0.005 0.0086896551724064 0.00015
          0.005 0.0086896551724064 0.0003 0.0045555555555561 0.0091034482758539 0
          0.0045555555555561 0.0091034482758539 0.00015 0.0045555555555561 0.0091034482758539 0.0003
          0.005 0.0091034482758539 0 0.005 0.0091034482758539 0.00015
          0.005 0.0091034482758539 0.0003 0.0023333333333353 0.0095172413793029 0
          0.0023333333333353 0.0095172413793029 0.00015 0.0023333333333353 0.0095172413793029 0.0003
          0.0027777777777802 0.0095172413793029 0 0.0027777777777802 0.0095172413793029 0.00015
          0.0027777777777802 0.0095172413793029 0.0003 0.0032222222222248 0.0095172413793029 0
          0.0032222222222248 0.0095172413793029 0.00015 0.0032222222222248 0.0095172413793029 0.0003
          0.0036666666666675 0.0095172413793029 0 0.0036666666666675 0.0095172413793029 0.00015
          0.0036666666666675 0.0095172413793029 0.0003 0.0041111111111126 0.0095172413793029 0
          0.0041111111111126 0.0095172413793029 0.00015 0.0041111111111126 0.0095172413793029 0.0003
          0.0045555555555561 0.0095172413793029 0 0.0045555555555561 0.0095172413793029 0.00015
          0.0045555555555561 0.0095172413793029 0.0003 0.005 0.0095172413793029 0
          0.005 0.0095172413793029 0.00015 0.005 0.0095172413793029 0.0003
          0.0023333333333355 0.0099310344827529 0 0.0023333333333355 0.0099310344827529 0.00015
          0.0023333333333355 0.0099310344827529 0.0003 0.0027777777777806 0.0099310344827529 0
          0.0027777777777806 0.0099310344827529 0.00015 0.0027777777777806 0.0099310344827529 0.0003
          0.0032222222222251 0.0099310344827529 0 0.0032222222222251 0.0099310344827529 0.00015
          0.0032222222222251 0.0099310344827529 0.0003 0.0036666666666677 0.0099310344827529 0
          0.0036666666666677 0.0099310344827529 0.00015 0.0036666666666677 0.0099310344827529 0.0003
          0.0041111111111127 0.0099310344827529 0 0.0041111111111127 0.0099310344827529 0.00015
          0.0041111111111127 0.0099310344827529 0.0003 0.0045555555555561 0.0099310344827529 0
          0.0045555555555561 0.0099310344827529 0.00015 0.0045555555555561 0.0099310344827529 0.0003
          0.005 0.0099310344827529 0 0.005 0.0099310344827529 0.00015
          0.005 0.0099310344827529 0.0003 0.0018888888888904 0.010344827586203 0
          0.0018888888888904 0.010344827586203 0.00015 0.0018888888888904 0.010344827586203 0.0003
          0.0023333333333357 0.010344827586203 0 0.0023333333333357 0.010344827586203 0.00015
          0.0023333333333357 0.010344827586203 0.0003 0.0027777777777809 0.010344827586203 0
          0.0027777777777809 0.010344827586203 0.00015 0.0027777777777809 0.010344827586203 0.0003
          0.0032222222222255 0.010344827586203 0 0.0032222222222255 0.010344827586203 0.00015
          0.0032222222222255 0.010344827586203 0.0003 0.0036666666666679 0.010344827586203 0
          0.0036666666666679 0.010344827586203 0.00015 0.0036666666666679 0.010344827586203 0.0003
          0.0041111111111129 0.010344827586203 0 0.0041111111111129 0.010344827586203 0.00015
          0.0041111111111129 0.010344827586203 0.0003 0.0045555555555562 0.010344827586203 0
          0.0045555555555562 0.010344827586203 0.00015 0.0045555555555562 0.010344827586203 0.0003
          0.005 0.010344827586203 0 0.005 0.010344827586203 0.00015
          0.005 0.010344827586203 0.0003 0.0018888888888905 0.010758620689653 0
          0.0018888888888905 0.010758620689653 0.00015 0.0018888888888905 0.010758620689653 0.0003
          0.0023333333333359 0.010758620689653 0 0.0023333333333359 0.010758620689653 0.00015
          0.0023333333333359 0.010758620689653 0.0003 0.0027777777777812 0.010758620689653 0
          0.0027777777777812 0.010758620689653 0.00015 0.0027777777777812 0.010758620689653 0.0003
          0.0032222222222258 0.010758620689653 0 0.0032222222222258 0.010758620689653 0.00015
          0.0032222222222258 0.010758620689653 0.0003 0.0036666666666681 0.010758620689653 0
          0.0036666666666681 0.010758620689653 0.00015 0.0036666666666681 0.010758620689653 0.0003
          0.004111111111113 0.010758620689653 0 0.004111111111113 0.010758620689653 0.00015
          0.004111111111113 0.010758620689653 0.0003 0.0045555555555562 0.010758620689653 0
          0.0045555555555562 0.010758620689653 0.00015 0.0045555555555562 0.010758620689653 0.0003
          0.005 0.010758620689653 0 0.005 0.010758620689653 0.00015
          0.005 0.010758620689653 0.0003 0.0018888888888907 0.0111724137931 0
          0.0018888888888907 0.0111724137931 0.00015 0.0018888888888907 0.0111724137931 0.0003
          0.002333333333336 0.0111724137931 0 0.002333333333336 0.0111724137931 0.00015
          0.002333333333336 0.0111724137931 0.0003 0.0027777777777815 0.0111724137931 0
          0.0027777777777815 0.0111724137931 0.00015 0.0027777777777815 0.0111724137931 0.0003
          0.0032222222222261 0.0111724137931 0 0.0032222222222261 0.0111724137931 0.00015
          0.0032222222222261 0.0111724137931 0.0003 0.0036666666666682 0.0111724137931 0
          0.0036666666666682 0.0111724137931 0.00015 0.0036666666666682 0.0111724137931 0.0003
          0.0041111111111132 0.0111724137931 0 0.0041111111111132 0.0111724137931 0.00015
          0.0041111111111132 0.0111724137931 0.0003 0.0045555555555562 0.0111724137931 0
          0.0045555555555562 0.0111724137931 0.00015 0.0045555555555562 0.0111724137931 0.0003
          0.005 0.0111724137931 0 0.005 0.0111724137931 0.00015
          0.005 0.0111724137931 0.0003 0.0018888888888908 0.01158620689655 0
          0.0018888888888908 0.01158620689655 0.00015 0.0018888888888908 0.01158620689655 0.0003
          0.0023333333333362 0.01158620689655 0 0.0023333333333362 0.01158620689655 0.00015
          0.0023333333333362 0.01158620689655 0.0003 0.0027777777777818 0.01158620689655 0
          0.0027777777777818 0.01158620689655 0.00015 0.0027777777777818 0.01158620689655 0.0003
          0.0032222222222264 0.01158620689655 0 0.0032222222222264 0.01158620689655 0.00015
          0.0032222222222264 0.01158620689655 0.0003 0.0036666666666684 0.01158620689655 0
          0.0036666666666684 0.01158620689655 0.00015 0.0036666666666684 0.01158620689655 0.0003
          0.0041111111111133 0.01158620689655 0 0.0041111111111133 0.01158620689655 0.00015
          0.0041111111111133 0.01158620689655 0.0003 0.0045555555555563 0.01158620689655 0
          0.0045555555555563 0.01158620689655 0.00015 0.0045555555555563 0.01158620689655 0.0003
          0.005 0.01158620689655 0 0.005 0.01158620689655 0.00015
          0.005 0.01158620689655 0.0003 0.0018888888888909 0.012 0
          0.0018888888888909 0.012 0.00015 0.0018888888888909 0.012 0.0003
          0.0023333333333364 0.012 0 0.0023333333333364 0.012 0.00015
          0.0023333333333364 0.012 0.0003 0.0027777777777821 0.012 0
          0.0027777777777821 0.012 0.00015 0.0027777777777821 0.012 0.0003
          0.0032222222222267 0.012 0 0.0032222222222267 0.012 0.00015
          0.0032222222222267 0.012 0.0003 0.0036666666666686 0.012 0
          0.0036666666666686 0.012 0.00015 0.0036666666666686 0.012 0.0003
          0.0041111111111135 0.012 0 0.0041111111111135 0.012 0.00015
          0.0041111111111135 0.012 0.0003 0.0045555555555563 0.012 0
          0.0045555555555563 0.012 0.00015 0.0045555555555563 0.012 0.0003
          0.005 0.012 0 0.005 0.012 0.00015
          0.005 0.012 0.0003 0.0037820013226837 0.012336480560236 0
          0.004185794034024 0.012345264070133 0 0.0042342826387353 0.012652901224832 0
          0.0038676442772706 0.012640465852933 0 0.0037820013226837 0.012336480560236 0.00015
          0.004185794034024 0.012345264070133 0.00015 0.0042342826387353 0.012652901224832 0.00015
          0.0038676442772706 0.012640465852933 0.00015 0.0037820013226837 0.012336480560236 0.0003
          0.004185794034024 0.012345264070133 0.0003 0.0042342826387353 0.012652901224832 0.0003
          0.0038676442772706 0.012640465852933 0.0003 0.0025889714655165 0.012382221976315 0
          0.0025681692138844 0.01272809974993 0 0.0020604062010233 0.012679406151259 0
          0.0021948734460593 0.012348192846391 0 0.0025889714655165 0.012382221976315 0.00015
          0.0025681692138844 0.01272809974993 0.00015 0.0020604062010233 0.012679406151259 0.00015
          0.0021948734460593 0.012348192846391 0.00015 0.0025889714655165 0.012382221976315 0.0003
          0.0025681692138844 0.01272809974993 0.0003 0.0020604062010233 0.012679406151259 0.0003
          0.0021948734460593 0.012348192846391 0.0003 0.0029921846324185 0.012381457466683 0
          0.0030781171064664 0.012687491868191 0 0.0029921846324185 0.012381457466683 0.00015
          0.0030781171064664 0.012687491868191 0.00015 0.0029921846324185 0.012381457466683 0.0003
          0.0030781171064664 0.012687491868191 0.0003 0.0035064061826528 0.012674722493539 0
          0.0033673902656471 0.012343623774248 0 0.0035064061826528 0.012674722493539 0.00015
          0.0033673902656471 0.012343623774248 0.00015 0.0035064061826528 0.012674722493539 0.0003
          0.0033673902656471 0.012343623774248 0.0003 0.0045893247731344 0.012399526217393 0
          0.004557077400537 0.01272310643902 0 0.0045893247731344 0.012399526217393 0.00015
          0.004557077400537 0.01272310643902 0.00015 0.0045893247731344 0.012399526217393 0.0003
          0.004557077400537 0.01272310643902 0.0003 0.0017386847932316 0.012348636106575 0
          0.001702980389272 0.012655949584096 0 0.0017386847932316 0.012348636106575 0.00015
          0.001702980389272 0.012655949584096 0.00015 0.0017386847932316 0.012348636106575 0.0003
          0.001702980389272 0.012655949584096 0.0003 0.0045555555555563 0.013 0
          0.0041111111111135 0.013 0 0.0045555555555563 0.013 0.00015
          0.0041111111111135 0.013 0.00015 0.0045555555555563 0.013 0.0003
          0.0041111111111135 0.013 0.0003 0.005 0.012499999999989 0
          0.005 0.012499999999989 0.00015 0.005 0.012499999999989 0.0003
          0.0018888888888909 0.013 0 0.0018888888888909 0.013 0.00015
          0.0018888888888909 0.013 0.0003 0.0023333333333364 0.013 0
          0.0023333333333364 0.013 0.00015 0.0023333333333364 0.013 0.0003
          0.0027777777777821 0.013 0 0.0032222222222267 0.013 0
          0.0027777777777821 0.013 0.00015 0.0032222222222267 0.013 0.00015
          0.0027777777777821 0.013 0.0003 0.0032222222222267 0.013 0.0003
          0.0036666666666686 0.013 0 0.0036666666666686 0.013 0.00015
          0.0036666666666686 0.013 0.0003 0.005 0.013 0
          0.005 0.013 0.00015 0.005 0.013 0.0003
          0.0058653844060618 0.0079194158644502 0 0.0058653844060618 0.0079194158644502 0.00015
          0.0058653844060618 0.0079194158644502 0.0003 0.0054092385319303 0.011645775400863 0
          0.0053833488776842 0.01122289251627 0 0.0057681451700529 0.011227839215398 0
          0.0058121034548515 0.011664867476358 0 0.0054092385319303 0.011645775400863 0.00015
          0.0053833488776842 0.01122289251627 0.00015 0.0057681451700529 0.011227839215398 0.00015
          0.0058121034548515 0.011664867476358 0.00015 0.0054092385319303 0.011645775400863 0.0003
          0.0053833488776842 0.01122289251627 0.0003 0.0057681451700529 0.011227839215398 0.0003
          0.0058121034548515 0.011664867476358 0.0003 0.0061750164335738 0.0074760206739226 0
          0.0061750164335738 0.0074760206739226 0.00015 0.0061750164335738 0.0074760206739226 0.0003
          0.0059117305299751 0.012157336766967 0 0.005424823391927 0.012092657417535 0
          0.0059117305299751 0.012157336766967 0.00015 0.005424823391927 0.012092657417535 0.00015
          0.0059117305299751 0.012157336766967 0.0003 0.005424823391927 0.012092657417535 0.0003
          0.0067343691031854 0.0082749920647978 0 0.0064165220606644 0.0085260954574503 0
          0.0061549788754448 0.0084621147205563 0 0.0063465715243025 0.0080645757596712 0
          0.0067343691031854 0.0082749920647978 0.00015 0.0064165220606644 0.0085260954574503 0.00015
          0.0061549788754448 0.0084621147205563 0.00015 0.0063465715243025 0.0080645757596712 0.00015
          0.0067343691031854 0.0082749920647978 0.0003 0.0064165220606644 0.0085260954574503 0.0003
          0.0061549788754448 0.0084621147205563 0.0003 0.0063465715243025 0.0080645757596712 0.0003
          0.0057156085606184 0.010806935576218 0 0.0053556270258422 0.010821833746382 0
          0.0057156085606184 0.010806935576218 0.00015 0.0053556270258422 0.010821833746382 0.00015
          0.0057156085606184 0.010806935576218 0.0003 0.0053556270258422 0.010821833746382 0.0003
          0.0066683322798844 0.007604545062767 0 0.0070645065688863 0.0079329639302151 0
          0.0066683322798844 0.007604545062767 0.00015 0.0070645065688863 0.0079329639302151 0.00015
          0.0066683322798844 0.007604545062767 0.0003 0.0070645065688863 0.0079329639302151 0.0003
          0.0064939459679252 0.012038015964773 0 0.0063228400853618 0.012437164584428 0
          0.0062168099714575 0.011953445524179 0 0.0064939459679252 0.012038015964773 0.00015
          0.0063228400853618 0.012437164584428 0.00015 0.0062168099714575 0.011953445524179 0.00015
          0.0064939459679252 0.012038015964773 0.0003 0.0063228400853618 0.012437164584428 0.0003
          0.0062168099714575 0.011953445524179 0.0003 0.0085394683783431 0.010062707851298 0
          0.0089610661825476 0.0099263712092025 0 0.0091044702108566 0.010399281799278 0
          0.0086466489465924 0.010543823526793 0 0.0085394683783431 0.010062707851298 0.00015
          0.0089610661825476 0.0099263712092025 0.00015 0.0091044702108566 0.010399281799278 0.00015
          0.0086466489465924 0.010543823526793 0.00015 0.0085394683783431 0.010062707851298 0.0003
          0.0089610661825476 0.0099263712092025 0.0003 0.0091044702108566 0.010399281799278 0.0003
          0.0086466489465924 0.010543823526793 0.0003 0.0070988195317831 0.0084027120924791 0
          0.0071605082668525 0.0086998196459927 0 0.0067922174506807 0.0087792626202703 0
          0.0070988195317831 0.0084027120924791 0.00015 0.0071605082668525 0.0086998196459927 0.00015
          0.0067922174506807 0.0087792626202703 0.00015 0.0070988195317831 0.0084027120924791 0.0003
          0.0071605082668525 0.0086998196459927 0.0003 0.0067922174506807 0.0087792626202703 0.0003
          0.0082212914374119 0.0076937845711927 0 0.0086800066977864 0.007743247126247 0
          0.0088477729813042 0.00814241905886 0 0.0083314775318771 0.0082316914297717 0
          0.0082212914374119 0.0076937845711927 0.00015 0.0086800066977864 0.007743247126247 0.00015
          0.0088477729813042 0.00814241905886 0.00015 0.0083314775318771 0.0082316914297717 0.00015
          0.0082212914374119 0.0076937845711927 0.0003 0.0086800066977864 0.007743247126247 0.0003
          0.0088477729813042 0.00814241905886 0.0003 0.0083314775318771 0.0082316914297717 0.0003
          0.0053430701544214 0.010541301697294 0 0.0055999206723275 0.01043253025418 0
          0.0053430701544214 0.010541301697294 0.00015 0.0055999206723275 0.01043253025418 0.00015
          0.0053430701544214 0.010541301697294 0.0003 0.0055999206723275 0.01043253025418 0.0003
          0.0082934157409751 0.011625007594535 0 0.0082561968973057 0.011128478524087 0
          0.0087259762319724 0.011059252375005 0 0.0087558560903097 0.01158375342748 0
          0.0082934157409751 0.011625007594535 0.00015 0.0082561968973057 0.011128478524087 0.00015
          0.0087259762319724 0.011059252375005 0.00015 0.0087558560903097 0.01158375342748 0.00015
          0.0082934157409751 0.011625007594535 0.0003 0.0082561968973057 0.011128478524087 0.0003
          0.0087259762319724 0.011059252375005 0.0003 0.0087558560903097 0.01158375342748 0.0003
          0.0059886023840467 0.010204624020488 0 0.005451541046517 0.010106162675601 0
          0.0057038380696848 0.0099786893665285 0 0.0059886023840467 0.010204624020488 0.00015
          0.005451541046517 0.010106162675601 0.00015 0.0057038380696848 0.0099786893665285 0.00015
          0.0059886023840467 0.010204624020488 0.0003 0.005451541046517 0.010106162675601 0.0003
          0.0057038380696848 0.0099786893665285 0.0003 0.0078369912454539 0.011665931946432 0
          0.0078144148304188 0.011182309200361 0 0.0078369912454539 0.011665931946432 0.00015
          0.0078144148304188 0.011182309200361 0.00015 0.0078369912454539 0.011665931946432 0.0003
          0.0078144148304188 0.011182309200361 0.0003 0.0086735759699153 0.012550377000034 0
          0.0087327775394086 0.012086203404192 0 0.0091819131238462 0.012082911785298 0
          0.0091730578335362 0.01253941989127 0 0.0086735759699153 0.012550377000034 0.00015
          0.0087327775394086 0.012086203404192 0.00015 0.0091819131238462 0.012082911785298 0.00015
          0.0091730578335362 0.01253941989127 0.00015 0.0086735759699153 0.012550377000034 0.0003
          0.0087327775394086 0.012086203404192 0.0003 0.0091819131238462 0.012082911785298 0.0003
          0.0091730578335362 0.01253941989127 0.0003 0.010056105947498 0.011950542930398 0
          0.010274327777913 0.011549885364188 0 0.010056105947498 0.011950542930398 0.00015
          0.010274327777913 0.011549885364188 0.00015 0.010056105947498 0.011950542930398 0.0003
          0.010274327777913 0.011549885364188 0.0003 0.0087795014641276 0.0086485955844896 0
          0.0083912374962093 0.008661976024637 0 0.0087795014641276 0.0086485955844896 0.00015
          0.0083912374962093 0.008661976024637 0.00015 0.0087795014641276 0.0086485955844896 0.0003
          0.0083912374962093 0.008661976024637 0.0003 0.0073407145553935 0.0082277946262138 0
          0.0075218701602762 0.0085641736532836 0 0.0073407145553935 0.0082277946262138 0.00015
          0.0075218701602762 0.0085641736532836 0.00015 0.0073407145553935 0.0082277946262138 0.0003
          0.0075218701602762 0.0085641736532836 0.0003 0.0073357310625303 0.010250124356937 0
          0.0069197896843151 0.010226005241683 0 0.0068905371289043 0.0097153304797672 0
          0.0074001182371208 0.0096888945892578 0 0.0073357310625303 0.010250124356937 0.00015
          0.0069197896843151 0.010226005241683 0.00015 0.0068905371289043 0.0097153304797672 0.00015
          0.0074001182371208 0.0096888945892578 0.00015 0.0073357310625303 0.010250124356937 0.0003
          0.0069197896843151 0.010226005241683 0.0003 0.0068905371289043 0.0097153304797672 0.0003
          0.0074001182371208 0.0096888945892578 0.0003 0.0081958803856553 0.010639401227375 0
          0.0081958803856553 0.010639401227375 0.00015 0.0081958803856553 0.010639401227375 0.0003
          0.0057785311780113 0.0084598603588589 0 0.0057785311780113 0.0084598603588589 0.00015
          0.0057785311780113 0.0084598603588589 0.0003 0.0068354780286894 0.0065149558629347 0
          0.0065694481807909 0.0068273110654121 0 0.0068354780286894 0.0065149558629347 0.00015
          0.0065694481807909 0.0068273110654121 0.00015 0.0068354780286894 0.0065149558629347 0.0003
          0.0065694481807909 0.0068273110654121 0.0003 0.0061608287914901 0.011213609336371 0
          0.0061928612734976 0.011646193292464 0 0.0061608287914901 0.011213609336371 0.00015
          0.0061928612734976 0.011646193292464 0.00015 0.0061608287914901 0.011213609336371 0.0003
          0.0061928612734976 0.011646193292464 0.0003 0.0060256410256453 0.013 0
          0.0057791181770977 0.012558961975135 0 0.0060256410256453 0.013 0.00015
          0.0057791181770977 0.012558961975135 0.00015 0.0060256410256453 0.013 0.0003
          0.0057791181770977 0.012558961975135 0.0003 0.0061071771839093 0.010748184383761 0
          0.0061071771839093 0.010748184383761 0.00015 0.0061071771839093 0.010748184383761 0.0003
          0.0064845320073614 0.010216336118065 0 0.0065278935143817 0.010725783571784 0
          0.0064845320073614 0.010216336118065 0.00015 0.0065278935143817 0.010725783571784 0.00015
          0.0064845320073614 0.010216336118065 0.0003 0.0065278935143817 0.010725783571784 0.0003
          0.0077968354342878 0.012121840026842 0 0.0077167513193965 0.012573751507337 0
          0.0072251022123942 0.012571145425366 0 0.0073422863282366 0.012132364188728 0
          0.0077968354342878 0.012121840026842 0.00015 0.0077167513193965 0.012573751507337 0.00015
          0.0072251022123942 0.012571145425366 0.00015 0.0073422863282366 0.012132364188728 0.00015
          0.0077968354342878 0.012121840026842 0.0003 0.0077167513193965 0.012573751507337 0.0003
          0.0072251022123942 0.012571145425366 0.0003 0.0073422863282366 0.012132364188728 0.0003
          0.0072550033809581 0.0091349332579085 0 0.0076541519095837 0.0089672912460138 0
          0.0072550033809581 0.0091349332579085 0.00015 0.0076541519095837 0.0089672912460138 0.00015
          0.0072550033809581 0.0091349332579085 0.0003 0.0076541519095837 0.0089672912460138 0.0003
          0.0065384615384679 0.013 0 0.0067552646820212 0.012548340065985 0
          0.007051282051287 0.013 0 0.0065384615384679 0.013 0.00015
          0.0067552646820212 0.012548340065985 0.00015 0.007051282051287 0.013 0.00015
          0.0065384615384679 0.013 0.0003 0.0067552646820212 0.012548340065985 0.0003
          0.007051282051287 0.013 0.0003 0.0068431084681841 0.0092248064360522 0
          0.0064629827835734 0.0097214310503871 0 0.0064401841603361 0.009249995775159 0
          0.0068431084681841 0.0092248064360522 0.00015 0.0064629827835734 0.0097214310503871 0.00015
          0.0064401841603361 0.009249995775159 0.00015 0.0068431084681841 0.0092248064360522 0.0003
          0.0064629827835734 0.0097214310503871 0.0003 0.0064401841603361 0.009249995775159 0.0003
          0.0078142698619037 0.0093821750433109 0 0.0078142698619037 0.0093821750433109 0.00015
          0.0078142698619037 0.0093821750433109 0.0003 0.0064227954769353 0.0088235452462607 0
          0.0064227954769353 0.0088235452462607 0.00015 0.0064227954769353 0.0088235452462607 0.0003
          0.0060749446210727 0.008846093909968 0 0.0060643722245677 0.0092551370126649 0
          0.0060749446210727 0.008846093909968 0.00015 0.0060643722245677 0.0092551370126649 0.00015
          0.0060749446210727 0.008846093909968 0.0003 0.0060643722245677 0.0092551370126649 0.0003
          0.0065702926001918 0.011654169374977 0 0.006566373886869 0.011214840249119 0
          0.0065702926001918 0.011654169374977 0.00015 0.006566373886869 0.011214840249119 0.00015
          0.0065702926001918 0.011654169374977 0.0003 0.006566373886869 0.011214840249119 0.0003
          0.0093206781870799 0.010991873758601 0 0.0093206781870799 0.010991873758601 0.00015
          0.0093206781870799 0.010991873758601 0.0003 0.0063586074578252 0.0071353312088165 0
          0.0066361392369192 0.0072470897144222 0 0.0063586074578252 0.0071353312088165 0.00015
          0.0066361392369192 0.0072470897144222 0.00015 0.0063586074578252 0.0071353312088165 0.0003
          0.0066361392369192 0.0072470897144222 0.0003 0.0070635342364542 0.0061542378287001 0
          0.0070635342364542 0.0061542378287001 0.00015 0.0070635342364542 0.0061542378287001 0.0003
          0.010295501843898 0.0098988447327244 0 0.010331968632679 0.010177975560165 0
          0.0100990439633 0.010345969653311 0 0.0099255608427027 0.010003443747144 0
          0.010295501843898 0.0098988447327244 0.00015 0.010331968632679 0.010177975560165 0.00015
          0.0100990439633 0.010345969653311 0.00015 0.0099255608427027 0.010003443747144 0.00015
          0.010295501843898 0.0098988447327244 0.0003 0.010331968632679 0.010177975560165 0.0003
          0.0100990439633 0.010345969653311 0.0003 0.0099255608427027 0.010003443747144 0.0003
          0.0075641025641077 0.013 0 0.0075641025641077 0.013 0.00015
          0.0075641025641077 0.013 0.0003 0.007358052416256 0.010740056955422 0
          0.0069470918478694 0.010735576046615 0 0.007358052416256 0.010740056955422 0.00015
          0.0069470918478694 0.010735576046615 0.00015 0.007358052416256 0.010740056955422 0.0003
          0.0069470918478694 0.010735576046615 0.0003 0.0060634003212644 0.00969554800092 0
          0.0060634003212644 0.00969554800092 0.00015 0.0060634003212644 0.00969554800092 0.0003
          0.0068797309840753 0.0070620910964483 0 0.0071475509773245 0.0073405239650904 0
          0.0068797309840753 0.0070620910964483 0.00015 0.0071475509773245 0.0073405239650904 0.00015
          0.0068797309840753 0.0070620910964483 0.0003 0.0071475509773245 0.0073405239650904 0.0003
          0.0094632087818517 0.0081862945076399 0 0.0094632087818517 0.0081862945076399 0.00015
          0.0094632087818517 0.0081862945076399 0.0003 0.0091025641025756 0.013 0
          0.0097400134531557 0.012425583162504 0 0.0096153846153981 0.013 0
          0.0091025641025756 0.013 0.00015 0.0097400134531557 0.012425583162504 0.00015
          0.0096153846153981 0.013 0.00015 0.0091025641025756 0.013 0.0003
          0.0097400134531557 0.012425583162504 0.0003 0.0096153846153981 0.013 0.0003
          0.0080231150782377 0.0087799001252051 0 0.0081700325353194 0.0091480386714452 0
          0.0080231150782377 0.0087799001252051 0.00015 0.0081700325353194 0.0091480386714452 0.00015
          0.0080231150782377 0.0087799001252051 0.0003 0.0081700325353194 0.0091480386714452 0.0003
          0.0095329104644106 0.010197774343332 0 0.0097620082938393 0.010606176712681 0
          0.0095329104644106 0.010197774343332 0.00015 0.0097620082938393 0.010606176712681 0.00015
          0.0095329104644106 0.010197774343332 0.0003 0.0097620082938393 0.010606176712681 0.0003
          0.008459458524824 0.0095324383395712 0 0.0079941048127097 0.0097727986382514 0
          0.008459458524824 0.0095324383395712 0.00015 0.0079941048127097 0.0097727986382514 0.00015
          0.008459458524824 0.0095324383395712 0.0003 0.0079941048127097 0.0097727986382514 0.0003
          0.0086852410268287 0.0090671784981495 0 0.0084121010432185 0.0089624922946051 0
          0.0086852410268287 0.0090671784981495 0.00015 0.0084121010432185 0.0089624922946051 0.00015
          0.0086852410268287 0.0090671784981495 0.0003 0.0084121010432185 0.0089624922946051 0.0003
          0.010101546658348 0.010930204106287 0 0.010101546658348 0.010930204106287 0.00015
          0.010101546658348 0.010930204106287 0.0003 0.009219770580739 0.01160836207586 0
          0.009219770580739 0.01160836207586 0.00015 0.009219770580739 0.01160836207586 0.0003
          0.010512959331867 0.011182607317474 0 0.010512959331867 0.011182607317474 0.00015
          0.010512959331867 0.011182607317474 0.0003 0.0077135351973544 0.0099243016659867 0
          0.0077135351973544 0.0099243016659867 0.00015 0.0077135351973544 0.0099243016659867 0.0003
          0.0098399724462143 0.011314297129672 0 0.0098399724462143 0.011314297129672 0.00015
          0.0098399724462143 0.011314297129672 0.0003 0.0071955324717728 0.0067909271139751 0
          0.0071955324717728 0.0067909271139751 0.00015 0.0071955324717728 0.0067909271139751 0.0003
          0.0081933420545987 0.012561933470251 0 0.0082754308174791 0.012106448253662 0
          0.0081933420545987 0.012561933470251 0.00015 0.0082754308174791 0.012106448253662 0.00015
          0.0081933420545987 0.012561933470251 0.0003 0.0082754308174791 0.012106448253662 0.0003
          0.0091885294783446 0.0083400759786555 0 0.009185366627384 0.008676208234384 0
          0.0091885294783446 0.0083400759786555 0.00015 0.009185366627384 0.008676208234384 0.00015
          0.0091885294783446 0.0083400759786555 0.0003 0.009185366627384 0.008676208234384 0.0003
          0.0091484396571168 0.0092413935725907 0 0.0091484396571168 0.0092413935725907 0.00015
          0.0091484396571168 0.0092413935725907 0.0003 0.0096530361744126 0.011754958706862 0
          0.0096530361744126 0.011754958706862 0.00015 0.0096530361744126 0.011754958706862 0.0003
          0.0074385983748104 0.0076487872335333 0 0.0078026145042184 0.0073499712891003 0
          0.0077209126941719 0.0079857422349365 0 0.0074385983748104 0.0076487872335333 0.00015
          0.0078026145042184 0.0073499712891003 0.00015 0.0077209126941719 0.0079857422349365 0.00015
          0.0074385983748104 0.0076487872335333 0.0003 0.0078026145042184 0.0073499712891003 0.0003
          0.0077209126941719 0.0079857422349365 0.0003 0.0096060866574151 0.0086034051599073 0
          0.0096917093907041 0.0090884547689663 0 0.0096060866574151 0.0086034051599073 0.00015
          0.0096917093907041 0.0090884547689663 0.00015 0.0096060866574151 0.0086034051599073 0.0003
          0.0096917093907041 0.0090884547689663 0.0003 0.0074956671905203 0.0070789212715492 0
          0.0074956671905203 0.0070789212715492 0.00015 0.0074956671905203 0.0070789212715492 0.0003
          0.0080769230769304 0.013 0 0.0080769230769304 0.013 0.00015
          0.0080769230769304 0.013 0.0003 0.0097960013481072 0.0095766790072516 0
          0.0097960013481072 0.0095766790072516 0.00015 0.0097960013481072 0.0095766790072516 0.0003
          0.0079025965714766 0.0083828176281282 0 0.0079025965714766 0.0083828176281282 0.00015
          0.0079025965714766 0.0083828176281282 0.0003 0.0075832963246375 0.0064815260672887 0
          0.0075832963246375 0.0064815260672887 0.00015 0.0075832963246375 0.0064815260672887 0.0003
          0.0077301559610225 0.010254379585944 0 0.0077301559610225 0.010254379585944 0.00015
          0.0077301559610225 0.010254379585944 0.0003 0.0077729216102883 0.010708725243031 0
          0.0077729216102883 0.010708725243031 0.00015 0.0077729216102883 0.010708725243031 0.0003
          0.0053754057810206 0.0085370600870078 0 0.0053754057810206 0.0085370600870078 0.00015
          0.0053754057810206 0.0085370600870078 0.0003 0.0053590367872451 0.0089652268696161 0
          0.0053590367872451 0.0089652268696161 0.00015 0.0053590367872451 0.0089652268696161 0.0003
          0.0077314143265107 0.0068791993815975 0 0.0077314143265107 0.0068791993815975 0.00015
          0.0077314143265107 0.0068791993815975 0.0003 0.0053527694027008 0.0093707431616054 0
          0.0053527694027008 0.0093707431616054 0.00015 0.0053527694027008 0.0093707431616054 0.0003
          0.0080272182678723 0.0070086219794164 0 0.0080272182678723 0.0070086219794164 0.00015
          0.0080272182678723 0.0070086219794164 0.0003 0.0053686841699875 0.0097656204902227 0
          0.0053686841699875 0.0097656204902227 0.00015 0.0053686841699875 0.0097656204902227 0.0003
          0.0069753270353201 0.011225035595701 0 0.0069753270353201 0.011225035595701 0.00015
          0.0069753270353201 0.011225035595701 0.0003 0.0081230348422786 0.010180774741819 0
          0.0081230348422786 0.010180774741819 0.00015 0.0081230348422786 0.010180774741819 0.0003
          0.0069714542407681 0.011681487349241 0 0.0069714542407681 0.011681487349241 0.00015
          0.0069714542407681 0.011681487349241 0.0003 0.0073877269320336 0.011214628569732 0
          0.0073877269320336 0.011214628569732 0.00015 0.0073877269320336 0.011214628569732 0.0003
          0.0073992085993983 0.011689991378362 0 0.0073992085993983 0.011689991378362 0.00015
          0.0073992085993983 0.011689991378362 0.0003 0.0088599825232994 0.0095868605102716 0
          0.0088599825232994 0.0095868605102716 0.00015 0.0088599825232994 0.0095868605102716 0.0003
          0.0093698999071837 0.0097470513643601 0 0.0093698999071837 0.0097470513643601 0.00015
          0.0093698999071837 0.0097470513643601 0.0003 0.005708830284701 0.0092938500467527 0
          0.005710003284826 0.0096895337898706 0 0.005708830284701 0.0092938500467527 0.00015
          0.005710003284826 0.0096895337898706 0.00015 0.005708830284701 0.0092938500467527 0.0003
          0.005710003284826 0.0096895337898706 0.0003 0.0057253261942579 0.008884797777202 0
          0.0057253261942579 0.008884797777202 0.00015 0.0057253261942579 0.008884797777202 0.0003
          0.0054465956081518 0.012540682824845 0 0.0055128205128226 0.013 0
          0.0054465956081518 0.012540682824845 0.00015 0.0055128205128226 0.013 0.00015
          0.0054465956081518 0.012540682824845 0.0003 0.0055128205128226 0.013 0.0003
          0.0095150035075373 0.012074113937236 0 0.0095150035075373 0.012074113937236 0.00015
          0.0095150035075373 0.012074113937236 0.0003 0.008589743589753 0.013 0
          0.008589743589753 0.013 0.00015 0.008589743589753 0.013 0.0003
          0.0068932543961937 0.012102712522565 0 0.0068932543961937 0.012102712522565 0.00015
          0.0068932543961937 0.012102712522565 0.0003 0.010475172867508 0.012102844227475 0
          0.010669582432454 0.011743114144408 0 0.010475172867508 0.012102844227475 0.00015
          0.010669582432454 0.011743114144408 0.00015 0.010475172867508 0.012102844227475 0.0003
          0.010669582432454 0.011743114144408 0.0003 0.0098857235699117 0.0079055319030787 0
          0.0092411258002763 0.0078319639415625 0 0.0095144479526816 0.0076594245921199 0
          0.0098857235699117 0.0079055319030787 0.00015 0.0092411258002763 0.0078319639415625 0.00015
          0.0095144479526816 0.0076594245921199 0.00015 0.0098857235699117 0.0079055319030787 0.0003
          0.0092411258002763 0.0078319639415625 0.0003 0.0095144479526816 0.0076594245921199 0.0003
          0.010385522435479 0.010608007769118 0 0.010385522435479 0.010608007769118 0.00015
          0.010385522435479 0.010608007769118 0.0003 0.010783127360108 0.010836567412064 0
          0.010783127360108 0.010836567412064 0.00015 0.010783127360108 0.010836567412064 0.0003
          0.010310686327751 0.012539165738252 0 0.010128205128219 0.013 0
          0.010310686327751 0.012539165738252 0.00015 0.010128205128219 0.013 0.00015
          0.010310686327751 0.012539165738252 0.0003 0.010128205128219 0.013 0.0003
          0.011222013645511 0.011097826594996 0 0.010925822172272 0.011428925131881 0
          0.011222013645511 0.011097826594996 0.00015 0.010925822172272 0.011428925131881 0.00015
          0.011222013645511 0.011097826594996 0.0003 0.010925822172272 0.011428925131881 0.0003
          0.010158980545183 0.0089928081418126 0 0.010234809282542 0.0094751596931164 0
          0.010158980545183 0.0089928081418126 0.00015 0.010234809282542 0.0094751596931164 0.00015
          0.010158980545183 0.0089928081418126 0.0003 0.010234809282542 0.0094751596931164 0.0003
          0.010689703280164 0.0094649590365737 0 0.010691300612525 0.0099168298135774 0
          0.010689703280164 0.0094649590365737 0.00015 0.010691300612525 0.0099168298135774 0.00015
          0.010689703280164 0.0094649590365737 0.0003 0.010691300612525 0.0099168298135774 0.0003
          0.010057653370411 0.0084974472595183 0 0.010057653370411 0.0084974472595183 0.00015
          0.010057653370411 0.0084974472595183 0.0003 0.0071984303565192 0.0057392272964834 0
          0.0077721363879251 0.0058968168784219 0 0.0071984303565192 0.0057392272964834 0.00015
          0.0077721363879251 0.0058968168784219 0.00015 0.0071984303565192 0.0057392272964834 0.0003
          0.0077721363879251 0.0058968168784219 0.0003 0.0089588909882048 0.0073942383853577 0
          0.0089588909882048 0.0073942383853577 0.00015 0.0089588909882048 0.0073942383853577 0.0003
          0.0081402125110085 0.0066115625704341 0 0.0082479601882269 0.0062087007836213 0
          0.0081402125110085 0.0066115625704341 0.00015 0.0082479601882269 0.0062087007836213 0.00015
          0.0081402125110085 0.0066115625704341 0.0003 0.0082479601882269 0.0062087007836213 0.0003
          0.0084364690699339 0.0071912877673881 0 0.0084364690699339 0.0071912877673881 0.00015
          0.0084364690699339 0.0071912877673881 0.0003 0.010601303654319 0.010290632654442 0
          0.010601303654319 0.010290632654442 0.00015 0.010601303654319 0.010290632654442 0.0003
          0.0085681017610313 0.0067725899286886 0 0.0085681017610313 0.0067725899286886 0.00015
          0.0085681017610313 0.0067725899286886 0.0003
          <InformationKey name="L2_NORM_RANGE" location="vtkDataArray" length="2">
            <Value index="0">
              0.0092063092257
            </Value>
            <Value index="1">
              0.016482431226
            </Value>
          </InformationKey>
        </DataArray>
      </Points>
      <Cells>
        <DataArray type="Int64" Name="connectivity" format="ascii" RangeMin="0" RangeMax="782">
          27 24 3 6 28 25
          4 7 28 25 4 7
          29 26 5 8 33 30
          9 12 34 31 10 13
          34 31 10 13 35 32
          11 14 36 33 12 15
          37 34 13 16 37 34
          13 16 38 35 14 17
          39 36 15 18 40 37
          16 19 40 37 16 19
          41 38 17 20 42 39
          18 21 43 40 19 22
          43 40 19 22 44 41
          20 23 45 42 21 24
          46 43 22 25 46 43
          22 25 47 44 23 26
          48 45 24 27 49 46
          25 28 49 46 25 28
          50 47 26 29 57 54
          30 33 58 55 31 34
          58 55 31 34 59 56
          32 35 60 57 33 36
          61 58 34 37 61 58
          34 37 62 59 35 38
          63 60 36 39 64 61
          37 40 64 61 37 40
          65 62 38 41 66 63
          39 42 67 64 40 43
          67 64 40 43 68 65
          41 44 69 66 42 45
          70 67 43 46 70 67
          43 46 71 68 44 47
          72 69 45 48 73 70
          46 49 73 70 46 49
          74 71 47 50 78 75
          51 54 79 76 52 55
          79 76 52 55 80 77
          53 56 81 78 54 57
          82 79 55 58 82 79
          55 58 83 80 56 59
          84 81 57 60 85 82
          58 61 85 82 58 61
          86 83 59 62 87 84
          60 63 88 85 61 64
          88 85 61 64 89 86
          62 65 90 87 63 66
          91 88 64 67 91 88
          64 67 92 89 65 68
          93 90 66 69 94 91
          67 70 94 91 67 70
          95 92 68 71 96 93
          69 72 97 94 70 73
          97 94 70 73 98 95
          71 74 102 99 75 78
          103 100 76 79 103 100
          76 79 104 101 77 80
          105 102 78 81 106 103
          79 82 106 103 79 82
          107 104 80 83 108 105
          81 84 109 106 82 85
          109 106 82 85 110 107
          83 86 111 108 84 87
          112 109 85 88 112 109
          85 88 113 110 86 89
          114 111 87 90 115 112
          88 91 115 112 88 91
          116 113 89 92 117 114
          90 93 118 115 91 94
          118 115 91 94 119 116
          92 95 120 117 93 96
          121 118 94 97 121 118
          94 97 122 119 95 98
          126 123 99 102 127 124
          100 103 127 124 100 103
          128 125 101 104 129 126
          102 105 130 127 103 106
          130 127 103 106 131 128
          104 107 132 129 105 108
          133 130 106 109 133 130
          106 109 134 131 107 110
          135 132 108 111 136 133
          109 112 136 133 109 112
          137 134 110 113 138 135
          111 114 139 136 112 115
          139 136 112 115 140 137
          113 116 141 138 114 117
          142 139 115 118 142 139
          115 118 143 140 116 119
          144 141 117 120 145 142
          118 121 145 142 118 121
          146 143 119 122 150 147
          123 126 151 148 124 127
          151 148 124 127 152 149
          125 128 153 150 126 129
          154 151 127 130 154 151
          127 130 155 152 128 131
          156 153 129 132 157 154
          130 133 157 154 130 133
          158 155 131 134 159 156
          132 135 160 157 133 136
          160 157 133 136 161 158
          134 137 162 159 135 138
          163 160 136 139 163 160
          136 139 164 161 137 140
          165 162 138 141 166 163
          139 142 166 163 139 142
          167 164 140 143 168 165
          141 144 169 166 142 145
          169 166 142 145 170 167
          143 146 171 172 173 174
          175 176 177 178 175 176
          177 178 179 180 181 182
          183 184 185 186 187 188
          189 190 187 188 189 190
          191 192 193 194 183 195
          196 184 187 197 198 188
          187 197 198 188 191 199
          200 192 201 202 171 174
          203 204 175 178 203 204
          175 178 205 206 179 182
          173 172 207 208 177 176
          209 210 177 176 209 210
          181 180 211 212 202 201
          196 195 204 203 198 197
          204 203 198 197 206 205
          200 199 213 186 185 214
          215 190 189 216 215 190
          189 216 217 194 193 218
          162 172 171 159 163 176
          175 160 163 176 175 160
          164 180 179 161 173 208
          219 220 177 210 221 222
          177 210 221 222 181 212
          223 224 159 171 202 156
          160 175 204 157 160 175
          204 157 161 179 206 158
          168 225 207 165 169 226
          209 166 169 226 209 166
          170 227 211 167 185 184
          231 228 189 188 232 229
          189 188 232 229 193 192
          233 230 234 184 196 235
          236 188 198 237 236 188
          198 237 238 192 200 239
          183 186 150 153 187 190
          151 154 187 190 151 154
          191 194 152 155 201 240
          235 196 203 241 237 198
          203 241 237 198 205 242
          239 200 174 220 240 201
          178 222 241 203 178 222
          241 203 182 224 242 205
          165 207 172 162 166 209
          176 163 166 209 176 163
          167 211 180 164 208 207
          225 243 210 209 226 244
          210 209 226 244 212 211
          227 245 195 153 156 202
          197 154 157 204 197 154
          157 204 199 155 158 206
          147 150 186 213 148 151
          190 215 148 151 190 215
          149 152 194 217 183 195
          153 187 197 154 187 197
          154 191 199 155 173 174
          220 177 178 222 177 178
          222 181 182 224 234 184
          231 236 188 232 236 188
          232 238 192 233 243 208
          219 244 210 221 244 210
          221 245 212 223 249 250
          251 252 253 254 255 256
          253 254 255 256 257 258
          259 260 264 265 249 252
          266 267 253 256 266 267
          253 256 268 269 257 260
          270 271 272 273 274 275
          276 277 274 275 276 277
          278 279 280 281 282 251
          250 283 284 255 254 285
          284 255 254 285 286 259
          258 287 273 288 289 270
          277 290 291 274 277 290
          291 274 281 292 293 278
          294 295 264 296 297 298
          266 299 297 298 266 299
          300 301 268 302 303 304
          305 306 307 308 309 310
          307 308 309 310 311 312
          313 314 270 315 316 317
          274 318 319 320 274 318
          319 320 278 321 322 323
          324 325 326 327 328 329
          330 331 328 329 330 331
          332 333 334 335 283 336
          337 282 285 338 339 284
          285 338 339 284 287 340
          341 286 342 343 344 345
          346 347 348 349 346 347
          348 349 350 351 352 353
          354 337 355 356 357 339
          358 359 357 339 358 359
          360 341 361 362 343 342
          363 364 347 346 365 366
          347 346 365 366 351 350
          367 368 369 370 371 372
          373 374 375 376 373 374
          375 376 377 378 379 380
          711 381 382 712 713 383
          384 714 713 383 384 714
          715 385 386 716 327 326
          387 388 331 330 389 390
          331 330 389 390 335 334
          391 392 393 394 316 315
          395 396 319 318 395 396
          319 318 397 398 322 321
          399 400 401 402 403 404
          405 406 403 404 405 406
          407 408 409 410 306 344
          343 411 310 348 347 412
          310 348 347 412 314 352
          351 413 414 246 273 272
          415 247 277 276 415 247
          277 276 416 248 281 280
          423 424 252 251 425 426
          256 255 425 426 256 255
          427 428 260 259 429 430
          264 295 431 432 266 298
          431 432 266 298 433 434
          268 301 282 337 354 435
          284 339 357 436 284 339
          357 436 286 341 360 437
          354 438 439 435 357 440
          441 436 357 440 441 436
          360 442 443 437 444 445
          446 447 448 449 450 451
          448 449 450 451 452 453
          454 455 456 316 394 457
          458 319 396 459 458 319
          396 459 460 322 398 461
          462 463 446 464 465 466
          450 467 465 466 450 467
          468 469 454 470 471 401
          472 473 474 405 475 476
          474 405 475 476 477 409
          478 479 402 456 457 480
          406 458 459 481 406 458
          459 481 410 460 461 482
          471 456 402 401 474 458
          406 405 474 458 406 405
          477 460 410 409 473 483
          317 471 476 484 320 474
          476 484 320 474 479 485
          323 477 486 483 473 487
          488 484 476 489 488 484
          476 489 490 485 479 491
          483 271 270 317 484 275
          274 320 484 275 274 320
          485 279 278 323 492 424
          423 493 494 426 425 495
          494 426 425 495 496 428
          427 497 498 344 306 305
          499 348 310 309 499 348
          310 309 500 352 314 313
          501 502 288 261 503 504
          290 262 503 504 290 262
          505 506 292 263 429 295
          463 462 431 298 466 465
          431 298 466 465 433 301
          469 468 510 511 512 513
          514 515 516 517 514 515
          516 517 518 519 520 521
          464 446 445 522 467 450
          449 523 467 450 449 523
          470 454 453 524 525 526
          400 399 527 528 404 403
          527 528 404 403 529 530
          408 407 487 473 472 531
          489 476 475 532 489 476
          475 532 491 479 478 533
          288 273 246 261 290 277
          247 262 290 277 247 262
          292 281 248 263 435 439
          493 423 436 441 495 425
          436 441 495 425 437 443
          497 427 288 502 534 535
          290 504 536 537 290 504
          536 537 292 506 538 539
          717 540 718 719 720 541
          721 722 720 541 721 722
          723 542 724 725 543 372
          544 545 546 376 547 548
          546 376 547 548 549 380
          550 551 480 457 552 553
          481 459 554 555 481 459
          554 555 482 461 556 557
          558 559 498 305 560 561
          499 309 560 561 499 309
          562 563 500 313 400 526
          439 438 404 528 441 440
          404 528 441 440 408 530
          443 442 564 565 480 553
          566 567 481 555 566 567
          481 555 568 569 482 557
          570 564 553 571 572 566
          555 573 572 566 555 573
          574 568 557 575 726 576
          559 512 727 577 561 516
          727 577 561 516 728 578
          563 520 579 345 344 498
          580 349 348 499 580 349
          348 499 581 353 352 500
          729 582 576 726 730 583
          577 727 730 583 577 727
          731 584 578 728 438 354
          531 472 440 357 532 475
          440 357 532 475 442 360
          533 478 438 472 401 400
          440 475 405 404 440 475
          405 404 442 478 409 408
          565 585 402 480 567 586
          406 481 567 586 406 481
          569 587 410 482 545 544
          732 733 548 547 734 735
          548 547 734 735 551 550
          736 737 534 502 501 418
          536 504 503 420 536 504
          503 420 538 506 505 422
          251 282 435 423 255 284
          436 425 255 284 436 425
          259 286 437 427 576 588
          498 559 577 589 499 561
          577 589 499 561 578 590
          500 563 591 534 418 417
          592 536 420 419 592 536
          420 419 593 538 422 421
          369 594 595 370 373 596
          597 374 373 596 597 374
          377 598 599 378 326 600
          601 387 330 602 603 389
          330 602 603 389 334 604
          605 391 606 570 387 601
          607 572 389 603 607 572
          389 603 608 574 391 605
          317 316 456 471 320 319
          458 474 320 319 458 474
          323 322 460 477 483 486
          272 271 484 488 276 275
          484 488 276 275 485 490
          280 279 582 729 738 739
          583 730 740 741 583 730
          740 741 584 731 742 743
          588 382 381 609 589 384
          383 610 589 384 383 610
          590 386 385 611 612 613
          324 614 615 616 328 617
          615 616 328 617 618 619
          332 620 382 582 739 712
          384 583 741 714 384 583
          741 714 386 584 743 716
          582 382 588 576 583 384
          589 577 583 384 589 577
          584 386 590 578 595 342
          345 370 597 346 349 374
          597 346 349 374 599 350
          353 378 621 622 606 601
          623 624 607 603 623 624
          607 603 625 626 608 605
          609 579 498 588 610 580
          499 589 610 580 499 589
          611 581 500 590 540 621
          601 600 541 623 603 602
          541 623 603 602 542 625
          605 604 591 627 535 534
          592 628 537 536 592 628
          537 536 593 629 539 538
          594 630 522 445 596 631
          523 449 596 631 523 449
          598 632 524 453 744 745
          633 622 746 747 634 624
          746 747 634 624 748 749
          635 626 324 327 636 614
          328 331 637 617 328 331
          637 617 332 335 638 620
          745 750 751 510 747 752
          753 514 747 752 753 514
          749 754 755 518 639 591
          417 507 640 592 419 508
          640 592 419 508 641 593
          421 509 371 370 345 579
          375 374 349 580 375 374
          349 580 379 378 353 581
          642 399 402 585 643 403
          406 586 643 403 406 586
          644 407 410 587 645 525
          399 642 646 527 403 643
          646 527 403 643 647 529
          407 644 326 718 540 600
          330 721 541 602 330 721
          541 602 334 724 542 604
          621 540 717 756 623 541
          720 757 623 541 720 757
          625 542 723 758 639 507
          759 760 640 508 761 762
          640 508 761 762 641 509
          763 764 388 387 570 571
          390 389 572 573 390 389
          572 573 392 391 574 575
          648 651 6 0 649 652
          7 1 649 652 7 1
          650 653 8 2 613 612
          535 627 616 615 537 628
          616 615 537 628 619 618
          539 629 627 591 639 654
          628 592 640 655 628 592
          640 655 629 593 641 656
          612 289 288 535 615 291
          290 537 615 291 290 537
          618 293 292 539 651 657
          27 6 652 658 28 7
          652 658 28 7 653 659
          29 8 756 744 622 621
          757 746 624 623 757 746
          624 623 758 748 626 625
          660 613 627 654 661 616
          628 655 661 616 628 655
          662 619 629 656 657 663
          48 27 658 664 49 28
          658 664 49 28 659 665
          50 29 666 493 439 526
          667 495 441 528 667 495
          441 528 668 497 443 530
          669 565 564 303 670 567
          566 307 670 567 566 307
          671 569 568 311 663 355
          72 48 664 358 73 49
          664 358 73 49 665 361
          74 50 672 492 493 666
          673 494 495 667 673 494
          495 667 674 496 497 668
          144 249 265 168 145 253
          267 169 145 253 267 169
          146 257 269 170 411 669
          303 306 412 670 307 310
          412 670 307 310 413 671
          311 314 765 718 326 325
          766 721 330 329 766 721
          330 329 767 724 334 333
          525 645 364 675 527 646
          366 676 527 646 366 676
          529 647 368 677 768 639
          760 769 770 640 762 771
          770 640 762 771 772 641
          764 773 669 411 645 642
          670 412 646 643 670 412
          646 643 671 413 647 644
          639 768 660 654 640 770
          661 655 640 770 661 655
          641 772 662 656 642 585
          565 669 643 586 567 670
          643 586 567 670 644 587
          569 671 393 315 270 289
          395 318 274 291 395 318
          274 291 397 321 278 293
          675 364 363 678 676 366
          365 679 676 366 365 679
          677 368 367 680 552 636
          327 388 554 637 331 390
          554 637 331 390 556 638
          335 392 675 678 672 666
          676 679 673 667 676 679
          673 667 677 680 674 668
          666 526 525 675 667 528
          527 676 667 528 527 676
          668 530 529 677 250 120
          96 283 254 121 97 285
          254 121 97 285 258 122
          98 287 444 447 678 363
          448 451 679 365 448 451
          679 365 452 455 680 367
          614 636 394 393 617 637
          396 395 617 637 396 395
          620 638 398 397 249 144
          120 250 253 145 121 254
          253 145 121 254 257 146
          122 258 564 681 304 303
          566 682 308 307 566 682
          308 307 568 683 312 311
          364 645 411 343 366 646
          412 347 366 646 412 347
          368 647 413 351 72 355
          337 336 73 358 339 338
          73 358 339 338 74 361
          341 340 304 681 606 684
          308 682 607 685 308 682
          607 685 312 683 608 686
          636 552 457 394 637 554
          459 396 637 554 459 396
          638 556 461 398 72 336
          283 96 73 338 285 97
          73 338 285 97 74 340
          287 98 289 612 614 393
          291 615 617 395 291 615
          617 395 293 618 620 397
          687 487 531 688 689 489
          532 690 689 489 532 690
          691 491 533 692 688 531
          354 356 690 532 357 359
          690 532 357 359 692 533
          360 362 388 571 553 552
          390 573 555 554 390 573
          555 554 392 575 557 556
          693 486 487 687 694 488
          489 689 694 488 489 689
          695 490 491 691 564 570
          606 681 566 572 607 682
          566 572 607 682 568 574
          608 683 414 272 486 693
          415 276 488 694 415 276
          488 694 416 280 490 695
          225 696 697 243 226 698
          699 244 226 698 699 244
          227 700 701 245 774 324
          613 660 775 328 616 661
          775 328 616 661 776 332
          619 662 544 702 609 381
          547 703 610 383 547 703
          610 383 550 704 611 385
          688 356 355 663 690 359
          358 664 690 359 358 664
          692 362 361 665 324 774
          765 325 328 775 766 329
          328 775 766 329 332 776
          767 333 684 558 305 304
          685 560 309 308 685 560
          309 308 686 562 313 312
          544 372 371 702 547 376
          375 703 547 376 375 703
          550 380 379 704 711 732
          544 381 713 734 547 383
          713 734 547 383 715 736
          550 385 513 512 559 558
          517 516 561 560 517 516
          561 560 521 520 563 562
          777 726 512 511 778 727
          516 515 778 727 516 515
          779 728 520 519 777 511
          510 751 778 515 514 753
          778 515 514 753 779 519
          518 755 294 296 424 492
          297 299 426 494 297 299
          426 494 300 302 428 496
          369 705 630 594 373 706
          631 596 373 706 631 596
          377 707 632 598 633 513
          558 684 634 517 560 685
          634 517 560 685 635 521
          562 686 684 606 622 633
          685 607 624 634 685 607
          624 634 686 608 626 635
          708 672 678 447 709 673
          679 451 709 673 679 451
          710 674 680 455 513 633
          745 510 517 634 747 514
          517 634 747 514 521 635
          749 518 774 660 768 780
          775 661 770 781 775 661
          770 781 776 662 772 782
          702 371 579 609 703 375
          580 610 703 375 580 610
          704 379 581 611 687 688
          663 657 689 690 664 658
          689 690 664 658 691 692
          665 659 696 265 264 430
          698 267 266 432 698 267
          266 432 700 269 268 434
          696 430 429 697 698 432
          431 699 698 432 431 699
          700 434 433 701 264 252
          424 296 266 256 426 299
          266 256 426 299 268 260
          428 302 708 294 492 672
          709 297 494 673 709 297
          494 673 710 300 496 674
          447 446 463 708 451 450
          466 709 451 450 466 709
          455 454 469 710 693 687
          657 651 694 689 658 652
          694 689 658 652 695 691
          659 653 595 594 445 444
          597 596 449 448 597 596
          449 448 599 598 453 452
          696 225 168 265 698 226
          169 267 698 226 169 267
          700 227 170 269 705 369
          372 543 706 373 376 546
          706 373 376 546 707 377
          380 549 414 693 651 648
          415 694 652 649 415 694
          652 649 416 695 653 650
          444 363 342 595 448 365
          346 597 448 365 346 597
          452 367 350 599 708 463
          295 294 709 466 298 297
          709 466 298 297 710 469
          301 300
        </DataArray>
        <DataArray type="Int64" Name="offsets" format="ascii" RangeMin="8" RangeMax="3632">
          8 16 24 32 40 48
          56 64 72 80 88 96
          104 112 120 128 136 144
          152 160 168 176 184 192
          200 208 216 224 232 240
          248 256 264 272 280 288
          296 304 312 320 328 336
          344 352 360 368 376 384
          392 400 408 416 424 432
          440 448 456 464 472 480
          488 496 504 512 520 528
          536 544 552 560 568 576
          584 592 600 608 616 624
          632 640 648 656 664 672
          680 688 696 704 712 720
          728 736 744 752 760 768
          776 784 792 800 808 816
          824 832 840 848 856 864
          872 880 888 896 904 912
          920 928 936 944 952 960
          968 976 982 988 994 1000
          1006 1012 1018 1024 1032 1040
          1048 1056 1064 1072 1080 1088
          1096 1104 1112 1120 1128 1136
          1144 1152 1160 1168 1176 1184
          1192 1200 1208 1216 1224 1232
          1240 1248 1256 1264 1272 1280
          1288 1296 1304 1312 1320 1328
          1336 1344 1352 1360 1368 1376
          1384 1392 1400 1408 1416 1424
          1432 1440 1448 1456 1464 1472
          1480 1488 1496 1504 1512 1520
          1528 1536 1544 1552 1560 1568
          1576 1584 1592 1600 1608 1616
          1624 1632 1640 1648 1656 1664
          1672 1680 1688 1696 1704 1712
          1720 1728 1736 1744 1752 1760
          1768 1776 1784 1792 1800 1808
          1816 1824 1832 1840 1848 1856
          1864 1872 1880 1888 1896 1904
          1912 1920 1928 1936 1944 1952
          1960 1968 1976 1984 1992 2000
          2008 2016 2024 2032 2040 2048
          2056 2064 2072 2080 2088 2096
          2104 2112 2120 2128 2136 2144
          2152 2160 2168 2176 2184 2192
          2200 2208 2216 2224 2232 2240
          2248 2256 2264 2272 2280 2288
          2296 2304 2312 2320 2328 2336
          2344 2352 2360 2368 2376 2384
          2392 2400 2408 2416 2424 2432
          2440 2448 2456 2464 2472 2480
          2488 2496 2504 2512 2520 2528
          2536 2544 2552 2560 2568 2576
          2584 2592 2600 2608 2616 2624
          2632 2640 2648 2656 2664 2672
          2680 2688 2696 2704 2712 2720
          2728 2736 2744 2752 2760 2768
          2776 2784 2792 2800 2808 2816
          2824 2832 2840 2848 2856 2864
          2872 2880 2888 2896 2904 2912
          2920 2928 2936 2944 2952 2960
          2968 2976 2984 2992 3000 3008
          3016 3024 3032 3040 3048 3056
          3064 3072 3080 3088 3096 3104
          3112 3120 3128 3136 3144 3152
          3160 3168 3176 3184 3192 3200
          3208 3216 3224 3232 3240 3248
          3256 3264 3272 3280 3288 3296
          3304 3312 3320 3328 3336 3344
          3352 3360 3368 3376 3384 3392
          3400 3408 3416 3424 3432 3440
          3448 3456 3464 3472 3480 3488
          3496 3504 3512 3520 3528 3536
          3544 3552 3560 3568 3576 3584
          3592 3600 3608 3616 3624 3632
        </DataArray>
        <DataArray type="UInt8" Name="types" format="ascii" RangeMin="12" RangeMax="13">
          12 12 12 12 12 12
          12 12 12 12 12 12
          12 12 12 12 12 12
          12 12 12 12 12 12
          12 12 12 12 12 12
          12 12 12 12 12 12
          12 12 12 12 12 12
          12 12 12 12 12 12
          12 12 12 12 12 12
          12 12 12 12 12 12
          12 12 12 12 12 12
          12 12 12 12 12 12
          12 12 12 12 12 12
          12 12 12 12 12 12
          12 12 12 12 12 12
          12 12 12 12 12 12
          12 12 12 12 12 12
          12 12 12 12 12 12
          12 12 12 12 12 12
          12 12 12 12 12 12
          12 12 13 13 13 13
          13 13 13 13 12 12
          12 12 12 12 12 12
          12 12 12 12 12 12
          12 12 12 12 12 12
          12 12 12 12 12 12
          12 12 12 12 12 12
          12 12 12 12 12 12
          12 12 12 12 12 12
          12 12 12 12 12 12
          12 12 12 12 12 12
          12 12 12 12 12 12
          12 12 12 12 12 12
          12 12 12 12 12 12
          12 12 12 12 12 12
          12 12 12 12 12 12
          12 12 12 12 12 12
          12 12 12 12 12 12
          12 12 12 12 12 12
          12 12 12 12 12 12
          12 12 12 12 12 12
          12 12 12 12 12 12
          12 12 12 12 12 12
          12 12 12 12 12 12
          12 12 12 12 12 12
          12 12 12 12 12 12
          12 12 12 12 12 12
          12 12 12 12 12 12
          12 12 12 12 12 12
          12 12 12 12 12 12
          12 12 12 12 12 12
          12 12 12 12 12 12
          12 12 12 12 12 12
          12 12 12 12 12 12
          12 12 12 12 12 12
          12 12 12 12 12 12
          12 12 12 12 12 12
          12 12 12 12 12 12
          12 12 12 12 12 12
          12 12 12 12 12 12
          12 12 12 12 12 12
          12 12 12 12 12 12
          12 12 12 12 12 12
          12 12 12 12 12 12
          12 12 12 12 12 12
          12 12 12 12 12 12
          12 12 12 12 12 12
          12 12 12 12 12 12
          12 12 12 12 12 12
          12 12 12 12 12 12
          12 12 12 12 12 12
          12 12 12 12 12 12
          12 12 12 12 12 12
          12 12 12 12 12 12
          12 12 12 12 12 12
          12 12 12 12 12 12
        </DataArray>
      </Cells>
    </Piece>
  </UnstructuredGrid>
</VTKFile>
