<?xml version="1.0"?>
<VTKFile type="UnstructuredGrid" version="0.1" byte_order="LittleEndian" header_type="UInt32" compressor="vtkZLibDataCompressor">
  <UnstructuredGrid>
    <Piece NumberOfPoints="780" NumberOfCells="454">
      <PointData>
        <DataArray type="Int32" Name="libmesh_node_id" format="ascii" RangeMin="1278" RangeMax="5063">
          1278 1279 1280 1281 1282 1283
          1284 1285 1286 1287 1288 1289
          1290 1291 1292 1293 1294 1295
          1296 1297 1298 1299 1300 1301
          1302 1303 1304 1305 1306 1307
          1308 1309 1310 1311 1312 1313
          1314 1315 1316 1317 1318 1319
          1320 1321 1322 1323 1324 1325
          1329 1330 1331 1332 1333 1334
          1335 1336 1337 1338 1339 1340
          1341 1342 1343 1344 1345 1346
          1347 1348 1349 1350 1351 1352
          1356 1357 1358 1359 1360 1361
          1362 1363 1364 1365 1366 1367
          1368 1369 1370 1371 1372 1373
          1374 1375 1376 1377 1378 1379
          1383 1384 1385 1386 1387 1388
          1389 1390 1391 1392 1393 1394
          1395 1396 1397 1398 1399 1400
          1401 1402 1403 1404 1405 1406
          1410 1411 1412 1413 1414 1415
          1416 1417 1418 1419 1420 1421
          1422 1423 1424 1425 1426 1427
          1428 1429 1430 1431 1432 1433
          1437 1438 1439 1440 1441 1442
          1443 1444 1445 1446 1447 1448
          1449 1450 1451 1452 1453 1454
          1455 1456 1457 1458 1459 1460
          1461 1462 1463 1464 1465 1466
          1467 1468 1469 1470 1471 1472
          1473 1474 1475 1476 1477 1478
          1479 1480 1481 1482 1483 1484
          1485 1486 1487 1488 1489 1490
          1491 1492 1493 1494 1495 1496
          1497 1498 1499 1500 1501 1502
          1503 1504 1505 1506 1507 1508
          1509 1510 1511 1512 1513 1514
          1515 1516 1517 1518 1519 1520
          1521 1522 1523 1524 1525 1526
          1527 1528 1529 1530 1531 1532
          1533 1534 1535 1536 1537 1538
          1539 1540 1541 1542 1543 1544
          1545 1546 1547 1548 1549 1550
          1551 1552 1553 1554 1555 1556
          1557 1558 1559 1560 1561 1562
          1563 1564 1565 1566 1567 1568
          1569 1570 1571 1572 1573 1574
          1575 1576 1577 1578 1579 1580
          1581 1582 1583 1584 1585 1586
          1587 1588 1589 1590 1591 1592
          1593 1594 1595 1596 1597 1598
          1599 1600 1601 1602 1603 1604
          1605 1606 1607 1608 1609 1610
          1611 1612 1613 1614 1615 1616
          1617 1618 1619 1620 1621 1622
          1623 1624 1625 1626 1627 1628
          1629 1630 1631 1632 1633 1634
          1635 1636 1637 1638 1639 1640
          1641 1642 1643 1644 1645 1646
          1647 1648 1649 1650 1651 1652
          1653 1654 1655 1656 1657 1658
          1659 1660 1661 1662 1663 1664
          1665 1666 1667 1668 1669 1670
          1671 1672 1673 1674 1675 1676
          1680 1681 1682 1683 1684 1685
          1686 1687 1688 1689 1690 1691
          1692 1693 1694 1695 1696 1697
          1698 1699 1700 1701 1702 1703
          1707 1708 1709 1710 1711 1712
          1713 1714 1715 1716 1717 1718
          1719 1720 1721 1722 1723 1724
          1725 1726 1727 1728 1729 1730
          1734 1735 1736 1737 1738 1739
          1740 1741 1742 1743 1744 1745
          1746 1747 1748 1749 1750 1751
          1752 1753 1754 1755 1756 1757
          1761 1762 1763 1764 1765 1766
          1767 1768 1769 1770 1771 1772
          1773 1774 1775 1776 1777 1778
          1779 1780 1781 1782 1783 1784
          1791 1792 1793 1794 1795 1796
          1797 1798 1799 1800 1801 1802
          1803 1804 1805 1806 1807 1808
          1809 1810 1811 1818 1819 1820
          1821 1822 1823 1824 1825 1826
          1827 1828 1829 1830 1831 1832
          1833 1834 1835 1836 1837 1838
          1845 1846 1847 1848 1849 1850
          1851 1852 1853 1854 1855 1856
          1857 1858 1859 1860 1861 1862
          1872 1873 1874 1875 1876 1877
          1878 1879 1880 1881 1882 1883
          1884 1885 1886 2184 2185 2186
          2187 2188 2189 2190 2191 2192
          2193 2194 2195 2196 2197 2198
          2199 2200 2201 2202 2203 2204
          2205 2206 2207 2208 2210 2211
          2212 2214 2215 2216 2218 2219
          2244 2246 2248 2262 2263 2264
          2265 2266 2267 2268 2269 2270
          2271 2272 2273 2592 2593 2594
          2595 2596 2597 2913 2914 2915
          2916 2917 2918 2919 2920 2921
          3336 3337 3338 3339 3340 3341
          3582 3583 3584 3585 3586 3587
          3688 3690 3692 3699 3700 3701
          3702 3703 3704 4161 4162 4163
          4164 4165 4166 4527 4528 4529
          4530 4531 4532 4536 4537 4538
          4539 4540 4541 4671 4672 4673
          4698 4699 4700 4701 4702 4703
          4725 4726 4727 4770 4771 4772
          4884 4885 4886 4905 4906 4907
          4983 4984 4985 5034 5035 5036
          5061 5062 5063 1863 1864 1865
          1887 1888 1889 1890 1891 1892
          1902 1899 1903 1900 1904 1901
          1905 1906 1907 1908 1909 1910
          1911 1912 1913 1914 1915 1916
          2209 2213 2217 2245 2247 2249
          2526 2525 2530 2529 2534 2533
          3234 3235 3236 3237 3238 3239
          3300 3301 3302 3303 3304 3305
          3366 3367 3368 3663 3665 3667
          3687 3386 3689 3389 3691 3392
          3705 3706 3707 3939 3940 3941
          3942 3943 3944 4467 4468 4469
          3455 3458 3461 3210 3120 3212
          3124 3214 3128 4441 4443 4445
          3119 3123 3127 3231 3232 3233
        </DataArray>
        <DataArray type="Float64" Name="resid_x" format="ascii" RangeMin="-0.27364653755857526" RangeMax="4.400959197671261">
          -0.06627631329501327 0.8106676690577483 0.6495080084101836 4.400959197671261 0.3428703440759584 2.1568301590130097
          -0.14431214809745585 -0.05004516832938677 -0.27364653755857526 -0.12937948993296366 -0.13825065173252327 -0.10905378312347969
          -0.0013702505994661607 -0.0011106971122027964 0.0008481300532059421 -0.0003865904277122745 -0.001449583644990149 -0.0005980318126210804
          -0.0006845873032803595 -0.0009845368447249925 -0.0006178982374764885 -0.00039633603351063584 -0.0022031021245032534 -0.001155836159061785
          -0.0018156004631650902 -0.0006475847366500531 0.0004004561832493536 0.00011664499691477204 0.0008854424169788544 -0.0005468666166645875
          0.004163372535971099 0.015855791725246426 0.0077243335703940375 0.02771092674701059 0.0004708412425120656 0.010738979207418176
          -0.005277065856378549 -0.01674203426254639 -0.007022415536636295 -0.027585438593964007 -0.005234088250223756 -0.011195907474248479
          -0.0008874660818056768 -0.0004857119570909063 -0.0006381652798479465 -0.0003992983942779915 -0.004739519671564274 -0.003253376902833338
          -0.004830666076616197 0.016271405758025992 0.01030257918766253 -0.019597006501642866 -0.03550406004004181 -0.015216999744909643
          -0.0011967983918017566 0.00002609199693726083 -0.00034247271815779357 -0.0017402571556726087 -0.00021755122434719 -0.0015267943508092685
          -0.001137855947740185 0.0058829530915653905 0.00898257944623193 -0.0006910535019533093 -0.006190547813440528 -0.012234780650709709
          -0.001676318210506178 -0.001152163839714504 -0.003534457345799602 -0.0008138585572705637 -0.0005807660048602337 -0.004957027928321089
          -0.00029572568698554846 -0.0007693202005398803 0.0009707359564785634 0.0003114086101341229 -0.0003789053579552615 -0.0005755506005789002
          -0.0005416335614389922 0.00046790538969343487 -0.0003436008812940372 -0.00047444278630859316 -0.000036258285279089364 0.00016605931536783913
          -0.0002927407635033852 0.0013919078712900657 -0.001055739879259221 -0.001343523566302185 -0.0021763862482919727 -0.004087647665065752
          -0.0013376210881541617 -0.0012700198829693754 -0.0042253952537718575 -0.0007086558855009528 -0.0003151769732210319 -0.005546478865238846
          0.0001142439428214459 -0.00143745311083876 0.0006980229593658294 0.00010837083223602662 -0.00007936835510857776 -0.00006903070319275173
          0.00020342828360764287 -0.0006688149364508789 -0.00015456386498513552 0.023388942907661026 0.04552751606061545 0.014802915227275726
          -0.023707482593068097 -0.04474906678133017 -0.018538239581758376 -0.0014144830439186684 -0.0007027161094561585 -0.004139343940384954
          -0.0013451002764615083 -0.0007412338066088431 -0.004503461076312387 -0.00043957962414964413 0.00007303909562494937 -0.005323146697833181
          0.0011018058649554519 -0.00010346831269814061 -0.0004715850359886531 -0.000171337077168765 0.00004851288431328982 0.00014817825430490927
          0.00006471905068838879 -0.0008910534511237245 -0.00003403997757001065 0.02662375622686053 0.01731004294802929 0.0014238187741852926
          -0.025562391276770846 -0.016513050456385514 -0.0070618091125185245 -0.0015126537220915282 -0.0008561781673237512 -0.004156113600271016
          -0.00024697746201063353 0.00010493441978409734 -0.004730927896335668 -0.0006600277177044589 -0.0001144207314354162 -0.006004610823331813
          -0.00032835842606004917 -0.001909444828200435 -0.00026173123525552455 -0.00003811399601083565 -0.00017968147000324564 0.000018322169850648606
          0.023551009982266002 0.05576552603737728 0.03650739851942575 -0.0245374920644581 -0.05683960671529231 -0.03991068209062831
          -0.0010591780812547746 -0.0006804437735286051 -0.003917980145387467 -0.0009422741270301849 -0.0003300411753408561 -0.0048553155817416815
          -0.00022507724945164398 0.00008515557712351907 -0.004860410251758651 -0.0009396745675576135 -0.000553885762812012 -0.006780855083128756
          -0.0003147937030165693 -0.00019177414182180996 0.00009503100015528787 0.00007880278543215269 -0.0004053683026867816 -0.00014654020772830734
          0.000020600483173538464 0.0017787942082723163 0.002039691665144616 0.027934865627694094 0.058017310529117516 0.03081405386453273
          -0.02761671878698113 -0.059467873803325855 -0.03626296988807809 -0.000482960208279426 -0.000080306692904486 -0.004170923199191101
          0.000040131275687915746 0.0002613082579503434 -0.004910475465334407 0.0003634377222971885 0.0007550630074151243 -0.004891593480401468
          -0.0008702447970185823 -0.0007781308930820963 -0.0070853775587171874 0.0009247218641412758 0.0015870894080656228 0.001191605838902987
          0.000020376870550009585 -0.00003017125325932568 0.000037160596597196616 0.031019194356590063 0.07498037525383872 0.04633986672828616
          -0.030244451403611983 -0.07338529285092665 -0.04843051193649206 -0.000603132925810268 -0.0005371869441201937 -0.003797428224085131
          -0.00008369970839261498 0.0002163616417996117 -0.004961372436464551 0.0003563884492328029 0.0005516032423869 -0.005204753227190384
          0.00020673088722267252 0.0003056717331797465 -0.00540874291364446 -0.0009064577968516119 -0.0003343274103144722 -0.006496159544346902
          0.0006442586318300414 0.0010936796917384584 0.0011849752172015116 0.0028259126585536976 0.007880836455445461 0.005818499600850124
          0.006475826985552047 0.011928168476964096 0.003632425150346563 -0.00860630620937286 -0.019542254123689595 -0.014383562136442762
          -0.00031765991951360206 -0.00023084021583308356 -0.004587970523908247 0.0009622216479439061 0.0014418067277603974 -0.004887533963110258
          0.0005618536862170842 0.0005856704951745506 -0.005703674909413703 -0.0005271865847849 -0.000573232365050913 -0.005684281320393225
          -0.0008469298186843943 -0.0003094994622738767 -0.005873443910605403 -0.00030311128636562046 -0.0004124500331315062 0.00012639091314170514
          0.02910027876727206 0.06515462640420377 0.025661728970851172 -0.02904331872067889 -0.06433119867699943 -0.029047814942519068
          -0.0004673421005989553 -0.0006459958794051701 -0.004399977737022276 0.00041160356501279693 0.0007279633932979479 -0.005014822384536544
          0.001212353797991117 0.0013130534161369667 -0.005579828437787704 0.00004743072217117117 -0.00016741462456737466 -0.0060799394984765165
          -0.00037481186186560933 -0.0004457470004792796 -0.005240954835199041 -0.0007991569286818212 -0.0006421939345355732 -0.0052776779624537085
          0.003330026660803398 0.005515055451230211 0.004316632293651423 0.002748857088011647 0.006275912901849701 -0.004808283269194469
          -0.005652678768676811 -0.010516136556973699 -0.005404111333029427 0.00002976615194860699 3.9999626588738124e-7 -0.005163096147180468
          0.0010812426926705143 0.0013996110679754814 -0.005632127231382622 0.0004819541853766651 0.00027262734844857306 -0.006387773660690765
          -0.00010944430520343218 -0.0002299182746456907 -0.005866623859572151 -0.00028218284637127056 -0.00023229126406132394 -0.004745502870312279
          -0.00022966554065551037 0.0005840745544150039 -0.004270343701147539 0.014317162261527017 0.020834638729390065 0.008637206201509429
          -0.013328593145286671 -0.01933658277789707 -0.011534353072704562 -0.0001742986100148336 -0.00022367487191488067 -0.004840394713362173
          0.000719301462145161 0.0009188740747805291 -0.0058358587814355545 0.0004229876412553679 0.0002623241730184134 -0.00662687971161624
          0.00010695216452738521 -0.000214073363514089 -0.006530399663864372 -0.00010487465033381937 -0.00042477856939004965 -0.005655168019857548
          -0.0006755091413523928 -0.0007463139294143772 -0.004216550161762811 -0.00009945339340733383 0.00037915455861003977 -0.0023128543734949325
          0.0010467514631642416 0.0009745608967079988 -0.0034612946287371216 -0.001533947450760742 -0.0024846505817182063 -0.004879327714199633
          0.0007928365970792939 0.0010790742473170134 -0.005255607702234766 0.0010211374019712949 0.0008905411195336832 -0.006510314063320699
          -0.00020155193331294896 -0.0007553374319617667 -0.007059527460901105 0.00022145166505627145 -0.000342820195806226 -0.0062455005569148625
          -0.0005637728153411459 -0.0011207062511235932 -0.005187343469402528 -0.0006385243401538787 -0.0005668504758604698 -0.0032482933097277567
          0.00011522913493688947 0.0006883752823663158 -0.001445035251565585 -0.027966061911432583 -0.06608952720830885 -0.0533954178931042
          -0.0004403890053330528 0.00028771332391031024 -0.0043874795933964705 0.0018916804024997624 0.00237661527417643 -0.00588338069768124
          0.0003125278493198991 -0.0005195506471200595 -0.007406770967639531 -0.00029474924576522454 -0.0014121549732086791 -0.00699084227116753
          0.00043342633056120405 -0.000481836467915997 -0.005450686398181581 -0.00043346528124121875 -0.0009492160289203966 -0.003927729519946688
          -0.00037113414151068724 -0.0002703562474630772 -0.0020796560880809167 -0.00021044677505877019 0.0002807737228662788 -0.0006184318851403248
          0.0018380718885691039 0.0032797823506491852 -0.005289968183081584 0.0009990564813553426 0.0015056421116717011 -0.007187206461118478
          -0.00032302157806984866 -0.0018168336925712403 -0.008062518501676053 -0.00004181293089011717 -0.0014629401218959615 -0.0065518184488833064
          0.00043438369292925216 -0.0006048863360152978 -0.0043673211025145875 -0.000017480117764812064 -0.00046595915193226034 -0.0023706806522554302
          -0.00011315265117595175 -0.00001432297899306434 -0.0007416011754601826 -0.00032850140254225835 0.00032442459521497824 0.00039113824048397916
          0.004166655825491361 0.00849942320510877 -0.0038808577196025595 -0.0009261994802471918 -0.0019121498193479525 -0.01013934520507842
          -0.001224052426261224 -0.0035082413399667445 -0.008708635942352938 0.00031046702291526174 -0.0005890808987922824 -0.005261793401223791
          0.00040825084625772945 -0.0002771123650981977 -0.003042830944910868 -0.00007591524571193276 -0.00032791588809821803 -0.0011731898520883632
          -0.00035111411699872974 -0.00033829337482238486 0.00018697771352549353 0.00004395748777419328 0.0012123361538582955 0.0017971048506542076
          -0.001069707170266554 -0.004560257638022591 -0.007470266391731428 7.317097270309603e-7 -0.001443453116654947 -0.013925932369223126
          0.001795790055410862 -0.001074962860961648 -0.007369243789788094 0.0005906751243038855 0.0004249189101903639 -0.0034864460192043367
          0.00008305487678228474 -0.0000628551586467907 -0.0015194070229584966 -0.0002969640869405765 -0.00000727562325941733 0.0000753179378687463
          -0.0007601175657763193 -0.0004325512906904194 0.0005947324441812896 -0.001141974580550098 -0.0005360234044085033 0.0015690650541655415
          -0.007564312199752621 -0.019145146574366834 -0.012691406584083964 0.0011187451648337898 0.00039494121180894126 -0.013803894664755845
          0.0031154890064106766 0.001950387398523823 -0.004326141963368002 0.00104984076901804 0.001348268776986572 -0.0010705492811267092
          0.00011634813149807854 0.0003013902750863551 0.0002258349617152433 -0.00046787982641749437 0.00006588112739969176 0.0013755422461194655
          -0.0007731563005801689 0.00016184522504048005 0.0014528460544607213 -0.0007031200784162195 0.0008316814705588982 0.0021249058685759437
          0.00093364038752064 0.0015887235362512797 -0.007071537354667257 0.0005706811843637638 -0.00023058422143584778 -0.00318469160951107
          0.0012851625850895942 0.001267324855376728 0.0005227771509668244 0.0003313491117546974 0.0005092266423405434 0.0019136364522021054
          -0.0004881665949074687 0.00013382698698638507 0.002553965825019766 -0.0013431307143854099 -0.000686289134637974 0.0018925012641393124
          -0.0009528155582998465 0.0004055240236100488 0.003460860662686027 -0.00017835543978605983 -0.0003798217386368208 -0.004310582715609357
          -0.00008344398453008495 -0.0006236482451846825 -0.001458200524166564 0.0005322657453659119 0.0003591445653361447 0.001595380189787221
          0.000044128537382448485 0.0003144479881971307 0.003239456545921726 -0.0007042409556721196 0.00009335929769882512 0.003765109469203942
          -0.0017963124222459825 -0.0011320722706100739 0.003095463556026523 -0.0013411053903227277 -0.00015341098084098448 0.0052422126606601616
          -0.00023619247589223846 -0.0004651939059456822 -0.00197692066952726 0.00015896603171849932 0.00023101291604366025 0.0008282037973259548
          0.00035273201100594065 0.0009907721190165475 0.0033368926408741117 -0.00046235177942577366 0.000317155468338548 0.004541904538318597
          -0.001229179841017114 -0.00010019347264389467 0.004836422318848399 -0.0034044304342604192 -0.0040029411968331985 0.003389026677722562
          -0.0000985022330119989 -0.0001970063251555132 0.0006817416753897021 -0.00024919477528673184 -0.0002020054377016578 0.002944391537190505
          -0.0005852012074845092 -0.0006171234148286686 0.004656307288242623 -0.0015169710366125244 -0.0012145188222270065 0.005590678395073212
          -0.003914975385718833 -0.005471742843917937 0.0041072925251590675 0.00036913034257723965 -0.001271121611547965 -0.0009892175103156653
          -0.00006877777182445755 0.0006272457776059781 -0.0024360469154607323 -0.0011838066404639136 -0.0005290884348641001 0.00424563199791006
          -0.0005849978569965053 -0.0008781728841587011 0.0015350809923315722 -0.0011045584036271094 -0.0005011109206596309 -0.000870304507477826
          -0.0007060617033962657 -0.002530656523878072 -0.0012648700726094475 -0.0007786860988234778 -0.0003355725875602289 -0.0065065569659426
          -0.004257835998249249 -0.005680237574998692 -0.0068447680465464344 -0.00037048096103386996 -0.003945079230200932 -0.0027399631838553873
          -0.0010285237921090484 -0.006861260575946382 -0.00457969939136138 0.006137556179842463 0.00490201706094151 0.0031334064705754727
          -0.005768290078068006 -0.009585391066196713 -0.0016747367728262574 -0.0011854437655078875 -0.00040317166268000193 -0.002739922339988432
          -0.0031979827855552756 -0.0011794592380041102 -0.00018528419489616255 -0.005323176976031352 -0.005126396370077835 -0.0013598733419453168
          -0.001553114790664445 -0.003023209743538313 -0.0010393202848506533 -0.0009753784759212181 -0.0015162626695319759 -0.002031927187826632
          -0.00034097978897307257 -0.007714234348323856 -0.007451491352747475 -0.002026210583532695 -0.003579780453530468 -0.003085652066674882
          -0.0013933188445696132 -0.0065513570230510965 -0.006203703857623033 0.0012456441908250682 0.00008241961803090447 0.0012452266829985348
          -0.001639430559319699 -0.0005888077314324391 -0.0010728535840005549 -0.0011726411605517129 -0.00784871037022894 -0.008313971592293079
          -0.0005509033199070923 -0.003932300288282287 0.0008089887254091876 -0.005938859735834523 0.0063942855948266875 0.004199719985685468
          -0.001155045606838101 -0.0021318013890470056 -0.003136883557271375 -0.004409903015317518 -0.00542383699478588 -0.0042306685574349245
          -0.00869332869229611 0.0017927264251138553 0.0007954976574024997 -0.001936758833603669 -0.0023260863453100633 -0.00020181406981167882
          -0.0006675300173974996 0.0021797647369008466 0.002655953901528285 -0.0003843110779332415 -0.001985504484778855 0.0002943615393926069
          -0.003693915204275311 -0.0012246564624226464 -0.0036597098385566795 -0.0007633325473226371 -0.0006191890045711412 -0.00029362063513271863
          -0.000275498022109133 -0.0040062935909634945 -0.00302166953493177 -0.0015070428000552027 -0.0009141057315553702 -0.007716955616876131
          -0.0010301959008507389 -0.0013408610653575792 -0.0009444833674043807 -0.000604392443818158 -0.005597612063009905 -0.0064498310551914795
          -0.0006344299293061795 -0.00045592381080616917 -0.0018125610380339552 -0.0009508584075801352 -0.0003880141504764012 -0.006794487532273408
          -0.0034582238813354316 -0.0032701525853822133 0.0004243510193293609 -0.0018138898910255996 -0.001927561237630826 -0.0052833316118112705
          -0.0018275368604339093 -0.0024156859215453963 -0.00966210194376771 -0.0014229144986144249 -0.0019117561832118213 -0.008232036683436306
          -0.0010791365460356417 -0.0014408127176857022 -0.0046194289472194505 -0.002364620087575986 -0.004070253156205794 0.004501329500552487
          -0.0010508354641869389 -0.003687708773957965 0.002247296903122198 0.00021288288443965797 -0.0011111817699251958 0.0033506159440293004
          -0.00010972591789570885 -0.0009951606021090242 -0.0005762984331139087 -0.002161044666602052 0.005099530028865207 0.0027610887588966904
          -0.001331515962835983 -0.0006435269734423876 0.006264475772292943 -0.0020817046492918045 -0.0014398671342927827 0.006214840653436138
          -0.004500485871373083 -0.0020283337135245105 0.0053981602662087624 -0.00006363680167176256 -0.0029944992717405583 0.0010414018894833177
          -0.005310264689549982 -0.0071127172624834145 0.0027818173869871288 -0.006308556964617296 -0.009474739655962239 -0.0024450830406745894
          -0.002580195875781399 -0.0023389014357562132 -0.007436432803260118 -0.006227884448716026 -0.002767931827985848 0.001543670984927914
          -0.0032819013834988198 -0.004635993854038567 -0.0046707967946897355 -0.005976232178728225 -0.000004987677968415483 -0.0005025505588882595
          -0.0013603053111630459 -0.0012363131896719892 -0.003804613839598403 -0.00392205879201768 -0.007648433947053945 -0.005951542199566617
          -0.0013634921904301933 -0.0035648588322665375 -0.008288035749203004 -0.003449869372778025 -0.007008666494151328 -0.0006600265265337413
          -0.0030334917768808367 -0.0012261939582582926 -0.004738601381655272 -0.0033717330018685487 -0.002683629679001598 -0.0027023967595400933
          -0.007986215855089185 -0.012370367025468454 -0.0012346880448923514 -0.0060308543575695595 -0.0050045904149738085 -0.008748696806518907
          -0.006026316977103541 -0.001589469445986147 0.0007101314044772877 -0.0021895936539388927 0.00025186675680810566 0.007237888728576891
          -0.0013016267527667935 -0.003236614172632102 -0.009453532273347776 -0.0014840239483016049 -0.0016541402114391701 -0.0023368434606254596
          -0.003035715677199846 -0.010842395109137648 -0.016306796487423725 -0.0013259522476403163 -0.002928730014755132 -0.01035274443583134
          -0.001154109655729485 -0.002638890093784596 -0.01109596209854935 -0.004361360892507271 -0.0037605688154211947 0.0008507751507327299
        </DataArray>
        <DataArray type="Float64" Name="resid_y" format="ascii" RangeMin="-1.1548016908509329" RangeMax="1.2525410574711728">
          0.0744357010074328 -0.0982071191349867 -0.9825619313137011 -0.01568488497080378 -0.782151917312527 1.2525410574711728
          0.002906527618694532 -0.10044119828072806 0.007153769903002233 -0.14542992128898566 0.005294896587199949 -0.23875594586411697
          0.0002088210186213628 -0.21160047785190234 0.00015139542129483097 -0.42316704550093953 -0.0005314903575709962 -0.2913320724031149
          -0.00007054842384397134 -0.1154937913699712 -0.00037716552850017553 -0.2356306147835761 -0.00021765780095617856 -0.12032556624247501
          -0.00007005114552835479 -0.04808097736890458 -0.0004484525334000587 -0.09790374984601931 -0.0013656790437928529 -0.05675526383337635
          0.009381853987320221 0.06677571023216292 0.015657256632545 0.0994629673306728 0.0020262218081975834 -0.008321013910577334
          0.002779373815463858 0.17850785834962057 0.004807728563492458 0.2685115249361824 0.0017979446633385743 0.00434395907860069
          -0.0002587111306843193 0.2280711585215892 -0.00028306251905847735 0.32940753299963355 -0.00041288892808372113 0.06111208178115177
          0.04538223187095397 0.05790458243283525 0.01320149859980449 0.02152905174372588 0.043398178160810263 0.02059232076088252
          0.0003614018588255566 0.0008457737060795362 -0.00021490963622037423 0.00009970798528553815 0.0005124448648560938 -0.00024728427894294205
          -0.00013264375199197043 -0.0016613688483882935 0.0003200085345312423 0.0009635195802542573 0.00216303468502798 0.005049391794617539
          0.00045050951549185925 0.0009678025013277747 0.000051188071042429506 -0.0005372016668259844 0.00006418359303388133 -0.00047282862587288976
          0.00023393447098557507 0.0014628911366862118 0.0015386802122369647 0.00028239333164321867 0.0003118694166681507 0.0005867714226630572
          -0.00035901285911426467 0.0004540520442158427 0.0008746190649057128 -0.00013885746606228863 -0.000002540656105166385 -0.00030697115087599015
          0.0003071336100124288 0.002208456352596852 0.0003729015395652485 0.0010156626395359664 0.0021952688319013397 0.0013205769209965468
          0.00013444993972888675 0.0008525843396723631 0.000028870154710231022 -0.0004882185805705208 0.0002257004293798881 -0.000055022957894862445
          0.0001692482376671467 0.0007152266964389475 0.000913402019834253 0.00018107273627424036 0.0000452365138975952 0.0006091464450510842
          0.0005952749488534956 -0.000037871043443091224 0.00004533496763686751 -0.013860804979860013 -0.010864924982268792 -0.004193396566968988
          -0.011985013685866491 -0.021026793180926817 -0.0018309812646954138 0.0007856305670872477 0.0008048339029635421 0.00026990340266624946
          -0.000026261332339821974 0.0007972762339998885 0.00005085370542759482 -0.0004717330609585735 -0.0000032802647686319686 0.00003152195142886588
          0.0009658858201787301 0.00004243865678477121 -0.00017411325295965674 0.0009777303557026717 -0.000029500645253879854 0.0003571238504253005
          0.0003481331777612645 0.0001347931393090862 0.00010654494826323191 0.014188145606474273 0.011076650494031573 0.004613834627801544
          0.01437944929676449 0.022927758581613222 0.004503499235957664 0.00017798378055516872 0.0005995403652008235 0.00015665547669252433
          -0.00007554228503026117 0.0004484712178291217 0.0001780681584464261 -0.0002211928557043219 -0.0001303775292864351 0.0001635103773868496
          0.0004471532779213583 0.00026681686984700304 0.00017398132882512352 0.0001476543184191076 0.00021130347240447267 0.0001777818112210089
          -0.01419681962287258 -0.032701197583775155 -0.01879106868524602 -0.011723967360951326 -0.02754085891045341 -0.013968690638534453
          0.00046285196493836556 -0.00019014909357167875 -0.0000370720883398068 0.0002605778473871445 0.0005867400865917638 0.00025765284172807323
          0.000005444531859161161 0.0003233777360869272 0.0002623849524930888 -0.0001063076730096757 0.00009311864521671653 0.00020312305727709923
          0.0007174726618008054 -0.00008429466859249946 0.0025292667894463716 0.0005962219952786729 0.00010127997847719783 0.00045659477856657693
          -0.00014530755738088874 -0.0008192281509088045 -0.0003772564098488973 0.014797069456648715 0.029164462260852453 0.015904126635016336
          0.014678180137555397 0.030111898225173295 0.016972272857649184 0.000282024256603175 0.0008953697420718276 0.0006341766519738501
          0.00011217644568684015 0.0004997411161296039 0.0005437621662576775 0.00012345273010613833 0.0003733387619040407 0.00041857670958228566
          -0.00018337241578186836 -0.00007932656249381997 0.00010228424122399327 0.0003279021533797166 0.00019852398569267238 0.00029009147023485726
          0.00019506173138734983 0.00009233928123673907 0.0005999200765666735 -0.0070127723558944255 -0.017449818969692263 -0.008323548645599338
          -0.011214914433428286 -0.0225768146076058 -0.00930428198266614 0.0006414507383153412 0.00036791222524379386 0.00038602655004876807
          0.0006522999453881795 0.0007085024529226436 0.0005245635796130577 0.0003146223502329959 0.00013933312719022206 0.0004024329483817146
          0.00029122267294662274 0.00025613822259812347 0.00031124270627524986 -0.00020267701177384412 0.00007839708048429372 0.000009568192613718107
          0.0009825892297684324 0.0022917604659738466 0.0012106761789940634 -0.0004600669810030794 -0.0038529238273734556 -0.0036669050432540096
          0.0039406159578755096 0.0056008795975935055 0.0019872185456179525 0.012930839707924802 0.026916555881696724 0.014825849193508545
          0.0004967354716767236 0.0010659742094713542 0.000726765721607181 0.0002549849908819457 0.00044790326107374545 0.0006307059240361346
          0.00022956378340172057 -0.00001736646772060313 0.0005876345354244306 0.0002395183507498122 -0.000008440739905801742 0.0002412115608090848
          -0.00024165608457810128 -0.00014809916135527512 -0.0000727120710658502 0.001017259308138535 0.00021331910907704255 0.0005658421730602159
          -0.008669530150712965 -0.015281395580231144 0.0024924588768012734 0.003752738249012455 0.01111028733827879 0.009665424491247188
          0.00048388646694552673 0.0007877894931641594 0.0005902349335950019 0.0005760631601735566 0.0006817322055316932 0.000653790866389059
          0.0004376419945467114 0.000054175890175034436 0.0006650195481718302 0.0004519450253096524 -0.00011680185147688871 0.00063422931506385
          0.00018588026718519002 -0.0001635018889413753 0.00022138925232614848 -0.0002520695573732801 -0.00019882647295482725 0.00008042255069617976
          -0.0019737086970701007 -0.004097361863039217 -0.004134919121685898 0.0036468276741230266 0.010853632255736073 0.00013384345409089837
          0.003418279081186415 0.006231713829181973 0.0015569557920608323 0.0007209820000202982 0.001127391998071936 0.0009379912725772099
          0.0004893872716388303 0.00032246542793390454 0.0007209208423278879 0.0004591369706780646 -0.00025637220804008987 0.0005989679069590692
          0.0004313431233298193 -0.0004979986838287709 0.0003057086588503788 0.00035106599646744785 -0.00007280716376334428 0.0002850710331550599
          0.00010363260782822459 0.00010067234153320753 0.000447470199708061 0.0025521390111098996 0.0045690171783838995 0.004862583036735368
          0.00793131277781034 0.00946311847725545 0.0035375310782642666 0.000815547133550143 0.0008348869271959103 0.0010549661339055438
          0.0007755534808439046 0.0007226184843699412 0.0009454314464355518 0.0004994982632035017 -0.00015520198119345352 0.0005639314614176438
          0.0002642241518732158 -0.0007476365402171448 0.00013890032743424374 0.00007072646866024268 -0.0007328453856672579 0.000004916234666141328
          0.00015528369559347777 -0.000285281593729092 0.00024135077448353415 0.0002235147207226701 -0.00003776411459717119 0.0005047956153575762
          0.0015060156096181332 -0.001974424831927349 -0.004049544484344456 0.0018639629367646071 0.0026916038260137443 0.002452484723915127
          0.0013311915188989332 0.0014826466487301015 0.0016305556082630845 0.000612006062975734 0.00011380076636291481 0.0007872698293921454
          0.00019081340359983212 -0.0008728154315272851 0.0001444849781937485 -0.000112735705240119 -0.0011579157158335684 -0.0002461660892046913
          -0.000038484301704111434 -0.0006211503131313689 0.000018488841868086192 0.0004111568648342556 0.000026420804265597786 0.0006235461141130966
          0.0004890894764070369 0.00022545246962363263 0.000996373603451714 -0.020318843844541468 -0.02846674814283845 -0.007173131291070889
          0.0024741464191311013 0.003413587545371244 0.002476427146730298 0.0011867671790584122 0.0009294318418677783 0.0013279920623011643
          0.00021914490124130825 -0.0006769195382178017 0.0003269369341272199 -0.0001005471570185712 -0.0012332993547728988 -0.00010100138751201193
          -0.00021653766756069004 -0.0008176157923732719 0.000031916833078071694 0.00014211035231112557 -0.00026956036873246325 0.0004993563315588145
          0.0006740290654282804 0.0000795848616825176 0.001073415295807803 0.0007993735693553939 0.00024320866353885664 0.0013851898335814749
          0.0004775428322144615 -0.000752723161478841 0.00020235558760053896 -0.00016760482389310827 -0.0015203938325915045 0.00002480023368756079
          -0.0002380237054870893 -0.0018612746342381303 -0.00018934282180782525 0.000036162626661562225 -0.0010440715850097426 0.0001355210026586784
          0.00018372127766047575 -0.0004027089757112079 0.0006036262782680435 0.0006536264320416707 -0.000005782057825309828 0.0011377526431644164
          0.0012968361682152846 0.0005922205903910738 0.0018225648826741409 0.0013310163103719408 0.0007041960224094534 0.0019807486072057345
          -0.000577173244302398 -0.0008247335253971366 0.002292197363218451 -0.002442278547531318 -0.005710615554440968 -0.0016623017098005288
          -0.000004802829589145574 -0.0018754423583605684 -0.000033945294380000046 0.0005075740491155001 -0.00046962131802341656 0.0007375382514193674
          0.000833453688437874 -0.000033000979552666454 0.0011866837693450677 0.0012688590984744966 0.0001399914703444395 0.00160823264426712
          0.0017390948040065107 0.0005333784198854608 0.002123496095615518 0.0019636301836180037 0.0013621294107942217 0.0026338309834734175
          -0.0019914675498144407 -0.00027038079611940713 0.0023448690380298842 -0.002971774268757832 -0.00667821861807838 -0.002064966933346013
          0.0005543280643191539 -0.0006893014292183586 0.0009608526114872618 0.0010388109571258797 -0.000031919357223159084 0.0012594132873659514
          0.00136663610377568 0.00030658767907138645 0.0015931649969453052 0.0018109993083824105 0.0004636610387763196 0.0019259653035881286
          0.001922082348041615 0.0003352211458357568 0.0021448374362348366 0.0013745204154135826 -0.00021172085939319407 0.002003139245060015
          -0.0027709100230759454 -0.00687646785842988 -0.0029359740332552953 0.00021731210529454814 -0.0014193688333377363 0.00011283558871022503
          0.0008570581324608417 -0.0008142882615603253 0.0008941741780832402 0.0014118978819170486 0.00010933319713146705 0.0014889644205608454
          0.0016816433625290589 0.0005547491806429938 0.0018845273646171112 0.0020493895602527457 0.0006257491251959735 0.0020900992069971813
          0.0022367313510360254 0.0008848192225073825 0.0025194351585938746 0.0019284126540744934 0.0011580000578817334 0.0024757124992920154
          0.0004432976971567304 -0.0006529809994003655 -0.0004573798396566575 0.0007437406477269481 -0.0005426764450359167 0.000688480096142724
          0.0014254900479133623 0.00014873700889003055 0.0015834027818316804 0.001875888585891411 0.0006556168547358354 0.002074117509807627
          0.002119120998986923 0.0006513031745180031 0.0022247351741923604 0.0022158051534579837 0.0008797753467692515 0.0027492943726244445
          0.0014081676292362344 0.0004089143970583131 0.002381574128324737 -0.0004299779530341774 -0.0015228911393406763 -0.00025467822107860805
          0.0006833396605302883 -0.0005028387113495958 0.0007356735831723291 0.0014404702215886356 0.0002072019360815358 0.0015977808443810027
          0.0020233276435053793 0.0007910172495904089 0.0022070419363787175 0.0023222276299370015 0.0008780255122337599 0.0024676259072531903
          0.002820029541858615 0.0019042522477700774 0.003242303009182712 0.004058010528888212 0.005267981749542794 0.004174925984016475
          0.0003111484939612996 -0.00023954974290152364 0.0006902454201972996 0.0006074265950206936 -0.0006097472992987463 0.0009049542948871281
          0.0013960465170600456 0.00002853595651658436 0.0015359263839679338 0.002171036146627725 0.000916334170419919 0.002327874206840108
          0.002817029434668439 0.0016116436007246326 0.002817680115880239 0.004473896328691163 0.0051450052000756585 0.00374867786365507
          0.003145203111899031 0.005025179651761136 0.002699254165914239 0.003855329844530797 0.005632257952801312 0.0031408990808838855
          0.004696680553293531 0.006486464808391212 0.0037761774055996566 0.005798858284772668 0.008169721160489862 0.00472755613935405
          0.005710169352659444 0.007771517695855268 0.004272328205997988 0.00016150112065208694 0.0002983411787643442 0.0005226335874720725
          0.0010458513213066345 0.0004278537689939438 0.00006492305037766877 0.0013022608641990799 0.0033495990835290257 0.0018944674389301114
          0.001909821714493748 0.0022774841116628974 0.0031142999162792617 -0.0001398730280762206 -0.000026937909881459554 -0.00024428615925310704
          -0.0003533274658852892 -0.000057030629266652255 -0.0004917215440668268 -0.000248591619191791 -0.0005639159445360309 -0.0002371708923880056
          -0.0003694227867113084 -0.00019884751981277815 -0.0004230945845199452 0.0007259619524226935 0.0046200856082751485 0.0006921172371167073
          0.0012278857849451208 0.009026148121257516 0.0006732778994604505 0.0012540006910669588 0.005101883858996181 0.0014843618561099642
          0.003121184195723714 0.004808791426605508 0.0028197929092949048 0.0011379689729714149 0.00020000682410029058 0.0006843521358566723
          0.002531506639542075 0.0004460837185762956 0.00015814671281987047 0.0013548258876488646 0.00256561821327278 0.0008622431114507223
          0.00042184047590780593 0.0009227166576174922 0.0016016155529193221 -0.0002798684904267157 -0.0007601109765102421 -0.0002708538839824026
          -0.0005316118233176792 -0.00045910571561930125 -0.00018400533964230137 0.0012113733655788883 0.0003366187293617484 -0.00021903742774648238
          0.0013729623984227307 0.001133537026327236 0.0012402737231243799 0.0014503596038035749 0.001818916949244631 0.0021211798245203417
          -0.00026369460606628925 -0.00047558197301222904 -0.000014161789862521257 -0.0005728756828035642 0.00022158859808246723 -0.0003353780299474862
          0.0018839705553480024 0.001993050292591697 0.0007460512665934949 0.00013601127814269476 0.002331033909311997 0.0010690789079504381
          0.0002657222147768312 0.0003566286092251819 0.0004949387663278765 0.004229294736578015 0.005012525689745806 0.006791553854653826
          0.007369965689554003 0.004099912484584245 0.0038021063503415053 0.004212621013530482 0.003726028551850613 0.004025241514457323
          0.003607595309976175 0.003307632560817342 0.0025181837922868336 0.0006972159641059766 0.0009734841736629158 0.0007322022877468901
          0.0008712001089530889 0.0004991263954640737 0.0006038022368272528 -0.00042853474155776783 -0.0000802860083931739 -0.00046019998803972784
          -0.0006680821750757182 -0.00009771521491167001 -0.00015540655474033382 -0.00009964558089120557 -0.000007365805511416745 0.0003747155151885839
          -0.0002586265657029685 0.00005964283291065575 -0.00014291337101146606 0.00008217064442903044 -0.00014613019211900946 0.00006130363232886848
          -0.00009194172292525948 -0.0001383198571506261 -0.0000769016228246433 0.000056915605764928934 0.00046988872869557774 0.0001136134621338436
          0.003171242754871878 0.003140965329553977 0.0021943664640198535 0.0006111094207341128 0.0016260867472773222 0.0007024096340526031
          -0.0004622213552590293 -0.00029746965007526605 -0.000051555247639611945 -0.00008897390478634915 0.00005365624033654148 0.00009230847804106435
          0.0002239392155629627 0.000584495200865176 0.0002705573238903358 0.005298730740279811 0.006797014848281491 0.004055261154215228
          0.0016496829404150648 0.006026599621590911 0.005966313156424374 -0.00022818158654225318 0.002474674535068111 0.004483213062747848
          0.002839928665410052 0.001956928502453825 0.007808160896459304 0.005784057876171811 0.005340383893098544 0.004081760059894524
          0.003923323592167849 0.009069879549211457 0.00632966190074935 0.004511717937902171 0.010149465735250773 0.006973109519052723
          0.004507590236855874 0.008601864140743487 0.006438417215221315 -0.0002169194489972659 0.00029489689928841045 0.0031244945128792723
          0.0005876308943526254 0.0025880139069338337 0.005135336600704227 0.0018979319745824619 0.002759651750220582 0.003579551611399001
          0.0016175954533486359 0.0028782797954297057 0.0031134450178650214 0.006843542379249334 0.0015368086967945532 0.003748451915499551
          0.0010866010027952011 0.001671825638024732 -0.0012084138371529773 0.000426776736152934 0.0013049953227287636 0.0018701578293913723
          -0.00009737427755363015 -0.0002601388424186557 -0.0007107324355423716 -0.0002212996048015503 2.0377364462476066e-8 0.00011684839512654532
          -0.00020594618493102734 -0.0005133323105250831 -0.000007470049605329265 0.0005189589349325618 0.00045065447515943435 0.0010501098511423723
          0.0012158337976838768 -0.000035487840231732126 0.0018919389920868945 -0.000527869954190574 0.0013997544570747422 0.0004827081555029422
          0.0065382429710243994 0.008631201252423393 0.005286336857578566 0.0080867986323655 0.006178412683302659 0.011843170641572032
          0.009219220033028774 0.006059029236984315 0.00481060802426414 0.004190691722822659 0.005502635554707425 0.0039027763620068656
          -0.0005122208170557641 -0.0014480855249645597 -0.0006207002857260835 -0.546144533627846 -0.0006348906417137368 -1.1548016908509329
          -0.0012578441401061013 -0.6778186976581795 -0.0002906320573769494 -0.0005994100210983122 -0.0015585611970747593 -0.0005257914266763031
          -0.0000488895257803601 -0.0001405239832980576 0.00020520363070714032 0.0013298069722617045 0.0015170796739805148 0.00387054422200378
        </DataArray>
        <DataArray type="Float64" Name="resid_z" format="ascii" RangeMin="0" RangeMax="0">
          0 0 0 0 0 0
          0 0 0 0 0 0
          0 0 0 0 0 0
          0 0 0 0 0 0
          0 0 0 0 0 0
          0 0 0 0 0 0
          0 0 0 0 0 0
          0 0 0 0 0 0
          0 0 0 0 0 0
          0 0 0 0 0 0
          0 0 0 0 0 0
          0 0 0 0 0 0
          0 0 0 0 0 0
          0 0 0 0 0 0
          0 0 0 0 0 0
          0 0 0 0 0 0
          0 0 0 0 0 0
          0 0 0 0 0 0
          0 0 0 0 0 0
          0 0 0 0 0 0
          0 0 0 0 0 0
          0 0 0 0 0 0
          0 0 0 0 0 0
          0 0 0 0 0 0
          0 0 0 0 0 0
          0 0 0 0 0 0
          0 0 0 0 0 0
          0 0 0 0 0 0
          0 0 0 0 0 0
          0 0 0 0 0 0
          0 0 0 0 0 0
          0 0 0 0 0 0
          0 0 0 0 0 0
          0 0 0 0 0 0
          0 0 0 0 0 0
          0 0 0 0 0 0
          0 0 0 0 0 0
          0 0 0 0 0 0
          0 0 0 0 0 0
          0 0 0 0 0 0
          0 0 0 0 0 0
          0 0 0 0 0 0
          0 0 0 0 0 0
          0 0 0 0 0 0
          0 0 0 0 0 0
          0 0 0 0 0 0
          0 0 0 0 0 0
          0 0 0 0 0 0
          0 0 0 0 0 0
          0 0 0 0 0 0
          0 0 0 0 0 0
          0 0 0 0 0 0
          0 0 0 0 0 0
          0 0 0 0 0 0
          0 0 0 0 0 0
          0 0 0 0 0 0
          0 0 0 0 0 0
          0 0 0 0 0 0
          0 0 0 0 0 0
          0 0 0 0 0 0
          0 0 0 0 0 0
          0 0 0 0 0 0
          0 0 0 0 0 0
          0 0 0 0 0 0
          0 0 0 0 0 0
          0 0 0 0 0 0
          0 0 0 0 0 0
          0 0 0 0 0 0
          0 0 0 0 0 0
          0 0 0 0 0 0
          0 0 0 0 0 0
          0 0 0 0 0 0
          0 0 0 0 0 0
          0 0 0 0 0 0
          0 0 0 0 0 0
          0 0 0 0 0 0
          0 0 0 0 0 0
          0 0 0 0 0 0
          0 0 0 0 0 0
          0 0 0 0 0 0
          0 0 0 0 0 0
          0 0 0 0 0 0
          0 0 0 0 0 0
          0 0 0 0 0 0
          0 0 0 0 0 0
          0 0 0 0 0 0
          0 0 0 0 0 0
          0 0 0 0 0 0
          0 0 0 0 0 0
          0 0 0 0 0 0
          0 0 0 0 0 0
          0 0 0 0 0 0
          0 0 0 0 0 0
          0 0 0 0 0 0
          0 0 0 0 0 0
          0 0 0 0 0 0
          0 0 0 0 0 0
          0 0 0 0 0 0
          0 0 0 0 0 0
          0 0 0 0 0 0
          0 0 0 0 0 0
          0 0 0 0 0 0
          0 0 0 0 0 0
          0 0 0 0 0 0
          0 0 0 0 0 0
          0 0 0 0 0 0
          0 0 0 0 0 0
          0 0 0 0 0 0
          0 0 0 0 0 0
          0 0 0 0 0 0
          0 0 0 0 0 0
          0 0 0 0 0 0
          0 0 0 0 0 0
          0 0 0 0 0 0
          0 0 0 0 0 0
          0 0 0 0 0 0
          0 0 0 0 0 0
          0 0 0 0 0 0
          0 0 0 0 0 0
          0 0 0 0 0 0
          0 0 0 0 0 0
          0 0 0 0 0 0
          0 0 0 0 0 0
          0 0 0 0 0 0
          0 0 0 0 0 0
          0 0 0 0 0 0
          0 0 0 0 0 0
          0 0 0 0 0 0
          0 0 0 0 0 0
          0 0 0 0 0 0
        </DataArray>
        <DataArray type="Float64" Name="stress_zz" format="ascii" RangeMin="-14641772.705276944" RangeMax="7716078.725534359">
          5731532.49639316 7716078.725534359 1581536.5816610474 -2143651.8673876897 -2568459.333071064 -12003382.460309742
          -5120469.951236092 -10478160.953023206 -5880576.873984775 -12559966.829150075 -6640683.796733457 -14641772.705276944
          423652.8684910027 1430673.0607383852 918550.6915041641 2725099.716819484 1413448.5145173257 4019526.372900582
          285513.1496248196 379727.2565057081 28179.740754909068 -83514.392248353 -229153.6681150014 -546756.0410024141
          80441.415802153 537924.4216888353 108256.56413346648 589423.7479511481 136071.7124647799 640923.074213461
          -1906013.3820808432 -1610466.9877734927 -1949157.4410833798 -1704360.573930677 -1992301.5000859168 -1798254.1600878611
          -1667272.9684826531 -2480400.1422603647 -1870204.6934901483 -2688771.7728600833 -2073136.4184976434 -2897143.4034598013
          -2573411.407235942 -3866375.498431441 -1921316.845434437 -3504889.4221930993 -1269222.2836329322 -3143403.3459547576
          2239044.4166701147 2544540.500886827 2850036.585103539 434427.28034395946 633837.3532721038 833247.4262002483
          -270798.71046279685 -385795.200507793 -500791.690552789 133080.48128962042 44133.61894542877 -44813.2433987629
          -1039374.8283824266 -984881.9559824615 -930389.0835824964 -2520175.0339135416 -2492154.7258198145 -2464134.4177260865
          -676358.6087403288 -863665.8991846954 -1050973.189629062 85214.65552533895 529560.832792157 973907.010058975
          172428.20967239022 -194062.424849139 -560553.0593706681 309613.01583085075 244031.78445217156 178450.55307349243
          240291.14815698788 250179.01535445784 260066.88255192782 -206024.44072938806 -299466.1352435118 -392907.82975763566
          -2144339.3681860957 -2020582.4514226867 -1896825.5346592776 -2674480.07482859 -2656676.5429034876 -2638873.010978385
          -76470.21798686485 -273832.893066583 -471195.5681463013 1962444.0102207887 1924915.4730565296 1887386.9358922709
          -223555.63234970882 -131054.7240239947 -38553.81569828058 2135.2490793798024 8942.957623308308 15750.66616723681
          397378.9327542633 312808.9071711427 228238.88158802208 -1029039.6158675719 -1062880.117782948 -1096720.6196983245
          -2884273.4922294803 -2708425.9925478417 -2532578.492866203 -2020995.9890757813 -2092910.4176461713 -2164824.846216561
          784828.8816280294 591781.3758106655 398733.86999330146 2266051.7313678167 2442194.9416862465 2618338.152004676
          -62318.47933475713 -81594.90577205825 -100871.33220935936 168578.1217124004 138745.69118564666 108913.26065889296
          -131353.8760910033 -223708.0095590804 -316062.1430271575 -2123780.7695695045 -2100336.753460417 -2076892.73735133
          -2968348.381836243 -2780667.510905315 -2592986.6399743883 -1271164.4833123807 -1429584.7389688676 -1588004.9946253547
          1240615.070745348 1084476.8425963167 928338.6144472852 2171795.243539107 2529052.4540090943 2886309.6644790815
          -22187.25851104939 -46220.801077268814 -70254.34364348825 346864.133776425 272082.6781906133 197301.22260480153
          -1234278.772901678 -1222471.7459926566 -1210664.7190836354 -2963782.8691270337 -2831666.924010369 -2699550.978893703
          -2310682.6935906103 -2174714.206569894 -2038745.7195491777 -852505.4488107532 -1041317.3148868011 -1230129.1809628487
          1229353.6817864226 1104808.1119470831 980262.5421077443 2280474.238527774 2629621.976008161 2978769.713488548
          -42378.62182591435 -42160.92759339323 -41943.23336087211 198346.56844113066 146520.87656252197 94695.18468391329
          -205587.99856472644 -271236.67356846284 -336885.34857219923 -2436912.642432863 -2319033.896864993 -2201155.1512971227
          -3015456.6007825984 -2859094.5339248492 -2702732.4670671 -1681109.9784155102 -1607643.4050895302 -1534176.8317635495
          -439842.3356770025 -618601.6078497925 -797360.8800225825 1337914.6125923381 1248503.5982307487 1159092.5838691588
          2127053.5411388697 2496577.93714711 2866102.3331553494 24569.324771137475 571.578633825723 -23426.16750348602
          291132.1866103638 207624.15939062432 124116.13217088481 -1471287.7031300715 -1436203.048153379 -1401118.3931766865
          -3256175.7702521137 -3082706.4975275095 -2909237.2248029043 -2433308.703538465 -2367226.389202242 -2301144.0748660183
          -1323735.008585959 -1283421.906570579 -1243108.8045551986 110049.62199071201 -45392.796301312366 -200835.21459333666
          1765202.6269893986 1697554.551844063 1629906.4766987273 2202390.3289903714 2571316.3655416956 2940242.4020930203
          275036.65385141555 217106.71163548515 159176.76941955474 -440255.6299154464 -512836.2941564076 -585416.9583973687
          -2782324.5655846093 -2674494.307914856 -2566664.0502451025 -3259938.7053751 -3114220.473758026 -2968502.2421409516
          -1923517.6820375882 -1911761.6345541892 -1900005.5870707901 -871588.3615398619 -830346.8324113816 -789105.3032829013
          703483.5591594189 536446.3785237655 369409.19788811216 2453669.4142579036 2371718.7320562503 2289768.049854597
          2929918.8027999755 3265489.306006712 3601059.8092134483 283239.5768287836 179951.33453266832 76663.09223655303
          -1755593.3040487077 -1746034.9826173643 -1736476.661186021 -3651385.686483807 -3494549.459761076 -3337713.2330383454
          -2728221.856871997 -2671514.357203737 -2614806.857535477 -1452237.6849729922 -1458406.9433076845 -1464576.2016423766
          -156252.95699314278 -129270.49841277717 -102288.03983241157 1357642.006244934 1208329.5250686049 1059017.0438922755
          2948904.9554592613 2892117.4501660997 2835329.944872938 3685846.6280555516 3896838.136145087 4107829.644234622
          -596138.2584264673 -687839.8562644233 -779541.4541023794 -3152866.521197246 -3077476.1565259947 -3002085.7918547434
          -3698821.516762266 -3563275.165557563 -3427728.81435286 -2168667.5499723046 -2157931.50590333 -2147195.4618343557
          -709639.2156075917 -719149.0945255781 -728658.9734435644 694553.2345853646 696532.2113424886 698511.1880996127
          1982253.163817425 1901700.1086116098 1821147.0534057948 2641561.929008331 2624113.8945115004 2606665.8600146696
          3752480.5755269066 3884213.3486767076 4015946.1218265095 -2051257.1363115986 -2061563.871370327 -2071870.6064290553
          -4249705.545927185 -4113839.478181226 -3977973.410435269 -3179459.1732756877 -3122302.4235134777 -3065145.673751268
          -1482020.815328956 -1493742.8729683554 -1505464.930607755 172205.7308759633 154261.8500040304 136317.9691320975
          1452419.8197707948 1441581.06295555 1430742.306140305 2326998.788766694 2269198.811877633 2211398.834988572
          2784925.340670922 2728708.3149607135 2672491.289250505 3828518.6577375545 3954446.7066498734 4080374.755562192
          -3591457.299882598 -3482469.44071216 -3373481.5815417217 -4424200.6730607655 -4249440.96569596 -4074681.258331155
          -2471776.727919579 -2460761.585136268 -2449746.4423529566 -565352.1223596781 -585778.5775438098 -606205.0327279415
          1076844.5717586528 1049797.6001969732 1022750.6286352937 2165566.6897877767 2145996.930488407 2126427.1711890376
          2735060.096721543 2689709.760807381 2644359.4248932195 3243828.6559895454 3192175.3878916977 3140522.119793851
          2707600.3438977124 2756648.540857116 2805696.7378165205 -4873840.155413281 -4645755.776214384 -4417671.397015486
          -3653554.3846319895 -3555467.8682969147 -3457381.3519618404 -1563572.1470742107 -1595749.0395259338 -1627925.931977657
          441978.31577019196 415649.210912659 389320.10605512606 1975575.2034859834 1942017.814797957 1908460.4261099303
          2912994.1832804177 2888504.204375004 2864014.2254695906 3336897.5663086004 3313133.833739374 3289370.101170147
          3114107.6212918633 3079379.9200303513 3044652.2187688397 2627526.649834129 2649883.408360004 2672240.166885879
          -2722061.470433832 -2692754.6522717127 -2663447.834109593 -338882.8604609327 -402148.56396058644 -465414.26746024005
          1585253.1939510833 1547364.6556890146 1509476.1174269458 2819887.1782456236 2785449.0619640006 2751010.9456823785
          3500479.309215772 3469265.7763535962 3438052.243491421 3775651.510727988 3753906.2308423044 3732160.950956621
          3371715.806497594 3363406.8820310794 3355097.9575645654 1594226.4246780314 1713721.9321998428 1833217.4397216537
          -1872142.2729423905 -1775568.5830490848 -1678994.8931557785 1181723.7956765671 1074015.5440981553 966307.2925197443
          2838932.44592556 2790130.97000097 2741329.4940763796 3625450.170525151 3595350.990439332 3565251.810353513
          3850025.62327838 3808916.8308983524 3767808.0385183254 3678338.4876806173 3655137.0270645684 3631935.56644852
          3116584.676201087 3149210.8705217326 3181837.064842378 1753429.851123006 1926506.4406842836 2099583.030245561
          -553587.5929971157 -335944.38117822283 -118301.16935932974 2783157.65290277 2609421.376665968 2435685.1004291656
          3989483.9327682178 3937932.140051991 3886380.347335766 4350555.2889373135 4323429.584600166 4296303.8802630175
          4106195.4543919433 4057219.8666495606 4008244.278907178 3085838.4284417434 3120846.527320598 3155854.626199453
          1246295.3284562028 1355387.2467638943 1464479.165071586 647638.6699088124 548917.3317105554 450195.99351229833
          1024168.549793796 1381866.4868160307 1739564.4238382652 4202321.45202438 3982527.5465564234 3762733.6410884666
          4886311.790831504 4835263.1988995895 4784214.606967675 4799323.91134683 4775003.45697667 4750683.002606509
          4097482.8064075764 4039564.1206352958 3981645.434863015 2346308.6664473237 2478846.1464863694 2611383.6265254146
          -914113.3840561216 -685252.0369232693 -456390.68979041686 -2678869.288695714 -3083290.1483464194 -3487711.0079971245
          5319435.136972888 5080560.077713026 4841685.018453164 5469223.429264659 5417181.674038211 5365139.918811763
          4811075.442149537 4793743.40920868 4776411.376267822 3590381.901010596 3521560.6687282673 3452739.436445938
          1400436.4383807785 1574861.7021043466 1749286.9658279144 -1747753.233915271 -1595399.7779398824 -1443046.3219644937
          -2547114.92571251 -3161637.023150794 -3776159.1205890793 6112083.992748413 5859545.971634995 5607007.950521576
          5667719.205952555 5604438.019904816 5541156.833857078 4395078.255609762 4381535.967607316 4367993.6796048675
          2771609.934998007 2690531.3846934205 2609452.834388834 569171.1026405767 767942.4211773342 966713.7397140916
          -1635097.904253508 -1634215.0210289531 -1633332.1378043983 -1825274.8943320308 -2433755.6844154242 -3042236.4744988177
          6491501.785411263 6231056.602556916 5970611.419702567 5445637.951764032 5355792.172365624 5265946.392967215
          3667964.4168733996 3646734.065057478 3625503.7132415576 1869113.6073877327 1781231.7386336743 1693349.8698796153
          -150178.72424601583 67128.1635870131 284435.051420042 -2041069.6383197177 -2097586.4579356047 -2154103.2775514917
          6306248.773236754 6062613.651569573 5818978.529902393 4712628.440728589 4600790.5578817725 4488952.675034955
          2560760.3147234293 2536848.9679959835 2512937.6212685388 681324.8583077323 603977.1633559741 526629.468404216
          -1264882.0059675197 -1062308.1299820011 -859734.2539964828 2567344.3734680074 1302061.8155603306 2293185.9347670693
          2138033.732486331 2366526.149866805 1284693.8007179808 2347107.1701880572 2004440.9823596526 2165707.926265602
          1267325.7858756308 2401028.405609046 1870848.2322329744 -72026.21285729454 -690465.6980377148 1668853.5870574275
          1027706.3600232727 -415186.8157983017 -1059234.2506274267 1551447.0966814316 946889.5922061704 -758347.418739309
          -1428002.8032171384 1434040.6063054353 866072.8243890682 1756169.4078808858 -1460270.9461295013 -2518438.189473827
          2100556.452016362 -1377192.6373961219 -3052189.798688801 2444943.4961518394 -1294114.3286627433 -3585941.407903776
          4712249.717319279 5319064.389400267 5925879.061481255 2115476.0541978553 4068017.8930657017 2380669.2059720405
          3109321.486403411 2148640.525522112 4210431.468540063 2237637.3537421413 2929794.2553785862 2181804.9968463685
          4352845.044014423 2094605.5015122415 2750267.024353762 614677.8949580266 1501264.120315834 336005.17492268793
          1456279.8173763102 57332.45488734923 1411295.5144367865 4431518.793132312 4432251.604993052 1004469.7607237129
          4517184.515124439 4698738.270780173 1183512.955610134 4602850.237116565 4965224.936567294 1362556.1504965546
          1488566.076259627 -713604.9822642684 1457619.9610592644 -951278.9227957116 1426673.8458589017 -1188952.863327155
          198748.79224244208 -334267.31399083027 -51230.13481654264 -273892.9590549875 -301209.0618755269 -213518.604119145
          275381.57369813125 203104.13192725793 130826.6901563846 3380573.3395615835 4200683.90752738 3227772.726060218
          4305694.22486374 3074972.112558852 4410704.5422001 -1182350.105978484 -1619690.3079988656 -1313522.45256922
          -2175507.9296741434 -1444694.7991599564 -2731325.5513494224 4273014.385791936 1516477.8211895553 4456723.945746644
          1513859.6258823066 4640433.505701351 1511241.4305750583 2766503.327738767 1878282.5786575156 2596589.7353508645
          1799042.3122009924 2426676.142962962 1719802.0457444699 718229.2602911679 838001.984017922 957774.7077446764
          -156501.02448907145 9078.737979523605 121620.17820533126 481187.944491503 399741.3808997342 953297.1510034826
          517142.4962779803 132400.06371750182 -252342.36884297655 -2907146.393197976 -2432286.9049408026 -1957427.41668363
          -2065389.0689049049 -2876853.5496430607 -3688318.0303812176 -6117873.344546759 -5067816.416864068 -4017759.489181377
          -2285481.47835313 -2440828.277359303 -2596175.0763654755 -3453069.373043967 -3008383.9793725223 -2563698.5857010777
          -3322247.3218830326 -2757948.465293402 -2193649.60870377 -2943012.7824733416 -3390427.0459716045 -3837841.309469867
          -3151375.716988664 -3222507.4240845353 -3293639.131180407 -4106201.002984645 -4486600.010426523 -4866999.017868401
          3306189.75866294 5413182.685114168 3178445.0920340517 5200693.960731398 3050700.4254051624 4988205.236348629
          877267.1141680786 850623.280565693 823979.4469633077 -995715.4493477993 -1056828.4860606692 -1117941.5227735392
          -2643568.4366380526 -2463399.15333953 -2283229.8700410067 -3882941.6170282727 -3935438.6366208144 -3987935.656213357
          -375183.04812956636 52372.02406191993 479927.0962534055 601267.8164788475 819331.6957301102 1037395.5749813723
          1367304.4293645332 3933434.431840946 1121091.8279410605 3858676.682843376 874879.2265175878 3783918.933845806
          -1019495.6579605653 -3413765.2092034807 -1071509.6242704063 -3468332.061650687 -1123523.5905802473 -3522898.914097893
          -105916.38204114971 -553227.08678789 -21218.424105450453 -520727.84037078376 63479.53383024881 -488228.59395367734
          -762670.6282364612 -729951.67628202 -697232.7243275791 -3689906.9991055243 -3693898.2459323234 -3697889.492759122
          795977.1525911707 391281.64724081155 669264.2906599614 287937.4611904977 542551.4287287521 184593.27514018386
          2422801.9618804213 2487670.956490022 2552539.951099623 2153273.8129371237 4133125.388166367 2203008.1334323836
          4319006.135115823 2252742.453927644 4504886.882065279 -1841438.741978916 -1433838.7004731775 -1026238.6589674391
          -2252641.5074986275 -2221373.339641898 -2190105.1717851693 -3937853.7939663087 -4161960.0879772315 -3841822.9295625505
          -4414479.416922221 -3745792.0651587914 -4666998.74586721 -3398458.691116668 -3475611.8119091396 -3552764.932701612
          -5334709.052688355 -5522663.456155395 -5710617.859622436 -1267690.567093103 -978599.49243951 -689508.4177859175
        </DataArray>
        <DataArray type="Float64" Name="peeq" format="ascii" RangeMin="0" RangeMax="0.007004787846209697">
          0.00011986443391761368 0.00022275881650231895 0.00012749266429450942 0.0002431860346688567 0.00013512089467140515 0.0002636132528353945
          0.000013615138569780949 0.000018802812192660932 0.000013058789073360908 0.0000188329380379122 0.000012502439576940867 0.000018863063883163467
          0.000003116380389817518 0.000006232760779635036 0.000001558190194908759 0.000003116380389817518 0 0
          0 0 0 0 0 0
          0 0 0 0 0 0
          0.000021630788781334877 0.000004071914099061028 0.000022867784800519676 0.000005224233956627078 0.000024104780819704475 0.000006376553814193127
          0.00016525666775783613 0.00012409987518356987 0.000170938420248596 0.00013020226239025625 0.00017662017273935575 0.00013630464959694263
          0.0004920769678925448 0.00046765952654145463 0.0005050573431278878 0.00048042889422087235 0.0005180377183632308 0.0004931982619002901
          0.000008485025666454206 0.000005899646960081057 0.000003314268253707908 0.000004213732473450481 0.000003642320054404807 0.0000030709076353591326
          0 0 0 0 0 0
          0.0000044343211687885535 0.000004977808258908647 0.000005521295349028741 0.00007673906077084915 0.00007856659916832838 0.00008039413756580764
          0.0002937539300988589 0.0002986408810607168 0.0003035278320225748 0.0006401020000847181 0.000652285962854054 0.0006644699256233899
          0 0 0 0 0 0
          0 0 0 0 4.380082722060315e-8 8.76016544412063e-8
          0.00003081706339557297 0.00003234263393915522 0.00003386820448273747 0.00018471284725919395 0.00018729521404607655 0.00018987758083295912
          0.0004972553521275067 0.0005013174895922923 0.000505379627057078 0.0008919334877648422 0.0009022604332418924 0.0009125873787189424
          0 0 0 0 0 0
          0 0 0 0.000006340490088635048 0.000007487304259429364 0.00000863411843022368
          0.00009593315159329229 0.00009889904929626954 0.00010186494699924681 0.0003536731374389309 0.0003561526005749616 0.0003586320637109923
          0.0007496325819642258 0.0007529546660816826 0.0007562767501991396 0.001181105895988428 0.0011903617473871904 0.001199617598785953
          0 0 0 0 0 0
          0 3.892768587084365e-8 7.78553717416873e-8 0.000037100624984033114 0.000039574934059747555 0.00004204924313546199
          0.00021507788212071427 0.00021908649774705536 0.0002230951133733964 0.0005768759804888772 0.000578647908072083 0.0005804198356552888
          0.0010493369592677367 0.0010523669034667644 0.0010553968476657923 0.001545159264555613 0.0015537203872413804 0.0015622815099271476
          0 0 0 0 0 0
          0.00000745612754955792 0.000008524558167023233 0.000009592988784488546 0.00010970420815098526 0.00011335196845932371 0.00011699972876766217
          0.00039897956940428717 0.00040273367467559296 0.00040648777994689887 0.0008559242373850627 0.0008570522498018594 0.0008581802622186561
          0.0014044901363092208 0.0014073969494026808 0.0014103037624961406 0.001974497954124179 0.0019817131453068763 0.0019889283364895732
          0 0 0 0 0 0
          2.1444066999143803e-8 2.3297093120909868e-7 4.4449779541905355e-7 0.000043905725653376954 0.00004650491346699223 0.000049104101280607486
          0.0002452154153043612 0.00024995839860724405 0.0002547013819101269 0.0006488156633935162 0.0006518900465562417 0.0006549644297189672
          0.0011962815314229779 0.0011967188757787222 0.0011971562201344664 0.0018121020764361264 0.0018145290578393677 0.0018169560392426087
          0.0024349099088910664 0.002440368655611073 0.0024458274023310793 0 0 0
          0 0 0 0.000011781307076302604 0.000013184180466527892 0.000014587053856753178
          0.0001314218116053101 0.00013555321784391192 0.00013968462408251372 0.0004556912330890698 0.0004604182380514244 0.000465145243013779
          0.000967481677819065 0.0009697217858294513 0.0009719618938398378 0.0015989698189920703 0.001598505045378306 0.0015980402717645419
          0.0022644063921651524 0.002265863505722687 0.002267320619280222 0.0029019113718211304 0.0029056562413014085 0.002909401110781687
          0 0 0 6.384435023126844e-7 9.985912881901583e-7 0.0000013587390740676323
          0.000057192355521052665 0.00006022993202938452 0.00006326750853771636 0.0002882685108351688 0.0002935289625793372 0.00029878941432350556
          0.0007379520687690248 0.00074205730161805 0.0007461625344670753 0.0013531547649937854 0.00135441803674856 0.0013556813085033345
          0.002056594032864281 0.0020551057218543664 0.002053617410844452 0.002748902568353284 0.0027489979802330687 0.0027490933921128545
          0.0033583728941867417 0.003360363690049956 0.00336235448591317 0 0 0
          0.000016262643505130517 0.000018073241437838202 0.000019883839370545883 0.00015677032988996846 0.00016155543949448233 0.0001663405490989962
          0.0005222657261604969 0.0005274081391993937 0.0005325505522382905 0.001093013958861415 0.0010960973223440383 0.0010991806858266617
          0.0017991819085327828 0.0017992357467387136 0.0017992895849446443 0.002549969451355506 0.00254737381001564 0.0025447781686757744
          0.0032424037198204563 0.0032409499679146164 0.003239496216008776 0.003804891374433641 0.003804769810009191 0.0038046482455847417
          8.875859346988866e-7 0.0000014831191958167868 0.000002078652456934687 0.00006689037120800181 0.00007067611828626719 0.0000744618653645326
          0.0003284677069212004 0.00033449022837801475 0.00034051274983482906 0.0008328639064422545 0.0008372652517478561 0.000841666597053458
          0.0015191202501971183 0.0015208370794514313 0.0015225539087057444 0.00229666317380532 0.0022953250739241554 0.0022939869740429913
          0.003065701716060267 0.0030619764734728643 0.00305825123088546 0.003737090542817722 0.0037339868732389177 0.003730883203660114
          0.004343347806111013 0.004340874124072186 0.00433840044203336 0.000016937057237508757 0.00001920741760685576 0.00002147777797620276
          0.00017143806336933045 0.00017720507419729856 0.00018297208502526666 0.0005808960660992455 0.0005867685088222247 0.0005926409515452039
          0.0012234331979607633 0.001226606475902666 0.0012297797538445682 0.0020104554670732967 0.0020105483527502253 0.0020106412384271535
          0.0028347570177843784 0.00283201276167066 0.002829268505556941 0.0035974024246181726 0.0035926700594493986 0.0035879376942806237
          0.00422133460060213 0.0042168151478152015 0.004212295695028272 0.00466284192420247 0.004659651309526832 0.004656460694851194
          0.00006649147047374454 0.00007049318368586722 0.00007449489689798989 0.00035187117303275156 0.00035891656211856684 0.0003659619512043822
          0.0009195331313697338 0.0009244934791685218 0.0009294538269673097 0.0016935121385146402 0.0016950089075844848 0.0016965056766543296
          0.0025585927741451665 0.0025568702821718945 0.002555147790198622 0.0033985218415437867 0.0033943387436243862 0.0033901556457049857
          0.004119600985058724 0.004113988683723944 0.004108376382389164 0.004653872973359565 0.0046484229658023376 0.004642972958245111
          0.004964273393252132 0.004959790251142194 0.004955307109032258 0.0001660319450947681 0.00017229726552847735 0.0001785625859621866
          0.0006218867098458124 0.0006288111350439767 0.0006357355602421411 0.0013502229597811956 0.001353596006468971 0.0013569690531567461
          0.0022368805715971816 0.002236357183859503 0.002235833796121824 0.0031486080230322747 0.003144977296471987 0.0031413465699116987
          0.003965792303646509 0.003960192976106578 0.003954593648566648 0.004601052779886202 0.004594713911911596 0.004588375043936989
          0.005005201611972366 0.004999316692572831 0.004993431773173295 0.005168796731146128 0.00516343048216432 0.005158064233182511
          0.0009896900540876258 0.0009956368549343328 0.00100158365578104 0.001870885916325959 0.0018721094741270055 0.0018733330319280514
          0.0028413209669197192 0.002838480321029259 0.0028356396751387978 0.0037572277417359853 0.003751785461923436 0.0037463431821108863
          0.004508023109338851 0.004501294624865444 0.004494566140392038 0.005020641849913154 0.005013821928255248 0.005007002006597341
          0.005262867660443848 0.005257013451077229 0.005251159241710611 0.005259846727239204 0.00525440618803564 0.005248965648832074
          0.0014646327219951984 0.001468971481253645 0.0014733102405120916 0.002474954724719376 0.002473730075622556 0.0024725054265257356
          0.0034880009876484754 0.0034826809764636336 0.003477360965278792 0.004356693135978737 0.004349649053551855 0.004342604971124975
          0.004993009760016114 0.004985696858078087 0.004978383956140061 0.005353393342082011 0.0053469204559249365 0.005340447569767861
          0.005432925000104706 0.005427409282937592 0.005421893565770478 0.005272340108700936 0.0052663690242552045 0.005260397939809473
          0.0020553672484464377 0.00205754525292135 0.002059723257396263 0.003152022330275775 0.0031483384608156054 0.003144654591355436
          0.004152516322518578 0.004144916429382826 0.004137316536247075 0.004920235648161383 0.004911880349675281 0.00490352505118918
          0.005395688498268474 0.005388315138608904 0.005380941778949336 0.005574364806233459 0.005569258256809019 0.0055641517073845796
          0.005504543243669823 0.005499679198528301 0.005494815153386779 0.0052605321428902336 0.005252489225394333 0.005244446307898432
          0.002760222855770763 0.0027598713231899315 0.0027595197906091005 0.003880663774187492 0.0038749449437493035 0.0038692261133111156
          0.004805744810917958 0.0047964057539487594 0.004787066696979562 0.005422519443500609 0.00541336624633275 0.005404213049164892
          0.005703249960696042 0.0056962946892919275 0.005689339417887813 0.005680175974254584 0.005676662453900815 0.005673148933547046
          0.0054507887780879975 0.00544637322369087 0.005441957669293743 0.005135447855916824 0.005124497922893673 0.005113547989870524
          0.004630217929155006 0.004623293410159043 0.004616368891163078 0.005415749343898469 0.0054053768750435575 0.005395004406188647
          0.005836349497332098 0.005827083738789339 0.005817817980246581 0.005898548031234803 0.005892526694227566 0.005886505357220332
          0.005664610727646789 0.005662373673433072 0.005660136619219357 0.0052484617673446725 0.0052438065936875914 0.0052391514200305096
          0.0047471132749313935 0.004735904385595855 0.004724695496260317 0.005365896448513734 0.005358736885892916 0.005351577323272096
          0.005947833380957376 0.005937200039771757 0.005926566698586138 0.006127812343000908 0.006119056452014188 0.006110300561027468
          0.005944473919146897 0.005939666244019399 0.005934858568891901 0.005480429601102808 0.005479109445095442 0.005477789289088075
          0.004848303295809021 0.0048436527341681815 0.00483900217252734 0.00412634799213638 0.004118795386319784 0.004111242780503188
          0.006046338955288971 0.006039806548395074 0.006033274141501177 0.006359100302080506 0.006348973037726543 0.0063388457733725805
          0.006251045610274779 0.006243343620239913 0.006235641630205048 0.005789857639779961 0.0057865010869485815 0.005783144534117201
          0.005078267167354997 0.005078160524879888 0.0050780538824047785 0.004244404280523897 0.004241348416882134 0.0042382925532403705
          0.006617219221661338 0.006611884783347017 0.006606550345032696 0.0065936141976112705 0.006584775626270257 0.006575937054929245
          0.0061527386958612346 0.006146791708846466 0.006140844721831698 0.005396263740303737 0.00539495332751726 0.005393642914730785
          0.004459384129353079 0.004461351047737135 0.004463317966121191 0.004640444300055379 0.0050886052090881794 0.005116784691681419
          0.004901813654636991 0.004635958482020487 0.005081496377898846 0.005110266857277893 0.004894758216012836 0.004631472663985595
          0.005074387546709514 0.005103749022874368 0.004887702777388679 0.003996182542398237 0.004290631502727935 0.0038701288727028002
          0.0034878491931414363 0.003988311518262591 0.004281936813760045 0.0038664597263540013 0.003485411667831593 0.003980440494126946
          0.004273242124792154 0.0038627905800052023 0.0034829741425217503 0.003702205130844127 0.0033677462259659803 0.00420656735176698
          0.003706278635462853 0.0033699022822781836 0.004199786108248267 0.0037103521400815784 0.003372058338590387 0.004193004864729552
          0.0033844353872172655 0.003391976201663942 0.003399517016110619 0.0050714020482487835 0.004927318034905572 0.005021932953762902
          0.005006782515578737 0.005065494277698495 0.004922204140384678 0.005013091522352885 0.004998654052885661 0.005059586507148206
          0.004917090245863785 0.005004250090942868 0.004990525590192586 0.003556385050081879 0.003026026986750912 0.00355042549520121
          0.0030261419905560517 0.003544465940320541 0.0030262569943611908 0.004356258205792165 0.003745233541293625 0.0037805625229120256
          0.004355050684526774 0.0037473801314758387 0.003783335793923566 0.004353843163261382 0.003749526721658054 0.0037861090649351065
          0.002526421973473972 0.00306112856734283 0.002530174954672736 0.0030581326178777952 0.0025339279358714997 0.00305513666841276
          0.004643317149242916 0.0038855053396403107 0.0046370409572147175 0.0038875801499017883 0.004630764765186519 0.0038896549601632664
          0.004686946070018808 0.0046782580256135705 0.004669569981208333 0.004519338753963476 0.0038545127367666998 0.0045166842138838325
          0.003857007674830578 0.004514029673804189 0.0038595026128944573 0.00496319601239298 0.004647328368799788 0.00495596153979635
          0.004642069662598804 0.004948727067199721 0.004636810956397821 0.004780208797631432 0.004871027989023495 0.00477557033923963
          0.004863388750065428 0.004770931880847829 0.00485574951110736 0.004212571966929998 0.004566377834441689 0.00420765371707417
          0.0045601716056147355 0.004202735467218341 0.004553965376787782 0.002036790126832677 0.0020447808278680206 0.002052771528903365
          0.001316735848801439 0.00159856851609096 0.0013298395550096088 0.001610096766035276 0.0013429432612177786 0.0016216250159795914
          0.004431128111948689 0.004421947094442187 0.004412766076935683 0.0011447855623283147 0.0011582948891194179 0.0011718042159105213
          0.004795923217459508 0.004783422719697491 0.004770922221935473 0.0009346654516833736 0.0009489818623819132 0.0009632982730804531
          0.002565829071602544 0.0025666398837382413 0.002567450695873939 0.00208437764921012 0.0020893016361529593 0.002094225623095799
          0.0017289891736242539 0.0017371937497529157 0.0017453983258815774 0.0033986883882632635 0.003395732512966835 0.0033927766376704053
          0.0035015940793980743 0.0035014519881773 0.0035013098969565257 0.002657682358013904 0.002658361888641667 0.0026590414192694295
          0.006584633938739927 0.007004787846209697 0.006578083008264285 0.007001035529948544 0.006571532077788644 0.006997283213687391
          0.005786994708300992 0.0057838480098381774 0.005780701311375364 0.004759634966823712 0.004761194523791782 0.004762754080759852
          0.003675751326449584 0.003680229703133459 0.0036847080798173342 0.002708264632063577 0.002710854739801875 0.0027134448475401736
          0.0026022240170677758 0.002611436008972267 0.0026206480008767585 0.0026573324615270563 0.002664127355351927 0.002670922249176799
          0.004970794955816628 0.004697832963031985 0.004962786744148696 0.004694647026258119 0.0049547785324807634 0.0046914610894842525
          0.0028478107719613556 0.0028600416920648436 0.002851494933554635 0.002864022089241093 0.0028551790951479145 0.0028680024864173427
          0.004401087416144973 0.004704630150537738 0.004396125788312444 0.004698536798945385 0.004391164160479914 0.004692443447353032
          0.0040375896263907165 0.004032932824402977 0.004028276022415237 0.002819516018539492 0.002824397424884047 0.0028292788312286013
          0.004935498822405474 0.004961008296701201 0.004926972558543897 0.0049557464020699325 0.00491844629468232 0.004950484507438664
          0.002973041009679228 0.002977290511477499 0.002981540013275769 0.003283217009073732 0.004033450681261763 0.003286051534954237
          0.004037061574703368 0.003288886060834743 0.004040672468144973 0.002626123731636895 0.0026330284807324117 0.002639933229827928
          0.0036377282745645697 0.003633317385397028 0.0036289064962294866 0.0014842283539622722 0.002059513087466483 0.0014919782393898607
          0.002062833637368348 0.0014997281248174492 0.002066154187270212 0.003231531190470808 0.0032275395330398386 0.003223547875608869
          0.0027774388061381516 0.0027751127831201466 0.002772786760102142 0.00200283081887865 0.0020131736211500685 0.002023516423421487
        </DataArray>
        <DataArray type="Float64" Name="pe11" format="ascii" RangeMin="0" RangeMax="0.006998725703003116">
          0.0001191067577320884 0.0002212690113704511 0.0001263525717175179 0.0002409226963840937 0.0001335983857029474 0.0002605763813977363
          0.00001355297576698119 0.00001868857617108978 0.0000129472842662786 0.000018618599002550764 0.00001234159276557601 0.00001854862183401175
          0.000003112458413838569 0.000006224916827677138 0.0000015562292069192845 0.000003112458413838569 0 0
          0 0 0 0 0 0
          0 0 0 0 0 0
          0.000021625550966310306 0.000004071507068404076 0.00002286293086386913 0.000005223789708783896 0.000024100310761427956 0.000006376072349163716
          0.000165163870935488 0.00012402373136114812 0.0001708534643545316 0.0001301332909091162 0.0001765430577735752 0.00013624285045708433
          0.0004917071037957815 0.0004673269448390587 0.0005046731873782865 0.0004800572624022898 0.0005176392709607912 0.0004927875799655209
          0.000008472252046862849 0.000005891223525471058 0.000003310195004079266 0.0000042086876814363 0.000003637984765003218 0.0000030672818485701367
          0 0 0 0 0 0
          0.000004433212933620866 0.000004976703817557199 0.000005520194701493533 0.0000767048292848255 0.00007853477634714532 0.00008036472340946515
          0.0002935327988395 0.0002984330465745248 0.00030333329430954953 0.0006395910463529963 0.0006517836138202619 0.0006639761812875277
          0 0 0 0 0 0
          0 0 0 0 4.3796181367782154e-8 8.759236273556431e-8
          0.000030803810497840686 0.00003233006910767961 0.00003385632771751854 0.00018458251078445846 0.00018717174481944887 0.0001897609788544393
          0.0004967251423268065 0.000500808013551892 0.0005048908847769774 0.000890973234133871 0.000901311366347067 0.0009116494985602628
          0 0 0 0 0 0
          0 0 0 0.000006338780355031159 0.000007485263060201533 0.000008631745765371907
          0.00009587094756661399 0.00009883936508219747 0.00010180778259778097 0.00035331016872189975 0.00035580285993425554 0.0003582955511466113
          0.0007485807010997714 0.0007519294071681108 0.0007552781132364501 0.001179435782417034 0.0011887195649010421 0.0011980033473850502
          0 0 0 0 0 0
          0 3.891890330281613e-8 7.783780660563226e-8 0.00003708130447634871 0.00003955459930488746 0.000042027894133426224
          0.0002148696683028327 0.0002188831428810017 0.0002228966174591707 0.0005760668271797813 0.0005778583696313313 0.0005796499120828813
          0.0010475607649666984 0.0010506218293421213 0.0010536828937175442 0.0015427233965981198 0.001551314682100461 0.001559905967602802
          0 0 0 0 0 0
          0.000007452864427717161 0.000008520482017978972 0.000009588099608240784 0.00010961110522767616 0.0001132564497273545 0.00011690179422703284
          0.00039844572867058653 0.0004022076820204082 0.00040596963537022985 0.0008544498391885582 0.0008556010021642808 0.0008567521651400032
          0.0014019169006994259 0.001404849405019777 0.0014077819093401282 0.0019712829605438536 0.00197850107514227 0.0019857191897406866
          0 0 0 0 0 0
          2.1435755897169968e-8 2.3285052207340465e-7 4.4426528824963935e-7 0.000043871383627904475 0.00004646772145002638 0.00004906405927214829
          0.0002449088416433743 0.00024964793522058167 0.00025438702879778904 0.0006477078302283507 0.0006507940544638633 0.000653880278699376
          0.0011939913908983303 0.0011944513575071064 0.001194911324115883 0.0018088220504663365 0.0018112561686018454 0.0018136902867373537
          0.0024311410776103348 0.002436565105656461 0.002441989133702587 0 0 0
          0 0 0 0.000011772990556595665 0.000013174267034630754 0.000014575543512665845
          0.000131268728459014 0.00013539385121875283 0.00013951897397849165 0.0004549227078619275 0.00045964604846475193 0.0004643693890675763
          0.0009655141715820825 0.0009677712787887322 0.000970028385995382 0.0015957979305532494 0.0015953545957251283 0.0015949112608970076
          0.0022606484066356727 0.0022620909718872925 0.002263533537138912 0.0028980518670048026 0.002901722092775214 0.0029053923185456258
          0 0 0 6.380478725381768e-7 9.978636337944059e-7 0.0000013576793950506348
          0.0000571307022624936 0.00006016344304183004 0.00006319618382116648 0.00028779372582870503 0.0002930450504787541 0.0002982963751288032
          0.0007363773611873837 0.0007404821063581071 0.0007445868515288303 0.0013500869064595193 0.0013513710458713678 0.0013526551852832156
          0.0020525673304005497 0.0020510963122646916 0.0020496252941288335 0.0027448884323765963 0.002744953218458191 0.0027450180045397853
          0.003354739311309154 0.003356626095214722 0.0033585128791202897 0 0 0
          0.000016247542355183966 0.00001805542812592262 0.00001986331389666128 0.00015652723951439375 0.00016130243948295705 0.00016607763945152032
          0.0005211216806334288 0.0005262552844007816 0.0005313888881681342 0.0010902474368942052 0.001093335784658211 0.0010964241324222166
          0.0017949199241574375 0.001794991057175525 0.0017950621901936126 0.002545263198176815 0.0025426715495487293 0.002540079900920643
          0.0032383068315888592 0.0032368118421869504 0.0032353168527850416 0.0038015434269144206 0.0038013026064569366 0.003801061785999453
          8.868888006026969e-7 0.0000014817434788960176 0.0000020765981571893383 0.00006679641425424304 0.00007057432719969498 0.00007435224014514691
          0.00032775180938727057 0.0003337602697116864 0.0003397687300361023 0.0008305613674730998 0.0008349589589443487 0.000839356550415598
          0.001514839995452065 0.0015165665570795667 0.0015182931187070683 0.0022913061222013965 0.002289977804895414 0.0022886494875894317
          0.003060762396302404 0.0030570302452410615 0.00305329809417972 0.0037335340036107074 0.0037303875125794927 0.003727241021548278
          0.004341139794394202 0.004338557023075794 0.004335974251757385 0.000016917017110687224 0.00001918306859190664 0.000021449120073126054
          0.00017108081546706228 0.000176832158941125 0.00018258350241518766 0.0005791962266525198 0.000585055179232377 0.000590914131812234
          0.0012194153432868774 0.0012225935713423544 0.0012257717993978312 0.002004552766555973 0.0020046558975409896 0.0020047590285260063
          0.00282869067660125 0.002825945396741026 0.002823200116880802 0.003592798344394965 0.003588047455495565 0.003583296566596165
          0.004218687777160338 0.004214122808459055 0.004209557839757771 0.004661416026035219 0.004658140251532992 0.0046548644770307655
          0.0000663661358651426 0.00007035582631713025 0.00007434551676911789 0.0003508222809971545 0.0003578441433892636 0.0003648660057813727
          0.0009161266625471643 0.0009210789699525275 0.0009260312773578907 0.0016873523720745368 0.001688859821373265 0.0016903672706719932
          0.002551305008795613 0.0025495854235781496 0.002547865838360686 0.0033923680685725216 0.0033881660024842274 0.0033839639363959324
          0.004115767687985516 0.004110116766188441 0.0041044658443913674 0.004652059602123813 0.004646553522122186 0.0046410474421205595
          0.0049634899701631215 0.004958935624180704 0.004954381278198285 0.00016554575325050262 0.00017178403658392984 0.00017802231991735705
          0.0006193929565688834 0.000626288812675616 0.0006331846687823486 0.001344318557340218 0.0013476907347975942 0.0013510629122549702
          0.002228494221492262 0.002227976905426931 0.0022274595893615997 0.00314051280667559 0.0031368672400898167 0.0031332216735040427
          0.003960193225036937 0.0039545537268274675 0.003948914228617998 0.004598287469907106 0.0045918934127771 0.004585499355647095
          0.00500420983090167 0.004998264075897421 0.004992318320893172 0.005168267475232699 0.0051628402190643545 0.005157412962896011
          0.0009847360767980655 0.0009906435111359975 0.0009965509454739295 0.0018619617144850222 0.0018631830063577533 0.0018644042982304849
          0.0028311582480365135 0.002828305904210407 0.002825453560384301 0.0037491799107926627 0.003743693389053174 0.0037382068673136857
          0.004503524345933174 0.004496731482265509 0.004489938618597844 0.005018967134091648 0.0050120831104413744 0.0050051990867911005
          0.005262238204818852 0.005256337362188268 0.005250436519557683 0.005258829676334137 0.005253345543134203 0.00524786140993427
          0.0014559971188634947 0.0014602754043108524 0.0014645536897582101 0.0024630069526042674 0.0024617602282712404 0.0024605135039382133
          0.003477073384267268 0.0034717142359141583 0.0034663550875610486 0.004349709221313361 0.004342588502646568 0.004335467783979775
          0.004989983096944072 0.004982583210535441 0.004975183324126811 0.005352431638716727 0.0053458874678788595 0.005339343297040991
          0.005431613836783044 0.005426055187877991 0.005420496538972938 0.005268858678443812 0.005262896197749422 0.005256933717055034
          0.002041998149686703 0.00204407208590024 0.0020461460221137782 0.0031377859155448497 0.003134034483220172 0.0031302830508954955
          0.0041421868698771624 0.004134517337145937 0.004126847804414711 0.004915150892793602 0.004906700171238374 0.004898249449683145
          0.005394025565490845 0.005386565583600586 0.005379105601710326 0.00557310017510111 0.0055679370547057965 0.005562773934310484
          0.005501208285031993 0.005496279685465554 0.0054913510858991136 0.005254090574814262 0.005246015774270745 0.005237940973727228
          0.0027419591838281944 0.002741425257229861 0.002740891330631528 0.0038657447884545646 0.0038598896635859024 0.0038540345387172393
          0.004797393998341957 0.004787957252426983 0.004778520506512008 0.005419540480113629 0.005410291124353649 0.0054010417685936675
          0.005701866281200123 0.0056948521680756144 0.005687838054951105 0.005676466561885257 0.005672937276615688 0.005669407991346118
          0.00544284413700174 0.0054383838125293404 0.005433923488056938 0.005124925235095453 0.00511392303325154 0.005102920831407628
          0.004616738538777539 0.004609604886918018 0.004602471235058497 0.005410251653575874 0.005399762617117049 0.005389273580658223
          0.005834597802747918 0.005825249011546914 0.00581590022034591 0.005895167615817728 0.0058891249318402976 0.005883082247862868
          0.005655781189544625 0.005653571156980787 0.005651361124416951 0.005234419748275898 0.005229773362370153 0.005225126976464409
          0.004732092468009397 0.004720880753722445 0.004709669039435493 0.005355750893421203 0.00534833167042213 0.005340912447423057
          0.005944843312994996 0.005934092491660314 0.005923341670325631 0.006124954214415598 0.006116142573804203 0.006107330933192808
          0.005936089912068997 0.00593130349396891 0.005926517075868822 0.005464867483417206 0.005463608697949028 0.005462349912480851
          0.004829329792842821 0.0048246968937598654 0.004820063994676909 0.004109161428922382 0.004101536798485743 0.004093912168049106
          0.006040213438320979 0.006033419509097302 0.006026625579873624 0.006356395350822993 0.006346175691999847 0.0063359560331766995
          0.006243417205386861 0.0062357020770839626 0.006227986948781064 0.005773690066746845 0.005770399578779811 0.005767109090812777
          0.005055887962423162 0.005055859390514867 0.005055830818606573 0.004222250360080136 0.004219169911077706 0.004216089462075276
          0.006613521171654053 0.006607990572493221 0.0066024599733323875 0.006586819816873998 0.00657794763615201 0.006569075455430024
          0.006136067058650728 0.006130161062566558 0.006124255066482387 0.005370693735591858 0.005369477720151685 0.0053682617047115105
          0.004431647494707032 0.004433672719018947 0.004435697943330862 0.004633291742820044 0.005086175350484315 0.005115618371826159
          0.004898931559267952 0.004628744844648124 0.005078996131937298 0.0051090525945092 0.0048918489785181145 0.004624197946476202
          0.005071816913390279 0.005102486817192239 0.004884766397768278 0.003992747598429083 0.004287921281823979 0.0038668262994386417
          0.0034839825743873706 0.003984782460912517 0.00427915987358125 0.003863044095222503 0.003481450258383173 0.00397681732339595
          0.004270398465338521 0.0038592618910063643 0.003478917942378975 0.0036865852289250326 0.003352686790379256 0.004190027325807616
          0.0036907304994803092 0.0033547295162816666 0.004183237149123432 0.003694875770035586 0.0033567722421840767 0.0041764469724392475
          0.003371454983557794 0.0033790807325911206 0.0033867064816244462 0.005070892348649047 0.004926523557769085 0.005021396039007182
          0.0050058960552865905 0.005064920750976433 0.0049213200425703525 0.00501248080858412 0.00499770344598431 0.0050589491533038185
          0.00491611652737162 0.005003565578161058 0.004989510836682032 0.003552308245133675 0.003021963027277618 0.0035462379058058447
          0.003022005441280813 0.003540167566478014 0.0030220478552840076 0.004347514578847398 0.0037336385457329892 0.0037683192507749954
          0.0043463417404913446 0.0037358098105716646 0.0037709987434692734 0.00434516890213529 0.0037379810754103408 0.0037736782361635513
          0.0025227420771432654 0.0030568029020827934 0.002526447898871976 0.00305368766083139 0.0025301537206006866 0.0030505724195799867
          0.0046308224204664105 0.003872528928631504 0.004624640118588303 0.0038745878107390047 0.004618457816710197 0.003876646692846506
          0.004685572949596928 0.0046768104537171975 0.004668047957837466 0.004513426602945396 0.0038447255654826444 0.004510766709163278
          0.003847292632718072 0.004508106815381161 0.0038498596999534994 0.004956032060291885 0.004636957599175109 0.004948829721608104
          0.0046316514132773235 0.004941627382924323 0.0046263452273795375 0.0047791234286702925 0.004870316809434692 0.004774374846270193
          0.004862587001446964 0.004769626263870094 0.0048548571934592345 0.004209899166485226 0.004564750389044888 0.004204851371324761
          0.004558430622407678 0.004199803576164297 0.004552110855770468 0.002033782157201946 0.0020417466079338223 0.002049711058665699
          0.0013153364001140951 0.0015963576031858314 0.0013283479165360351 0.0016078301512088516 0.001341359432957975 0.001619302699231872
          0.004428953623915051 0.004419704854291447 0.004410456084667842 0.001143319433591886 0.0011567459308568842 0.0011701724281218827
          0.0047819723454763695 0.004769483444139176 0.0047569945428019835 0.0009332114269427322 0.0009474473551927051 0.0009616832834426783
          0.0025617016338872847 0.002562369378032649 0.002563037122178013 0.0020799249178637437 0.0020846578453184244 0.0020893907727731055
          0.001725213310755035 0.0017332142774704271 0.001741215244185819 0.0033812787651896804 0.003378129541023665 0.003374980316857649
          0.0034790855883126874 0.0034788538009890473 0.0034786220136654063 0.0026427911833872583 0.00264319452352763 0.002643597863668002
          0.00656768207988408 0.006998725703003116 0.006561179765705021 0.0069949067135413705 0.006554677451525962 0.006991087724079625
          0.005757872987141545 0.0057548045504672565 0.0057517361137929685 0.004725668498973984 0.004727294434414891 0.004728920369855796
          0.0036466432703136245 0.0036511051561801513 0.003655567042046679 0.0026894715806916078 0.002691913389255481 0.0026943551978193536
          0.0025901839327061816 0.002599384876778707 0.0026085858208512312 0.0026456164199827373 0.00265241419355893 0.002659211967135122
          0.004969832694970793 0.0046948171514221045 0.004961737156692673 0.004691576575759575 0.004953641618414552 0.004688336000097046
          0.002835055377028217 0.002847698922187408 0.0028388041035950894 0.0028516073737312915 0.0028425528301619625 0.0028555158252751745
          0.004398728493753577 0.004703159176080914 0.004393659183704931 0.004696992785449911 0.0043885898736562845 0.004690826394818908
          0.004034305226903714 0.004029514474128561 0.004024723721353408 0.00280767448688577 0.002812446495656488 0.0028172185044272064
          0.004934792863002684 0.00495998856475474 0.004926172770173119 0.004954641698938512 0.004917552677343553 0.004949294833122284
          0.0029616648501037085 0.0029660735333997476 0.0029704822166957867 0.0032730732130541594 0.004025841040036171 0.003276019807030609
          0.004029528729667182 0.003278966401007058 0.004033216419298193 0.002612954998688459 0.002619676703612627 0.002626398408536795
          0.0036336297459334792 0.003629080281155918 0.0036245308163783555 0.0014817903240900512 0.002055225200021718 0.0014894260774473318
          0.0020584217652006042 0.0014970618308046124 0.002061618330379491 0.0032270086071667 0.0032228812367137375 0.0032187538662607753
          0.0027717947780849252 0.0027693518979799736 0.002766909017875022 0.00199341613257518 0.0020037149077863662 0.002014013682997552
        </DataArray>
        <DataArray type="Float64" Name="pe22" format="ascii" RangeMin="-0.0036257289471757458" RangeMax="0">
          -0.00005574690024311791 -0.00010359636141613427 -0.000056858713839243524 -0.00010815973143887074 -0.00005797052743536914 -0.0001127231014616072
          -0.000006491174142997316 -0.000008975449559818284 -0.000006041558314438635 -0.000008583461256391124 -0.000005591942485879955 -0.000008191472952963965
          -0.000001446984621062792 -0.000002893969242125584 -7.23492310531396e-7 -0.000001446984621062792 0 0
          0 0 0 0 0 0
          0 0 0 0 0 0
          -0.00001096417896125785 -0.0000020748830331886766 -0.000011550839443326148 -0.0000026471858302420434 -0.000012137499925394446 -0.0000032194886272954097
          -0.00008529013898846003 -0.00006482281905480552 -0.00008759472629197169 -0.00006744390308711876 -0.00008989931359548338 -0.000070064987119432
          -0.00025078705294792153 -0.0002344961740660514 -0.0002555178734105299 -0.00023930147207506277 -0.00026024869387313823 -0.00024410677008407416
          -0.0000039487195350507705 -0.000002778848119808153 -0.0000016089767045655348 -0.000002003449363088174 -0.0000017498276862430735 -0.0000014962060093979726
          0 0 0 0 0 0
          -0.0000022182815386351288 -0.000002482513486586962 -0.0000027467454345387953 -0.00003861762848686599 -0.000039398515000767154 -0.000040179401514668325
          -0.0001498883791663572 -0.00015160058150088634 -0.00015331278383541537 -0.0003287288497625222 -0.0003325947928546887 -0.00033646073594685523
          0 0 0 0 0 0
          0 0 0 0 -2.161501120967694e-8 -4.323002241935388e-8
          -0.000015349442308480686 -0.000016052868649550362 -0.000016756294990620042 -0.0000921964082212188 -0.00009315048599723169 -0.00009410456377324455
          -0.00025131237051541496 -0.00025239246283377266 -0.0002534725551521303 -0.00045154064586572977 -0.0004541542153258314 -0.00045676778478593303
          0 0 0 0 0 0
          0 0 0 -0.0000031255578763918996 -0.0000036722110304132193 -0.000004218864184434539
          -0.000047367218069919506 -0.000048652840311902236 -0.000049938462553884974 -0.00017474828035490454 -0.00017537141818917373 -0.0001759945560234429
          -0.0003746587630768475 -0.00037504336475171265 -0.0003754279664265779 -0.000592204196852555 -0.0005941678245686504 -0.0005961314522847456
          0 0 0 0 0 0
          0 -1.8797230291387222e-8 -3.7594460582774444e-8 -0.000018143930439195548 -0.000019253570724410735 -0.00002036321100962592
          -0.00010500700423869057 -0.00010655919650955835 -0.00010811138878042612 -0.0002818049427810218 -0.0002817622223522753 -0.0002817195019235288
          -0.0005196504729654467 -0.0005195437541992845 -0.0005194370354331223 -0.0007713819295301703 -0.000772978844565718 -0.0007745757596012658
          0 0 0 0 0 0
          -0.0000035935432064824202 -0.000004088207478100621 -0.000004582871749718823 -0.00005306684862995271 -0.00005454942424682693 -0.000056031999863701145
          -0.0001925372191581196 -0.0001936217163005326 -0.00019470621344294556 -0.0004138541383090508 -0.0004132008324311476 -0.0004125475265532443
          -0.0006907370821630223 -0.0006903886447782428 -0.0006900402073934634 -0.0009814505931606693 -0.0009827384662379952 -0.0009840263393153213
          0 0 0 0 0 0
          -1.0265068987031577e-8 -1.1047401230505801e-7 -2.1068295562308443e-7 -0.00002105495602939518 -0.000022184520323279488 -0.00002331408461716379
          -0.00011736410577991067 -0.00011904659545190092 -0.0001207290851238912 -0.000309834034062384 -0.0003102393471954101 -0.00031064466032843603
          -0.0005738648195663577 -0.0005727270797986024 -0.0005715893400308471 -0.0008864530917833843 -0.0008859436291995525 -0.0008854341666157207
          -0.00120597436226413 -0.0012070916042693977 -0.0012082088462746655 0 0 0
          0 0 0 -0.00000560624567819172 -0.000006241117173267179 -0.000006875988668342639
          -0.00006251887584617383 -0.00006414045112783837 -0.0000657620264095029 -0.00021606573838289762 -0.00021730759417819715 -0.00021854944997349665
          -0.00045827476510890776 -0.0004580382787557418 -0.0004578017924025758 -0.0007630905200314737 -0.0007616795696716186 -0.0007602686193117636
          -0.0011035710351824193 -0.0011030217824184352 -0.001102472529654451 -0.0014336917073148915 -0.0014347900190692894 -0.0014358883308236876
          0 0 0 -3.0181866431036977e-7 -4.689348204240935e-7 -6.360509765378172e-7
          -0.000027082334892812675 -0.000028360630464403214 -0.000029638926035993753 -0.00013593452321240902 -0.0001376917759051438 -0.0001394490285978786
          -0.00034696372329173016 -0.0003474856511530241 -0.0003480075790143181 -0.0006375004625731328 -0.0006367841179691974 -0.000636067773365262
          -0.0009792458788459777 -0.0009778560424421737 -0.0009764662060383699 -0.001337192182304207 -0.0013367994660704581 -0.00133640674983671
          -0.0016566931340746339 -0.001657859883140783 -0.001659026632206932 0 0 0
          -0.000007675585052668936 -0.000008479777487073245 -0.000009283969921477555 -0.00007366109140465289 -0.00007547000609823922 -0.00007727892079182557
          -0.00024412155652166645 -0.0002453120586073067 -0.00024650256069294694 -0.0005104202245016962 -0.0005101833047038942 -0.0005099463849060922
          -0.0008453770508979376 -0.0008443213534534848 -0.0008432656560090324 -0.001215117029070132 -0.001213837443339465 -0.0012125578576087973
          -0.0015779967035441911 -0.0015777893473635067 -0.0015775819911828227 -0.0018771492937721369 -0.0018782672784907741 -0.0018793852632094112
          -4.1596901629844477e-7 -6.901818791679926e-7 -9.643947420375403e-7 -0.00003134163751079596 -0.000032907256244719435 -0.00003447287497864291
          -0.00015284117951447625 -0.00015475431040348918 -0.00015666744129250206 -0.0003860044072291395 -0.00038637722889296825 -0.0003867500505567971
          -0.0007062982441519945 -0.000705430727186605 -0.0007045632102212155 -0.0010796025956822221 -0.001078373465012768 -0.001077144334343314
          -0.001465911302641473 -0.0014648774153092283 -0.0014638435279769838 -0.0018266718334031943 -0.0018266919544199299 -0.0018267120754366652
          -0.002163714678689722 -0.0021648847998496893 -0.002166054921009657 -0.000007902975192534667 -0.000008902004436160773 -0.000009901033679786879
          -0.00007944481477069508 -0.0000815808103379507 -0.00008371680590520632 -0.00026744291379330345 -0.00026869176349711264 -0.0002699406132009218
          -0.0005631517125353005 -0.0005626810841087031 -0.0005622104556821056 -0.0009336422496066192 -0.0009323793789273653 -0.0009311165082481117
          -0.0013374033283757468 -0.0013363165425889928 -0.0013352297568022383 -0.0017306776300396035 -0.0017302861886956515 -0.0017298947473517
          -0.0020758364066112687 -0.0020765185071747127 -0.002077200607738156 -0.002332828502904907 -0.002334619716834239 -0.002336410930763571
          -0.0000306575118930404 -0.00003226941841558068 -0.000033881324938120955 -0.00016089709030967664 -0.00016305206788906293 -0.00016520704546844922
          -0.0004190690416925589 -0.0004193415974222571 -0.0004196141531519553 -0.0007765282151837834 -0.0007753554859762151 -0.0007741827567686469
          -0.0011910927305439172 -0.0011897500826045914 -0.0011884074346652656 -0.0016140149224209215 -0.0016133744049477048 -0.0016127338874744877
          -0.0019983739911382174 -0.001998795038446846 -0.001999216085755474 -0.002303353384636317 -0.00230491161448159 -0.0023064698443268626
          -0.00249516210515246 -0.0024975733174846383 -0.0024999845298168165 -0.00007520086764280432 -0.00007744435740812729 -0.00007968784717345023
          -0.0002802931467067667 -0.00028166791279935556 -0.0002830426788919444 -0.0006104477649258699 -0.0006096877522720712 -0.0006089277396182723
          -0.001025541871488628 -0.001023984179959301 -0.001022426488429974 -0.0014744644398735597 -0.0014734119904943718 -0.0014723595411151838
          -0.0019007648078615445 -0.0019007947570017772 -0.00190082470614201 -0.0022537143327599654 -0.0022548688836753336 -0.002256023434590702
          -0.0024975402492438585 -0.002499608576505503 -0.0025016769037671475 -0.002615824415971997 -0.0026182421362030907 -0.0026206598564341857
          -0.00044003142145186794 -0.00044026298280726506 -0.0004404945441626622 -0.0008422044003388165 -0.0008406117638636507 -0.000839019127388485
          -0.0013077326266811376 -0.0013061657555578485 -0.0013045988844345591 -0.001775349318914275 -0.001774907059702835 -0.001774464800491395
          -0.00218494891623837 -0.002185827355410213 -0.002186705794582057 -0.0024872201383006848 -0.002489062676528988 -0.0024909052147572917
          -0.002652015750315969 -0.0026541424116425403 -0.002656269072969111 -0.002685429911291401 -0.002687454635510608 -0.002689479359729816
          -0.0006442013757223131 -0.0006432996805255036 -0.000642397985328694 -0.0011147081995752435 -0.001112719098184006 -0.0011107299967927685
          -0.0016181254049883551 -0.0016169311456960623 -0.0016157368864037694 -0.0020826523449735375 -0.002082987992737281 -0.0020833236405010244
          -0.0024515556065082935 -0.002453243408948442 -0.0024549312113885903 -0.0026867767617735658 -0.0026893021074744184 -0.002691827453175271
          -0.0027691350108616525 -0.002771444030349331 -0.002773753049837009 -0.0027169590482633145 -0.0027189587034196203 -0.0027209583585759258
          -0.0008989383501448193 -0.0008972246502422061 -0.0008955109503395926 -0.0014283484377752035 -0.0014265262572702784 -0.0014247040767653533
          -0.0019492874040646017 -0.0019488613352951908 -0.0019484352665257796 -0.002385161255783769 -0.002386330546664019 -0.0023874998375442687
          -0.002688195766082163 -0.0026904448003488546 -0.0026926938346155454 -0.0028385960270590057 -0.002841575260541969 -0.002844554494024932
          -0.0028410427889086743 -0.0028440308299079336 -0.0028470188709071942 -0.0027396197100373024 -0.0027419990858891983 -0.002744378461741094
          -0.0012089029959251037 -0.0012070074639947712 -0.0012051119320644385 -0.0017795429994876151 -0.0017784757619713045 -0.0017774085244549938
          -0.0022910705082365332 -0.0022917116284290728 -0.0022923527486216127 -0.002671509936539353 -0.002673576836985232 -0.002675643737431111
          -0.002886978390585308 -0.002889765403031172 -0.002892552415477036 -0.0029364418668048685 -0.00293985983068972 -0.002943277794574572
          -0.0028470932233809728 -0.002850737087192168 -0.002854380951003364 -0.002694670443324454 -0.0026969223473377085 -0.0026991742513509625
          -0.002160041253000175 -0.002160221210560019 -0.002160401168119863 -0.0026303146104432107 -0.002632177015575455 -0.002634039420707701
          -0.0029274172351639134 -0.0029304915886999077 -0.002933565942235902 -0.0030355886138470458 -0.003039219548667178 -0.0030428504834873094
          -0.0029704164201870787 -0.0029747123369050586 -0.0029790082536230384 -0.002767250576617619 -0.0027710874127892947 -0.0027749242489609706
          -0.002495138790977068 -0.00249663646184355 -0.002498134132710032 -0.0025578072181162326 -0.00255959039573744 -0.0025613735733586466
          -0.0029496463629306575 -0.002952858062273571 -0.0029560697616164856 -0.003131920492370627 -0.0031361047379854703 -0.003140288983600313
          -0.0031090209842143017 -0.0031135770269877 -0.0031181330697610983 -0.0029104760767278554 -0.0029153496657764576 -0.00292022325482506
          -0.0025754996505309574 -0.0025785458733782168 -0.0025815920962254765 -0.002178689270964319 -0.0021787030423301872 -0.002178716813696055
          -0.0029544065147648854 -0.002958043327021838 -0.0029616801392787907 -0.0032241640289644297 -0.003228799740183875 -0.0032334354514033208
          -0.0032551309542658176 -0.003260305530030303 -0.0032654801057947886 -0.0030737241428037227 -0.0030786970988244274 -0.0030836700548451316
          -0.002726074780868868 -0.002730449841651736 -0.002734824902434604 -0.0022695502494246987 -0.0022709439101507274 -0.0022723375708767557
          -0.0033205206581766104 -0.003326133766810456 -0.0033317468754443013 -0.0034189658882325816 -0.0034248777990077174 -0.003430789709782853
          -0.003261869954263657 -0.0032675204158738743 -0.003273170877484091 -0.002903123384267443 -0.0029076255781411747 -0.002912127772014906
          -0.0024141885083503603 -0.002417197869012148 -0.002420207229673936 -0.0024611953061818874 -0.0026296881481328617 -0.0026164600028866034
          -0.002538632947995779 -0.002462801357389106 -0.0026313286594928315 -0.0026182717971746207 -0.0025397487131905735 -0.0024644074085963244
          -0.0026329691708528004 -0.002620083591462639 -0.002540864478385368 -0.0019502362629560367 -0.0020955295097626852 -0.001898292189426563
          -0.001711045629820891 -0.0019495946243484126 -0.0020956779452327426 -0.001898948296090181 -0.0017112569140825382 -0.001948952985740789
          -0.0020958263807028007 -0.001899604402753799 -0.0017114681983441855 -0.0020079182747418617 -0.0018036083395177275 -0.0022397139070300834
          -0.002009981891813835 -0.001804518490710055 -0.0022408319557656216 -0.002012045508885809 -0.0018054286419023826 -0.0022419500045011602
          -0.0018517165768922848 -0.0018534101009296262 -0.0018551036249669674 -0.002569013928949082 -0.002483691189537727 -0.0025422120997657155
          -0.0025559684109508454 -0.002571215039422681 -0.0024856227353881972 -0.0025433436427409043 -0.002557262989296602 -0.002573416149896279
          -0.0024875542812386672 -0.0025444751857160936 -0.002558557567642359 -0.0017243893190453043 -0.0014843511299707575 -0.0017232085200874208
          -0.0014843720795467493 -0.0017220277211295368 -0.0014843930291227412 -0.002347460847878931 -0.0020433723001377305 -0.0020525660518411126
          -0.0023486418437168102 -0.0020442608743740697 -0.0020550506742247677 -0.0023498228395546893 -0.002045149448610409 -0.002057535296608423
          -0.0012399363093690986 -0.0014736911342343563 -0.0012401950015175891 -0.001472342355742112 -0.0012404536936660795 -0.0014709935772498673
          -0.0024613669196913296 -0.002097762239089018 -0.0024630671934118714 -0.002100190407624678 -0.0024647674671324127 -0.002102618576160338
          -0.0023230144790542923 -0.0023235800712564513 -0.002324145663458611 -0.002397029838796356 -0.0020939461906624352 -0.00239854996230224
          -0.002095112194946691 -0.002400070085808124 -0.0020962781992309464 -0.002591835959477485 -0.0024694854404692006 -0.0025938626095929475
          -0.002471882037149191 -0.0025958892597084094 -0.0024742786338291804 -0.002406386419754669 -0.002451728424997925 -0.0024078260290537968
          -0.0024527362887512213 -0.0024092656383529246 -0.002453744152504518 -0.0020727000997102464 -0.00227346587936413 -0.0020731901054616758
          -0.0022739766860317727 -0.0020736801112131056 -0.0022744874926994155 -0.001002006666498125 -0.0010029119590526977 -0.0010038172516072703
          -0.0006476805706226084 -0.0007870216104943255 -0.0006504320232722894 -0.0007888600580490435 -0.0006531834759219703 -0.0007906985056037613
          -0.0021670607015643836 -0.0021670452847079515 -0.0021670298678515194 -0.0005660253819122307 -0.0005693467840426456 -0.0005726681861730603
          -0.002542292846069458 -0.0025431946031251747 -0.0025440963601808925 -0.00046390515461057453 -0.00046806564562828037 -0.0004722261366459861
          -0.001227552583945159 -0.001226067353861327 -0.0012245821237774946 -0.0009874636388485865 -0.0009868686170979915 -0.0009862735953473963
          -0.0008173173361723085 -0.0008182622175743857 -0.000819207098976463 -0.0018060633358261491 -0.0018045597822174914 -0.0018030562286088332
          -0.001880695045202305 -0.0018805613139084203 -0.0018804275826145357 -0.0014140939650483801 -0.0014120902135557093 -0.001410086462063039
          -0.00348912240679421 -0.003610450088441433 -0.0034959643018861856 -0.003618089517808589 -0.003502806196978161 -0.0036257289471757458
          -0.00311881432637606 -0.003124187498684379 -0.003129560670992698 -0.002589021105606761 -0.002592246335729434 -0.0025954715658521076
          -0.002000540301198014 -0.002001846696369886 -0.0020031530915417587 -0.0014551346727819776 -0.0014539498668368572 -0.0014527650608917371
          -0.001421287811760366 -0.001422715425080412 -0.0014241430384004583 -0.0014537247041741608 -0.0014539923931377605 -0.0014542600821013602
          -0.002538163342061453 -0.00245225056819958 -0.00253893059568699 -0.002453941665155128 -0.002539697849312527 -0.002455632762110676
          -0.0015501737528366313 -0.0015439456282551368 -0.0015505923028716364 -0.0015451661071092947 -0.0015510108529066414 -0.001546386585963452
          -0.00216138517762985 -0.0023400324451417686 -0.0021615963486713878 -0.002341258688074426 -0.0021618075197129254 -0.002342484931007084
          -0.0019558236557980623 -0.0019552841002944913 -0.001954744544790921 -0.0015296513438564393 -0.0015304247748820937 -0.001531198205907748
          -0.0024892478040337124 -0.0025291591889925616 -0.0024902488813112857 -0.0025309198705749775 -0.0024912499585888594 -0.0025326805521573934
          -0.0016268714818641048 -0.0016270323213739702 -0.0016271931608838352 -0.0017750255105799676 -0.0021666803805048705 -0.001775640397497856
          -0.0021691761993335172 -0.0017762552844157447 -0.002171672018162164 -0.0014166186722736048 -0.0014167590791945468 -0.0014168994861154893
          -0.0017367423117006435 -0.0017354666598935601 -0.001734191008086477 -0.0007118464901427899 -0.0009675802998239536 -0.0007125988108007863
          -0.0009668416966912022 -0.0007133511314587826 -0.0009661030935584505 -0.0015222101027792289 -0.0015200510728961315 -0.001517892043013034
          -0.0012914310067407273 -0.0012895022759888343 -0.001287573545236941 -0.0010937327899825649 -0.0010947925024924626 -0.0010958522150023603
        </DataArray>
        <DataArray type="Float64" Name="pe33" format="ascii" RangeMin="-0.0033882756145616815" RangeMax="0">
          -0.00006335985748897046 -0.00011767264995431677 -0.00006949385787827437 -0.00013276296494522293 -0.00007562785826757828 -0.00014785327993612908
          -0.000007061801623983875 -0.000009713126611271499 -0.000006905725951839965 -0.00001003513774615964 -0.000006749650279696055 -0.000010357148881047782
          -0.0000016654737927757778 -0.0000033309475855515555 -8.327368963878889e-7 -0.0000016654737927757778 0 0
          0 0 0 0 0 0
          0 0 0 0 0 0
          -0.000010661372005052454 -0.000001996624035215399 -0.000011312091420542987 -0.000002576603878541853 -0.000011962810836033517 -0.000003156583721868307
          -0.00007987373194702798 -0.00005920091230634261 -0.0000832587380625599 -0.00006268938782199745 -0.00008664374417809183 -0.00006617786333765233
          -0.00024092005084785996 -0.00023283077077300725 -0.00024915531396775645 -0.000240755790327227 -0.0002573905770876529 -0.0002486808098814467
          -0.000004523532511812078 -0.0000031123754056629046 -0.000001701218299513731 -0.000002205238318348125 -0.0000018881570787601447 -0.0000015710758391721641
          0 0 0 0 0 0
          -0.000002214931394985736 -0.0000024941903309702373 -0.000002773449266954738 -0.00003808720079795953 -0.00003913626134637818 -0.00004018532189479683
          -0.00014364441967314282 -0.0001468324650736385 -0.00015002051047413416 -0.0003108621965904741 -0.0003191888209655732 -0.0003275154453406724
          0 0 0 0 0 0
          0 0 0 0 -2.218117015810521e-8 -4.436234031621042e-8
          -0.00001545436818935999 -0.000016277200458129242 -0.00001710003272689849 -0.00009238610256323965 -0.0000940212588222172 -0.00009565641508119474
          -0.0002454127718113915 -0.0002484155507181193 -0.00025141832962484705 -0.0004394325882681411 -0.00044715715102123545 -0.0004548817137743297
          0 0 0 0 0 0
          0 0 0 -0.0000032132224786392587 -0.0000038130520297883123 -0.000004412881580937366
          -0.000048503729496694476 -0.00005018652477029524 -0.000051869320043895995 -0.00017856188836699521 -0.00018043144174508178 -0.0001823009951231684
          -0.0003739219380229239 -0.000376886042416398 -0.00037985014680987214 -0.0005872315855644791 -0.0005945517403323918 -0.0006018718951003044
          0 0 0 0 0 0
          0 -2.01216730114289e-8 -4.02433460228578e-8 -0.000018937374037153157 -0.000020301028580476725 -0.00002166468312380029
          -0.0001098626640641421 -0.00011232394637144332 -0.00011478522867874451 -0.0002942618843987595 -0.000296096147279056 -0.0002979304101593525
          -0.0005279102920012517 -0.0005310780751428367 -0.0005342458582844218 -0.0007713414670679497 -0.0007783358375347427 -0.0007853302080015359
          0 0 0 0 0 0
          -0.000003859321221234739 -0.000004432274539878348 -0.000005005227858521956 -0.00005654425659772342 -0.00005870702548052756 -0.00006086979436333168
          -0.00020590850951246692 -0.0002085859657198756 -0.00021126342192728423 -0.0004405957008795074 -0.00044240016973313317 -0.000444204638586759
          -0.0007111798185364034 -0.0007144607602415341 -0.0007177417019466648 -0.0009898323673831842 -0.000995762608904275 -0.0010016928504253655
          0 0 0 0 0 0
          -1.1170686910138393e-8 -1.2237650976834666e-7 -2.3358233262655492e-7 -0.000022816427598509284 -0.00002428320112674688 -0.000025749974654984474
          -0.0001275447358634636 -0.00013060133976868074 -0.00013365794367389784 -0.00033787379616596663 -0.0003405547072684533 -0.00034323561837093996
          -0.0006201265713319726 -0.0006217242777085042 -0.0006233219840850358 -0.0009223689586829523 -0.0009253125394022927 -0.0009282561201216332
          -0.0012251667153462046 -0.0012294735013870632 -0.0012337802874279216 0 0 0
          0 0 0 -0.000006166744878403947 -0.000006933149861363577 -0.000007699554844323205
          -0.0000687498526128402 -0.00007125340009091446 -0.00007375694756898872 -0.0002388569694790298 -0.0002423384542865547 -0.0002458199390940796
          -0.0005072394064731746 -0.0005097330000329904 -0.000512226593592806 -0.0008327074105217752 -0.0008336750260535095 -0.0008346426415852437
          -0.0011570773714532528 -0.001159069189468857 -0.0011610610074844613 -0.0014643601596899107 -0.0014669320737059242 -0.0014695039877219381
          0 0 0 -3.3622920822780684e-7 -5.289288133703122e-7 -7.216284185128174e-7
          -0.000030048367369680918 -0.00003180281257742682 -0.00003355725778517273 -0.000151859202616296 -0.0001553532745736103 -0.0001588473465309246
          -0.00038941363789565337 -0.0003929964552050827 -0.00039657927251451224 -0.0007125864438863868 -0.0007145869279021702 -0.0007165874119179536
          -0.0010733214515545719 -0.0010732402698225177 -0.0010731590880904635 -0.001407696250072389 -0.0014081537523877323 -0.0014086112547030754
          -0.0016980461772345197 -0.0016987662120739383 -0.001699486246913357 0 0 0
          -0.000008571957302515025 -0.000009575650638849375 -0.000010579343975183724 -0.00008286614810974082 -0.00008583243338471778 -0.00008879871865969475
          -0.0002770001241117621 -0.00028094322579347465 -0.0002848863274751872 -0.0005798272123925087 -0.0005831524799543166 -0.0005864777475161245
          -0.0009495428732594997 -0.00095066970372204 -0.0009517965341845803 -0.0013301461691066828 -0.0013288341062092641 -0.0013275220433118457
          -0.001660310128044668 -0.0016590224948234435 -0.001657734861602219 -0.0019243941331422829 -0.001923035327966162 -0.0019216765227900415
          -4.7091978430425206e-7 -7.915615997280251e-7 -0.0000011122034151517982 -0.000035454776743447085 -0.00003766707095497554 -0.000039879365166504
          -0.0001749106298727943 -0.00017900595930819726 -0.0001831012887436003 -0.0004445569602439602 -0.00044858173005138044 -0.00045260649985880066
          -0.0008085417513000704 -0.0008111358298929615 -0.0008137299084858525 -0.001211703526519174 -0.0012116043398826457 -0.0012115051532461177
          -0.0015948510936609306 -0.0015921528299318332 -0.0015894545662027359 -0.0019068621702075122 -0.0019036955581595626 -0.001900528946111613
          -0.00217742511570448 -0.002173672223226104 -0.0021699193307477276 -0.000009014041918152552 -0.000010281064155745863 -0.000011548086393339172
          -0.00009163600069636717 -0.00009525134860317428 -0.00009886669650998133 -0.00031175331285921635 -0.00031636341573526425 -0.00032097351861131216
          -0.0006562636307515769 -0.0006599124872336511 -0.0006635613437157255 -0.0010709105169493538 -0.001072276518613624 -0.0010736425202778944
          -0.0014912873482255027 -0.0014896288541520332 -0.0014879703600785635 -0.0018621207143553608 -0.001857761266799913 -0.001853401819244465
          -0.0021428513705490683 -0.002137604301284342 -0.0021323572320196154 -0.0023285875231303117 -0.0023235205346987526 -0.0023184535462671945
          -0.00003570862397210219 -0.00003808640790154956 -0.00004046419183099693 -0.00018992519068747787 -0.00019479207550020063 -0.0001996589603129234
          -0.0004970576208546053 -0.0005017373725302703 -0.0005064171242059353 -0.0009108241568907535 -0.0009135043353970497 -0.0009161845139033463
          -0.001360212278251696 -0.001359835340973558 -0.0013594584036954202 -0.0017783531461515998 -0.001774791597536522 -0.0017712300489214443
          -0.0021173936968472973 -0.002111321727741595 -0.002105249758635893 -0.002348706217487494 -0.0023416419076405953 -0.0023345775977936965
          -0.0024683278650106614 -0.002461362306696065 -0.0024543967483814685 -0.00009034488560769827 -0.00009433967917580255 -0.00009833447274390679
          -0.00033909980986211675 -0.00034462089987626044 -0.00035014198989040423 -0.0007338707924143479 -0.0007380029825255228 -0.0007421351726366979
          -0.0012029523500036337 -0.0012039927254676296 -0.0012050331009316256 -0.0016660483668020302 -0.0016634552495954445 -0.0016608621323888587
          -0.0020594284171753918 -0.00205375896982569 -0.0020480895224759877 -0.0023445731371471387 -0.0023370245291017655 -0.0023294759210563927
          -0.00250666958165781 -0.0024986554993919174 -0.0024906414171260247 -0.0025524430592607015 -0.0025445980828612633 -0.002536753106461825
          -0.0005447046553461975 -0.0005503805283287324 -0.0005560564013112673 -0.0010197573141462054 -0.0010225712424941024 -0.0010253851708419996
          -0.0015234256213553748 -0.0015221401486525583 -0.001520854675949742 -0.001973830591878387 -0.001968786329350339 -0.0019637420668222904
          -0.0023185754296948034 -0.002310904126855295 -0.0023032328240157867 -0.0025317469957909615 -0.0025230204339123847 -0.0025142938720338084
          -0.002610222454502882 -0.0026021949505457267 -0.0025941674465885713 -0.002573399765042735 -0.0025658909076235947 -0.0025583820502044535
          -0.0008117957431411812 -0.0008169757237853484 -0.0008221557044295158 -0.0013482987530290234 -0.0013490411300872338 -0.0013497835071454441
          -0.0018589479792789124 -0.0018547830902180952 -0.0018506182011572786 -0.002267056876339823 -0.0022596005099092867 -0.00225214414347875
          -0.0025384274904357773 -0.0025293398015869984 -0.00252025211273822 -0.0026656548769431604 -0.00265658536040444 -0.00264751584386572
          -0.00266247882592139 -0.0026546111575286593 -0.002646743489135928 -0.002551899630180498 -0.0025439374943298024 -0.002535975358479107
          -0.0011430597995418833 -0.0011468474356580345 -0.0011506350717741854 -0.0017094374777696455 -0.0017075082259498935 -0.0017055789741301417
          -0.0021928994658125603 -0.002185656001850746 -0.0021784125378889315 -0.0025299896370098328 -0.0025203696245743538 -0.0025107496121388757
          -0.002705829799408681 -0.0026961207832517297 -0.0026864117670947797 -0.002734504148042102 -0.0027263617941638268 -0.002718219440285552
          -0.0026601654961233194 -0.0026522488555576194 -0.00264433221499192 -0.0025144708647769592 -0.0025040166883815457 -0.002493562511986133
          -0.0015330561879030899 -0.0015344177932350895 -0.0015357793985670896 -0.0020862017889669493 -0.002081413901614597 -0.0020766260142622453
          -0.002506323490105424 -0.00249624562399791 -0.0024861677578903955 -0.0027480305435742766 -0.0027367142873684167 -0.002725398031162556
          -0.002814887890614815 -0.0028050867650444415 -0.002795285639474068 -0.002740024695080387 -0.0027330774459259663 -0.0027261301967715446
          -0.0025957509136207684 -0.0025876467253371717 -0.0025795425370535746 -0.002430254791770999 -0.002417000685913832 -0.0024037465800566646
          -0.002456697285777363 -0.0024493836763579985 -0.0024420700669386345 -0.002779937043132663 -0.002767585601541593 -0.002755234159950523
          -0.0029071805675840038 -0.002894757422847006 -0.0028823342781100075 -0.0028595790019706807 -0.0028499053831731185 -0.002840231764375557
          -0.0026853647693575455 -0.0026788588200757292 -0.0026723528707939125 -0.0024671691716582787 -0.0024586859495808588 -0.0024502027275034384
          -0.002236953677032328 -0.0022242442918788945 -0.002211534906725461 -0.0027979436753049697 -0.00278874127468469 -0.0027795388740644096
          -0.002995196950064338 -0.0029812344293867424 -0.0029672719087091475 -0.0029930337220449694 -0.002980037835818732 -0.002967041949592494
          -0.002827068927854695 -0.002817726466981209 -0.0028083840061077225 -0.00255439140668935 -0.002548259032172571 -0.0025421266576557914
          -0.0022538301423118625 -0.002246151020381648 -0.002238471898451433 -0.0019304721579580623 -0.001922833756155556 -0.0019151953543530503
          -0.003085806923556093 -0.0030753761820754627 -0.0030649454405948322 -0.0031322313218585624 -0.003117375951815971 -0.0031025205817733787
          -0.0029882862511210434 -0.0029753965470536593 -0.0029625068429862747 -0.002699965923943121 -0.002691702479955383 -0.0026834390359676452
          -0.002329813181554293 -0.002325409548863131 -0.002321005916171969 -0.001952700110655437 -0.001948226000926978 -0.0019437518911985194
          -0.003293000513477441 -0.0032818568056827632 -0.0032707130978880845 -0.003167853928641414 -0.003153069837144293 -0.003138285745647171
          -0.0028741971043870704 -0.002862640646692683 -0.002851084188998296 -0.002467570351324415 -0.00246185214201051 -0.002456133932696606
          -0.0020174589863566697 -0.0020164748500067983 -0.002015490713656927 -0.0021720964366381554 -0.0024564872023514523 -0.0024991583689395543
          -0.0023602986112721733 -0.002165943487259016 -0.0024476674724444657 -0.0024907807973345774 -0.0023521002653275414 -0.002159790537879877
          -0.002438847742537478 -0.0024824032257296 -0.0023439019193829094 -0.0020425113354730446 -0.0021923917720612935 -0.001968534110012078
          -0.0017729369445664785 -0.0020351878365641026 -0.0021834819283485067 -0.001964095799132322 -0.0017701933443006338 -0.002027864337655161
          -0.00217457208463572 -0.001959657488252565 -0.001767449744034789 -0.001678666954183171 -0.0015490784508615284 -0.0019503134187775324
          -0.0016807486076664737 -0.0015502110255716111 -0.00194240519335781 -0.0016828302611497765 -0.001551343600281694 -0.001934496967938088
          -0.0015197384066655084 -0.001525670631661493 -0.0015316028566574782 -0.002501878419699964 -0.0024428323682313575 -0.002479183939241466
          -0.0024499276443357442 -0.0024937057115537514 -0.002435697307182155 -0.0024691371658432147 -0.002440440456687708 -0.0024855330034075393
          -0.0024285622461329526 -0.0024590903924449634 -0.0024309532690396716 -0.0018279189260883703 -0.0015376118973068603 -0.0018230293857184237
          -0.0015376333617340633 -0.001818139845348477 -0.0015376548261612666 -0.0020000537309684666 -0.001690266245595258 -0.0017157531989338822
          -0.001997699896774533 -0.0016915489361975945 -0.0017159480692445048 -0.0019953460625806 -0.0016928316267999309 -0.0017161429395551276
          -0.0012828057677741669 -0.0015831117678484366 -0.001286252897354387 -0.0015813453050892777 -0.001289700026934607 -0.0015795788423301192
          -0.0021694555007750814 -0.0017747666895424848 -0.0021615729251764316 -0.0017743974031143265 -0.002153690349577783 -0.0017740281166861676
          -0.0023625584705426346 -0.002353230382460745 -0.002343902294378855 -0.0021163967641490396 -0.0017507793748202081 -0.0021122167468610375
          -0.0017521804377713807 -0.002108036729573036 -0.0017535815007225532 -0.0023641961008143996 -0.002167472158705909 -0.0023549671120151566
          -0.0021597693761281327 -0.0023457381232159136 -0.0021520665935503567 -0.002372737008915623 -0.0024185883844367673 -0.0023665488172163957
          -0.0024098507126957412 -0.0023603606255171686 -0.0024011130409547156 -0.002137199066774979 -0.0022912845096807574 -0.0021316612658630846
          -0.0022844539363759044 -0.0021261234649511906 -0.0022776233630710523 -0.0010317754907038209 -0.0010388346488811246 -0.0010458938070584283
          -0.0006676558294914867 -0.0008093359926915056 -0.0006779158932637456 -0.0008189700931598079 -0.0006881759570360043 -0.0008286041936281105
          -0.0022618929223506665 -0.0022526595695834947 -0.002243426216816322 -0.0005772940516796552 -0.0005873991468142388 -0.0005975042419488223
          -0.002239679499406911 -0.002226288841014001 -0.002212898182621091 -0.0004693062723321576 -0.0004793817095644248 -0.000489457146796692
          -0.001334149049942126 -0.001336302024171322 -0.0013384549984005185 -0.001092461279015157 -0.001097789228220433 -0.001103117177425709
          -0.0009078959745827262 -0.000914952059896041 -0.000922008145209356 -0.0015752154293635309 -0.0015735697588061734 -0.001571924088248816
          -0.0015983905431103823 -0.0015982924870806266 -0.001598194431050871 -0.001228697218338878 -0.0012311043099719203 -0.0012335114016049627
          -0.003078559673089869 -0.0033882756145616815 -0.003065215463818835 -0.0033768171957327805 -0.0030518712545478006 -0.0033653587769038786
          -0.002639058660765485 -0.002630617051782877 -0.0026221754428002696 -0.0021366473933672235 -0.0021350480986854566 -0.0021334488040036896
          -0.0016461029691156098 -0.0016492584598102652 -0.0016524139505049206 -0.0012343369079096298 -0.001237963522418623 -0.0012415901369276165
          -0.001168896120945815 -0.001176669451698294 -0.001184442782450773 -0.001191891715808576 -0.0011984218004211684 -0.0012049518850337615
          -0.0024316693529093394 -0.002242566583222523 -0.002422806561005682 -0.0022376349106044465 -0.0024139437691020247 -0.00223270323798637
          -0.0012848816241915859 -0.0013037532939322713 -0.0012882118007234533 -0.0013064412666219968 -0.0012915419772553207 -0.001309129239311722
          -0.002237343316123726 -0.0023631267309391453 -0.0022320628350335422 -0.0023557340973754844 -0.002226782353943359 -0.002348341463811824
          -0.002078481571105651 -0.002074230373834069 -0.0020699791765624864 -0.0012780231430293302 -0.001282021720774394 -0.001286020298519458
          -0.0024455450589689716 -0.0024308293757621773 -0.0024359238888618327 -0.002423721828363534 -0.0024263027187546938 -0.00241661428096489
          -0.0013347933682396032 -0.0013390412120257776 -0.0013432890558119515 -0.0014980477024741914 -0.0018591606595312997 -0.0015003794095327524
          -0.0018603525303336641 -0.0015027111165913133 -0.0018615444011360286 -0.001196336326414854 -0.0012029176244180797 -0.0012094989224213054
          -0.0018968874342328358 -0.0018936136212623568 -0.0018903398082918779 -0.0007699438339472615 -0.0010876449001977636 -0.0007768272666465456
          -0.001091580068509402 -0.0007837106993458295 -0.00109551523682104 -0.0017047985043874708 -0.0017028301638176062 -0.0017008618232477414
          -0.0014803637713441977 -0.0014798496219911392 -0.0014793354726380806 -0.000899683342592615 -0.0009089224052939034 -0.0009181614679951918
        </DataArray>
        <DataArray type="Float64" Name="disp_x" format="ascii" RangeMin="0.0000018239189290479588" RangeMax="0.000030650223791316865">
          0.0000023746881260028484 0.0000024992202943000435 0.0000023692803011730377 0.000002555567768861329 0.0000023677589105950083 0.000002539101453811661
          0.000002972364714238742 0.000003031977487470894 0.0000029713018844199105 0.0000030284160173320747 0.0000029673163045374397 0.0000030225306180984606
          0.0000035207845389771345 0.0000035350949646295447 0.0000035210510942681044 0.000003532100131306433 0.000003521429932730453 0.00000353462565804991
          0.000004067783209095333 0.000004071967981238744 0.000004067716465694472 0.000004073127710213378 0.000004067845899566696 0.000004073032545879854
          0.00000461897542497226 0.000004621267633234072 0.000004619031581845187 0.000004620909202109286 0.000004618658491842051 0.000004620350884501175
          0.000005173024958844891 0.000005172984443032187 0.000005173712696479508 0.000005173285782389052 0.000005175534033968253 0.00000517406370989362
          0.00000575024449380329 0.000005730497302100267 0.000005752195149971801 0.000005732532140253876 0.00000575936693914715 0.00000573817067108545
          0.000006432229153688105 0.000006391079432949803 0.000006439910501413792 0.000006398605148625333 0.000006457898435180835 0.000006422343588134717
          0.000002362930503584536 0.0000023639750695783446 0.0000023631356691901373 0.0000029283136344623513 0.0000029277634089435888 0.0000029266426500886
          0.000003498728443502148 0.0000034985533760374424 0.000003498325393725536 0.0000040586750573744684 0.000004058606417446154 0.0000040580787848828864
          0.000004615402800927325 0.000004615877223897857 0.000004616486448719771 0.00000517696341147339 0.000005178345513055514 0.000005183257976288345
          0.000005803134593386275 0.000005806063325990188 0.0000058148863622096825 0.000006554678939204498 0.000006561950553955461 0.0000065819502447212835
          0.000002368866850018627 0.0000023685155645195526 0.0000023683033728064124 0.000002925479183339311 0.000002925349350508924 0.00000292481689904523
          0.0000034882703176646718 0.0000034881134620711876 0.0000034876748843816286 0.0000040513494874956686 0.000004051345128259948 0.0000040510797461993205
          0.000004612285092367576 0.000004613165424312416 0.0000046153182479965075 0.0000051994061543938125 0.000005202214431275843 0.000005211500431754238
          0.0000058974527859787966 0.000005901789457839987 0.000005914551992598561 0.0000067718090205207756 0.0000067785419219091504 0.00000679988782455647
          0.0000023719568011444096 0.0000023719999821596336 0.0000023718884935630306 0.000002928627310206869 0.0000029285109415042414 0.000002928265560370083
          0.000003489196706165751 0.0000034890150823731187 0.000003488417738263857 0.000004051034887963982 0.00000405136904766508 0.000004051604909755928
          0.000004616280457462776 0.000004618323628708951 0.000004624630633971664 0.000005257831054936833 0.0000052620168560676296 0.000005275669913377921
          0.000006058295580517729 0.000006063374177874289 0.000006077937979405733 0.00000705463874877503 0.000007062257725491274 0.000007084441048598442
          0.0000023758830011280304 0.000002375823978163927 0.0000023757534811039846 0.00000293386135162061 0.0000029337596814417945 0.0000029335074482942002
          0.000003493244525053514 0.000003493283226026368 0.000003492916699393162 0.000004054795982535806 0.000004055302384513398 0.0000040577955643511315
          0.000004647518093321105 0.000004651625347676415 0.000004662723782755499 0.000005368957174164376 0.000005374229321685372 0.000005391509278898788
          0.000006289832295140488 0.000006295600169726649 0.000006311869728678239 0.00000743039254710603 0.000007439034726961859 0.000007464729427612092
          0.0000023801778830874977 0.000002380131477089102 0.000002380154800818771 0.000002940566275280113 0.0000029404579622651482 0.0000029399282120753756
          0.0000035009635226784108 0.000003501486695967548 0.0000035022534340328536 0.000004066648028385312 0.000004068832008350238 0.000004075733468868503
          0.000004719849136442204 0.000004724967954951145 0.0000047405317665332665 0.0000055475499521391935 0.000005553867642559389 0.000005574036007810821
          0.000006610055437544229 0.000006616677415065669 0.000006635443031717673 0.000007926994959830149 0.000007936520053795824 0.000007964920699225515
          0.0000018239189290479588 0.0000018239312915048902 0.0000018239538875400667 0.0000023851790202913096 0.0000023850893057987448 0.000002384952601968279
          0.0000029462780845251572 0.000002946403441954758 0.000002946196067077446 0.0000035083607700667457 0.0000035094969963898932 0.0000035127877252500644
          0.00000410715804375459 0.000004111079979078602 0.000004123367344114931 0.000004848910181286961 0.000004855577238568942 0.0000048754008226139
          0.000005811766768086194 0.000005818928237211897 0.000005841812295508433 0.000007043666677764371 0.00000705101960443516 0.000007071783107805443
          0.000008556348492451738 0.000008566213176133471 0.000008595772702809867 0.000001826828516272415 0.000001826784549036214 0.0000018268516701666493
          0.0000023897914052755513 0.0000023897251967009614 0.0000023892541667213757 0.000002952354447241431 0.000002953025813964591 0.0000029541767057966295
          0.000003521559653448425 0.0000035240663256984274 0.0000035322243054524975 0.000004191196470199803 0.000004196904942744403 0.0000042144334120693046
          0.000005053825223816152 0.000005061747406166493 0.000005085220755154937 0.000006181018882606772 0.000006188917916308294 0.000006214231394768849
          0.000007609554871359175 0.000007617313987140078 0.000007639077417232351 0.000009332169870800262 0.00000934191212185616 0.000009370900033050736
          0.0000018296092971907137 0.0000018295377715807484 0.0000018293306211084725 0.0000023921943300577754 0.000002392453132842047 0.000002392625685771478
          0.000002955219994638581 0.000002956556965892776 0.0000029606991598217764 0.0000035669875129255727 0.0000035715459283161773 0.000003585501483420081
          0.000004335330156977581 0.000004342610673298089 0.000004364819552083945 0.00000535020324483559 0.000005359174982272615 0.000005386097643134296
          0.000006671627896954934 0.000006680155121771844 0.000006707165582154936 0.000008319727400579853 0.000008327454627520814 0.000008349194653563124
          0.000010262793599257938 0.000010271653892243588 0.000010297881391764005 0.0000018313569658262925 0.0000018312838761026944 0.0000018308267444634127
          0.0000023945776642348435 0.000002395278668358894 0.0000023965786145455055 0.0000029686805677652985 0.0000029718134250979873 0.0000029817707524711745
          0.0000036564368551477855 0.0000036628732293650342 0.000003682582063967968 0.000004559483832260688 0.000004568218925849673 0.000004594583309709766
          0.000005757548940821204 0.000005767337470525087 0.000005796786560655835 0.00000729567376770711 0.000007304339438905285 0.000007331913194141998
          0.00000917403253004806 0.000009181523917421017 0.000009202189311345303 0.000011336404682974825 0.0000113437669144472 0.000011365824110750333
          0.0000018315480034008663 0.0000018318444989270314 0.000001832049626991046 0.0000023947449517372382 0.0000023963005186178663 0.000002401244161707416
          0.000003015259151095395 0.0000030205128064089846 0.000003036469892188694 0.000003810112434461839 0.000003818371548735267 0.000003843504357651153
          0.000004881529695994157 0.000004891430625961533 0.0000049215137875173325 0.000006293517333716305 0.000006303621412808467 0.00000633412702182541
          0.000008065273759054071 0.000008073873823940324 0.00000809991886287769 0.000010165251080396154 0.000010171953575485 0.000010191462714284582
          0.000012533569968696459 0.000012539311149281477 0.000012557166743549766 0.0000018321371738754243 0.0000018327133834806637 0.000001834220803459168
          0.000002408022089780913 0.000002411693491283968 0.0000024227607946733164 0.0000031067377851916056 0.0000031140799747345626 0.0000031365324417787013
          0.00000404814118405806 0.000004057987660051053 0.0000040879229138435405 0.000005322240428263912 0.000005332949819102873 0.000005365439384012771
          0.000006971437450971046 0.000006981563100666131 0.000007011905747520814 0.000008988491826768535 0.00000899654998077787 0.000009021503686295037
          0.000011329131980194366 0.000011334639719820198 0.000011351015504896514 0.000013918125655293262 0.000013921982625216649 0.000013931735106821446
          0.0000018323114012315743 0.0000018340719347786266 0.0000018394841579627884 0.0000024520938509396294 0.000002457943267867548 0.0000024757726300215656
          0.0000032652433474903375 0.0000032746486200915754 0.0000033033992115638675 0.000004391914230290726 0.000004403063081999191 0.000004436930110744102
          0.000005901345215607527 0.000005912425583339898 0.000005945909605613078 0.000007807835291163316 0.000007817390528385124 0.000007846253252098197
          0.000010077298936968275 0.00001008435343323673 0.000010105553261112187 0.000012638138965620725 0.000012642306128086668 0.000012654737043787867
          0.000015389014540359888 0.00001539091342643169 0.000015396655521770755 0.0000018422328119905206 0.000001845831959007272 0.0000018573894589914037
          0.0000025409351065442045 0.000002549295740470811 0.00000257505253874753 0.000003515001340727483 0.000003526253509153486 0.0000035604073858762457
          0.000004866091308575997 0.0000048780345994346714 0.000004914321628714779 0.000006638353913661464 0.000006649211729232912 0.000006682007111554725
          0.000008814427380012779 0.000008822908826908254 0.000008848406507800392 0.000011327400116385448 0.000011332873312045983 0.000011349430327518166
          0.00001407995103167123 0.000014082355075167745 0.000014089523073658652 0.00001696220249051265 0.0000169620053590561 0.00001696028663990751
          0.000002703747333936185 0.0000027145328660856427 0.00000274776178504299 0.0000038824054780548615 0.000003895037368214767 0.0000039334012678682206
          0.0000054950250105294386 0.000005507172432713338 0.0000055439529725886784 0.000007549725269058983 0.000007559713201504824 0.000007589848700938727
          0.000009994139115231565 0.000010001004917027573 0.000010021695773060878 0.00001273182211872615 0.000012735297516733003 0.000012745481018196944
          0.0000156385819927643 0.0000156388865148043 0.000015639914989363787 0.000018590752925871535 0.000018588782408243766 0.000018582449168894173
          0.0000029714353221800395 0.0000029838777563082003 0.0000030230596533419696 0.000004397590524409023 0.000004411194008366466 0.000004452233554478402
          0.000006303157488647748 0.000006314736221135198 0.0000063496764258137885 0.000008649003960824319 0.000008657401138584237 0.000008682683048242158
          0.00001134457798929386 0.000011349382071232509 0.000011363862549891012 0.000014270876171428237 0.000014272168377819622 0.000014275891695486299
          0.000017294370725353455 0.000017292627920872924 0.000017286736287493638 0.00002027410517654248 0.00002027090180138799 0.000020258490424070066
          0.000003370371167380122 0.000003383800669459025 0.0000034271700233610438 0.000005091554530325131 0.000005105274755975499 0.00000514611660880151
          0.000007311928164984174 0.000007322102459397432 0.0000073528453347002985 0.000009944936351977232 0.000009951115854402706 0.000009969655821566055
          0.000012863654111981335 0.000012865775290140744 0.000012872211727876655 0.000015926208446876967 0.000015925506691677193 0.000015922564513267994
          0.000019004061987688663 0.000019001400487865608 0.00001899391265503854 0.000022009767990167008 0.000022003803678557744 0.000021986987232692388
          0.000003935725306647251 0.000003948841535886735 0.000003992808260872238 0.000005992147468367352 0.000006004956880200764 0.000006042481370818952
          0.000008536123427236018 0.000008544223133156407 0.000008568572274338042 0.000011438095526288919 0.000011441602407921697 0.000011452125092446917
          0.000014542936683526524 0.00001454218083154978 0.000014540132162465208 0.00001769467945186458 0.000017691822329812413 0.000017681451188256202
          0.000020766020934693443 0.000020762356292390945 0.00002075083105065908 0.00002369808322233963 0.000023690323227300782 0.00002367179422146303
          0.000007123466959818358 0.000007134356283885266 0.000007165616557756031 0.000009984228784906931 0.000009989648586028963 0.000010005777931925422
          0.000013122939041263162 0.000013123440478111233 0.000013125011399329232 0.00001636562741594926 0.000016362086527934652 0.00001635173995786523
          0.000019554369708071513 0.000019549722089271252 0.00001953339013996151 0.000022578314545349758 0.000022572617293754517 0.000022557848840128505
          0.00002540059894391251 0.000025390323390266117 0.00002536208703789375 0.000008503697639760329 0.000008511740198462989 0.00000853402432498674
          0.0000116590474080476 0.000011661271585322515 0.000011667617217659922 0.000014986912144611834 0.000014984237093390508 0.000014976339285609616
          0.000018305055868157626 0.000018298781376330965 0.000018280387510186192 0.000021462003882138465 0.00002145538060414637 0.000021432517093496163
          0.000024356434178101555 0.000024348266288699504 0.00002432688097234383 0.000026939263392488935 0.000026926834505490517 0.00002688931835718933
          0.000010144082845929943 0.00001014837726504995 0.000010159299809039706 0.000013552736423002113 0.000013551356717816279 0.000013546675978902611
          0.000017002816121531057 0.00001699679391603293 0.000016978865033532613 0.000020310939081260928 0.000020301912396481105 0.000020275125343563045
          0.000023335148138554926 0.000023326490213761057 0.00002329710115298202 0.00002598956977552343 0.00002597943669681464 0.000025953172015382495
          0.000012043807993996759 0.000012043542634058834 0.000012041001640655623 0.00001563863028802423 0.000015633320226989366 0.00001561657754049465
          0.00001911657037371072 0.000019107163044882705 0.000019079037010825758 0.000022303259064834065 0.000022291811299525164 0.0000222575009016312
          0.00002508137778855814 0.00002507099937289602 0.00002503699191821828 0.000024506504659216074 0.000021373317545930086 0.00001965432227152402
          0.00002221205909507539 0.000024497246176662713 0.00002136822157120045 0.000019651543147572076 0.000022206080657756614 0.00002446789263611608
          0.000021353730631716986 0.00001964317633935396 0.000022190390625298776 0.000012367984573766343 0.000013415631583758696 0.000011688730391359377
          0.00001068603247334831 0.000012376073512941885 0.000013422554255906915 0.000011697751516087135 0.000010696522239907837 0.000012398803981067973
          0.000013441075119670535 0.000011728409902178367 0.0000107313303964476 0.000027763278475814685 0.00002830450213421816 0.000026694008135954904
          0.00002774908536855115 0.000028290618490565385 0.000026680318786244217 0.00002770288050130017 0.000028243576666836414 0.00002663281333530754
          0.00002835471026619369 0.000028344158691798195 0.000028313159840624604 0.000017874808168448943 0.000016168385726960513 0.000018186171865446477
          0.00002027408481055868 0.00001787465290593469 0.000016170897457917934 0.000018185956686183472 0.000020270506093480055 0.000017874396801423688
          0.00001617899840598493 0.000018188246397975868 0.000020259276299181587 0.000011126937947954602 0.000009730739110956493 0.000011137711614139883
          0.00000974231871668422 0.000011168042950014917 0.000009779883469925712 0.00002569440021412069 0.000027664539880320667 0.000027606314850994522
          0.00002568505988178991 0.000027655380412383437 0.00002759679290010274 0.000025653266263932435 0.000027629451397078888 0.00002756508235515613
          0.00000889433824759236 0.000010043812485404548 0.00000890655132690916 0.000010056741858403796 0.000008945893989151833 0.000010093654081465925
          0.000025139508876021383 0.000027330219688307853 0.000025128380348997985 0.000027318628617994943 0.00002509284266874384 0.000027281021305742074
          0.000015393966149796376 0.000015397715186355388 0.00001540700809956934 0.000024647509133594574 0.000027320673101024363 0.000024639220810331515
          0.000027311898854213852 0.00002461411008104426 0.000027284376903686878 0.000022991236725102527 0.00002489838046713552 0.000022984201202178855
          0.000024888883197216418 0.000022969083165274773 0.000024860439833864553 0.000015102814206554594 0.000016130144172181124 0.00001510680823124267
          0.0000161331744390359 0.000015119450914485841 0.00001614163494842826 0.000012776942644226979 0.000014237420933432012 0.000012784240022203983
          0.000014243046895698456 0.000012809621194851565 0.000014259506970128963 0.000008225604218675869 0.000008237875311474314 0.000008277501322795167
          0.000007442039532681166 0.000007737784407876263 0.000007455272027081793 0.000007749722677472564 0.00000748987897660284 0.000007785813738020472
          0.000013901918313344991 0.00001390883122867991 0.00001392670281774108 0.000007149809479630741 0.000007162503561637678 0.000007208285538030675
          0.000025170890577975685 0.000025160825001954366 0.00002512794351314801 0.000006936472739503395 0.000006948422585741264 0.000006987838060048638
          0.000009164045018140099 0.000009179034238342413 0.000009222215860730385 0.00000847397823359526 0.000008489534517875007 0.000008539886373874564
          0.000008005603711707398 0.000008021762479602926 0.00000806981061293414 0.00002825043315664966 0.0000282379860328213 0.000028197788380694076
          0.000027404746854945842 0.000027394372400421202 0.000027366345819239217 0.00002930572854387386 0.000029294704492850434 0.00002925993269586706
          0.000017863120982045076 0.00001418346828133215 0.00001785363649709759 0.000014177985317261689 0.0000178242961408277 0.000014160312961625099
          0.0000212449004266985 0.0000212324849447505 0.000021195029983098923 0.00002418427580913733 0.000024171212807038138 0.000024131749454845433
          0.00002661480909641112 0.000026604149717512515 0.000026569174553376506 0.000028556908884645197 0.00002854758209303091 0.000028522192107322596
          0.000029860306526994395 0.000029850579918643916 0.000029823007762277412 0.00002991431817646061 0.000029906834370531482 0.000029886161711438197
          0.00001986779026282783 0.000022996729268336408 0.00001986460472502166 0.0000229892472272544 0.000019853407559680714 0.00002296612854062613
          0.000030077843257561892 0.00002983035757681161 0.000030069942312619335 0.000029822156424526598 0.00003004689852107003 0.000029799763110142043
          0.000014391132650189678 0.00001617281236699997 0.000014396248184041814 0.000016174938357592513 0.000014409813042263469 0.000016181464741814104
          0.000012756514257883486 0.000012764645937459575 0.000012789351090127103 0.00002978728577623264 0.000029778664860450903 0.000029755231197759155
          0.00001749966178699104 0.000018980634932381846 0.000017500049765725525 0.000018979447694967675 0.000017503428032516493 0.000018976587461070802
          0.000030084551643645286 0.000030077900263863694 0.000030057146392390432 0.000029539864441597347 0.000026617758896509713 0.000029534596147549517
          0.000026610715577225232 0.00002952039173084862 0.000026587521486162214 0.000029430727148931577 0.000029418785981648406 0.000029378014631026522
          0.000011389420167661982 0.000011400661122152892 0.000011434939549908995 0.000007414395675572571 0.000008208340574010932 0.000007429663314213709
          0.000008225274773372532 0.0000074775409539706335 0.000008276804899322034 0.000010297412749798813 0.000010311569490108872 0.00001035441701609525
          0.00000934937601985393 0.00000936552149643412 0.000009416635451132287 0.000030650223791316865 0.00003064211070171236 0.00003062258537424496
        </DataArray>
        <DataArray type="Float64" Name="disp_y" format="ascii" RangeMin="-0.00001940933973086744" RangeMax="0">
          -1.9793460135599984e-7 0 -2.046627751475688e-7 0 -2.205244224484411e-7 0
          -1.4065833650786988e-7 0 -1.386175467518787e-7 0 -1.3398088067030352e-7 0
          -1.425655611300108e-7 0 -1.4252180410440265e-7 0 -1.4185071971145837e-7 0
          -1.4697134779050114e-7 0 -1.46912538474234e-7 0 -1.466406381916937e-7 0
          -1.5216937394788092e-7 0 -1.5206548239070248e-7 0 -1.520902477212323e-7 0
          -1.5738571109222666e-7 0 -1.568346483709151e-7 0 -1.5531872929668918e-7 0
          -1.834011581775263e-7 0 -1.822778958649253e-7 0 -1.7835261652547507e-7 0
          -2.689838733182706e-7 0 -2.675029899802014e-7 0 -2.6404872940716274e-7 0
          -3.329329836544836e-7 -3.344423739593163e-7 -3.3491341720861117e-7 -3.0456566016898483e-7 -3.044717631254701e-7 -3.047621879546118e-7
          -2.931323900324237e-7 -2.9290035128877644e-7 -2.9226479785825913e-7 -2.978125925612747e-7 -2.9775206589205466e-7 -2.975517133596703e-7
          -3.0583487734355285e-7 -3.055576661611508e-7 -3.050500498538523e-7 -3.221477014469667e-7 -3.20892208301234e-7 -3.1743922785072836e-7
          -3.867182863452097e-7 -3.8443629909068297e-7 -3.7703121746449307e-7 -5.417178793397587e-7 -5.389863995888164e-7 -5.296041052289745e-7
          -4.5994572234419706e-7 -4.594244331389447e-7 -4.596466303730223e-7 -4.535947775526079e-7 -4.537330709126978e-7 -4.536487938159288e-7
          -4.4779961018100553e-7 -4.477393423742806e-7 -4.476405592514929e-7 -4.517304138002349e-7 -4.516524894598589e-7 -4.5165171400957435e-7
          -4.625237681461953e-7 -4.618009522631049e-7 -4.601117845532741e-7 -5.012382448332086e-7 -4.992829064930405e-7 -4.93225861824145e-7
          -6.22128391267682e-7 -6.189684664832997e-7 -6.089750966199906e-7 -8.752440421270337e-7 -8.714859608245478e-7 -8.597173996265142e-7
          -5.930028211577431e-7 -5.932179667613719e-7 -5.934675686777337e-7 -5.961616903461982e-7 -5.960992681242084e-7 -5.960861280142354e-7
          -5.98320935861964e-7 -5.983856681548396e-7 -5.9833919080067e-7 -6.055399137316534e-7 -6.050586101932222e-7 -6.044639687202704e-7
          -6.268442010151385e-7 -6.254235626014633e-7 -6.213455176287521e-7 -7.058517754996108e-7 -7.031418859786065e-7 -6.94507837383683e-7
          -9.044722840148424e-7 -9.006130565627749e-7 -8.887895864284285e-7 -0.0000012633178495887136 -0.0000012587136673034646 -0.00000124575254707446
          -7.308225802853194e-7 -7.308065066311833e-7 -7.308157930021589e-7 -7.378521983717567e-7 -7.378811745436027e-7 -7.378260983490454e-7
          -7.462839802156077e-7 -7.461715898625083e-7 -7.462782034404899e-7 -7.584508968965616e-7 -7.577792073707871e-7 -7.557990571722744e-7
          -8.046873202848335e-7 -8.025349546389658e-7 -7.958162428374609e-7 -9.472586640523586e-7 -9.436985286026282e-7 -9.327547105035859e-7
          -0.0000012394310654714408 -0.0000012348178730724854 -0.0000012208307382786117 -0.0000017135458516480626 -0.000001708302307369889 -0.0000016921718125974224
          -8.706508887064654e-7 -8.706359505683136e-7 -8.705770755491913e-7 -8.802651917201057e-7 -8.802813764147022e-7 -8.802610838891063e-7
          -8.923278853145986e-7 -8.919531620798907e-7 -8.913485408569374e-7 -9.181062913140886e-7 -9.165013210940526e-7 -9.119982014266998e-7
          -0.000001009152807966525 -0.0000010060913762235602 -9.964104691061464e-7 -0.0000012336493216193596 -0.000001229233931032866 -0.000001215757661204705
          -0.0000016369119012286682 -0.000001631525226414371 -0.0000016151903140595469 -0.0000022473468343331833 -0.000002241494857968424 -0.0000022233559181216616
          -0.0000010021012875275186 -0.0000010020732263528008 -0.0000010019471424394214 -0.0000010115329537595575 -0.0000010115310981025354 -0.0000010114348635159848
          -0.0000010234462954372493 -0.0000010233447800915747 -0.0000010234920416623406 -0.0000010388314145456317 -0.0000010378642607250852 -0.0000010354465651238257
          -0.0000010921961254933039 -0.000001089701736717793 -0.0000010817988661591216 -0.0000012519436799982425 -0.0000012478858606748457 -0.0000012353851342451435
          -0.00000157694863814258 -0.0000015716768705335904 -0.000001555489532724202 -0.0000021098216477338456 -0.0000021037540853402306 -0.000002085371483925445
          -0.000002873124603923691 -0.0000028669536809861652 -0.0000028479346806378945 -0.000001143159340469807 -0.0000011431342828727444 -0.0000011430590319596835
          -0.0000011533946060046226 -0.0000011534075092381243 -0.0000011534519248386434 -0.000001166009131599072 -0.0000011655234284668684 -0.0000011646010122581355
          -0.0000011948787636187293 -0.0000011930283631360213 -0.0000011876116003208015 -0.0000012972765671171094 -0.0000012937628940213074 -0.000001282772651318427
          -0.000001545490665921139 -0.0000015404777624277882 -0.0000015250052020076163 -0.0000019913274409038345 -0.00000198522922731389 -0.000001966522559557323
          -0.000002669175619383381 -0.000002662570227916594 -0.0000026425005091388445 -0.0000035932143266634337 -0.000003587033699881111 -0.000003567815977046468
          -0.0000012841982116082748 -0.000001284189307445788 -0.0000012840985103728294 -0.000001295259525668452 -0.0000012951547225485247 -0.0000012953052327548938
          -0.0000013110267232234033 -0.000001309913928124149 -0.0000013069796448404782 -0.00000136966677722345 -0.0000013668464017151 -0.0000013579454346602522
          -0.0000015462774861143221 -0.0000015417151691327316 -0.0000015276922193907721 -0.0000019048024499240166 -0.0000018989002492851586 -0.000001880691103454562
          -0.0000024907681288000403 -0.000002484074622697733 -0.000002463515787821692 -0.0000033245259434514595 -0.0000033178166485724986 -0.0000032969423391583906
          -0.000004407996796985542 -0.0000044018851024357626 -0.000004383300764223416 -0.0000014253009800537566 -0.0000014253343468546817 -0.000001425466600926049
          -0.0000014364317660979705 -0.000001435822519583204 -0.0000014345395989023385 -0.0000014664582284510213 -0.0000014643896851684707 -0.0000014584163296927278
          -0.000001579260285122647 -0.000001575372676965225 -0.0000015632582505948023 -0.0000018523114837066468 -0.00000184674289954065 -0.0000018294460672706117
          -0.000002344178593372972 -0.0000023375208680063307 -0.0000023170441840268613 -0.000003086960665457819 -0.0000030799868880255643 -0.0000030587621314241198
          -0.000004082908701053103 -0.000004076115479823356 -0.000004056294063487584 -0.000005314913966555375 -0.000005309423922360701 -0.000005291551589375211
          -0.0000015657189238067538 -0.0000015655525587730496 -0.0000015655644061281569 -0.0000015806454955507795 -0.0000015794066452834792 -0.0000015762188487509807
          -0.0000016436218679930515 -0.0000016405757779285846 -0.0000016309765008254423 -0.000001836226475013105 -0.0000018311844381864269 -0.000001815580995743085
          -0.000002231322713891668 -0.0000022248075779124016 -0.0000022046395791792188 -0.0000028770429102812075 -0.000002869820768746305 -0.0000028476973568237264
          -0.0000037868154467836412 -0.0000037796970704560846 -0.000003758173312013891 -0.00000494590788091278 -0.000004939464698400339 -0.0000049197738438511165
          -0.000006311973345229295 -0.000006306905737997101 -0.00000629152040368167 -0.0000017048139351655994 -0.0000017042198904752027 -0.000001702973937827162
          -0.000001735116382983597 -0.0000017329911369616602 -0.000001726748995912989 -0.0000018560892847065153 -0.0000018518106089561693 -0.0000018385222422956866
          -0.0000021553982655762345 -0.000002149226693396542 -0.0000021300219699678553 -0.0000026986097214924517 -0.0000026912909509838304 -0.00000266876116409037
          -0.0000035152489513577397 -0.0000035076997979571696 -0.000003484680019427026 -0.000004598541888200799 -0.0000045915628168730335 -0.0000045701947235783265
          -0.00000591331695580892 -0.0000059074327790945 -0.0000058892572976786895 -0.0000074231180056106905 -0.000007418913035710101 -0.000007405501905661998
          -0.0000018465635116097023 -0.0000018454094164504426 -0.000001842457245923924 -0.0000019101594402330655 -0.0000019067964230266476 -0.0000018963984929237879
          -0.000002117969229235713 -0.000002112404325399793 -0.00000209502285982746 -0.0000025543030711122633 -0.000002547065182694908 -0.0000025246546780115716
          -0.000003269026344904458 -0.0000032611372624376584 -0.0000032368876401819566 -0.0000042694664024394604 -0.000004261907314051344 -0.000004238851412750481
          -0.000005526773491319898 -0.000005520330421933359 -0.000005500784433436445 -0.0000069907424546274175 -0.000006985814948470784 -0.000006971316001260133
          -0.000008602094829685884 -0.00000859911780096011 -0.000008589637869365008 -0.0000019952821752114063 -0.0000019929499193877818 -0.000001986673853260826
          -0.0000021193688793101545 -0.000002114733883222018 -0.000002099988058779689 -0.0000024468416217014353 -0.0000024399402396358597 -0.0000024183775866992187
          -0.000003050227017121075 -0.0000030421231946092565 -0.0000030171118005713795 -0.000003956809884975353 -0.00000394866842089131 -0.0000039237326523548785
          -0.00000514759651342808 -0.000005140406781264143 -0.000005118513464624937 -0.000006570998918063327 -0.000006565475886294871 -0.000006548831621105275
          -0.000008159821023176267 -0.000008156395887379778 -0.000008145941670545174 -0.00000984231495734149 -0.000009841118917280655 -0.00000983688632288025
          -0.000002380056078689156 -0.0000023738478239755816 -0.0000023544601972432492 -0.0000028620454613057682 -0.0000028539382102896385 -0.0000028287467089060073
          -0.000003660222699097753 -0.000003651552512722822 -0.0000036248481743995955 -0.000004773064432879443 -0.000004765087539335244 -0.0000047407767651595495
          -0.000006152628868557033 -0.000006146264817271725 -0.000006126929780029267 -0.000007724063858230994 -0.000007719844837042528 -0.000007706878417862402
          -0.000009404801662765977 -0.000009402716526857137 -0.000009396886661183698 -0.000011123844525702376 -0.000011123859322770515 -0.000011125053251893593
          -0.0000027094232267507114 -0.000002701571911243228 -0.0000026770936623851555 -0.0000033834274476515265 -0.0000033743295008576546 -0.0000033462007114351343
          -0.000004399905123570293 -0.000004391062437098679 -0.000004363917372734479 -0.000005723997057048506 -0.000005716633955067753 -0.000005694270018794409
          -0.000007280487646688103 -0.000007275366305979615 -0.000007259976158294332 -0.000008974768076346496 -0.000008972087009489684 -0.000008964098641007029
          -0.00001071105139593959 -0.000010710597362606582 -0.000010708703795785858 -0.000012416767767571686 -0.000012417776793179356 -0.000012420321911828021
          -0.0000031309056510558964 -0.0000031214176247662407 -0.000003091907945751195 -0.000004031640305837922 -0.000004021890235909151 -0.000003991895904035807
          -0.000005281750850730186 -0.000005273201369384426 -0.000005247109219682306 -0.000006810655021060706 -0.000006804325185261635 -0.000006785103032826543
          -0.000008520263731144853 -0.000008516645426770903 -0.000008505858006794672 -0.000010304130254720103 -0.000010303164203597926 -0.000010300649435185266
          -0.00001206298230233603 -0.000012063936823520078 -0.000012067758103662794 -0.000013724397583377056 -0.000013726649599038359 -0.000013730628323996913
          -0.000003672640201521039 -0.0000036618388017787204 -0.000003628328223544844 -0.000004826985473360582 -0.000004817068730924767 -0.0000047869117668567946
          -0.000006313797443979492 -0.000006306071761427085 -0.000006282600218055137 -0.000008029070751305162 -0.000008024135273367392 -0.00000800919235894425
          -0.000009857666293163301 -0.000009855674473886233 -0.000009849752329915263 -0.000011689491036818399 -0.000011690278910330722 -0.000011692532197669068
          -0.000013433734515739569 -0.00001343639396767039 -0.000013444786992604664 -0.00001503183761162601 -0.000015036324929650064 -0.000015048006066485725
          -0.0000057862230043122254 -0.000005776748723613172 -0.0000057482272515649245 -0.000007498698559557975 -0.000007492284116147712 -0.000007472899082190863
          -0.000009369870815969882 -0.000009366702198100003 -0.00000935709822757581 -0.000011275109134815078 -0.000011275007187169779 -0.000011274666617048958
          -0.000013108845118946449 -0.000013111542379626841 -0.000013118944730385983 -0.000014794107959990793 -0.000014798884131174718 -0.000014812602042383038
          -0.000016292141851382876 -0.00001629939391874132 -0.000016319413346525946 -0.00000692085747546608 -0.000006912442198391099 -0.000006887314029121601
          -0.000008832609671337006 -0.000008828027346764736 -0.000008814141892355921 -0.000010816579817762206 -0.000010815615634945943 -0.000010812552648570062
          -0.000012747645480928273 -0.000012749911709777346 -0.000012756484013605277 -0.000014531434932047815 -0.000014536424892030926 -0.000014550972077146033
          -0.000016106907372803136 -0.000016113971017746447 -0.00001613556194541749 -0.00001743848113215366 -0.000017447170117137405 -0.000017474326525578432
          -0.00000823594937303057 -0.000008229312254508292 -0.000008209566964179532 -0.000010302985623179012 -0.000010300821152233834 -0.000010294120759242892
          -0.000012342133669178778 -0.000012343884018316911 -0.00001234890350385771 -0.000014236840891404648 -0.00001424187474497368 -0.000014256775892259511
          -0.000015909377592108462 -0.00001591681191127213 -0.000015939288056454298 -0.000017315072735210893 -0.000017324005235534962 -0.00001735132954558665
          -0.000009726543814114994 -0.000009722489391631842 -0.000009710437633861259 -0.000011884563380961408 -0.00001188539481610869 -0.000011887825636739855
          -0.000013904746366468774 -0.000013909584969333491 -0.000013924105687430244 -0.00001568884934923559 -0.000015696629932120772 -0.000015720179424164323
          -0.000017183281802468027 -0.000017192664680824914 -0.00001722149946708017 -0.000014616825866554316 -0.000012770870356577428 -0.000011456223418144445
          -0.00001295506507102696 -0.000014621536027863624 -0.000012772741717333449 -0.000011456811403197038 -0.000012957706704044749 -0.000014633230708517588
          -0.000012777721265753535 -0.000011459241049430497 -0.000012966249674655426 -0.000005087902190082229 -0.000006068248763465277 -0.000005138165119188607
          -0.000004243843848058836 -0.000005083283876434974 -0.000006064636230011824 -0.0000051330852179617365 -0.000004238272756847149 -0.00000506899679158848
          -0.0000060535376801422076 -0.000005117931802678945 -0.0000042212198368335235 -0.00001722688947195796 -0.000017982556312106056 -0.000016861620665423065
          -0.00001723435881906163 -0.000017991264334271012 -0.000016868588264344126 -0.00001725719023518383 -0.000018021520916213596 -0.00001689332458606772
          -0.000017489646637382225 -0.000017496478970110108 -0.000017520903026459194 -0.000010102001938078276 -0.000008809376471417307 -0.000009975886943823277
          -0.000011496366273837426 -0.000010101137286441535 -0.000008807375778384376 -0.000009975295057647775 -0.00001149755657758486 -0.000010098832969718382
          -0.000008799686177646756 -0.000009973740354920026 -0.00001150170048355907 -0.000003983504167992639 -0.000003375432115021372 -0.000003978591065023432
          -0.0000033695095008972267 -0.0000039631358856701545 -0.000003351222530034173 -0.000015188634652577491 -0.000016453201561109562 -0.000016610234662007208
          -0.000015192943405971837 -0.000016458795849928477 -0.000016616121245538798 -0.000015209855241851014 -0.000016476847138608387 -0.000016632930108143163
          -0.0000025879226597849712 -0.000003017650116941848 -0.000002582040807927591 -0.0000030126537853965083 -0.00000256367095082134 -0.0000029971902566114833
          -0.000015525074503024458 -0.000016682332786834985 -0.000015531496238235603 -0.000016688735145353992 -0.00001554942172871027 -0.00001671410414539291
          -0.0000076102346973610465 -0.00000760757177088793 -0.0000076009334743443295 -0.00001439370510045711 -0.000016014303840850323 -0.000014398354261456398
          -0.00001601997089391822 -0.000014411648645312899 -0.000016040092195389763 -0.000014027383982996801 -0.00001509101685613432 -0.000014030637898718344
          -0.000015096764910974042 -0.000014039466253886173 -0.00001511321346179194 -0.000007978309786201363 -0.000008479680126244086 -0.00000797518078232835
          -0.00000847738649551757 -0.000007966166882875472 -0.000008471453973155589 -0.000006040078081975424 -0.000007135927885340425 -0.00000603589330533015
          -0.000007132471543976425 -0.000006022909860887048 -0.000007122796168264433 -0.0000019230014224024003 -0.0000019177745097154822 -0.0000019004922511611753
          -9.681041049179734e-7 -0.0000013903142839350307 -9.646424202148408e-7 -0.0000013859458647932325 -9.54634725044211e-7 -0.000001371616804116468
          -0.000006593476009494244 -0.000006590287612916429 -0.000006582111212233994 -5.869654890600462e-7 -5.859359856026836e-7 -5.787621706463444e-7
          -0.00001582755040667619 -0.000015833790849632593 -0.000015851981139069686 -3.068785583678608e-7 -3.059715120310223e-7 -3.049603512682805e-7
          -0.000002197310875918402 -0.000002192742480048784 -0.0000021776654543119285 -0.000001479721988848221 -0.000001477598766027916 -0.0000014672574095810253
          -0.0000011104551884057073 -0.0000011076352031416518 -0.0000011052216869061219 -0.00001842649189689118 -0.000018435824470080327 -0.00001846508250304175
          -0.00001836920058892855 -0.00001837874755898002 -0.000018408375310813817 -0.00001924935770678675 -0.000019257875230144763 -0.00001928527480446842
          -0.000013534724009709977 -0.00001137208933462406 -0.000013539038165511394 -0.000011371468241889669 -0.000013552281002854263 -0.00001136968367553856
          -0.00001544665059337873 -0.00001545462546130143 -0.000015479039590559992 -0.00001704077369719927 -0.000017050730224764527 -0.000017081495899093698
          -0.000018299070479547066 -0.00001830926076999919 -0.0000183410699089835 -0.000019241109379987087 -0.000019250225314980243 -0.00001927867276193586
          -0.000018635777143123058 -0.000018642805257218174 -0.00001866336847743437 -0.000018423160681699137 -0.00001843023660094911 -0.000018450503536051195
          -0.000010825034037068544 -0.000013050267790767531 -0.00001082600102188437 -0.000013053389521396356 -0.00001082916755837807 -0.000013062354629942644
          -0.000017897693011091734 -0.000017938764705329536 -0.000017903470607650134 -0.000017944989819048237 -0.000017918614395998965 -0.000017963269666629678
          -0.000006112264365468208 -0.000007718534566698747 -0.000006109585770222313 -0.000007716599597967889 -0.000006101359848920102 -0.000007710351327824643
          -0.000004714644395883425 -0.000004711663782254066 -0.00000470304383350064 -0.000018124632137250708 -0.00001813213974259155 -0.000018153087992697283
          -0.000009119352249633376 -0.000009777686048987645 -0.00000911911892422284 -0.00000977865598619066 -0.000009115477473844207 -0.000009781036779736153
          -0.00001767282425991872 -0.000017679211599138264 -0.00001769548511916508 -0.000017067799512879893 -0.000015341788499232467 -0.000017074745740659603
          -0.000015347503308120303 -0.00001709868146178171 -0.00001536268085669795 -0.000018864087868765016 -0.000018872238434476662 -0.000018897427964651407
          -0.000003515461452274807 -0.0000035125180548089536 -0.000003503176538407668 0 -8.422125654466593e-7 0
          -8.39918929074815e-7 0 -8.345722520168673e-7 -0.000002524641178273201 -0.000002522036131410321 -0.000002514986915994772
          -0.0000016769540663155837 -0.0000016745754048063988 -0.0000016703375159773618 -0.00001938511033572895 -0.000019391219355389092 -0.00001940933973086744
        </DataArray>
        <DataArray type="Float64" Name="disp_z" format="ascii" RangeMin="-0.0000011396508448616304" RangeMax="0">
          0 0 -6.98606152417879e-8 -9.136850961091555e-8 -1.2612248509904434e-7 -2.445109319109022e-7
          0 0 -5.618982032266281e-8 -4.8699752761359184e-8 -1.1657079087453264e-7 -7.173947370932998e-8
          0 0 -5.5592231332660044e-8 -5.3865694622731326e-8 -1.1081076299299569e-7 -1.1492031172208111e-7
          0 0 -5.641622960710553e-8 -5.6452176628350035e-8 -1.1286056709076764e-7 -1.1101215319724421e-7
          0 0 -5.5975911271225613e-8 -5.609985091330785e-8 -1.122065361660655e-7 -1.1281180656934491e-7
          0 0 -5.537794682108919e-8 -5.4025630635818073e-8 -1.1119529115232435e-7 -1.0805774960689411e-7
          0 0 -6.409240539301285e-8 -5.975109013241203e-8 -1.2971041825440896e-7 -1.2185257140166848e-7
          0 0 -8.497511447052541e-8 -8.129730659693013e-8 -1.7491246793174003e-7 -1.6634473304200382e-7
          0 -5.8997359523673495e-8 -1.2308020059218604e-7 0 -5.878113238279417e-8 -1.1587793582656932e-7
          0 -5.748741372569269e-8 -1.15308641337033e-7 0 -5.68980361126069e-8 -1.1378808484851601e-7
          0 -5.556817903311e-8 -1.1150510793315223e-7 0 -5.945989052602113e-8 -1.191455010395925e-7
          0 -7.530859393144232e-8 -1.526177728920263e-7 0 -9.625985136958683e-8 -1.9535553422266593e-7
          0 -6.026690890917759e-8 -1.1939321211608601e-7 0 -5.848219449124776e-8 -1.1736500582935468e-7
          0 -5.783683470387544e-8 -1.1553961694864045e-7 0 -5.692688292895098e-8 -1.1409809333907939e-7
          0 -5.6708530823779786e-8 -1.1427395472973455e-7 0 -6.752160071644508e-8 -1.3577708465554222e-7
          0 -9.234649148271343e-8 -1.8641557341148366e-7 0 -1.2048031451406936e-7 -2.429251121748764e-7
          0 -5.9052203559672864e-8 -1.1831053232026031e-7 0 -5.874913545398393e-8 -1.173236539218656e-7
          0 -5.8151030368100626e-8 -1.1643716692029682e-7 0 -5.637598294163886e-8 -1.1305633307420737e-7
          0 -6.071705867132421e-8 -1.2265650714333097e-7 0 -8.196916956906131e-8 -1.6468882665236702e-7
          0 -1.1318780969563394e-7 -2.2788414142089876e-7 0 -1.4135323126804111e-7 -2.842936065847796e-7
          0 -5.895483537193611e-8 -1.1786000318893767e-7 0 -5.871914865619978e-8 -1.1746108258324492e-7
          0 -5.791419605748485e-8 -1.1592355875684457e-7 0 -5.7687771336996614e-8 -1.1659570470275129e-7
          0 -7.042983061512542e-8 -1.4258243344946986e-7 0 -1.0072001256223499e-7 -2.0172815597369288e-7
          0 -1.369780858480251e-7 -2.7565175794374964e-7 0 -1.676635938471603e-7 -3.372848729544202e-7
          0 -5.90748703059511e-8 -1.1806745582128622e-7 0 -5.892007937331825e-8 -1.1798359521973118e-7
          0 -5.716902042164507e-8 -1.1471181696984917e-7 0 -6.26625120435718e-8 -1.2637810044577352e-7
          0 -8.62261252982329e-8 -1.7428085838172925e-7 0 -1.23519836276495e-7 -2.4719737665283344e-7
          0 -1.6509082037399775e-7 -3.319377599105987e-7 0 -2.0051654138644525e-7 -4.0276104351872347e-7
          0 -5.920506017009084e-8 -1.1838999506189309e-7 0 -5.919645858638582e-8 -1.1833388166470012e-7
          0 -5.8546536777851524e-8 -1.1745418127499496e-7 0 -5.8772274222146586e-8 -1.1844217770601118e-7
          0 -7.375959789834761e-8 -1.492995347893575e-7 0 -1.0730357362330734e-7 -2.161215541714308e-7
          0 -1.5141240873045816e-7 -3.0289583482939033e-7 0 -1.9737408847117526e-7 -3.9632635818471393e-7
          0 -2.3607433878115904e-7 -4.7347049219480355e-7 0 -5.938574909537832e-8 -1.1866090365222029e-7
          0 -5.9384271020773676e-8 -1.189823087897673e-7 0 -5.773927521207821e-8 -1.1588863465848465e-7
          0 -6.48523750129463e-8 -1.3093390814205053e-7 0 -9.189999413039343e-8 -1.85814862024723e-7
          0 -1.336832102145602e-7 -2.685456409176853e-7 0 -1.8431800024367308e-7 -3.685003521409251e-7
          0 -2.3351014080994443e-7 -4.6820359460933113e-7 0 -2.725208720604741e-7 -5.459212957257099e-7
          0 -5.952899042075484e-8 -1.1908493936894237e-7 0 -5.8708778002755857e-8 -1.1767339705921038e-7
          0 -6.037337266314349e-8 -1.218653799260477e-7 0 -7.796825318740591e-8 -1.5792578133936654e-7
          0 -1.1541260335922185e-7 -2.3245351306006406e-7 0 -1.6561337782273613e-7 -3.322716590689083e-7
          0 -2.216787456445753e-7 -4.4275185752890016e-7 0 -2.7264414540994334e-7 -5.456200659055619e-7
          0 -3.0896300120030975e-7 -6.184284522070089e-7 0 -5.966878511578119e-8 -1.194975423314683e-7
          0 -5.801515372729721e-8 -1.1680939670985259e-7 0 -6.724016598457372e-8 -1.3596552212537763e-7
          0 -9.796289911218288e-8 -1.9797906974363793e-7 0 -1.4508475207261881e-7 -2.9161246544435713e-7
          0 -2.0225907469975712e-7 -4.051082643706639e-7 0 -2.6141597531875896e-7 -5.218377324146954e-7
          0 -3.120309884868302e-7 -6.24088452645615e-7 0 -3.434777360843348e-7 -6.862427982989639e-7
          0 -5.883673390383589e-8 -1.1794355091381564e-7 0 -6.120604632211441e-8 -1.2363615250361618e-7
          0 -8.1529167090389e-8 -1.6535630521923204e-7 0 -1.240105696555769e-7 -2.498126471689641e-7
          0 -1.8078325002604255e-7 -3.626660783350729e-7 0 -2.4299543213328147e-7 -4.859729378844129e-7
          0 -3.0109965168617305e-7 -6.010123619894539e-7 0 -3.459083953830281e-7 -6.906424104411848e-7
          0 -3.7985013547165554e-7 -7.589720701215297e-7 0 -5.8527353406409e-8 -1.1774348918271694e-7
          0 -6.842680881451026e-8 -1.3905611008845435e-7 0 -1.0313092176763106e-7 -2.0847459172362633e-7
          0 -1.5710747277764207e-7 -3.1579789870829986e-7 0 -2.2142478807016129e-7 -4.433839475686719e-7
          0 -2.8563134231732437e-7 -5.707179481763366e-7 0 -3.417267471507892e-7 -6.817543085947422e-7
          0 -3.8563642764140253e-7 -7.69558595071288e-7 0 -4.06856394571934e-7 -8.121010320593048e-7
          0 -6.136690058240871e-8 -1.2417459575749815e-7 0 -8.352398574719315e-8 -1.6952432295404964e-7
          0 -1.3201546304224923e-7 -2.6620653392687784e-7 0 -1.9683906576802452e-7 -3.9476624359410966e-7
          0 -2.6602921422601805e-7 -5.319225480948222e-7 0 -3.2958175706332073e-7 -6.578901850569751e-7
          0 -3.809169928985667e-7 -7.596783795228381e-7 0 -4.143528536879349e-7 -8.260839183475713e-7
          0 -4.31380921248034e-7 -8.606914352131243e-7 0 -6.801790806478352e-8 -1.3787456485553386e-7
          0 -1.0711042522722383e-7 -2.1717387139127916e-7 0 -1.6933218438585834e-7 -3.4035861774608724e-7
          0 -2.421348802550347e-7 -4.847013602586186e-7 0 -3.131213608081779e-7 -6.252642520534489e-7
          0 -3.725090602174694e-7 -7.43018355654866e-7 0 -4.1481806523033745e-7 -8.270451613873595e-7
          0 -4.3903124600502127e-7 -8.753625539654124e-7 0 -4.4394202515000824e-7 -8.849862362449768e-7
          0 -1.3978958005649707e-7 -2.821603269195849e-7 0 -2.1419104573421323e-7 -4.2948966165893727e-7
          0 -2.9176150860675223e-7 -5.830392929262404e-7 0 -3.602521742782915e-7 -7.186814385091978e-7
          0 -4.1204128851544574e-7 -8.213619505158916e-7 0 -4.4300151828338047e-7 -8.830038394343818e-7
          0 -4.5269593894198545e-7 -9.026959576314132e-7 0 -4.4736163108698477e-7 -8.930100810176543e-7
          0 -1.8098332880962522e-7 -3.6465870067362485e-7 0 -2.6547439047889543e-7 -5.311050801548447e-7
          0 -3.4359854250344974e-7 -6.856110403524287e-7 0 -4.047821240878161e-7 -8.069707729977235e-7
          0 -4.4492761970547896e-7 -8.867164772460994e-7 0 -4.632269311089508e-7 -9.232470570036333e-7
          0 -4.59771235508892e-7 -9.16760076954711e-7 0 -4.36959483542683e-7 -8.725351175924111e-7
          0 -2.3247644343381276e-7 -4.675618785164938e-7 0 -3.216339565955026e-7 -6.421868795191649e-7
          0 -3.948125977028903e-7 -7.869791792453763e-7 0 -4.445255690984642e-7 -8.85744541067672e-7
          0 -4.692333863330808e-7 -9.351073832932815e-7 0 -4.7095667708289164e-7 -9.394734054938581e-7
          0 -4.5788201247942463e-7 -9.135564826887492e-7 0 -4.413892366348056e-7 -8.793346286044885e-7
          0 -2.92832691246232e-7 -5.877421022563402e-7 0 -3.7962942675805907e-7 -7.569938510620643e-7
          0 -4.423064416083827e-7 -8.810476214371692e-7 0 -4.770350315631099e-7 -9.502444434870931e-7
          0 -4.847389838719528e-7 -9.66048872321169e-7 0 -4.694833034980474e-7 -9.372425163415233e-7
          0 -4.420383396811398e-7 -8.820466736013238e-7 0 -4.245854293820569e-7 -8.436576179671922e-7
          0 -4.356665583888712e-7 -8.681082855319653e-7 0 -4.831834639736818e-7 -9.620777411901808e-7
          0 -5.001448151949243e-7 -9.96160945663848e-7 0 -4.902180170866467e-7 -9.770651740176033e-7
          0 -4.601215305890881e-7 -9.189835172072906e-7 0 -4.2478940647922874e-7 -8.468156816536717e-7
          0 -4.0317766081194924e-7 -8.013719128070127e-7 0 -4.866470134378157e-7 -9.694416858590823e-7
          0 -5.147836997451909e-7 -0.0000010247603141005326 0 -5.120025344103443e-7 -0.000001019743544830455
          0 -4.844962384623154e-7 -9.656895150998829e-7 0 -4.404211958115571e-7 -8.796691333902732e-7
          0 -3.923510737297257e-7 -7.810304397900115e-7 0 -3.540906568834376e-7 -7.048611971391026e-7
          0 -5.290321911709042e-7 -0.0000010538346253499477 0 -5.344711055667209e-7 -0.0000010637876655840482
          0 -5.103104640582114e-7 -0.000001016322428116995 0 -4.6430934839855904e-7 -9.255597301028855e-7
          0 -4.048088488314406e-7 -8.089307098872986e-7 0 -3.450868456789065e-7 -6.873137490797694e-7
          0 -5.59043980841861e-7 -0.0000011137348626942401 0 -5.386775870672698e-7 -0.0000010721169170228427
          0 -4.91672235706011e-7 -9.793910086692309e-7 0 -4.2709124817694923e-7 -8.519403955273342e-7
          0 -3.548090622638e-7 -7.100171750274873e-7 0 0 0
          0 -3.874413922429123e-7 -4.2848718494166256e-7 -4.324035566184671e-7 -4.1400908174609414e-7 -7.717476668153127e-7
          -8.53885768822064e-7 -8.621742286743931e-7 -8.254494250787819e-7 0 0 0
          0 -3.715930911928788e-7 -3.9599864259756565e-7 -3.5721523574154446e-7 -3.2795289760962713e-7 -7.395560385146018e-7
          -7.879865498934486e-7 -7.132674468967016e-7 -6.552002696629941e-7 0 0 0
          -2.9518299651032246e-7 -2.7894041027675265e-7 -3.5497283527041005e-7 -5.931617778912394e-7 -5.592145535265074e-7 -7.049136305151638e-7
          0 -2.629291125039567e-7 -5.284105827343164e-7 0 0 0
          0 -4.3788776414868314e-7 -4.233286143972946e-7 -4.351007615212674e-7 -4.315220435946167e-7 -8.730597119134174e-7
          -8.449107118492295e-7 -8.661527810416001e-7 -8.591140487117331e-7 0 0 -3.3530198725785525e-7
          -2.909550747334608e-7 -6.679995680881498e-7 -5.826230106737576e-7 0 0 0
          -3.500874063910989e-7 -2.962257215017178e-7 -3.027768379516572e-7 -7.00793180775009e-7 -5.932342679771174e-7 -6.056315934008875e-7
          0 0 -2.5046620751491074e-7 -2.9658738379573173e-7 -5.031419996779969e-7 -5.914148427292031e-7
          0 0 -3.896831654805048e-7 -3.187495337588505e-7 -7.755109600861731e-7 -6.381273938386217e-7
          0 -4.1291670068300667e-7 -8.220596396203536e-7 0 0 -3.767479185747975e-7
          -3.136287533448612e-7 -7.51414093686348e-7 -6.277974206675203e-7 0 0 -4.118048216421409e-7
          -4.000774596468869e-7 -8.188709313109424e-7 -7.98157568444079e-7 0 0 -4.1167579315047046e-7
          -4.2160266114647543e-7 -8.211200377338843e-7 -8.400357152550321e-7 0 0 -3.8101589501156803e-7
          -4.0687657721286396e-7 -7.606040135481414e-7 -8.120351103626309e-7 0 -2.1036586164328133e-7 -4.2508743285213103e-7
          0 0 -1.558200893785574e-7 -1.744662298611457e-7 -3.1879378966924194e-7 -3.542251674966969e-7
          0 -4.02252723912739e-7 -8.010561304410433e-7 0 -1.37632842983722e-7 -2.8176349500539526e-7
          0 -4.029123464613572e-7 -8.010016917903508e-7 0 -1.1262823227297114e-7 -2.2469293224539254e-7
          0 -2.5769838580002945e-7 -5.152060182392049e-7 0 -2.1711318679456514e-7 -4.3629099387827893e-7
          0 -1.8509708417775343e-7 -3.662724788383438e-7 0 -2.968128973761722e-7 -5.936837114994537e-7
          0 -2.8880695044207793e-7 -5.765877755026749e-7 0 -2.392822038856052e-7 -4.800546894208636e-7
          0 0 -5.23468878002622e-7 -5.720396466612405e-7 -0.0000010420024542290745 -0.0000011396508448616304
          0 -4.536273403549556e-7 -9.042063414196901e-7 0 -3.735956414745882e-7 -7.463992498140442e-7
          0 -2.9505549113581755e-7 -5.920250221968274e-7 0 -2.316644634003995e-7 -4.639285664819675e-7
          0 -2.1685690747722138e-7 -4.379560484399963e-7 0 -2.262963182258473e-7 -4.546551070431066e-7
          0 0 -4.349822549129122e-7 -3.94499012528167e-7 -8.66822230103278e-7 -7.871188364822637e-7
          0 0 -2.458231474819429e-7 -2.451406216392231e-7 -4.928151383805089e-7 -4.903905580836039e-7
          0 0 -3.9433557749626355e-7 -4.164242974420596e-7 -7.875626938424396e-7 -8.30808357331034e-7
          0 -3.7282284938816506e-7 -7.442965827182402e-7 0 -2.390189951528317e-7 -4.79538805653613e-7
          0 0 -4.260436215936904e-7 -4.2727386583581614e-7 -8.486068568950011e-7 -8.516754188316667e-7
          0 -2.3853822759486334e-7 -4.789425366008978e-7 0 0 -2.6745169910000336e-7
          -3.324463789466349e-7 -5.359720328915421e-7 -6.66215226715875e-7 0 -2.1814617062730139e-7 -4.3857076507427607e-7
          0 -3.4496131334953877e-7 -6.891108664514225e-7 0 0 -1.719700331996669e-7
          -2.3439216207503e-7 -3.4835210443288574e-7 -4.7078277915974004e-7 0 -3.1684187365536516e-7 -6.330964470735173e-7
          0 -2.917788160396555e-7 -5.84283027122245e-7 0 -1.7942592193613537e-7 -3.6284394508325365e-7
        </DataArray>
      </PointData>
      <CellData>
        <DataArray type="Int32" Name="libmesh_elem_id" format="ascii" RangeMin="776" RangeMax="3207">
          776 777 778 779 780 781
          782 783 784 785 786 787
          788 789 794 795 796 797
          798 799 800 801 802 803
          804 805 806 807 812 813
          814 815 816 817 818 819
          820 821 822 823 824 825
          830 831 832 833 834 835
          836 837 838 839 840 841
          842 843 848 849 850 851
          852 853 854 855 856 857
          858 859 860 861 866 867
          868 869 870 871 872 873
          874 875 876 877 878 879
          884 885 886 887 888 889
          890 891 892 893 894 895
          896 897 900 901 902 903
          904 905 906 907 908 909
          910 911 912 913 914 915
          918 919 920 921 922 923
          924 925 926 927 928 929
          930 931 932 933 936 937
          938 939 940 941 942 943
          944 945 946 947 948 949
          950 951 954 955 956 957
          958 959 960 961 962 963
          964 965 966 967 968 969
          972 973 974 975 976 977
          978 979 980 981 982 983
          984 985 986 987 990 991
          992 993 994 995 996 997
          998 999 1000 1001 1002 1003
          1004 1005 1008 1009 1010 1011
          1012 1013 1014 1015 1016 1017
          1018 1019 1020 1021 1022 1023
          1028 1029 1030 1031 1032 1033
          1034 1035 1036 1037 1038 1039
          1040 1041 1046 1047 1048 1049
          1050 1051 1052 1053 1054 1055
          1056 1057 1058 1059 1064 1065
          1066 1067 1068 1069 1070 1071
          1072 1073 1074 1075 1076 1077
          1082 1083 1084 1085 1086 1087
          1088 1089 1090 1091 1092 1093
          1094 1095 1102 1103 1104 1105
          1106 1107 1108 1109 1110 1111
          1112 1113 1120 1121 1122 1123
          1124 1125 1126 1127 1128 1129
          1130 1131 1138 1139 1140 1141
          1142 1143 1144 1145 1146 1147
          1148 1149 1156 1157 1158 1159
          1160 1161 1162 1163 1164 1165
          1166 1167 1174 1175 1176 1177
          1178 1179 1180 1181 1182 1183
          1374 1375 1376 1377 1378 1379
          1384 1385 1388 1389 1404 1405
          1458 1459 1536 1537 1542 1543
          1624 1625 1648 1649 1658 1659
          1672 1673 1770 1771 1810 1811
          1818 1819 1828 1829 1830 1831
          1866 1867 2074 2075 2078 2079
          2116 2117 2124 2125 2288 2289
          2290 2291 2336 2337 2342 2343
          2348 2349 2352 2353 2356 2357
          2358 2359 2424 2425 2452 2453
          2464 2465 2496 2497 2526 2527
          2530 2531 2532 2533 2554 2555
          2560 2561 2590 2591 2594 2595
          2622 2623 2736 2737 2740 2741
          2762 2763 2768 2769 2794 2795
          2800 2801 2864 2865 2890 2891
          2904 2905 2920 2921 2956 2957
          2986 2987 3018 3019 3036 3037
          3088 3089 3114 3115 3144 3145
          3156 3157 3176 3177 3184 3185
          3190 3191 3206 3207
        </DataArray>
        <DataArray type="Int32" Name="subdomain_id" format="ascii" RangeMin="105" RangeMax="107">
          105 105 105 105 105 105
          105 105 105 105 105 105
          105 105 105 105 105 105
          105 105 105 105 105 105
          105 105 105 105 105 105
          105 105 105 105 105 105
          105 105 105 105 105 105
          105 105 105 105 105 105
          105 105 105 105 105 105
          105 105 105 105 105 105
          105 105 105 105 105 105
          105 105 105 105 105 105
          105 105 105 105 105 105
          105 105 105 105 105 105
          105 105 105 105 105 105
          105 105 105 105 105 105
          105 105 105 105 105 105
          105 105 105 105 105 105
          105 105 105 105 105 105
          105 105 105 105 105 105
          105 105 105 105 105 105
          105 105 105 105 105 105
          105 105 105 105 105 105
          105 105 105 105 105 105
          105 105 105 105 105 105
          105 105 105 105 105 105
          105 105 105 105 105 105
          105 105 105 105 105 105
          105 105 105 105 105 105
          105 105 105 105 105 105
          105 105 105 105 105 105
          105 105 105 105 105 105
          105 105 105 105 105 105
          105 105 105 105 105 105
          105 105 105 105 105 105
          105 105 105 105 105 105
          105 105 105 105 105 105
          105 105 105 105 105 105
          105 105 105 105 105 105
          105 105 105 105 105 105
          105 105 105 105 105 105
          105 105 105 105 105 105
          105 105 105 105 105 105
          105 105 105 105 105 105
          105 105 105 105 105 105
          105 105 105 105 105 105
          105 105 105 105 105 105
          105 105 105 105 105 105
          105 105 105 105 105 105
          105 105 105 105 105 105
          105 105 105 105 105 105
          105 105 105 105 105 105
          105 105 105 105 105 105
          105 105 105 105 105 105
          107 107 107 107 107 107
          107 107 107 107 107 107
          107 107 107 107 107 107
          107 107 107 107 107 107
          107 107 107 107 107 107
          107 107 107 107 107 107
          107 107 107 107 107 107
          107 107 107 107 107 107
          107 107 107 107 107 107
          107 107 107 107 107 107
          107 107 107 107 107 107
          107 107 107 107 107 107
          107 107 107 107 107 107
          107 107 107 107 107 107
          107 107 107 107 107 107
          107 107 107 107 107 107
          107 107 107 107 107 107
          107 107 107 107 107 107
          107 107 107 107 107 107
          107 107 107 107 107 107
          107 107 107 107 107 107
          107 107 107 107
        </DataArray>
        <DataArray type="Int32" Name="processor_id" format="ascii" RangeMin="6" RangeMax="6">
          6 6 6 6 6 6
          6 6 6 6 6 6
          6 6 6 6 6 6
          6 6 6 6 6 6
          6 6 6 6 6 6
          6 6 6 6 6 6
          6 6 6 6 6 6
          6 6 6 6 6 6
          6 6 6 6 6 6
          6 6 6 6 6 6
          6 6 6 6 6 6
          6 6 6 6 6 6
          6 6 6 6 6 6
          6 6 6 6 6 6
          6 6 6 6 6 6
          6 6 6 6 6 6
          6 6 6 6 6 6
          6 6 6 6 6 6
          6 6 6 6 6 6
          6 6 6 6 6 6
          6 6 6 6 6 6
          6 6 6 6 6 6
          6 6 6 6 6 6
          6 6 6 6 6 6
          6 6 6 6 6 6
          6 6 6 6 6 6
          6 6 6 6 6 6
          6 6 6 6 6 6
          6 6 6 6 6 6
          6 6 6 6 6 6
          6 6 6 6 6 6
          6 6 6 6 6 6
          6 6 6 6 6 6
          6 6 6 6 6 6
          6 6 6 6 6 6
          6 6 6 6 6 6
          6 6 6 6 6 6
          6 6 6 6 6 6
          6 6 6 6 6 6
          6 6 6 6 6 6
          6 6 6 6 6 6
          6 6 6 6 6 6
          6 6 6 6 6 6
          6 6 6 6 6 6
          6 6 6 6 6 6
          6 6 6 6 6 6
          6 6 6 6 6 6
          6 6 6 6 6 6
          6 6 6 6 6 6
          6 6 6 6 6 6
          6 6 6 6 6 6
          6 6 6 6 6 6
          6 6 6 6 6 6
          6 6 6 6 6 6
          6 6 6 6 6 6
          6 6 6 6 6 6
          6 6 6 6 6 6
          6 6 6 6 6 6
          6 6 6 6 6 6
          6 6 6 6 6 6
          6 6 6 6 6 6
          6 6 6 6 6 6
          6 6 6 6 6 6
          6 6 6 6 6 6
          6 6 6 6 6 6
          6 6 6 6 6 6
          6 6 6 6 6 6
          6 6 6 6 6 6
          6 6 6 6 6 6
          6 6 6 6 6 6
          6 6 6 6 6 6
          6 6 6 6 6 6
          6 6 6 6 6 6
          6 6 6 6 6 6
          6 6 6 6 6 6
          6 6 6 6
        </DataArray>
      </CellData>
      <Points>
        <DataArray type="Float64" Name="Points" NumberOfComponents="3" format="ascii" RangeMin="0.0018888888888872" RangeMax="0.010555613193541787">
          0.0018888888888873 0.00041379310344749 0 0.0018888888888872 0 0
          0.0018888888888873 0.00041379310344749 0.00015 0.0018888888888872 0 0.00015
          0.0018888888888873 0.00041379310344749 0.0003 0.0018888888888872 0 0.0003
          0.0023333333333313 0.00041379310344749 0 0.0023333333333311 0 0
          0.0023333333333313 0.00041379310344749 0.00015 0.0023333333333311 0 0.00015
          0.0023333333333313 0.00041379310344749 0.0003 0.0023333333333311 0 0.0003
          0.0027777777777734 0.00041379310344749 0 0.0027777777777731 0 0
          0.0027777777777734 0.00041379310344749 0.00015 0.0027777777777731 0 0.00015
          0.0027777777777734 0.00041379310344749 0.0003 0.0027777777777731 0 0.0003
          0.003222222222218 0.00041379310344749 0 0.0032222222222177 0 0
          0.003222222222218 0.00041379310344749 0.00015 0.0032222222222177 0 0.00015
          0.003222222222218 0.00041379310344749 0.0003 0.0032222222222177 0 0.0003
          0.0036666666666636 0.00041379310344749 0 0.0036666666666634 0 0
          0.0036666666666636 0.00041379310344749 0.00015 0.0036666666666634 0 0.00015
          0.0036666666666636 0.00041379310344749 0.0003 0.0036666666666634 0 0.0003
          0.0041111111111091 0.00041379310344749 0 0.004111111111109 0 0
          0.0041111111111091 0.00041379310344749 0.00015 0.004111111111109 0 0.00015
          0.0041111111111091 0.00041379310344749 0.0003 0.004111111111109 0 0.0003
          0.0045555555555554 0.00041379310344749 0 0.0045555555555553 0 0
          0.0045555555555554 0.00041379310344749 0.00015 0.0045555555555553 0 0.00015
          0.0045555555555554 0.00041379310344749 0.0003 0.0045555555555553 0 0.0003
          0.005 0.00041379310344749 0 0.005 0 0
          0.005 0.00041379310344749 0.00015 0.005 0 0.00015
          0.005 0.00041379310344749 0.0003 0.005 0 0.0003
          0.0018888888888875 0.00082758620689497 0 0.0018888888888875 0.00082758620689497 0.00015
          0.0018888888888875 0.00082758620689497 0.0003 0.0023333333333315 0.00082758620689497 0
          0.0023333333333315 0.00082758620689497 0.00015 0.0023333333333315 0.00082758620689497 0.0003
          0.0027777777777737 0.00082758620689497 0 0.0027777777777737 0.00082758620689497 0.00015
          0.0027777777777737 0.00082758620689497 0.0003 0.0032222222222183 0.00082758620689497 0
          0.0032222222222183 0.00082758620689497 0.00015 0.0032222222222183 0.00082758620689497 0.0003
          0.0036666666666638 0.00082758620689497 0 0.0036666666666638 0.00082758620689497 0.00015
          0.0036666666666638 0.00082758620689497 0.0003 0.0041111111111093 0.00082758620689497 0
          0.0041111111111093 0.00082758620689497 0.00015 0.0041111111111093 0.00082758620689497 0.0003
          0.0045555555555554 0.00082758620689497 0 0.0045555555555554 0.00082758620689497 0.00015
          0.0045555555555554 0.00082758620689497 0.0003 0.005 0.00082758620689497 0
          0.005 0.00082758620689497 0.00015 0.005 0.00082758620689497 0.0003
          0.0018888888888876 0.0012413793103426 0 0.0018888888888876 0.0012413793103426 0.00015
          0.0018888888888876 0.0012413793103426 0.0003 0.0023333333333317 0.0012413793103426 0
          0.0023333333333317 0.0012413793103426 0.00015 0.0023333333333317 0.0012413793103426 0.0003
          0.002777777777774 0.0012413793103426 0 0.002777777777774 0.0012413793103426 0.00015
          0.002777777777774 0.0012413793103426 0.0003 0.0032222222222186 0.0012413793103426 0
          0.0032222222222186 0.0012413793103426 0.00015 0.0032222222222186 0.0012413793103426 0.0003
          0.003666666666664 0.0012413793103426 0 0.003666666666664 0.0012413793103426 0.00015
          0.003666666666664 0.0012413793103426 0.0003 0.0041111111111095 0.0012413793103426 0
          0.0041111111111095 0.0012413793103426 0.00015 0.0041111111111095 0.0012413793103426 0.0003
          0.0045555555555554 0.0012413793103426 0 0.0045555555555554 0.0012413793103426 0.00015
          0.0045555555555554 0.0012413793103426 0.0003 0.005 0.0012413793103426 0
          0.005 0.0012413793103426 0.00015 0.005 0.0012413793103426 0.0003
          0.0018888888888877 0.0016551724137901 0 0.0018888888888877 0.0016551724137901 0.00015
          0.0018888888888877 0.0016551724137901 0.0003 0.0023333333333319 0.0016551724137901 0
          0.0023333333333319 0.0016551724137901 0.00015 0.0023333333333319 0.0016551724137901 0.0003
          0.0027777777777743 0.0016551724137901 0 0.0027777777777743 0.0016551724137901 0.00015
          0.0027777777777743 0.0016551724137901 0.0003 0.0032222222222189 0.0016551724137901 0
          0.0032222222222189 0.0016551724137901 0.00015 0.0032222222222189 0.0016551724137901 0.0003
          0.0036666666666642 0.0016551724137901 0 0.0036666666666642 0.0016551724137901 0.00015
          0.0036666666666642 0.0016551724137901 0.0003 0.0041111111111096 0.0016551724137901 0
          0.0041111111111096 0.0016551724137901 0.00015 0.0041111111111096 0.0016551724137901 0.0003
          0.0045555555555555 0.0016551724137901 0 0.0045555555555555 0.0016551724137901 0.00015
          0.0045555555555555 0.0016551724137901 0.0003 0.005 0.0016551724137901 0
          0.005 0.0016551724137901 0.00015 0.005 0.0016551724137901 0.0003
          0.0018888888888879 0.0020689655172371 0 0.0018888888888879 0.0020689655172371 0.00015
          0.0018888888888879 0.0020689655172371 0.0003 0.002333333333332 0.0020689655172371 0
          0.002333333333332 0.0020689655172371 0.00015 0.002333333333332 0.0020689655172371 0.0003
          0.0027777777777746 0.0020689655172371 0 0.0027777777777746 0.0020689655172371 0.00015
          0.0027777777777746 0.0020689655172371 0.0003 0.0032222222222192 0.0020689655172371 0
          0.0032222222222192 0.0020689655172371 0.00015 0.0032222222222192 0.0020689655172371 0.0003
          0.0036666666666643 0.0020689655172371 0 0.0036666666666643 0.0020689655172371 0.00015
          0.0036666666666643 0.0020689655172371 0.0003 0.0041111111111098 0.0020689655172371 0
          0.0041111111111098 0.0020689655172371 0.00015 0.0041111111111098 0.0020689655172371 0.0003
          0.0045555555555555 0.0020689655172371 0 0.0045555555555555 0.0020689655172371 0.00015
          0.0045555555555555 0.0020689655172371 0.0003 0.005 0.0020689655172371 0
          0.005 0.0020689655172371 0.00015 0.005 0.0020689655172371 0.0003
          0.001888888888888 0.0024827586206843 0 0.001888888888888 0.0024827586206843 0.00015
          0.001888888888888 0.0024827586206843 0.0003 0.0023333333333322 0.0024827586206843 0
          0.0023333333333322 0.0024827586206843 0.00015 0.0023333333333322 0.0024827586206843 0.0003
          0.0027777777777749 0.0024827586206843 0 0.0027777777777749 0.0024827586206843 0.00015
          0.0027777777777749 0.0024827586206843 0.0003 0.0032222222222196 0.0024827586206843 0
          0.0032222222222196 0.0024827586206843 0.00015 0.0032222222222196 0.0024827586206843 0.0003
          0.0036666666666645 0.0024827586206843 0 0.0036666666666645 0.0024827586206843 0.00015
          0.0036666666666645 0.0024827586206843 0.0003 0.0041111111111099 0.0024827586206843 0
          0.0041111111111099 0.0024827586206843 0.00015 0.0041111111111099 0.0024827586206843 0.0003
          0.0045555555555555 0.0024827586206843 0 0.0045555555555555 0.0024827586206843 0.00015
          0.0045555555555555 0.0024827586206843 0.0003 0.005 0.0024827586206843 0
          0.005 0.0024827586206843 0.00015 0.005 0.0024827586206843 0.0003
          0.0014444444444442 0.0028965517241314 0 0.0014444444444442 0.0028965517241314 0.00015
          0.0014444444444442 0.0028965517241314 0.0003 0.0018888888888881 0.0028965517241314 0
          0.0018888888888881 0.0028965517241314 0.00015 0.0018888888888881 0.0028965517241314 0.0003
          0.0023333333333324 0.0028965517241314 0 0.0023333333333324 0.0028965517241314 0.00015
          0.0023333333333324 0.0028965517241314 0.0003 0.0027777777777753 0.0028965517241314 0
          0.0027777777777753 0.0028965517241314 0.00015 0.0027777777777753 0.0028965517241314 0.0003
          0.0032222222222199 0.0028965517241314 0 0.0032222222222199 0.0028965517241314 0.00015
          0.0032222222222199 0.0028965517241314 0.0003 0.0036666666666647 0.0028965517241314 0
          0.0036666666666647 0.0028965517241314 0.00015 0.0036666666666647 0.0028965517241314 0.0003
          0.0041111111111101 0.0028965517241314 0 0.0041111111111101 0.0028965517241314 0.00015
          0.0041111111111101 0.0028965517241314 0.0003 0.0045555555555556 0.0028965517241314 0
          0.0045555555555556 0.0028965517241314 0.00015 0.0045555555555556 0.0028965517241314 0.0003
          0.005 0.0028965517241314 0 0.005 0.0028965517241314 0.00015
          0.005 0.0028965517241314 0.0003 0.0014444444444442 0.0033103448275785 0
          0.0014444444444442 0.0033103448275785 0.00015 0.0014444444444442 0.0033103448275785 0.0003
          0.0018888888888882 0.0033103448275785 0 0.0018888888888882 0.0033103448275785 0.00015
          0.0018888888888882 0.0033103448275785 0.0003 0.0023333333333326 0.0033103448275785 0
          0.0023333333333326 0.0033103448275785 0.00015 0.0023333333333326 0.0033103448275785 0.0003
          0.0027777777777756 0.0033103448275785 0 0.0027777777777756 0.0033103448275785 0.00015
          0.0027777777777756 0.0033103448275785 0.0003 0.0032222222222202 0.0033103448275785 0
          0.0032222222222202 0.0033103448275785 0.00015 0.0032222222222202 0.0033103448275785 0.0003
          0.0036666666666649 0.0033103448275785 0 0.0036666666666649 0.0033103448275785 0.00015
          0.0036666666666649 0.0033103448275785 0.0003 0.0041111111111102 0.0033103448275785 0
          0.0041111111111102 0.0033103448275785 0.00015 0.0041111111111102 0.0033103448275785 0.0003
          0.0045555555555556 0.0033103448275785 0 0.0045555555555556 0.0033103448275785 0.00015
          0.0045555555555556 0.0033103448275785 0.0003 0.005 0.0033103448275785 0
          0.005 0.0033103448275785 0.00015 0.005 0.0033103448275785 0.0003
          0.0014444444444443 0.0037241379310256 0 0.0014444444444443 0.0037241379310256 0.00015
          0.0014444444444443 0.0037241379310256 0.0003 0.0018888888888884 0.0037241379310256 0
          0.0018888888888884 0.0037241379310256 0.00015 0.0018888888888884 0.0037241379310256 0.0003
          0.0023333333333328 0.0037241379310256 0 0.0023333333333328 0.0037241379310256 0.00015
          0.0023333333333328 0.0037241379310256 0.0003 0.0027777777777759 0.0037241379310256 0
          0.0027777777777759 0.0037241379310256 0.00015 0.0027777777777759 0.0037241379310256 0.0003
          0.0032222222222205 0.0037241379310256 0 0.0032222222222205 0.0037241379310256 0.00015
          0.0032222222222205 0.0037241379310256 0.0003 0.003666666666665 0.0037241379310256 0
          0.003666666666665 0.0037241379310256 0.00015 0.003666666666665 0.0037241379310256 0.0003
          0.0041111111111104 0.0037241379310256 0 0.0041111111111104 0.0037241379310256 0.00015
          0.0041111111111104 0.0037241379310256 0.0003 0.0045555555555556 0.0037241379310256 0
          0.0045555555555556 0.0037241379310256 0.00015 0.0045555555555556 0.0037241379310256 0.0003
          0.005 0.0037241379310256 0 0.005 0.0037241379310256 0.00015
          0.005 0.0037241379310256 0.0003 0.0014444444444444 0.0041379310344727 0
          0.0014444444444444 0.0041379310344727 0.00015 0.0014444444444444 0.0041379310344727 0.0003
          0.0018888888888885 0.0041379310344727 0 0.0018888888888885 0.0041379310344727 0.00015
          0.0018888888888885 0.0041379310344727 0.0003 0.002333333333333 0.0041379310344727 0
          0.002333333333333 0.0041379310344727 0.00015 0.002333333333333 0.0041379310344727 0.0003
          0.0027777777777762 0.0041379310344727 0 0.0027777777777762 0.0041379310344727 0.00015
          0.0027777777777762 0.0041379310344727 0.0003 0.0032222222222208 0.0041379310344727 0
          0.0032222222222208 0.0041379310344727 0.00015 0.0032222222222208 0.0041379310344727 0.0003
          0.0036666666666652 0.0041379310344727 0 0.0036666666666652 0.0041379310344727 0.00015
          0.0036666666666652 0.0041379310344727 0.0003 0.0041111111111105 0.0041379310344727 0
          0.0041111111111105 0.0041379310344727 0.00015 0.0041111111111105 0.0041379310344727 0.0003
          0.0045555555555557 0.0041379310344727 0 0.0045555555555557 0.0041379310344727 0.00015
          0.0045555555555557 0.0041379310344727 0.0003 0.005 0.0041379310344727 0
          0.005 0.0041379310344727 0.00015 0.005 0.0041379310344727 0.0003
          0.0014444444444444 0.0045517241379199 0 0.0014444444444444 0.0045517241379199 0.00015
          0.0014444444444444 0.0045517241379199 0.0003 0.0018888888888886 0.0045517241379199 0
          0.0018888888888886 0.0045517241379199 0.00015 0.0018888888888886 0.0045517241379199 0.0003
          0.0023333333333331 0.0045517241379199 0 0.0023333333333331 0.0045517241379199 0.00015
          0.0023333333333331 0.0045517241379199 0.0003 0.0027777777777765 0.0045517241379199 0
          0.0027777777777765 0.0045517241379199 0.00015 0.0027777777777765 0.0045517241379199 0.0003
          0.0032222222222211 0.0045517241379199 0 0.0032222222222211 0.0045517241379199 0.00015
          0.0032222222222211 0.0045517241379199 0.0003 0.0036666666666654 0.0045517241379199 0
          0.0036666666666654 0.0045517241379199 0.00015 0.0036666666666654 0.0045517241379199 0.0003
          0.0041111111111107 0.0045517241379199 0 0.0041111111111107 0.0045517241379199 0.00015
          0.0041111111111107 0.0045517241379199 0.0003 0.0045555555555557 0.0045517241379199 0
          0.0045555555555557 0.0045517241379199 0.00015 0.0045555555555557 0.0045517241379199 0.0003
          0.005 0.0045517241379199 0 0.005 0.0045517241379199 0.00015
          0.005 0.0045517241379199 0.0003 0.0014444444444445 0.0049655172413669 0
          0.0014444444444445 0.0049655172413669 0.00015 0.0014444444444445 0.0049655172413669 0.0003
          0.0018888888888888 0.0049655172413669 0 0.0018888888888888 0.0049655172413669 0.00015
          0.0018888888888888 0.0049655172413669 0.0003 0.0023333333333333 0.0049655172413669 0
          0.0023333333333333 0.0049655172413669 0.00015 0.0023333333333333 0.0049655172413669 0.0003
          0.0027777777777768 0.0049655172413669 0 0.0027777777777768 0.0049655172413669 0.00015
          0.0027777777777768 0.0049655172413669 0.0003 0.0032222222222214 0.0049655172413669 0
          0.0032222222222214 0.0049655172413669 0.00015 0.0032222222222214 0.0049655172413669 0.0003
          0.0036666666666656 0.0049655172413669 0 0.0036666666666656 0.0049655172413669 0.00015
          0.0036666666666656 0.0049655172413669 0.0003 0.0041111111111108 0.0049655172413669 0
          0.0041111111111108 0.0049655172413669 0.00015 0.0041111111111108 0.0049655172413669 0.0003
          0.0045555555555557 0.0049655172413669 0 0.0045555555555557 0.0049655172413669 0.00015
          0.0045555555555557 0.0049655172413669 0.0003 0.005 0.0049655172413669 0
          0.005 0.0049655172413669 0.00015 0.005 0.0049655172413669 0.0003
          0.0014444444444445 0.0053793103448139 0 0.0014444444444445 0.0053793103448139 0.00015
          0.0014444444444445 0.0053793103448139 0.0003 0.0018888888888889 0.0053793103448139 0
          0.0018888888888889 0.0053793103448139 0.00015 0.0018888888888889 0.0053793103448139 0.0003
          0.0023333333333335 0.0053793103448139 0 0.0023333333333335 0.0053793103448139 0.00015
          0.0023333333333335 0.0053793103448139 0.0003 0.0027777777777771 0.0053793103448139 0
          0.0027777777777771 0.0053793103448139 0.00015 0.0027777777777771 0.0053793103448139 0.0003
          0.0032222222222217 0.0053793103448139 0 0.0032222222222217 0.0053793103448139 0.00015
          0.0032222222222217 0.0053793103448139 0.0003 0.0036666666666658 0.0053793103448139 0
          0.0036666666666658 0.0053793103448139 0.00015 0.0036666666666658 0.0053793103448139 0.0003
          0.004111111111111 0.0053793103448139 0 0.004111111111111 0.0053793103448139 0.00015
          0.004111111111111 0.0053793103448139 0.0003 0.0045555555555558 0.0053793103448139 0
          0.0045555555555558 0.0053793103448139 0.00015 0.0045555555555558 0.0053793103448139 0.0003
          0.005 0.0053793103448139 0 0.005 0.0053793103448139 0.00015
          0.005 0.0053793103448139 0.0003 0.0014444444444446 0.0057931034482612 0
          0.0014444444444446 0.0057931034482612 0.00015 0.0014444444444446 0.0057931034482612 0.0003
          0.001888888888889 0.0057931034482612 0 0.001888888888889 0.0057931034482612 0.00015
          0.001888888888889 0.0057931034482612 0.0003 0.0023333333333337 0.0057931034482612 0
          0.0023333333333337 0.0057931034482612 0.00015 0.0023333333333337 0.0057931034482612 0.0003
          0.0027777777777774 0.0057931034482612 0 0.0027777777777774 0.0057931034482612 0.00015
          0.0027777777777774 0.0057931034482612 0.0003 0.003222222222222 0.0057931034482612 0
          0.003222222222222 0.0057931034482612 0.00015 0.003222222222222 0.0057931034482612 0.0003
          0.0036666666666659 0.0057931034482612 0 0.0036666666666659 0.0057931034482612 0.00015
          0.0036666666666659 0.0057931034482612 0.0003 0.0041111111111112 0.0057931034482612 0
          0.0041111111111112 0.0057931034482612 0.00015 0.0041111111111112 0.0057931034482612 0.0003
          0.0045555555555558 0.0057931034482612 0 0.0045555555555558 0.0057931034482612 0.00015
          0.0045555555555558 0.0057931034482612 0.0003 0.005 0.0057931034482612 0
          0.005 0.0057931034482612 0.00015 0.005 0.0057931034482612 0.0003
          0.0018888888888891 0.0062068965517097 0 0.0018888888888891 0.0062068965517097 0.00015
          0.0018888888888891 0.0062068965517097 0.0003 0.0023333333333339 0.0062068965517097 0
          0.0023333333333339 0.0062068965517097 0.00015 0.0023333333333339 0.0062068965517097 0.0003
          0.0027777777777778 0.0062068965517097 0 0.0027777777777778 0.0062068965517097 0.00015
          0.0027777777777778 0.0062068965517097 0.0003 0.0032222222222224 0.0062068965517097 0
          0.0032222222222224 0.0062068965517097 0.00015 0.0032222222222224 0.0062068965517097 0.0003
          0.0036666666666661 0.0062068965517097 0 0.0036666666666661 0.0062068965517097 0.00015
          0.0036666666666661 0.0062068965517097 0.0003 0.0041111111111113 0.0062068965517097 0
          0.0041111111111113 0.0062068965517097 0.00015 0.0041111111111113 0.0062068965517097 0.0003
          0.0045555555555558 0.0062068965517097 0 0.0045555555555558 0.0062068965517097 0.00015
          0.0045555555555558 0.0062068965517097 0.0003 0.005 0.0062068965517097 0
          0.005 0.0062068965517097 0.00015 0.005 0.0062068965517097 0.0003
          0.0018888888888893 0.0066206896551586 0 0.0018888888888893 0.0066206896551586 0.00015
          0.0018888888888893 0.0066206896551586 0.0003 0.002333333333334 0.0066206896551586 0
          0.002333333333334 0.0066206896551586 0.00015 0.002333333333334 0.0066206896551586 0.0003
          0.0027777777777781 0.0066206896551586 0 0.0027777777777781 0.0066206896551586 0.00015
          0.0027777777777781 0.0066206896551586 0.0003 0.0032222222222227 0.0066206896551586 0
          0.0032222222222227 0.0066206896551586 0.00015 0.0032222222222227 0.0066206896551586 0.0003
          0.0036666666666663 0.0066206896551586 0 0.0036666666666663 0.0066206896551586 0.00015
          0.0036666666666663 0.0066206896551586 0.0003 0.0041111111111115 0.0066206896551586 0
          0.0041111111111115 0.0066206896551586 0.00015 0.0041111111111115 0.0066206896551586 0.0003
          0.0045555555555559 0.0066206896551586 0 0.0045555555555559 0.0066206896551586 0.00015
          0.0045555555555559 0.0066206896551586 0.0003 0.005 0.0066206896551586 0
          0.005 0.0066206896551586 0.00015 0.005 0.0066206896551586 0.0003
          0.0018888888888894 0.0070344827586082 0 0.0018888888888894 0.0070344827586082 0.00015
          0.0018888888888894 0.0070344827586082 0.0003 0.0023333333333342 0.0070344827586082 0
          0.0023333333333342 0.0070344827586082 0.00015 0.0023333333333342 0.0070344827586082 0.0003
          0.0027777777777784 0.0070344827586082 0 0.0027777777777784 0.0070344827586082 0.00015
          0.0027777777777784 0.0070344827586082 0.0003 0.003222222222223 0.0070344827586082 0
          0.003222222222223 0.0070344827586082 0.00015 0.003222222222223 0.0070344827586082 0.0003
          0.0036666666666665 0.0070344827586082 0 0.0036666666666665 0.0070344827586082 0.00015
          0.0036666666666665 0.0070344827586082 0.0003 0.0041111111111116 0.0070344827586082 0
          0.0041111111111116 0.0070344827586082 0.00015 0.0041111111111116 0.0070344827586082 0.0003
          0.0045555555555559 0.0070344827586082 0 0.0045555555555559 0.0070344827586082 0.00015
          0.0045555555555559 0.0070344827586082 0.0003 0.005 0.0070344827586082 0
          0.005 0.0070344827586082 0.00015 0.005 0.0070344827586082 0.0003
          0.0018888888888895 0.0074482758620575 0 0.0018888888888895 0.0074482758620575 0.00015
          0.0018888888888895 0.0074482758620575 0.0003 0.0023333333333344 0.0074482758620575 0
          0.0023333333333344 0.0074482758620575 0.00015 0.0023333333333344 0.0074482758620575 0.0003
          0.0027777777777787 0.0074482758620575 0 0.0027777777777787 0.0074482758620575 0.00015
          0.0027777777777787 0.0074482758620575 0.0003 0.0032222222222233 0.0074482758620575 0
          0.0032222222222233 0.0074482758620575 0.00015 0.0032222222222233 0.0074482758620575 0.0003
          0.0036666666666666 0.0074482758620576 0 0.0036666666666666 0.0074482758620576 0.00015
          0.0036666666666666 0.0074482758620576 0.0003 0.0041111111111118 0.0074482758620576 0
          0.0041111111111118 0.0074482758620576 0.00015 0.0041111111111118 0.0074482758620576 0.0003
          0.0045555555555559 0.0074482758620576 0 0.0045555555555559 0.0074482758620576 0.00015
          0.0045555555555559 0.0074482758620576 0.0003 0.005 0.0074482758620575 0
          0.005 0.0074482758620575 0.00015 0.005 0.0074482758620575 0.0003
          0.0023333333333346 0.0078620689655065 0 0.0023333333333346 0.0078620689655065 0.00015
          0.0023333333333346 0.0078620689655065 0.0003 0.002777777777779 0.0078620689655065 0
          0.002777777777779 0.0078620689655065 0.00015 0.002777777777779 0.0078620689655065 0.0003
          0.0032222222222236 0.0078620689655065 0 0.0032222222222236 0.0078620689655065 0.00015
          0.0032222222222236 0.0078620689655065 0.0003 0.0036666666666668 0.0078620689655065 0
          0.0036666666666668 0.0078620689655065 0.00015 0.0036666666666668 0.0078620689655065 0.0003
          0.0041111111111119 0.0078620689655065 0 0.0041111111111119 0.0078620689655065 0.00015
          0.0041111111111119 0.0078620689655065 0.0003 0.004555555555556 0.0078620689655065 0
          0.004555555555556 0.0078620689655065 0.00015 0.004555555555556 0.0078620689655065 0.0003
          0.005 0.0078620689655065 0 0.005 0.0078620689655065 0.00015
          0.005 0.0078620689655065 0.0003 0.0023333333333348 0.0082758620689564 0
          0.0023333333333348 0.0082758620689564 0.00015 0.0023333333333348 0.0082758620689564 0.0003
          0.0027777777777793 0.0082758620689564 0 0.0027777777777793 0.0082758620689564 0.00015
          0.0027777777777793 0.0082758620689564 0.0003 0.0032222222222239 0.0082758620689564 0
          0.0032222222222239 0.0082758620689564 0.00015 0.0032222222222239 0.0082758620689564 0.0003
          0.003666666666667 0.0082758620689564 0 0.003666666666667 0.0082758620689564 0.00015
          0.003666666666667 0.0082758620689564 0.0003 0.0041111111111121 0.0082758620689564 0
          0.0041111111111121 0.0082758620689564 0.00015 0.0041111111111121 0.0082758620689564 0.0003
          0.004555555555556 0.0082758620689564 0 0.004555555555556 0.0082758620689564 0.00015
          0.004555555555556 0.0082758620689564 0.0003 0.005 0.0082758620689564 0
          0.005 0.0082758620689564 0.00015 0.005 0.0082758620689564 0.0003
          0.002333333333335 0.0086896551724064 0 0.002333333333335 0.0086896551724064 0.00015
          0.002333333333335 0.0086896551724064 0.0003 0.0027777777777796 0.0086896551724064 0
          0.0027777777777796 0.0086896551724064 0.00015 0.0027777777777796 0.0086896551724064 0.0003
          0.0032222222222242 0.0086896551724064 0 0.0032222222222242 0.0086896551724064 0.00015
          0.0032222222222242 0.0086896551724064 0.0003 0.0036666666666672 0.0086896551724064 0
          0.0036666666666672 0.0086896551724064 0.00015 0.0036666666666672 0.0086896551724064 0.0003
          0.0041111111111122 0.0086896551724064 0 0.0041111111111122 0.0086896551724064 0.00015
          0.0041111111111122 0.0086896551724064 0.0003 0.004555555555556 0.0086896551724064 0
          0.004555555555556 0.0086896551724064 0.00015 0.004555555555556 0.0086896551724064 0.0003
          0.0023333333333351 0.0091034482758539 0 0.0023333333333351 0.0091034482758539 0.00015
          0.0023333333333351 0.0091034482758539 0.0003 0.0027777777777799 0.0091034482758539 0
          0.0027777777777799 0.0091034482758539 0.00015 0.0027777777777799 0.0091034482758539 0.0003
          0.0032222222222245 0.0091034482758539 0 0.0032222222222245 0.0091034482758539 0.00015
          0.0032222222222245 0.0091034482758539 0.0003 0.0036666666666673 0.0091034482758539 0
          0.0036666666666673 0.0091034482758539 0.00015 0.0036666666666673 0.0091034482758539 0.0003
          0.0041111111111124 0.0091034482758539 0 0.0041111111111124 0.0091034482758539 0.00015
          0.0041111111111124 0.0091034482758539 0.0003 0.0058597010152523 0.0063127004857001 0
          0.0053951839928307 0.0062556571299739 0 0.0053921082338215 0.005828945826549 0
          0.0057916174309905 0.0058352682535246 0 0.0058597010152523 0.0063127004857001 0.00015
          0.0053951839928307 0.0062556571299739 0.00015 0.0053921082338215 0.005828945826549 0.00015
          0.0057916174309905 0.0058352682535246 0.00015 0.0058597010152523 0.0063127004857001 0.0003
          0.0053951839928307 0.0062556571299739 0.0003 0.0053921082338215 0.005828945826549 0.0003
          0.0057916174309905 0.0058352682535246 0.0003 0.0057558905586118 0.0030553709280972 0
          0.0057130501801562 0.0035159257865852 0 0.005360618756523 0.0035837068269911 0
          0.0053739732009329 0.0031599138809835 0 0.0057558905586118 0.0030553709280972 0.00015
          0.0057130501801562 0.0035159257865852 0.00015 0.005360618756523 0.0035837068269911 0.00015
          0.0053739732009329 0.0031599138809835 0.00015 0.0057558905586118 0.0030553709280972 0.0003
          0.0057130501801562 0.0035159257865852 0.0003 0.005360618756523 0.0035837068269911 0.0003
          0.0053739732009329 0.0031599138809835 0.0003 0.0056439388514995 0.0075162532529611 0
          0.0053753336003136 0.0081134227852172 0 0.0053162760057692 0.0077147827843445 0
          0.0056439388514995 0.0075162532529611 0.00015 0.0053753336003136 0.0081134227852172 0.00015
          0.0053162760057692 0.0077147827843445 0.00015 0.0056439388514995 0.0075162532529611 0.0003
          0.0053753336003136 0.0081134227852172 0.0003 0.0053162760057692 0.0077147827843445 0.0003
          0.0059025575310583 0.0073410103875386 0 0.0059025575310583 0.0073410103875386 0.00015
          0.0059025575310583 0.0073410103875386 0.0003 0.005369078903807 0.0054112957512825 0
          0.0053441966179727 0.0050059769161847 0 0.0056930202847481 0.0049554676612008 0
          0.0057606246390047 0.0053811345728149 0 0.005369078903807 0.0054112957512825 0.00015
          0.0053441966179727 0.0050059769161847 0.00015 0.0056930202847481 0.0049554676612008 0.00015
          0.0057606246390047 0.0053811345728149 0.00015 0.005369078903807 0.0054112957512825 0.0003
          0.0053441966179727 0.0050059769161847 0.0003 0.0056930202847481 0.0049554676612008 0.0003
          0.0057606246390047 0.0053811345728149 0.0003 0.0057438065986578 0.0025718646608386 0
          0.0053684283361675 0.002728434685479 0 0.0057438065986578 0.0025718646608386 0.00015
          0.0053684283361675 0.002728434685479 0.00015 0.0057438065986578 0.0025718646608386 0.0003
          0.0053684283361675 0.002728434685479 0.0003 0.0061712548385041 0.0061513410385421 0
          0.006445117357903 0.0062971891343806 0 0.0062246515840748 0.0066057171706914 0
          0.0061712548385041 0.0061513410385421 0.00015 0.006445117357903 0.0062971891343806 0.00015
          0.0062246515840748 0.0066057171706914 0.00015 0.0061712548385041 0.0061513410385421 0.0003
          0.006445117357903 0.0062971891343806 0.0003 0.0062246515840748 0.0066057171706914 0.0003
          0.0053553835295756 0.0022900157905326 0 0.0057116151882083 0.0021168511926722 0
          0.0053553835295756 0.0022900157905326 0.00015 0.0057116151882083 0.0021168511926722 0.00015
          0.0053553835295756 0.0022900157905326 0.0003 0.0057116151882083 0.0021168511926722 0.0003
          0.0054233068561349 0.007134337670225 0 0.0059254586078826 0.006969673542248 0
          0.0054233068561349 0.007134337670225 0.00015 0.0059254586078826 0.006969673542248 0.00015
          0.0054233068561349 0.007134337670225 0.0003 0.0059254586078826 0.006969673542248 0.0003
          0.0057792643598707 0.0040250905144168 0 0.0057792643598707 0.0040250905144168 0.00015
          0.0057792643598707 0.0040250905144168 0.0003 0.0061880810420103 0.0058441905555885 0
          0.0066005814160285 0.0059502230786403 0 0.0061880810420103 0.0058441905555885 0.00015
          0.0066005814160285 0.0059502230786403 0.00015 0.0061880810420103 0.0058441905555885 0.0003
          0.0066005814160285 0.0059502230786403 0.0003 0.0054017220983371 0.0066575347525889 0
          0.0057115805714605 0.0066548075405697 0 0.0054017220983371 0.0066575347525889 0.00015
          0.0057115805714605 0.0066548075405697 0.00015 0.0054017220983371 0.0066575347525889 0.0003
          0.0057115805714605 0.0066548075405697 0.0003 0.005332609719228 0.0047287620137874 0
          0.0055816175545808 0.004587255111362 0 0.005332609719228 0.0047287620137874 0.00015
          0.0055816175545808 0.004587255111362 0.00015 0.005332609719228 0.0047287620137874 0.0003
          0.0055816175545808 0.004587255111362 0.0003 0.0053693194142364 0.0039518184911864 0
          0.0054474185858658 0.0042751360204936 0 0.0053693194142364 0.0039518184911864 0.00015
          0.0054474185858658 0.0042751360204936 0.00015 0.0053693194142364 0.0039518184911864 0.0003
          0.0054474185858658 0.0042751360204936 0.0003 0.0053395672611724 0.0018614292474742 0
          0.0053395672611724 0.0018614292474742 0.00015 0.0053395672611724 0.0018614292474742 0.0003
          0.0053367365074525 0.0010378216876611 0 0.0053236825500972 0.0014543115259673 0
          0.0053367365074525 0.0010378216876611 0.00015 0.0053236825500972 0.0014543115259673 0.00015
          0.0053367365074525 0.0010378216876611 0.0003 0.0053236825500972 0.0014543115259673 0.0003
          0.0056326688189693 0.0038271453778623 0 0.0056326688189693 0.0038271453778623 0.00015
          0.0056326688189693 0.0038271453778623 0.0003 0.0053236477572007 0.00066751117045644 0
          0.0053236477572007 0.00066751117045644 0.00015 0.0053236477572007 0.00066751117045644 0.0003
          0.0052365987891119 0.0074441888076402 0 0.0052365987891119 0.0074441888076402 0.00015
          0.0052365987891119 0.0074441888076402 0.0003 0.0052651323069134 0.00040272801788152 0
          0.0052651323069134 0.00040272801788152 0.00015 0.0052651323069134 0.00040272801788152 0.0003
          0.005675081773805 0.0016743369040255 0 0.005675081773805 0.0016743369040255 0.00015
          0.005675081773805 0.0016743369040255 0.0003 0.0056481668838523 0.0012062671985027 0
          0.0056481668838523 0.0012062671985027 0.00015 0.0056481668838523 0.0012062671985027 0.0003
          0.0055517738097912 0.00099492145317098 0 0.0055517738097912 0.00099492145317098 0.00015
          0.0055517738097912 0.00099492145317098 0.0003 0.005 0.0086896551724064 0
          0.005 0.0086896551724064 0.00015 0.005 0.0086896551724064 0.0003
          0.0045555555555561 0.0091034482758539 0 0.0045555555555561 0.0091034482758539 0.00015
          0.0045555555555561 0.0091034482758539 0.0003 0.005 0.0091034482758539 0
          0.005 0.0091034482758539 0.00015 0.005 0.0091034482758539 0.0003
          0.0027777777777802 0.0095172413793029 0 0.0023333333333353 0.0095172413793029 0
          0.0027777777777802 0.0095172413793029 0.00015 0.0023333333333353 0.0095172413793029 0.00015
          0.0027777777777802 0.0095172413793029 0.0003 0.0023333333333353 0.0095172413793029 0.0003
          0.0032222222222248 0.0095172413793029 0 0.0032222222222248 0.0095172413793029 0.00015
          0.0032222222222248 0.0095172413793029 0.0003 0.0036666666666675 0.0095172413793029 0
          0.0036666666666675 0.0095172413793029 0.00015 0.0036666666666675 0.0095172413793029 0.0003
          0.0041111111111126 0.0095172413793029 0 0.0041111111111126 0.0095172413793029 0.00015
          0.0041111111111126 0.0095172413793029 0.0003 0.0045555555555561 0.0095172413793029 0
          0.0045555555555561 0.0095172413793029 0.00015 0.0045555555555561 0.0095172413793029 0.0003
          0.0058653844060618 0.0079194158644502 0 0.0058653844060618 0.0079194158644502 0.00015
          0.0058653844060618 0.0079194158644502 0.0003 0.0061750164335738 0.0074760206739226 0
          0.0061750164335738 0.0074760206739226 0.00015 0.0061750164335738 0.0074760206739226 0.0003
          0.0060512178389602 0.0047929387822649 0 0.0062389906493372 0.0053128670028646 0
          0.0060512178389602 0.0047929387822649 0.00015 0.0062389906493372 0.0053128670028646 0.00015
          0.0060512178389602 0.0047929387822649 0.0003 0.0062389906493372 0.0053128670028646 0.0003
          0.0068354780286894 0.0065149558629347 0 0.0065694481807909 0.0068273110654121 0
          0.0068354780286894 0.0065149558629347 0.00015 0.0065694481807909 0.0068273110654121 0.00015
          0.0068354780286894 0.0065149558629347 0.0003 0.0065694481807909 0.0068273110654121 0.0003
          0.0061614658010566 0.0029736343202522 0 0.0061372854142827 0.0036106222238676 0
          0.0061614658010566 0.0029736343202522 0.00015 0.0061372854142827 0.0036106222238676 0.00015
          0.0061614658010566 0.0029736343202522 0.0003 0.0061372854142827 0.0036106222238676 0.0003
          0.0061231952422177 0.002444135475079 0 0.0061231952422177 0.002444135475079 0.00015
          0.0061231952422177 0.002444135475079 0.0003 0.0063586074578252 0.0071353312088165 0
          0.0063586074578252 0.0071353312088165 0.00015 0.0063586074578252 0.0071353312088165 0.0003
          0.005927800859391 0.0043689372395662 0 0.0063054236008776 0.0041223407032968 0
          0.005927800859391 0.0043689372395662 0.00015 0.0063054236008776 0.0041223407032968 0.00015
          0.005927800859391 0.0043689372395662 0.0003 0.0063054236008776 0.0041223407032968 0.0003
          0.0070635342364542 0.0061542378287001 0 0.0070635342364542 0.0061542378287001 0.00015
          0.0070635342364542 0.0061542378287001 0.0003 0.0071984303565192 0.0057392272964834 0
          0.0067200519522164 0.0055550541115669 0 0.0071984303565192 0.0057392272964834 0.00015
          0.0067200519522164 0.0055550541115669 0.00015 0.0071984303565192 0.0057392272964834 0.0003
          0.0067200519522164 0.0055550541115669 0.0003 0.0053754057810206 0.0085370600870078 0
          0.0053754057810206 0.0085370600870078 0.00015 0.0053754057810206 0.0085370600870078 0.0003
          0.0060722038988066 0.0019538017587265 0 0.0060722038988066 0.0019538017587265 0.00015
          0.0060722038988066 0.0019538017587265 0.0003 0.0055128205128194 0 0
          0.0057061681768373 0.00065177476244477 0 0.0055128205128194 0 0.00015
          0.0057061681768373 0.00065177476244477 0.00015 0.0055128205128194 0 0.0003
          0.0057061681768373 0.00065177476244477 0.0003 0.0060137569775388 0.0015029488511318 0
          0.0060137569775388 0.0015029488511318 0.00015 0.0060137569775388 0.0015029488511318 0.0003
          0.0059245902968253 0.0010856763727913 0 0.0059245902968253 0.0010856763727913 0.00015
          0.0059245902968253 0.0010856763727913 0.0003 0.0057785311780113 0.0084598603588589 0
          0.0057785311780113 0.0084598603588589 0.00015 0.0057785311780113 0.0084598603588589 0.0003
          <InformationKey name="L2_NORM_RANGE" location="vtkDataArray" length="2">
            <Value index="0">
              0.0018888888889
            </Value>
            <Value index="1">
              0.010555613194
            </Value>
          </InformationKey>
        </DataArray>
      </Points>
      <Cells>
        <DataArray type="Int64" Name="connectivity" format="ascii" RangeMin="0" RangeMax="779">
          6 0 1 7 8 2
          3 9 8 2 3 9
          10 4 5 11 12 6
          7 13 14 8 9 15
          14 8 9 15 16 10
          11 17 18 12 13 19
          20 14 15 21 20 14
          15 21 22 16 17 23
          24 18 19 25 26 20
          21 27 26 20 21 27
          28 22 23 29 30 24
          25 31 32 26 27 33
          32 26 27 33 34 28
          29 35 36 30 31 37
          38 32 33 39 38 32
          33 39 40 34 35 41
          42 36 37 43 44 38
          39 45 44 38 39 45
          46 40 41 47 51 48
          0 6 52 49 2 8
          52 49 2 8 53 50
          4 10 54 51 6 12
          55 52 8 14 55 52
          8 14 56 53 10 16
          57 54 12 18 58 55
          14 20 58 55 14 20
          59 56 16 22 60 57
          18 24 61 58 20 26
          61 58 20 26 62 59
          22 28 63 60 24 30
          64 61 26 32 64 61
          26 32 65 62 28 34
          66 63 30 36 67 64
          32 38 67 64 32 38
          68 65 34 40 69 66
          36 42 70 67 38 44
          70 67 38 44 71 68
          40 46 75 72 48 51
          76 73 49 52 76 73
          49 52 77 74 50 53
          78 75 51 54 79 76
          52 55 79 76 52 55
          80 77 53 56 81 78
          54 57 82 79 55 58
          82 79 55 58 83 80
          56 59 84 81 57 60
          85 82 58 61 85 82
          58 61 86 83 59 62
          87 84 60 63 88 85
          61 64 88 85 61 64
          89 86 62 65 90 87
          63 66 91 88 64 67
          91 88 64 67 92 89
          65 68 93 90 66 69
          94 91 67 70 94 91
          67 70 95 92 68 71
          99 96 72 75 100 97
          73 76 100 97 73 76
          101 98 74 77 102 99
          75 78 103 100 76 79
          103 100 76 79 104 101
          77 80 105 102 78 81
          106 103 79 82 106 103
          79 82 107 104 80 83
          108 105 81 84 109 106
          82 85 109 106 82 85
          110 107 83 86 111 108
          84 87 112 109 85 88
          112 109 85 88 113 110
          86 89 114 111 87 90
          115 112 88 91 115 112
          88 91 116 113 89 92
          117 114 90 93 118 115
          91 94 118 115 91 94
          119 116 92 95 123 120
          96 99 124 121 97 100
          124 121 97 100 125 122
          98 101 126 123 99 102
          127 124 100 103 127 124
          100 103 128 125 101 104
          129 126 102 105 130 127
          103 106 130 127 103 106
          131 128 104 107 132 129
          105 108 133 130 106 109
          133 130 106 109 134 131
          107 110 135 132 108 111
          136 133 109 112 136 133
          109 112 137 134 110 113
          138 135 111 114 139 136
          112 115 139 136 112 115
          140 137 113 116 141 138
          114 117 142 139 115 118
          142 139 115 118 143 140
          116 119 147 144 120 123
          148 145 121 124 148 145
          121 124 149 146 122 125
          150 147 123 126 151 148
          124 127 151 148 124 127
          152 149 125 128 153 150
          126 129 154 151 127 130
          154 151 127 130 155 152
          128 131 156 153 129 132
          157 154 130 133 157 154
          130 133 158 155 131 134
          159 156 132 135 160 157
          133 136 160 157 133 136
          161 158 134 137 162 159
          135 138 163 160 136 139
          163 160 136 139 164 161
          137 140 165 162 138 141
          166 163 139 142 166 163
          139 142 167 164 140 143
          174 171 144 147 175 172
          145 148 175 172 145 148
          176 173 146 149 177 174
          147 150 178 175 148 151
          178 175 148 151 179 176
          149 152 180 177 150 153
          181 178 151 154 181 178
          151 154 182 179 152 155
          183 180 153 156 184 181
          154 157 184 181 154 157
          185 182 155 158 186 183
          156 159 187 184 157 160
          187 184 157 160 188 185
          158 161 189 186 159 162
          190 187 160 163 190 187
          160 163 191 188 161 164
          192 189 162 165 193 190
          163 166 193 190 163 166
          194 191 164 167 198 195
          168 171 199 196 169 172
          199 196 169 172 200 197
          170 173 201 198 171 174
          202 199 172 175 202 199
          172 175 203 200 173 176
          204 201 174 177 205 202
          175 178 205 202 175 178
          206 203 176 179 207 204
          177 180 208 205 178 181
          208 205 178 181 209 206
          179 182 210 207 180 183
          211 208 181 184 211 208
          181 184 212 209 182 185
          213 210 183 186 214 211
          184 187 214 211 184 187
          215 212 185 188 216 213
          186 189 217 214 187 190
          217 214 187 190 218 215
          188 191 219 216 189 192
          220 217 190 193 220 217
          190 193 221 218 191 194
          225 222 195 198 226 223
          196 199 226 223 196 199
          227 224 197 200 228 225
          198 201 229 226 199 202
          229 226 199 202 230 227
          200 203 231 228 201 204
          232 229 202 205 232 229
          202 205 233 230 203 206
          234 231 204 207 235 232
          205 208 235 232 205 208
          236 233 206 209 237 234
          207 210 238 235 208 211
          238 235 208 211 239 236
          209 212 240 237 210 213
          241 238 211 214 241 238
          211 214 242 239 212 215
          243 240 213 216 244 241
          214 217 244 241 214 217
          245 242 215 218 246 243
          216 219 247 244 217 220
          247 244 217 220 248 245
          218 221 252 249 222 225
          253 250 223 226 253 250
          223 226 254 251 224 227
          255 252 225 228 256 253
          226 229 256 253 226 229
          257 254 227 230 258 255
          228 231 259 256 229 232
          259 256 229 232 260 257
          230 233 261 258 231 234
          262 259 232 235 262 259
          232 235 263 260 233 236
          264 261 234 237 265 262
          235 238 265 262 235 238
          266 263 236 239 267 264
          237 240 268 265 238 241
          268 265 238 241 269 266
          239 242 270 267 240 243
          271 268 241 244 271 268
          241 244 272 269 242 245
          273 270 243 246 274 271
          244 247 274 271 244 247
          275 272 245 248 279 276
          249 252 280 277 250 253
          280 277 250 253 281 278
          251 254 282 279 252 255
          283 280 253 256 283 280
          253 256 284 281 254 257
          285 282 255 258 286 283
          256 259 286 283 256 259
          287 284 257 260 288 285
          258 261 289 286 259 262
          289 286 259 262 290 287
          260 263 291 288 261 264
          292 289 262 265 292 289
          262 265 293 290 263 266
          294 291 264 267 295 292
          265 268 295 292 265 268
          296 293 266 269 297 294
          267 270 298 295 268 271
          298 295 268 271 299 296
          269 272 300 297 270 273
          301 298 271 274 301 298
          271 274 302 299 272 275
          306 303 276 279 307 304
          277 280 307 304 277 280
          308 305 278 281 309 306
          279 282 310 307 280 283
          310 307 280 283 311 308
          281 284 312 309 282 285
          313 310 283 286 313 310
          283 286 314 311 284 287
          315 312 285 288 316 313
          286 289 316 313 286 289
          317 314 287 290 318 315
          288 291 319 316 289 292
          319 316 289 292 320 317
          290 293 321 318 291 294
          322 319 292 295 322 319
          292 295 323 320 293 296
          324 321 294 297 325 322
          295 298 325 322 295 298
          326 323 296 299 327 324
          297 300 328 325 298 301
          328 325 298 301 329 326
          299 302 333 330 303 306
          334 331 304 307 334 331
          304 307 335 332 305 308
          336 333 306 309 337 334
          307 310 337 334 307 310
          338 335 308 311 339 336
          309 312 340 337 310 313
          340 337 310 313 341 338
          311 314 342 339 312 315
          343 340 313 316 343 340
          313 316 344 341 314 317
          345 342 315 318 346 343
          316 319 346 343 316 319
          347 344 317 320 348 345
          318 321 349 346 319 322
          349 346 319 322 350 347
          320 323 351 348 321 324
          352 349 322 325 352 349
          322 325 353 350 323 326
          354 351 324 327 355 352
          325 328 355 352 325 328
          356 353 326 329 360 357
          330 333 361 358 331 334
          361 358 331 334 362 359
          332 335 363 360 333 336
          364 361 334 337 364 361
          334 337 365 362 335 338
          366 363 336 339 367 364
          337 340 367 364 337 340
          368 365 338 341 369 366
          339 342 370 367 340 343
          370 367 340 343 371 368
          341 344 372 369 342 345
          373 370 343 346 373 370
          343 346 374 371 344 347
          375 372 345 348 376 373
          346 349 376 373 346 349
          377 374 347 350 378 375
          348 351 379 376 349 352
          379 376 349 352 380 377
          350 353 381 378 351 354
          382 379 352 355 382 379
          352 355 383 380 353 356
          387 384 360 363 388 385
          361 364 388 385 361 364
          389 386 362 365 390 387
          363 366 391 388 364 367
          391 388 364 367 392 389
          365 368 393 390 366 369
          394 391 367 370 394 391
          367 370 395 392 368 371
          396 393 369 372 397 394
          370 373 397 394 370 373
          398 395 371 374 399 396
          372 375 400 397 373 376
          400 397 373 376 401 398
          374 377 402 399 375 378
          403 400 376 379 403 400
          376 379 404 401 377 380
          405 402 378 381 406 403
          379 382 406 403 379 382
          407 404 380 383 411 408
          384 387 412 409 385 388
          412 409 385 388 413 410
          386 389 414 411 387 390
          415 412 388 391 415 412
          388 391 416 413 389 392
          417 414 390 393 418 415
          391 394 418 415 391 394
          419 416 392 395 420 417
          393 396 421 418 394 397
          421 418 394 397 422 419
          395 398 423 420 396 399
          424 421 397 400 424 421
          397 400 425 422 398 401
          426 423 399 402 427 424
          400 403 427 424 400 403
          428 425 401 404 429 426
          402 405 430 427 403 406
          430 427 403 406 431 428
          404 407 435 432 408 411
          436 433 409 412 436 433
          409 412 437 434 410 413
          438 435 411 414 439 436
          412 415 439 436 412 415
          440 437 413 416 441 438
          414 417 442 439 415 418
          442 439 415 418 443 440
          416 419 444 441 417 420
          445 442 418 421 445 442
          418 421 446 443 419 422
          447 444 420 423 448 445
          421 424 448 445 421 424
          449 446 422 425 450 447
          423 426 451 448 424 427
          451 448 424 427 452 449
          425 428 453 450 426 429
          454 451 427 430 454 451
          427 430 455 452 428 431
          459 456 432 435 460 457
          433 436 460 457 433 436
          461 458 434 437 462 459
          435 438 463 460 436 439
          463 460 436 439 464 461
          437 440 465 462 438 441
          466 463 439 442 466 463
          439 442 467 464 440 443
          468 465 441 444 469 466
          442 445 469 466 442 445
          470 467 443 446 471 468
          444 447 472 469 445 448
          472 469 445 448 473 470
          446 449 474 471 447 450
          475 472 448 451 475 472
          448 451 476 473 449 452
          477 474 450 453 478 475
          451 454 478 475 451 454
          479 476 452 455 483 480
          459 462 484 481 460 463
          484 481 460 463 485 482
          461 464 486 483 462 465
          487 484 463 466 487 484
          463 466 488 485 464 467
          489 486 465 468 490 487
          466 469 490 487 466 469
          491 488 467 470 492 489
          468 471 493 490 469 472
          493 490 469 472 494 491
          470 473 495 492 471 474
          496 493 472 475 496 493
          472 475 497 494 473 476
          498 495 474 477 499 496
          475 478 499 496 475 478
          500 497 476 479 504 501
          480 483 505 502 481 484
          505 502 481 484 506 503
          482 485 507 504 483 486
          508 505 484 487 508 505
          484 487 509 506 485 488
          510 507 486 489 511 508
          487 490 511 508 487 490
          512 509 488 491 513 510
          489 492 514 511 490 493
          514 511 490 493 515 512
          491 494 516 513 492 495
          517 514 493 496 517 514
          493 496 518 515 494 497
          519 516 495 498 520 517
          496 499 520 517 496 499
          521 518 497 500 525 522
          501 504 526 523 502 505
          526 523 502 505 527 524
          503 506 528 525 504 507
          529 526 505 508 529 526
          505 508 530 527 506 509
          531 528 507 510 532 529
          508 511 532 529 508 511
          533 530 509 512 534 531
          510 513 535 532 511 514
          535 532 511 514 536 533
          512 515 537 534 513 516
          538 535 514 517 538 535
          514 517 539 536 515 518
          687 537 516 519 688 538
          517 520 688 538 517 520
          689 539 518 521 543 540
          522 525 544 541 523 526
          544 541 523 526 545 542
          524 527 546 543 525 528
          547 544 526 529 547 544
          526 529 548 545 527 530
          549 546 528 531 550 547
          529 532 550 547 529 532
          551 548 530 533 552 549
          531 534 553 550 532 535
          553 550 532 535 554 551
          533 536 690 552 534 537
          691 553 535 538 691 553
          535 538 692 554 536 539
          693 690 537 687 694 691
          538 688 694 691 538 688
          695 692 539 689 696 697
          540 543 698 699 541 544
          698 699 541 544 700 701
          542 545 702 696 543 546
          703 698 544 547 703 698
          544 547 704 700 545 548
          705 702 546 549 706 703
          547 550 706 703 547 550
          707 704 548 551 708 705
          549 552 709 706 550 553
          709 706 550 553 710 707
          551 554 711 708 552 690
          712 709 553 691 712 709
          553 691 713 710 554 692
          555 556 557 558 559 560
          561 562 559 560 561 562
          563 564 565 566 567 568
          569 570 571 572 573 574
          571 572 573 574 575 576
          577 578 579 714 580 581
          582 715 583 584 582 715
          583 584 585 716 586 587
          579 588 717 714 582 589
          718 715 582 589 718 715
          585 590 719 716 591 592
          593 594 595 596 597 598
          595 596 597 598 599 600
          601 602 594 558 557 591
          598 562 561 595 598 562
          561 595 602 566 565 599
          603 567 570 604 605 571
          574 606 605 571 574 606
          607 575 578 608 555 609
          610 611 559 612 613 614
          559 612 613 614 563 615
          616 617 594 593 720 721
          598 597 722 723 598 597
          722 723 602 601 724 725
          726 727 611 610 728 729
          614 613 728 729 614 613
          730 731 617 616 567 732
          733 568 571 734 735 572
          571 734 735 572 575 736
          737 576 604 618 619 603
          606 620 621 605 606 620
          621 605 608 622 623 607
          567 603 738 732 571 605
          739 734 571 605 739 734
          575 607 740 736 579 624
          625 588 582 626 627 589
          582 626 627 589 585 628
          629 590 625 741 717 588
          627 742 718 589 627 742
          718 589 629 743 719 590
          744 630 733 745 746 631
          735 747 746 631 735 747
          748 632 737 749 633 634
          610 609 635 636 613 612
          635 636 613 612 637 638
          616 615 634 750 726 610
          636 751 728 613 636 751
          728 613 638 752 730 616
          555 558 633 609 559 562
          635 612 559 562 635 612
          563 566 637 615 753 750
          634 754 755 751 636 756
          755 751 636 756 757 752
          638 758 639 640 625 624
          641 642 627 626 641 642
          627 626 643 644 629 628
          625 611 727 741 627 614
          729 742 627 614 729 742
          629 617 731 743 634 633
          721 754 636 635 723 756
          636 635 723 756 638 637
          725 758 580 759 687 519
          583 760 688 520 583 760
          688 520 586 761 689 521
          581 580 519 498 584 583
          520 499 584 583 520 499
          587 586 521 500 592 645
          646 593 596 647 648 597
          596 647 648 597 600 649
          650 601 651 652 300 273
          653 654 301 274 653 654
          301 274 655 656 302 275
          569 651 273 246 573 653
          274 247 573 653 274 247
          577 655 275 248 556 405
          381 557 560 406 382 561
          560 406 382 561 564 407
          383 565 570 569 246 219
          574 573 247 220 574 573
          247 220 578 577 248 221
          557 381 354 591 561 382
          355 595 561 382 355 595
          565 383 356 599 604 570
          219 192 606 574 220 193
          606 574 220 193 608 578
          221 194 640 555 611 625
          642 559 614 627 642 559
          614 627 644 563 617 629
          618 604 192 165 620 606
          193 166 620 606 193 166
          622 608 194 167 657 618
          165 141 658 620 166 142
          658 620 166 142 659 622
          167 143 660 661 117 93
          662 663 118 94 662 663
          118 94 664 665 119 95
          661 657 141 117 663 658
          142 118 663 658 142 118
          665 659 143 119 762 738
          603 619 763 739 605 621
          763 739 605 621 764 740
          607 623 429 639 624 453
          430 641 626 454 430 641
          626 454 431 643 628 455
          666 568 733 630 667 572
          735 631 667 572 735 631
          668 576 737 632 669 660
          93 69 670 662 94 70
          670 662 94 70 671 664
          95 71 592 327 300 645
          596 328 301 647 596 328
          301 647 600 329 302 649
          721 633 558 594 723 635
          562 598 723 635 562 598
          725 637 566 602 744 720
          593 646 746 722 597 648
          746 722 597 648 748 724
          601 650 477 453 624 672
          478 454 626 673 478 454
          626 673 479 455 628 674
          327 592 591 354 328 596
          595 355 328 596 595 355
          329 600 599 356 669 675
          765 766 670 676 767 768
          670 676 767 768 671 677
          769 770 639 429 405 556
          641 430 406 560 641 430
          406 560 643 431 407 564
          581 672 624 579 584 673
          626 582 584 673 626 582
          587 674 628 585 678 619
          618 657 679 621 620 658
          679 621 620 658 680 623
          622 659 42 43 765 675
          44 45 767 676 44 45
          767 676 46 47 769 677
          646 645 300 652 648 647
          301 654 648 647 301 654
          650 649 302 656 619 678
          771 762 621 679 772 763
          621 679 772 763 623 680
          773 764 744 646 652 630
          746 648 654 631 746 648
          654 631 748 650 656 632
          678 681 774 771 679 682
          775 772 679 682 775 772
          680 683 776 773 681 678
          657 661 682 679 658 663
          682 679 658 663 683 680
          659 665 666 630 652 651
          667 631 654 653 667 631
          654 653 668 632 656 655
          651 569 568 666 653 573
          572 667 653 573 572 667
          655 577 576 668 681 684
          766 774 682 685 768 775
          682 685 768 775 683 686
          770 776 759 580 714 777
          760 583 715 778 760 583
          715 778 761 586 716 779
          672 581 498 477 673 584
          499 478 673 584 499 478
          674 587 500 479 639 556
          555 640 641 560 559 642
          641 560 559 642 643 564
          563 644 675 669 69 42
          676 670 70 44 676 670
          70 44 677 671 71 46
          684 681 661 660 685 682
          663 662 685 682 663 662
          686 683 665 664 660 669
          766 684 662 670 768 685
          662 670 768 685 664 671
          770 686
        </DataArray>
        <DataArray type="Int64" Name="offsets" format="ascii" RangeMin="8" RangeMax="3632">
          8 16 24 32 40 48
          56 64 72 80 88 96
          104 112 120 128 136 144
          152 160 168 176 184 192
          200 208 216 224 232 240
          248 256 264 272 280 288
          296 304 312 320 328 336
          344 352 360 368 376 384
          392 400 408 416 424 432
          440 448 456 464 472 480
          488 496 504 512 520 528
          536 544 552 560 568 576
          584 592 600 608 616 624
          632 640 648 656 664 672
          680 688 696 704 712 720
          728 736 744 752 760 768
          776 784 792 800 808 816
          824 832 840 848 856 864
          872 880 888 896 904 912
          920 928 936 944 952 960
          968 976 984 992 1000 1008
          1016 1024 1032 1040 1048 1056
          1064 1072 1080 1088 1096 1104
          1112 1120 1128 1136 1144 1152
          1160 1168 1176 1184 1192 1200
          1208 1216 1224 1232 1240 1248
          1256 1264 1272 1280 1288 1296
          1304 1312 1320 1328 1336 1344
          1352 1360 1368 1376 1384 1392
          1400 1408 1416 1424 1432 1440
          1448 1456 1464 1472 1480 1488
          1496 1504 1512 1520 1528 1536
          1544 1552 1560 1568 1576 1584
          1592 1600 1608 1616 1624 1632
          1640 1648 1656 1664 1672 1680
          1688 1696 1704 1712 1720 1728
          1736 1744 1752 1760 1768 1776
          1784 1792 1800 1808 1816 1824
          1832 1840 1848 1856 1864 1872
          1880 1888 1896 1904 1912 1920
          1928 1936 1944 1952 1960 1968
          1976 1984 1992 2000 2008 2016
          2024 2032 2040 2048 2056 2064
          2072 2080 2088 2096 2104 2112
          2120 2128 2136 2144 2152 2160
          2168 2176 2184 2192 2200 2208
          2216 2224 2232 2240 2248 2256
          2264 2272 2280 2288 2296 2304
          2312 2320 2328 2336 2344 2352
          2360 2368 2376 2384 2392 2400
          2408 2416 2424 2432 2440 2448
          2456 2464 2472 2480 2488 2496
          2504 2512 2520 2528 2536 2544
          2552 2560 2568 2576 2584 2592
          2600 2608 2616 2624 2632 2640
          2648 2656 2664 2672 2680 2688
          2696 2704 2712 2720 2728 2736
          2744 2752 2760 2768 2776 2784
          2792 2800 2808 2816 2824 2832
          2840 2848 2856 2864 2872 2880
          2888 2896 2904 2912 2920 2928
          2936 2944 2952 2960 2968 2976
          2984 2992 3000 3008 3016 3024
          3032 3040 3048 3056 3064 3072
          3080 3088 3096 3104 3112 3120
          3128 3136 3144 3152 3160 3168
          3176 3184 3192 3200 3208 3216
          3224 3232 3240 3248 3256 3264
          3272 3280 3288 3296 3304 3312
          3320 3328 3336 3344 3352 3360
          3368 3376 3384 3392 3400 3408
          3416 3424 3432 3440 3448 3456
          3464 3472 3480 3488 3496 3504
          3512 3520 3528 3536 3544 3552
          3560 3568 3576 3584 3592 3600
          3608 3616 3624 3632
        </DataArray>
        <DataArray type="UInt8" Name="types" format="ascii" RangeMin="12" RangeMax="12">
          12 12 12 12 12 12
          12 12 12 12 12 12
          12 12 12 12 12 12
          12 12 12 12 12 12
          12 12 12 12 12 12
          12 12 12 12 12 12
          12 12 12 12 12 12
          12 12 12 12 12 12
          12 12 12 12 12 12
          12 12 12 12 12 12
          12 12 12 12 12 12
          12 12 12 12 12 12
          12 12 12 12 12 12
          12 12 12 12 12 12
          12 12 12 12 12 12
          12 12 12 12 12 12
          12 12 12 12 12 12
          12 12 12 12 12 12
          12 12 12 12 12 12
          12 12 12 12 12 12
          12 12 12 12 12 12
          12 12 12 12 12 12
          12 12 12 12 12 12
          12 12 12 12 12 12
          12 12 12 12 12 12
          12 12 12 12 12 12
          12 12 12 12 12 12
          12 12 12 12 12 12
          12 12 12 12 12 12
          12 12 12 12 12 12
          12 12 12 12 12 12
          12 12 12 12 12 12
          12 12 12 12 12 12
          12 12 12 12 12 12
          12 12 12 12 12 12
          12 12 12 12 12 12
          12 12 12 12 12 12
          12 12 12 12 12 12
          12 12 12 12 12 12
          12 12 12 12 12 12
          12 12 12 12 12 12
          12 12 12 12 12 12
          12 12 12 12 12 12
          12 12 12 12 12 12
          12 12 12 12 12 12
          12 12 12 12 12 12
          12 12 12 12 12 12
          12 12 12 12 12 12
          12 12 12 12 12 12
          12 12 12 12 12 12
          12 12 12 12 12 12
          12 12 12 12 12 12
          12 12 12 12 12 12
          12 12 12 12 12 12
          12 12 12 12 12 12
          12 12 12 12 12 12
          12 12 12 12 12 12
          12 12 12 12 12 12
          12 12 12 12 12 12
          12 12 12 12 12 12
          12 12 12 12 12 12
          12 12 12 12 12 12
          12 12 12 12 12 12
          12 12 12 12 12 12
          12 12 12 12 12 12
          12 12 12 12 12 12
          12 12 12 12 12 12
          12 12 12 12 12 12
          12 12 12 12 12 12
          12 12 12 12 12 12
          12 12 12 12 12 12
          12 12 12 12 12 12
          12 12 12 12 12 12
          12 12 12 12 12 12
          12 12 12 12 12 12
          12 12 12 12
        </DataArray>
      </Cells>
    </Piece>
  </UnstructuredGrid>
</VTKFile>
