<?xml version="1.0"?>
<VTKFile type="UnstructuredGrid" version="0.1" byte_order="LittleEndian" header_type="UInt32" compressor="vtkZLibDataCompressor">
  <UnstructuredGrid>
    <Piece NumberOfPoints="774" NumberOfCells="452">
      <PointData>
        <DataArray type="Int32" Name="libmesh_node_id" format="ascii" RangeMin="2286" RangeMax="4991">
          2286 2287 2288 2289 2290 2291
          2292 2293 2294 2295 2296 2297
          2340 2341 2342 2343 2344 2345
          2346 2347 2348 2349 2350 2351
          2400 2401 2403 2404 2406 2407
          2412 2413 2414 2415 2416 2417
          2418 2419 2420 2421 2422 2423
          2487 2488 2489 2490 2491 2492
          2523 2524 2525 2526 2527 2528
          2529 2530 2531 2532 2533 2534
          2550 2551 2552 2553 2554 2555
          2556 2557 2558 2559 2560 2561
          2580 2581 2582 2583 2584 2585
          2685 2686 2687 2688 2689 2690
          2691 2692 2693 2694 2695 2696
          2698 2699 2700 2702 2703 2704
          2706 2707 2708 2796 2797 2798
          2799 2800 2801 2802 2803 2804
          2805 2806 2807 2838 2839 2840
          2841 2842 2843 2844 2845 2846
          2847 2848 2849 2881 2883 2885
          2949 2950 2951 2952 2953 2954
          2955 2956 2957 3054 3055 3056
          3057 3058 3059 3093 3094 3095
          3096 3097 3098 3099 3100 3101
          3102 3103 3104 3117 3118 3119
          3120 3121 3122 3123 3124 3125
          3126 3127 3128 3195 3196 3197
          3198 3199 3200 3201 3202 3203
          3210 3211 3212 3213 3214 3215
          3216 3217 3218 3219 3220 3221
          3222 3223 3224 3225 3226 3227
          3252 3253 3254 3255 3256 3257
          3300 3301 3302 3303 3304 3305
          3306 3307 3308 3309 3310 3311
          3318 3319 3320 3321 3322 3323
          3324 3325 3326 3327 3328 3329
          3330 3331 3332 3333 3334 3335
          3366 3367 3368 3378 3379 3380
          3381 3382 3383 3384 3385 3386
          3387 3388 3389 3390 3391 3392
          3453 3454 3455 3456 3457 3458
          3459 3460 3461 3483 3484 3485
          3492 3493 3494 3525 3526 3528
          3529 3531 3532 3543 3544 3545
          3564 3565 3566 3567 3568 3569
          3570 3571 3572 3588 3589 3590
          3591 3592 3593 3609 3610 3611
          3612 3613 3614 3615 3616 3617
          3618 3619 3620 3630 3631 3632
          3633 3634 3635 3636 3637 3638
          3639 3640 3641 3654 3655 3656
          3657 3658 3659 3660 3661 3662
          3684 3685 3686 3687 3689 3691
          3693 3694 3695 3696 3697 3698
          3708 3709 3710 3711 3712 3713
          3735 3736 3737 3738 3739 3740
          3741 3742 3743 3744 3745 3746
          3747 3748 3749 3762 3763 3764
          3771 3772 3773 3774 3775 3776
          3777 3778 3779 3786 3787 3788
          3795 3796 3797 3798 3799 3800
          3801 3802 3803 3804 3805 3806
          3807 3808 3809 3816 3817 3818
          3834 3835 3836 3837 3838 3839
          3846 3847 3848 3849 3850 3851
          3861 3862 3863 3882 3884 3885
          3887 3888 3890 3900 3901 3902
          3903 3904 3905 3906 3907 3908
          3924 3925 3926 3927 3928 3929
          3930 3931 3932 3939 3940 3941
          3942 3943 3944 3954 3955 3956
          3958 3959 3960 3962 3963 3964
          3969 3970 3971 3972 3973 3974
          3993 3994 3995 4032 4033 4034
          4035 4036 4037 4053 4054 4055
          4056 4057 4058 4059 4060 4061
          4062 4063 4064 4089 4090 4091
          4104 4105 4106 4107 4108 4109
          4116 4117 4118 4128 4129 4130
          4167 4168 4169 4170 4171 4172
          4185 4186 4187 4208 4209 4212
          4213 4216 4217 4233 4234 4235
          4236 4237 4238 4254 4255 4256
          4257 4258 4259 4269 4270 4271
          4272 4273 4274 4284 4285 4286
          4287 4288 4289 4290 4291 4292
          4293 4294 4295 4302 4303 4304
          4314 4315 4316 4317 4318 4319
          4320 4321 4322 4323 4324 4325
          4326 4327 4328 4338 4339 4340
          4344 4345 4346 4350 4351 4352
          4353 4354 4355 4365 4366 4367
          4368 4369 4370 4371 4372 4373
          4374 4375 4376 4377 4378 4379
          4380 4381 4382 4383 4384 4385
          4386 4387 4388 4389 4390 4391
          4398 4399 4400 4416 4417 4418
          4422 4423 4424 4425 4426 4427
          4428 4429 4430 4434 4435 4436
          4437 4438 4439 4440 4441 4442
          4443 4444 4445 4458 4459 4460
          4482 4483 4484 4485 4486 4487
          4488 4489 4490 4491 4492 4493
          4494 4495 4496 4497 4498 4499
          4500 4501 4502 4506 4507 4508
          4509 4510 4511 4518 4519 4520
          4521 4522 4523 4545 4546 4547
          4566 4567 4568 4569 4570 4571
          4572 4573 4574 4599 4600 4601
          4602 4603 4604 4605 4606 4607
          4611 4612 4613 4647 4648 4649
          4650 4651 4652 4653 4654 4655
          4656 4657 4658 4677 4678 4679
          4689 4690 4691 4692 4693 4694
          4695 4696 4697 4716 4717 4718
          4743 4744 4745 4746 4747 4748
          4749 4750 4751 4779 4780 4781
          4788 4789 4790 4800 4801 4802
          4803 4804 4805 4806 4807 4808
          4809 4810 4811 4830 4831 4832
          4872 4873 4874 4902 4903 4904
          4923 4924 4925 4968 4969 4970
          4986 4987 4988 4989 4990 4991
          2880 2882 2884 3883 3873 3886
          3876 3889 3879 3957 3961 3965
          3875 3878 3881 4119 4120 4121
          4206 4207 4210 4211 4214 4215
          4347 4348 4349 4251 4252 4253
        </DataArray>
        <DataArray type="Float64" Name="resid_x" format="ascii" RangeMin="-0.0427200877585201" RangeMax="0.5891597774468669">
          -0.00005790161335905708 0.0011581037721546394 0.00007026865950088279 0.0003846944715153455 -0.001724885599044157 0.001218299711919002
          -0.00425414544200553 -0.0031125789022343753 -0.011928627859050245 -0.013165982987032976 -0.014683674389074142 -0.012272034784037267
          -0.0037729638010839395 0.000869931579734029 -0.0013678385267313076 0.00011985790989754719 -0.008233128318954286 0.0001068231517251661
          -0.005561121647501777 -0.0035433789889545153 -0.02128216324410559 -0.012610116968074792 -0.01235844455185886 -0.01434270038348906
          -0.016202785237993567 -0.0018841096161548165 -0.022736778991808038 -0.0030257069280388293 -0.021194190533321056 -0.010793434435479199
          -0.0016005156655092279 -0.01178284987251299 -0.018835134571560275 0.0033642332853478507 -0.004940120320984676 -0.020392215440489636
          -0.0427200877585201 0.002688387866476738 -0.005462759543843454 -0.008105953296436041 -0.023481649591265086 -0.0014041947854392944
          -0.003968737195434668 -0.002081864785742127 -0.001704698253232051 -0.00042031642456308305 -0.007590527703762229 -0.007832645866778343
          -0.0006812737594685814 0.00036907044972100955 -0.0017408756692782745 -0.001613448722412869 -0.0011335159721070909 0.000275335579399405
          -0.005363662970195193 -0.005311241856777116 0.0018152327687666059 0.0019074411358115384 0.0026805049463929365 -0.0014058594398509427
          0.00030929337940133195 -0.00039379785530213596 0.0001361542264861626 0.0005130696377459998 -0.00009224935038609772 -0.00044519074994764374
          0.0005170837100925141 -0.001563840686480411 -0.009770400782367794 -0.00521394776356221 -0.005136564356119422 -0.00724585270742395
          -0.0011248935252252679 -0.0015518188682746015 -0.002179082924015141 -0.0032924534710110365 -0.007738711224881456 -0.00973270449507524
          0.00040424864138710603 -0.000276088532889851 -0.0008735285101879597 -0.0009012284432783346 0.0002935955139076185 -0.000497182957297504
          0.0002622164163428309 0.000569483210021815 -0.00858966979939968 -0.011000495316096703 -0.0084805052824235 -0.006063401237359933
          -0.011153360889764485 -0.011357935915341955 -0.0051084602016011615 -0.021957688270763498 -0.007547727408983462 -0.0006903323199507483
          -0.021102830820074914 -0.017268238999960772 -0.010533961263693215 0.00004985988079830861 0.0013571466707666957 0.000521180949230704
          0.0005631263764476202 -0.0008408398222359281 0.0009123945797919752 -0.0007600129528668731 -0.0011555769117967962 -0.006504456343501275
          -0.0032476992672552107 -0.004694471776097053 -0.006400628522316598 0.0008555157261351809 0.0007003736685176065 0.0001983472203672676
          0.00018925949548087573 0.0012977692967606203 0.0015944628333111055 0.0007288416222088756 -0.001024883734543458 -0.002633467781608445
          -0.0028756323862610955 -0.0025059167947611982 -0.0027812580569750445 0.0005299908049654078 0.0034512667620480997 -0.002193147688297259
          -0.0008981299689470035 -0.0019488785493848582 -0.0032795768003555104 -0.000019650811582394567 -0.0033914576777531735 -0.005454728312082935
          -0.0000017146030018011515 -0.001319265848694684 -0.002653289283978122 0.0008921994907051811 -0.0005513019130134467 0.001658621423442419
          0.0007193790709756342 -0.0033241155646210885 -0.0038812364193150373 -0.008294810634110306 -0.0038854209765464276 -0.0007246556417292993
          -0.0012531952346526154 -0.009594383308399124 -0.0016300764010059865 -0.0022374361917365526 -0.002965035948530037 -0.005965926068857819
          -0.0035016399461369474 -0.0017306809702786197 -0.0015259906463906958 0.0030579753104174046 0.002189036695343205 0.005322330061131808
          0.00814676005859205 0.0011464534353491374 0.0005259225195937134 0.011412601908833864 0.018169416437714858 -0.01303760386740116
          -0.009433650673205118 -0.004967900996128094 -0.00926121801014368 0.0018981152482839825 0.0009414365365163491 -0.0011947157944982578
          0.0019119304108032864 0.0010453563379710928 0.00001699569154922642 -0.0041071388940232545 -0.007350502417737381 -0.004219515123245365
          0.005108316838163596 0.0028079317162630346 0.007894300148374 0.0020865955162285843 -0.007159284418340128 -0.0067717813777017355
          -0.0003845820635373087 0.0002499067160659507 -0.0005336555613864036 -0.00003568765867090207 -0.0009224867433950124 -0.001063877161049831
          -0.0008118644219941018 -0.0007121683819795166 -0.005785768748951092 -0.006390910830202934 -0.006344386449641526 -0.00418728797778023
          -0.00008748799148339259 -0.0016175619908169736 0.004408438588518138 -0.00003634815865272145 -0.0019307840737274873 -0.005189613060534448
          0.0020191791996495567 0.0011039694119823196 0.004194389757437023 0.001887308187985326 -0.002638531174124381 -0.0032828799666848596
          -0.003332100477752231 -0.003433878279647473 -0.0010643342196465788 -0.0008973687594417967 -0.001923179011520837 -0.0028988944664769534
          -0.001053904546398865 -0.0022681056090303464 -0.0004939249031750137 0.0003492619179231715 -0.002429088740052876 -0.00474306284082715
          -0.0027050296425548126 -0.0017790825132781851 -0.007177493665055934 -0.00595357872319191 -0.005684769544279433 -0.007015398509153448
          -0.0022510774126420774 -0.0011295621583053972 -0.0029267874558167595 -0.002171138197602396 -0.0012196444771721549 -0.0014651612723408647
          0.0026120352972061056 0.006335195154832718 -0.002836740212670108 -0.001205264678451723 -0.0017645117880480399 -0.0008435396935251305
          -0.0015771899364285247 -0.00193904047853799 -0.00471412187687914 0.0005911497333253024 -0.0006623291352338967 -0.0009231823126532035
          0.002069560178498797 -0.0007951006468189803 -0.002291536110716308 -0.0015591605901370542 -0.00042089923653865213 -0.0014865635650656017
          0.00025870987724729844 0.000028466077933941847 0.003530759501972014 0.0004714518874564533 0.00015853812478461293 0.009266353307715747
          -0.006891656046257744 -0.00563052888984128 -0.0029346060723547396 -0.004757974762205741 -0.004797339605604023 -0.0014605698131635592
          0.001901919685217912 0.0004795775409380809 -0.006003390804012909 -0.011583569942844818 -0.013432981155192536 -0.026468394562549236
          -0.020045399634327055 -0.022829663414469792 -0.01746295738053405 0.001120138432597173 0.0002655469662862231 -0.004576995971274478
          0.0009826029939783432 -0.0009343429592822972 -0.0014852392002948633 0.0014164751784133678 -0.00019239728591413652 -0.0007805550449058174
          -0.003622600651323804 -0.002964084753721341 -0.0061042552161292285 -0.0011989554808620184 -0.0012305690682787862 -0.001854263353700425
          -0.0009328017319494286 -0.0050925492836668695 -0.001994084190891865 -0.006553607166576825 -0.0006981370551641941 0.0001460432845634685
          -0.00003872401160975869 -0.01368985964310454 -0.003459358377709165 -0.0012022148891670525 -0.0044265342105109795 -0.022449320973525033
          -0.008719182796208091 -0.012144409844150772 -0.015687706721312367 0.00020387540155386574 -0.001626871627222748 -0.0022363997960406223
          0.00036037983960923725 -0.00044103709397802504 -0.004548271539733584 -0.003442748863143663 -0.0009949395529638139 -0.013613094842915174
          -0.015683001460905288 -0.015989405344916996 -0.01510320215233385 -0.009147580700883395 0.002444902098239332 0.001876737336030665
          -0.02077149658730626 0.003437825139596562 0.000041190243663002946 -0.020798891969771027 -0.014030168631728124 -0.008984590719522068
          -0.001208823846680751 -0.0005757356370814648 -0.00042447289256752896 -0.0011700036908104394 -0.0011964300990232601 -0.0020905295029631787
          -0.01253012055625291 -0.009474186689353736 -0.017564771603522544 -0.012812153529987214 -0.01446271737402638 -0.01641975454731881
          -0.007701284598432778 -0.008395334807666188 -0.00555814055453574 -0.0034890242901184365 -0.01452061799899873 -0.014341948499770218
          -0.004270210916234252 -0.0021450099606314943 -0.0012139766853445089 -0.00462445543904777 -0.0017114198035087236 -0.00510876740298194
          -0.006000662048210259 0.0008966896652071732 0.00039992520082593463 -0.00020091605273098168 -0.005285973242787456 -0.016607263682425266
          -0.006078800697097098 -0.011959117576408218 -0.016702658001984894 -0.009278335929282733 -0.0031142692836674257 -0.014630751132968633
          -0.006345027527898228 -0.00283777379027339 -0.014240851195515658 -0.0012740367906327599 -0.0019420012259421249 0.0003328110963014552
          -0.001927152726866499 -0.003748873366017591 -0.006289562219847777 -0.002771835815449819 -0.001872290222062034 -0.0013242107466693298
          -0.0038460533438575695 -0.00268476542133822 -0.0034459301242257823 -0.001942795247185991 -0.006258807090407714 -0.005720958419246358
          -0.001908435807975728 -0.0004440551967155315 -0.000025250820150368725 -0.00415149489508293 -0.00270031744040633 -0.0031677080502129085
          -0.0012093598228331004 -0.009305051815623355 -0.00783612208179374 -0.006799473490356367 -0.0027550178267424785 -0.011008765051987002
          -0.007800072623521892 -0.004187418311702551 -0.01668771716400297 -0.003940044294870715 -0.0010750170552731309 -0.005925129835074983
          0.00010696906827778463 -0.002561548304609751 0.0013520248918732491 -0.003082022859332456 0.0014411807503913465 -0.0017301201198327565
          -0.004841826350612255 0.00002901308412323056 -0.0037040930636759173 -0.012821146863349675 -0.01877427092138184 -0.02497351065221931
          -0.02970224565648749 -0.01328326284620207 -0.022507034530629966 -0.0022264167122960643 -0.0018884025344112487 -0.0021192027275755976
          -0.001335933593329841 -0.001547952088653659 -0.0019038719627593181 -0.006800204213228689 -0.004861199105646641 -0.004513301139700943
          -0.002574676679270027 -0.0009226414410310468 -0.005287085509531053 0.0006005262274308976 0.0010373822096783059 -0.0038313841018089434
          -0.0015252280864277434 -0.0005924169706901239 -0.002848980798246359 -0.006575605032615783 -0.005997250930117826 -0.010124621468593276
          -0.00849500229817135 -0.0020465629897934434 0.00033937903642744516 -0.00884493662545438 -0.0069117284151785086 -0.01616700245362246
          -0.016997632782729255 -0.008174238924404165 -0.01306902164794188 -0.014135293955854777 -0.011328559107836256 -0.013162011437562349
          -0.008757131258573914 -0.013946635557016585 -0.001227896351286617 -0.005586919660092615 -0.0025431685513650493 -0.008210579199988466
          -0.011558449816596372 -0.01100249830364941 -0.015313582679651994 -0.00059371944716613 -0.0016289987242510406 0.0016370107207963613
          -0.0013139916870335 0.0007901755533090693 -0.0023637065181949524 -0.0015141085173846491 -0.0009656318685475895 -0.00007540561440233517
          -0.00024205970755541983 -0.0014902017160132175 -0.0027673387670299476 -0.0016947649068530524 -0.0003680116426498792 -0.0015656874634180085
          -0.00005682404418383413 -0.005143839677458573 -0.0022195046511943595 -0.0020405097334350586 -0.0011328214283969906 -0.005496728995687761
          -0.0049958120971469455 -0.014317209777780171 -0.004289307788589269 -0.012737665310488033 -0.0017954491083358448 -0.0070405193425910895
          -0.01264556629214919 -0.014766616590448756 -0.004317768096231411 -0.005878615973845314 0.003458511412873122 -0.01262062832373001
          -0.011471607469274225 -0.019064486054853447 -0.010010234137314278 -0.004576704578253654 0.003536295388525623 -0.011324732899234746
          -0.005537109776972082 0.0015942875496421927 -0.010215545619442157 0.28281727060950557 0.14456599401080616 0.5891597774468669
          0.3084521294983906 0.3080727607053775 0.1657099217312581 -0.0068205938719466674 -0.008521837763959539 -0.0016998491240088898
          -0.003154360557795499 -0.0054680431490170545 -0.008682403818600193 -0.0034204480585300345 -0.0016715549277419584 -0.006419068145895324
          -0.005112181259895543 -0.00005893753391994494 -0.014245580278942072 -0.011463705669149782 -0.0023075953189461984 -0.010286642448502192
          -0.0007557582979176303 0.0006381245829158999 -0.000521670443593969 -0.0015149258990261316 -0.0008283087140021905 -0.00017141311936530457
          -0.0036381442598827363 -0.004938840126262889 -0.002250439794392989 -0.003086934425660104 -0.002467145523041836 -0.00008190425194065654
          0.0013952439664688399 -0.0006730519604358776 -0.0010282087023316677 -0.004094365552524515 -0.0015342723364950572 -0.0015186044413688649
          -0.0008638840665007308 -0.003210823891432124 0.0011352079539328486 -0.0038365816557623944 -0.0039396103923792225 -0.004474986876156883
          -0.006332858801616936 -0.015930537625211016 -0.0003638360466133861 -0.001984120952108981 -0.03429741023814259 -0.0006198484016861627
          -0.013091852332181908 -0.029719500817858346 -0.013265846492070743 -0.005298867953886344 -0.006162823837395415 -0.014438214667070959
          -0.004388928377244028 -0.0021276032185415517 -0.0018773433332937017 -0.005163344595179531 -0.003423264421256178 0.001674477399120633
          0.004572464089774186 -0.012104145451344195 -0.008862854884815974 -0.008543116389773786 -0.004482830125088544 -0.0046555517495567855
          -0.0012011502052597933 -0.0027725284456652233 -0.0010084951616793347 -0.0030594499726939173 0.0013871500613593657 -0.00044159404279575654
          -0.006606340199822647 -0.005452687977544279 -0.0013122369285500923 -0.0010762107547628297 -0.001858291894204278 -0.0017164113367638123
          -0.003765770099905197 -0.00021150973189154598 -0.0010763460226876909 -0.0012309274641881807 -0.008734309583427802 -0.0002967907717232876
          -0.003625717746743806 -0.0041505984315435285 -0.007540822635795585 -0.0034401859509034516 -0.008099758407130064 -0.007335484113304869
          -0.006134127901193054 -0.002232158478881807 -0.01249706420165353 -0.0037720401185965535 -0.0021342151585082014 -0.004941763262285015
          0.0024694297997278625 0.00047897704381316686 0.003076954939552401 0.0008549182218704487 -0.0020764482203947665 -0.0008211953163508312
          -0.005380655402130605 0.0013678989614930859 -0.0024424008927455554 -0.015831922337739 -0.002227160820488905 -0.03126210798531659
          0.0006383612551719153 -0.02590515072397892 -0.00898812723422715 0.0023919214654846144 0.005130369918241229 0.0011087855840807848
          0.010101972328367737 -0.007588774092668338 -0.0033861651979361085 -0.019938442363017117 -0.039243973901598395 -0.03048137791257144
          -0.0033975103240262428 -0.003793019545353271 0.0018154887455397173 -0.0012170104328722564 0.0001258606124405759 -0.0014476171717581199
          -0.00040633270488044104 -0.004675644173230964 -0.006882906798798771 -0.0031557612137618207 -0.000909210343764677 -0.006083321706422673
          -0.0049282566009365425 -0.004630600563221066 -0.00698738694591583 -0.011191132743379129 -0.011812124081078679 -0.01048471211669355
          0.004048861904561996 0.00375925678141531 -0.0032720769445102604 -0.007581757334539141 -0.0016936201737296486 -0.004735074114875282
          -0.0015429050045421278 -0.014304746218139819 -0.0043337236971430215 0.0012145108753163214 -0.0007539118229109576 0.0010776033318045108
          -0.0002770293855389738 -0.006064367123453707 -0.008106019306139522 -0.001595065189991196 -0.0011745506940128436 -0.009498630020531529
          -0.00531754017087227 0.0036513986481576666 -0.009142357863853201 0.002729076900970462 0.0022538477968732096 -0.004950589248804427
          -0.0067177818099564135 -0.006140018660882429 -0.009496807461821799 -0.010889578920589393 -0.01990288139144525 -0.01217672571309425
          0.0035154515600606118 0.0015651640220850638 0.0019329981496847282 0.00036418267491455936 -0.006372959061820893 -0.005124318968294794
          -0.005528538884258971 -0.0008371286496471342 -0.011225281120083253 -0.0031658264057843333 -0.00216482249298533 -0.0015264579582678905
          -0.0056752994864752715 0.009524964763712562 -0.009515639149686228 -0.004560606078792162 0.0003943608326544279 -0.00007212979198989444
          -0.007212236558176599 -0.011300556768309988 -0.010510742552432006 -0.006526333724443889 0.0005231640146683425 -0.0021367128349067954
          -0.0016897692944333187 -0.003941986408162457 -0.0009732426781683401 -0.0009534073434771528 -0.0019150112684540588 -0.0010831877805834722
          -0.004086556988507795 -0.00821246044787749 -0.00524324317392022 -0.0034013196683275737 0.0000846915775225554 -0.003668522264057117
          -0.003220695599730483 -0.005481096705373112 0.009547201408270034 -0.001604703875731417 -0.004120055821273283 -0.004062842971349845
          -0.004477935212023887 -0.0009496587974640036 -0.006597196682760931 -0.007064419186420867 -0.006170181702264355 -0.008509861266085661
          -0.0002704382131080152 -0.0007575149294725136 -0.00577893064702284 -0.006235040612012632 -0.0016577035331262202 -0.008457258394066969
          -0.007137084444019948 -0.00983650711400319 -0.0015680606586183643 -0.006776015987199457 -0.011381942602762152 -0.01573518525785733
          -0.006534109358682816 -0.003003436370904833 -0.006497642999133468 -0.01091775900018277 -0.015727404593127048 -0.013491467744629837
          0.0022278141671527862 0.013169697502633637 0.006411672966185389 -0.02076517508285569 -0.027680780277208328 -0.019883501597945497
          -0.005468667021886642 -0.002399557454279666 -0.0013881389590175708 -0.021700542815727086 -0.030241874742809927 -0.020061057598657506
          -0.011764526532222153 -0.01828593500659137 -0.0005337864848726781 -0.007469650752191637 -0.0038120037602276113 -0.011251663956141744
          0.0036801134583566153 0.010219502323961294 0.009718294407949912 -0.015918543893700843 -0.007762701357503232 -0.022684909535588105
          -0.009697724154076326 -0.010024226403825054 -0.008588068586409037 -0.012554603595734903 -0.015388217326370857 -0.009063007032614312
          -0.0059379771084326904 0.0037446228472397536 -0.005341910688125395 -0.008007876083121701 -0.0064481970319523185 -0.001934044146890912
          0.0198944636033076 0.1542918975854164 0.03785377803259138 0.32071399446287074 0.019017002755465917 0.16554482489779865
          -0.01566261534518887 -0.012445441096240017 -0.004131528906937909 -0.009740657519939688 -0.008195553383700371 -0.00306162174520086
        </DataArray>
        <DataArray type="Float64" Name="resid_y" format="ascii" RangeMin="-1.34348917506743" RangeMax="1.0225327234516617">
          0.0001717706659155882 -0.00033036776808337276 0.00011866137818933309 -0.0007651351641179693 0.0018620305715529584 0.001347442205398286
          0.003380697162280233 0.001696131088180286 0.006036811641563222 0.006986016780748949 0.007576977171524946 0.006315622304818025
          0.000046712943542359664 -0.0004803617667564486 -0.0020674187770725605 -0.0036731495362799793 0.0009598314234595257 0.00020211638939049426
          -0.003434787958554425 -0.004371301968853353 0.005391869301140287 0.003542456768647978 0.00206075737169098 0.002526301526238034
          0.013201218306193918 0.009587531854873155 0.016939314673509953 0.018658151943812484 0.011115918325337204 0.011097574447882508
          -0.00459310255956448 -0.0035761623492751304 -0.0027074065773878275 -0.0016293427756400858 -0.00999792226548267 -0.00625753421345536
          -0.007043754906512545 -0.006715260301190795 -0.005684940760947957 -0.0022420294973126975 -0.004867462368016107 -0.006549702607853591
          -0.0007357825627710701 -0.0010099049326503517 0.00009525812388011534 0.0016347730089865536 0.0032758711886651526 0.00421906089820287
          -0.0001095804495044872 0.00011877331024962023 0.004026727557554399 0.0017269642908276372 -0.00019239809183640988 0.0010525715624912224
          0.009574228634103843 0.0036341500561851703 0.0010340009234440506 0.0013663750416541554 0.005118104538530066 0.002232222045924395
          -0.00031920375048272165 0.0003499800473988901 -0.0003865679942631206 -0.0006322920962383849 -0.00016943760090609716 0.0013467158009329572
          0.0003543837114943771 0.00007631676002078924 0.0019001755565303813 0.0019945804211755624 0.0020519785217607 0.002508297046952934
          0.002527976491763839 0.003945632211946895 0.0024942696346743065 0.0033286103830466734 0.004418631305874388 0.0049717452200728415
          -0.0009558050389137374 -0.000788291225681137 -0.0003796651826323272 -0.000095390210968882 -0.0015679748057116916 -0.00038293647528164776
          -0.0005306755601737212 -0.00024711839041341443 0.0006975837269849183 0.000633024250394687 0.0007022603671857919 0.0015139651886862948
          -0.0007075203846605982 0.012820896165726903 0.010662071394577616 0.001207752750759572 0.008900302227573098 0.01073808577331431
          0.008359421535924227 0.008777165843873724 0.007440748663361141 -0.000012134630327398366 -0.00038909987022492376 -0.0003889968519072695
          0.0003375558357775754 -0.00003074375557704512 -0.0008988042760426883 -0.000857936552245489 0.0005271586001992234 0.0002520209326429823
          -0.0006195524125779117 0.00005728049050970907 0.0004933663783316111 -0.0006961737449359129 -0.0009754746645090906 -0.0013758081831554414
          -0.001509665829135632 -0.0005145637818388393 -0.0006714776897360913 -0.0003002649805595725 -0.0011758449205931578 0.0023570301077364686
          0.0030420174164141056 0.0036592865381391837 0.0022496933109863552 0.001405997793773336 0.0007919408031025373 0.0006648136714861724
          0.0009065665850224586 -0.0008998302813230663 0.00017629362063914522 0.00014118010120693636 -0.0015546789938467587 0.0023719553461975518
          0.00101299912258275 0.0014706556880886845 0.004146154921104761 0.002252530068560077 0.004133297466243316 0.00048279830689285097
          0.0025384079961536105 0.0022497920626288193 0.0033549949590728906 -0.0021903079382479262 0.0004753078093688301 -0.0010385999083258601
          -0.002099970584074795 -0.004407618906320632 -0.0018474415680519995 -0.002392124664660572 -0.0033658897760964757 -0.000885634923424472
          -0.0005598645991358175 -0.0006104812128883419 0.0001742812574374586 -0.0007781787438030374 -0.0007009564572471594 -0.001962227558753138
          -0.0019293861830652625 -0.0010446581423220191 -0.0011263404243712083 -0.0038253974458926643 -0.003075010394775868 0.0008652227551897429
          0.0007617017163580875 -0.0010131429373647083 -0.00006078676932563809 0.0004452987597391711 0.0026655561102407743 0.00048688450196249233
          0.0015652948280634321 0.002202646776922945 0.0034692549510961165 0.002343690419812458 0.003731952067738742 0.003180713073998448
          -0.6505607211627953 -0.4848433021206574 -1.34348917506743 -0.9967909026124466 -0.7223213273563 -0.6639390573808638
          -0.00032640353093814356 -0.0006190264961827632 0.00003489178477204813 -0.0012679100815234327 -0.00026670345813707697 -0.0013854410001992862
          0.001276531305430706 -0.00035737604822822996 0.005751579654424868 0.004021728519726986 0.004948159489376325 0.0035950727399835583
          0.0016386713826923582 0.006682816279163978 -0.0007166028848295536 0.008588662284625348 0.0005359335248328878 0.005168939582618617
          0.0022237288955254397 0.00014221759965604708 0.0007622646690416679 0.0006593633739918614 0.0018037642802499199 0.0022492285698556547
          0.002260143594898123 0.0020881740579461183 0.0013079683486375698 0.0013359304130478866 0.0034201990340934074 0.004734424116570601
          0.001745170438356286 0.0018719888485676517 -0.00007047327588344254 -0.000015935015569970568 0.0005457982024578423 0.0034782119523101285
          0.0010908007268723152 0.002206790720529331 0.0025525099733566814 0.003813735161591114 0.0033688511894541806 0.003997187241665284
          -0.0008240167613746685 -0.0003671937339989467 -0.0013386651800582627 0.0010301735681334107 0.0029780032823750746 0.003495462045830011
          -0.0003016792446550176 -0.00017487790815134963 0.0013650958665391566 0.0026867451396711817 0.00297445211448763 0.0007986777943152362
          0.0006032121991194628 0.0034304836297007757 0.004087660076151828 -0.0012141148184903888 0.0009028809331691895 0.0007653228237994858
          -0.0027682490622682604 0.0006420920348889775 0.00026494858305348146 0.001328347891916555 0.0026176767040037574 0.002113450050487048
          -0.0011528763745021209 -0.0014523158881647458 -0.0007600701837784385 -0.001973899467277218 -0.0018441191067731233 -0.0004797797914772861
          0.001058657081092207 0.0012236114636116624 0.0014827378958346682 0.002430730718084251 0.0009492956791402052 0.0022859008189634045
          -0.44485551836505033 -0.8983220433386828 -0.542146448726548 -0.00008445272190388264 0.00939182080819849 0.0014787840966499627
          0.008314052832712415 0.005191316464888254 0.006503374438224338 0.0018805972684926564 -0.001726341037306789 0.0011618814564634539
          0.0008124662556468765 0.0033508154725044315 0.0039673742798639056 0.0004687884367353401 -0.0004361810059120286 0.004853094987076645
          0.003682836375875076 0.003559894877045444 0.007485981089073168 0.0020636910428614152 0.002051872270980769 0.00046110733839460627
          0.00020749020718857647 0.002134750198265478 0.0016578041832294443 0.0073671729298411814 0.002834314616707592 -0.00040309017255446555
          0.0011199502061249866 0.015650850702690344 0.007178564528636022 -0.0002943350829851532 0.003970762959474072 0.013620331968917987
          0.00651691535626267 0.004946199524307859 0.006854078613803161 0.000676790203869293 0.0027779768340411293 0.005180700625803003
          0.0024200202986016106 0.0016163246265947229 0.0023558094492161508 0.005323342677550913 0.005219678493015856 0.005953001941443159
          0.005413679687657824 0.007996349074913978 0.00941972914785022 -0.000552760912558195 -0.00016526287343610058 -0.0002352221116198594
          0.0006628197770673916 0.0012971072046207288 0.0035702633574208054 0.004700876646692054 0.008348365157604676 0.006513854503119615
          0.0034582134140852816 0.0013222653355476621 0.002771658414043976 0.0027011186116446956 0.0031508211423001142 0.002775802628287735
          0.009043440538752223 0.0083333112719369 0.013116442709494136 0.014666382692093305 0.007794723372641005 0.01154978349244741
          0.00991090930514249 0.00914956411158413 0.006318919231319053 0.006030275997597145 0.007889483589881285 0.008640357553621858
          0.006117883284468509 0.0007637138688507267 0.002907749918925319 0.0030903469241350123 0.00033634261745878885 0.002039844488608833
          0.003747353130942044 0.0032643259321316065 0.002740962772301514 0.0024355704142677292 0.006439073088280289 0.008124984230615473
          0.005367484912681825 0.007566610302363164 0.010291097836735763 0.003936272987300968 0.0026429307595613183 0.007256641095494856
          0.004755913131068545 0.0022068328947521254 0.006401009760421045 0.0019075364818089552 0.002119848783923489 0.0028295461482995
          0.0033732385542767085 0.005784660859970592 0.0058462529793811835 0.003119834483246625 -0.0002859419160162746 0.00429902390551809
          0.0008499549957432517 0.0012319183138248258 0.001306227564593393 0.003658966803276098 0.00486923087200003 0.0060088962656035805
          0.0034945477927529056 0.002868676690114841 0.0028793727371037026 0.0029133409234255447 0.00325306660214722 0.0013298872766578373
          0.0015207353995107253 0.003954586571110252 0.003468663543088918 0.004771144040237353 0.0011385156503616045 0.004392126981098164
          0.006216380905021468 0.0037521564797637907 0.007704831288882219 0.0036298796567259817 0.0013353017366215247 0.003498290275983973
          0.0020230473494275147 0.0031548930666816383 0.0008079434532652363 0.0017574384839706275 0.0025099093649824933 0.0032631553227821936
          0.0048475666025727115 0.002637861139265424 0.004663830600438859 -0.002419194347947129 0.003182476445050292 -0.003965045071799206
          -0.0019531032705462081 -0.00013004206967170973 0.000023163278246501884 0.00120931694887344 0.00260950373414226 0.0016012363844633004
          0.0011753516546813558 0.002273036262726791 0.0007729079121503446 0.0008895686210245168 0.0014111513586023139 0.0005892221614799964
          -0.001926519176806779 -0.0010549691539556982 0.0017326219858068044 -0.0021153598965134024 -0.0014072561645476211 0.003653076989191691
          0.0006909955546869351 0.0008507731261768736 0.0033024241384059586 0.008924133964327719 0.007186686754592775 0.012553853995307788
          0.010168775087742832 0.006605473009637708 0.005143964031250281 0.006117383444243063 0.002724103386051502 -0.00019296639324364873
          0.01281533656374062 0.00792152638824542 0.0016253450780585321 0.008983878643319981 0.008238228418342403 0.005984599153579129
          0.004773226727207175 0.0029569643329861936 0.00945953344857671 -0.001802161042489123 0.006014209748415017 0.0019330954537109535
          0.015398375027132177 0.02278443559406637 0.012618798108391727 0.4366857600047057 0.38869808327876554 0.885768406144394
          0.7865273041874439 0.5064230179665298 0.4608961158767608 0.1900470477557682 0.024186901205766942 0.3939800075526338
          0.06285938794323748 0.30702298428257346 0.13677589773863585 0.0006433431923204974 0.0012242533161694047 -0.0002905156845585677
          0.00012346444092228848 0.0013650195109541907 0.00117003050697162 0.004303193983581949 0.0018320958322962377 0.002781650424235671
          0.4408612141588042 -0.0020845238747593843 0.8969195935640396 -0.003984962568808127 0.48192965749108163 -0.0012807129730846092
          0.33585606514739075 0.6989639410529018 0.35457859818364745 0.005108791443513547 0.0021052154997008993 0.0050577026459372315
          0.20220928933208454 0.4201253621742196 0.13568239978559 0.003527839022419904 -0.001161396428497774 0.002751291759449659
          0.004234927402451544 -0.0014748493947262051 0.001810694098665258 0.10053255557058732 0.5595096175428866 0.210838183178919
          1.0225327234516617 0.1146365403201195 0.23624384423046213 0.0050658034026781484 0.006279447096300295 0.001124424305689875
          0.0004919615738214755 0.0022175709937557186 0.002033689715145448 0.0038262474143283542 0.0011225002849225008 0.0042174293835756105
          0.00785698584811323 0.005026493414744926 0.009395859225438119 0.006964024688958542 -0.0003031076224498941 0.0019562580465589674
          0.004419873786467493 0.0005925719477688496 0.0026979628578876896 0.0023426958713618218 -0.0003090661713150977 0.0020498872711840477
          0.008860689356837259 0.012768795797372556 0.00874405720601179 0.002247137654482659 0.00284425864012762 0.0007315730125585229
          0.0015210101320767694 0.0018902277423043234 0.0031996350358451386 0.0015313016370380045 -0.0010326471040309065 0.0011529270735146369
          0.00031685281015679523 0.0008695353038458559 -0.001226770784066765 0.0008276982100447194 0.0002925225626220565 0.0010839524353618152
          0.005502738858511824 0.003496699540926018 0.000953951527267044 0.003740914219003244 0.011178192799591397 0.0036471221153001887
          0.010107592721563696 0.013522458032220741 0.009450708702351734 0.015491336262534683 0.0203864659261197 0.012825859282636326
          0.0016760595955313366 -0.0004861882225017499 0.0004391691717979679 0.0038061378244326483 0.002413806854772438 -0.0011711122717694977
          -0.0012372070000871982 0.0015951979277945005 0.00147978848655822 0.0025312044669846823 0.0022379524207005452 0.0001355977327215374
          -0.0001479145519141245 0.000040082474827882186 0.00037905708320704057 0.0023811811610472133 0.0005706133181249962 0.0013325878458541884
          0.002006790075947909 0.001311106164464948 -0.0011579826827224637 0.00037961458972977924 0.00014416782217961666 0.0007126705642362396
          0.0006002278379027559 0.00014157682620051515 -0.000548603275076831 -0.0015817741061911281 0.0023312892995223655 0.00138104791431342
          0.0008133207589185558 0.0005300417648360237 0.004902995893686146 0.004086201402631245 0.00503778259259427 0.004573885659200791
          0.00646050805837578 0.002871127739478646 0.006948428037393095 0.0058971182502556285 0.0034657077948476167 0.005370527053114249
          0.0015717552221282127 0.0019406019698395283 -0.00027017884080865473 0.0004619428078997262 0.0015834827804121765 0.0016122430097225554
          0.003461397805256422 0.000714979468239868 0.002982564848377875 0.005028175798223344 0.0017282783803862223 0.009455884067252535
          0.00029673307275716876 0.009245247344815966 0.0057421161619704425 0.0024759665209966863 0.0013860265208867906 0.0002991629453552025
          -0.00023356156462062128 0.0014558138882755367 0.0005744420929163774 0.01634425801422701 0.028934243799382475 0.016346641985750976
          0.003349756007915358 0.0015991351512896768 0.001872889291025387 0.0017875581059346723 0.001808576316873381 0.001217527261548501
          0.00030127548872968535 0.0011207142864285147 0.005181836044339472 0.0021032752564016377 0.0004932496736224368 0.0018549988215850743
          0.004947149126102973 0.00487482870637318 0.00378409888063215 0.004695467105152784 0.0074361750151829 0.007333700179200597
          0.001683444749661811 -0.0008537471760226012 0.0018811827374309864 0.00516388552519545 0.0022809649923179742 0.001911513706753562
          0.0028426768624052745 0.007453727461472659 0.0032858281119179655 0.0008671215133196353 0.0006296676732008843 -0.0002944746059001524
          -0.0014329952289505177 0.0017100000977710028 0.00041131449342712845 0.0001498520695287775 -0.0007543967744353397 0.00026215945043750466
          0.0031540032339961444 -0.0005779940671089556 0.002493499657798798 0.0014096085934124924 -0.001647357120316717 0.0008460060297503791
          0.006758975405058237 0.005666239314313606 0.006523248962370359 0.008495076419394815 0.011122254218392635 0.007001601657417977
          0.0026387703200819734 0.002879773048290457 -0.000222921352294847 -0.0008827594883378809 0.0013439115714518612 0.001134731887403151
          0.008589320277644918 0.0024275544169392593 0.005708476914934979 0.004618453021828395 0.001961561008638535 0.0023878846886949967
          0.004468861673451313 -0.0005030943175451524 0.004486770043205246 0.0006654644168894996 -0.0012827429499105425 -0.00005034239203322022
          0.005756751858216752 0.005450525659180472 0.005361735140277893 0.003636544980032533 0.0018932209571572711 0.002128604786460958
          -0.021695145464050103 0.0006442718669073533 -0.07916236221592376 -0.02775156804438833 0.00031244664134677524 -0.14639286594941037
          0.05866994163990724 0.0005127665448446672 -0.03069552549355503 0.00612771305325488 0.0008217071227826223 0.002502342333111862
          0.004426912187200177 0.00229228562057876 -0.005358074324654183 -0.002810915792101659 -0.0008807860779227739 -0.0007231009773788627
          0.005399959514591768 -0.0013363584986192945 0.002522845346566327 0.008276696736154776 0.0076398871848986916 0.005999816211972653
          -0.25626264982248925 -0.5121411077110516 -0.2672937629645942 0.00787017277219497 0.0014560701575277585 0.003937810282834714
          0.007134701970384294 0.00623762856628407 0.0032124374915048493 0.0035481407249174923 0.006317763109284058 0.007447865644812868
          0.008874344120645694 0.005993327952128341 0.005666039820521718 0.005965877660539534 0.006573275656880151 0.0050848597065496215
          0.008083357876485522 0.015244549275654731 0.006659697402972675 0.010212291447582005 0.004356490939539812 0.0039904696064397005
          -0.0008257782959469884 -0.0018570100485940655 -0.0005900587369329635 0.011625505116139911 0.016442753839905844 0.009534282353509643
          0.0038610399448782418 0.00483090060403378 -0.0034328396560359964 -0.00033276421947460444 -0.0007899522358005284 0.001826545783403563
          0.006591625163844162 0.009612808262577877 0.0011927473779092396 0.0011755072668717392 0.0030864369146679227 -0.00024039705003753298
          0.003635674309024506 -0.0015284737117592373 0.00013479452837170114 0.010795689914004276 0.014457861782740201 0.005368474849759261
          0.011365006701773202 0.014523766014672507 0.008295420949385922 0.0021498173190221403 0.00012098401700821881 -0.0011286933384781483
          0.4367805682402648 0.14457395619423974 0.754848905263611 0.3212536153089086 0.136810532008934 0.19411337855575184
          0.0041992128692200925 0.007270372343371356 0.004278585013773095 -0.004572898367381617 -0.007490609095026413 -0.0009215552843153119
        </DataArray>
        <DataArray type="Float64" Name="resid_z" format="ascii" RangeMin="0" RangeMax="0">
          0 0 0 0 0 0
          0 0 0 0 0 0
          0 0 0 0 0 0
          0 0 0 0 0 0
          0 0 0 0 0 0
          0 0 0 0 0 0
          0 0 0 0 0 0
          0 0 0 0 0 0
          0 0 0 0 0 0
          0 0 0 0 0 0
          0 0 0 0 0 0
          0 0 0 0 0 0
          0 0 0 0 0 0
          0 0 0 0 0 0
          0 0 0 0 0 0
          0 0 0 0 0 0
          0 0 0 0 0 0
          0 0 0 0 0 0
          0 0 0 0 0 0
          0 0 0 0 0 0
          0 0 0 0 0 0
          0 0 0 0 0 0
          0 0 0 0 0 0
          0 0 0 0 0 0
          0 0 0 0 0 0
          0 0 0 0 0 0
          0 0 0 0 0 0
          0 0 0 0 0 0
          0 0 0 0 0 0
          0 0 0 0 0 0
          0 0 0 0 0 0
          0 0 0 0 0 0
          0 0 0 0 0 0
          0 0 0 0 0 0
          0 0 0 0 0 0
          0 0 0 0 0 0
          0 0 0 0 0 0
          0 0 0 0 0 0
          0 0 0 0 0 0
          0 0 0 0 0 0
          0 0 0 0 0 0
          0 0 0 0 0 0
          0 0 0 0 0 0
          0 0 0 0 0 0
          0 0 0 0 0 0
          0 0 0 0 0 0
          0 0 0 0 0 0
          0 0 0 0 0 0
          0 0 0 0 0 0
          0 0 0 0 0 0
          0 0 0 0 0 0
          0 0 0 0 0 0
          0 0 0 0 0 0
          0 0 0 0 0 0
          0 0 0 0 0 0
          0 0 0 0 0 0
          0 0 0 0 0 0
          0 0 0 0 0 0
          0 0 0 0 0 0
          0 0 0 0 0 0
          0 0 0 0 0 0
          0 0 0 0 0 0
          0 0 0 0 0 0
          0 0 0 0 0 0
          0 0 0 0 0 0
          0 0 0 0 0 0
          0 0 0 0 0 0
          0 0 0 0 0 0
          0 0 0 0 0 0
          0 0 0 0 0 0
          0 0 0 0 0 0
          0 0 0 0 0 0
          0 0 0 0 0 0
          0 0 0 0 0 0
          0 0 0 0 0 0
          0 0 0 0 0 0
          0 0 0 0 0 0
          0 0 0 0 0 0
          0 0 0 0 0 0
          0 0 0 0 0 0
          0 0 0 0 0 0
          0 0 0 0 0 0
          0 0 0 0 0 0
          0 0 0 0 0 0
          0 0 0 0 0 0
          0 0 0 0 0 0
          0 0 0 0 0 0
          0 0 0 0 0 0
          0 0 0 0 0 0
          0 0 0 0 0 0
          0 0 0 0 0 0
          0 0 0 0 0 0
          0 0 0 0 0 0
          0 0 0 0 0 0
          0 0 0 0 0 0
          0 0 0 0 0 0
          0 0 0 0 0 0
          0 0 0 0 0 0
          0 0 0 0 0 0
          0 0 0 0 0 0
          0 0 0 0 0 0
          0 0 0 0 0 0
          0 0 0 0 0 0
          0 0 0 0 0 0
          0 0 0 0 0 0
          0 0 0 0 0 0
          0 0 0 0 0 0
          0 0 0 0 0 0
          0 0 0 0 0 0
          0 0 0 0 0 0
          0 0 0 0 0 0
          0 0 0 0 0 0
          0 0 0 0 0 0
          0 0 0 0 0 0
          0 0 0 0 0 0
          0 0 0 0 0 0
          0 0 0 0 0 0
          0 0 0 0 0 0
          0 0 0 0 0 0
          0 0 0 0 0 0
          0 0 0 0 0 0
          0 0 0 0 0 0
          0 0 0 0 0 0
          0 0 0 0 0 0
          0 0 0 0 0 0
          0 0 0 0 0 0
          0 0 0 0 0 0
          0 0 0 0 0 0
          0 0 0 0 0 0
        </DataArray>
        <DataArray type="Float64" Name="stress_zz" format="ascii" RangeMin="-6540310.538232417" RangeMax="6336743.683768778">
          -1198179.6208740012 -380415.2280520545 -908871.7377194415 -2210796.2236155076 -1317531.8884015456 -456911.2035481597
          -922686.991865172 -2222567.0787839564 -1436884.15592909 -533407.1790442647 -936502.2460109026 -2234337.933952406
          585359.8019739416 249919.96055508277 383934.4150931604 181793.91101803735 554421.386772968 202687.80521878836
          375972.00650419795 172380.47244634002 523482.9715719943 155455.649882494 368009.59791523544 162967.03387464272
          -1271731.1810095 -569911.6235021899 -1352383.624145505 -521909.97508905316 -1433036.0672815102 -473908.3266759162
          -1904954.149209276 -247600.13359624357 1702431.8018530384 -2592777.521765032 -1895733.7800340618 -304102.35291078256
          1324092.8360564555 -2965370.1801301953 -1886513.4108588472 -360604.5722253216 945753.8702598729 -3337962.838495359
          321677.01598162437 832172.5128076138 274242.24130678474 795910.7010089741 226807.46663194505 759648.8892103345
          1926501.878119981 4056034.091765452 4080469.6522213696 1259970.3703211094 1952697.2562974896 4371956.922168422
          4005354.6720152884 981387.8297403061 1978892.6344749983 4687879.75257139 3930239.691809207 702805.2891595026
          2493148.409989465 2843895.6379175787 2168621.206487393 2313526.843295911 2606311.7399300355 2837857.9815406543
          2303564.419930234 2491226.6871422045 2719475.069870605 2831820.3251637304 2438507.6333730742 2668926.5309884977
          -3223996.2471029884 -1964203.2731985012 -3257989.2567565315 -2079544.0051242455 -3291982.2664100756 -2194884.7370499903
          -757800.1421106802 3213670.830739064 4938653.643349508 2844583.905371958 -790031.6703919829 3350227.4542260277
          4830473.774404558 2808321.028740078 -822263.1986732855 3486784.077712991 4722293.905459608 2772058.152108199
          1402090.0733979284 1525326.681963135 3157549.6734827897 1361844.1004044595 1450296.4791135085 3298124.012472041
          1321598.1274109907 1375266.276263882 3438698.351461292 3402766.5238477304 2771175.0305310683 1618772.9277524399
          3410383.9831804335 3281630.2703859843 2819441.707152776 1719970.923740712 3253457.465433897 3160494.0169242388
          2867708.383774484 1821168.9197289841 3096530.947687361 227551.564578862 66755.88855864061 707073.5276145122
          -10233.707716884033 114634.9194128653 180371.77128115515 812903.8536479261 -124408.51362934608 1718.2742468686192
          293987.65400366974 918734.17968134 -238583.31954180822 -199240.08721255706 -100023.09116266435 -806.0951127717271
          1973534.1417533283 3000704.7264888193 1457984.8096982297 1995803.0708790906 3111186.708071273 1624566.578102517
          2018072.000004853 3221668.6896537263 1791148.3465068045 1518492.578275871 537794.334195415 1428188.9173990525
          651298.0420825669 1337885.2565222343 764801.7499697189 869205.4557015592 1872999.9828747734 2776152.5918989927
          2528895.430499098 910398.5880948787 1895807.9248291436 2761455.9478428946 2558019.7569013326 951591.7204881982
          1918615.8667835142 2746759.303786797 2587144.0833035675 -636660.7138820128 -4623018.800798301 -5827274.833379104
          -3947114.706494771 -907223.0860707053 -4953827.256148919 -6183792.68580576 -4357123.351487924 -1177785.4582593977
          -5284635.711499538 -6540310.538232417 -4767131.996481078 3426881.1746003376 913650.3035500706 3132960.702924652
          3488831.2833738364 974148.4572835587 3226960.171163525 3550781.3921473357 1034646.6110170466 3320959.639402396
          -3621197.7764334357 4783895.3265564665 -3487125.9298431077 4756898.47091159 -3353054.0832527787 4729901.615266714
          404408.1542199515 1223055.409466496 -966138.3333032525 -721010.0792599216 363610.14768111653 1251016.3095013394
          -999495.924231 -876400.123130604 322812.1411422815 1278977.2095361827 -1032853.5151587476 -1031790.167001286
          2586931.5314561706 985660.9973021715 2610744.693544837 1097660.180964463 2634557.8556335038 1209659.364626754
          -346784.6643973589 -814884.8757998052 -273761.0958977922 -809805.722512362 -200737.52739822544 -804726.5692249185
          1535763.093221362 1799251.975510376 1435577.7711197657 1839650.3956193083 1335392.4490181694 1880048.8157282409
          -2490687.9950803136 -3313607.6204789723 -3630100.945453201 -2410093.990280751 -2562510.068550079 -3384784.836551187
          -3625599.770311692 -2375055.50400606 -2634332.142019844 -3455962.0526234023 -3621098.5951701826 -2340017.0177313676
          2084237.4045830406 -2553856.525025913 2120059.8433754155 -2978717.313399019 2155882.28216779 -3403578.101772126
          -970656.333183887 -957448.9688537099 -944241.6045235327 1826474.4069789576 2597239.1726201046 1844808.6151289004
          2616157.0567029514 1863142.8232788423 2635074.940785799 527238.9492316772 1039787.0382508484 229320.0281141239
          547876.512194135 1023645.6727393355 83676.70112540378 568514.075156593 1007504.3072278225 -61966.62586331635
          -1593782.0876451428 -1440892.6446719207 -2614742.0398861603 -1519528.4546015635 -1310271.7572826021 -2585753.1026102398
          -1445274.8215579842 -1179650.8698932838 -2556764.1653343197 2945493.501816508 3230450.0553640453 3515406.608911583
          5600455.800634148 5968599.742201462 6336743.683768778 93664.45891076303 503139.6512806455 -1508.323721774388
          495005.15622709034 -96681.10635431163 486870.6611735352 -313372.71877377946 -90322.7981876047 132727.1223985699
          -2385504.795058824 1444120.641814487 114859.41256066004 -2398282.149879053 1518014.2088037252 61538.59498880658
          -2411059.5046992814 1591907.775792963 8217.777416953351 -205400.68996337804 917990.5351311932 -392819.65036093723
          725123.8659603472 -580238.6107584964 532257.1967895012 -1247510.0781253579 -1362383.6059280548 -1797285.8816597455
          -1603505.2786096046 -1359695.714969477 -1471963.815132537 -1908171.780342575 -1723366.4880725031 -1471881.3518135962
          -1581544.0243370186 -2019057.6790254046 -1843227.697535402 884544.4662332451 -152362.18531259533 131991.9829826944
          1071648.0780450315 843938.0577508904 -123641.2999823532 130698.59862876408 996806.8872597334 803331.6492685357
          -94920.41465211107 129405.21427483372 921965.6964744353 1673208.746558342 728922.6190035475 -241170.93060725494
          1734651.340012529 710513.6171794146 -382664.2330728977 1796093.9334667157 692104.6153552819 -524157.5355385405
          3051529.108422949 3144270.2356082536 3237011.3627935583 467494.9220709001 314801.2332912515 162107.5445116029
          -400589.9669504153 -1174087.045484466 -358163.3061486209 -1045287.2751530141 -315736.64534682664 -916487.5048215616
          -235358.6185513208 -554447.2550543069 -258037.98342732285 -504067.2060879088 -280717.3483033248 -453687.1571215107
          4472612.966931187 4594424.244806951 4716235.522682714 293189.1312925642 -359640.6603531071 1277857.7713145686
          1473795.5589516403 340304.7478917005 -400443.36542570125 1278931.870923977 1559926.769502398 387420.3644908367
          -441246.0704982954 1280005.9705333854 1646057.9800531566 -581542.427421859 -616710.3901702471 -651878.3529186352
          -161848.3231291367 -115533.68375852177 -69219.04438790679 -2229030.9646722097 -4111524.3933427758 -2237113.066057048
          -4195422.740005626 -2245195.167441886 -4279321.086668477 -682172.3741855524 -779969.5401218703 -877766.7060581883
          -4426915.743791108 -2915202.5921322727 -4419344.500585326 -2841748.36650995 -4411773.257379544 -2768294.140887628
          -4047715.665715166 -4901958.254590976 -5756200.843466785 -1390677.2046804745 -1173087.8912573953 -1359839.1405603383
          -1138662.5970218023 -1329001.0764402025 -1104237.3027862096 -1049788.870112708 -1043187.9558867018 -1036587.0416606959
          775560.5620165362 761692.1231331326 747823.684249729 -1257867.6213048669 -1218673.800269748 -1179479.9792346295
          -3326129.9626995893 -2143340.4734619902 -3803220.9453234635 -2524348.02565319 -4280311.927947338 -2905355.577844389
          -174521.18826047273 -87601.24480155631 -681.3013426398393 -2395977.929316794 -881453.4226404751 -2540587.799594497
          -968397.0052255068 -2685197.669872199 -1055340.5878105385 4474002.019142821 1493081.304368616 2448002.1174614076
          4419728.113847808 1350589.534519214 2242743.887348603 4365454.2085527945 1208097.764669812 2037485.6572357984
          1974579.7992476274 1786212.1080874563 2108872.107357729 1991694.8935197864 1770468.5254551277 2055922.3579607166
          2008809.9877919455 1754724.942822798 2002972.608563704 2172194.5341744632 4077468.6250261366 2190686.375970734
          4280112.963173842 2209178.2177670053 4482757.3013215475 1126887.871796884 1110160.0169976729 914647.8900747634
          1217519.5600581837 1124231.4800672051 948329.1551241755 1308151.2483194838 1138302.9431367372 982010.4201735873
          -1515434.3863519253 -812930.6801382647 -1565692.012377144 -822647.512110365 -1615949.6384023633 -832364.3440824652
          476165.18769148097 462854.7902518594 449544.39281223784 955520.303255375 1866447.7758562726 898765.2201485224
          1877685.2249046564 842010.1370416698 1888922.6739530405 2623025.8803770454 2372048.8190859566 2585134.609493941
          2222596.058375274 2547243.3386108363 2073143.2976645904 70826.20771030488 384266.485429485 -152261.34400095858
          195198.91053578787 -375348.8957122219 6131.335642090766 -934140.6239511229 -859032.8055229774 -783924.9870948319
          754382.1068079639 339893.7711705802 860013.3575939753 412403.6151553558 965644.6083799868 484913.4591401315
          1600035.0094051356 1583951.6486660049 1567868.2879268741 657880.8734828837 770745.8742986885 883610.8751144934
          4853320.421714367 4685707.729187778 4518095.03666119 1006654.6423256742 1188954.16612563 1371253.6899255856
          -487989.4884036203 -405658.03451364546 -323326.5806236706 -448591.52188917994 3564449.7818919625 -515519.1362341511
          4069486.5244215736 -582446.7505791227 4574523.266951184 -204699.44486375328 -367075.16016412474 -221855.1748441019
          -341636.18219478964 -239010.9048244505 -316197.2042254546 -3991688.727641264 -4040523.1173456744 -4089357.507050086
          384690.31036628585 406908.35442131513 429126.3984763445 -746428.1797712857 -693157.7337224091 -639887.2876735326
          1820562.5311260521 1794849.1505496134 1769135.769973175 524646.8244219491 956929.8369846956 1389212.849547442
          -1427179.705814998 -1426881.4478989278 -1426583.1899828573 2966150.5998176415 2080447.0373269946 2980092.8580017267
          2179120.468750509 2994035.1161858113 2277793.900174024 2118914.1027552197 2117293.441752851 2115672.7807504823
          1028247.0506240465 1591853.6361386192 1008618.7840869935 1430196.8860793626 988990.5175499406 1268540.1360201056
          1202216.8340779436 597875.0026517874 924968.5159922118 1166768.623869047 603199.9596646647 900387.2684061022
          1131320.4136601505 608524.9166775418 875806.020819993 540401.5148377528 530758.448882077 521115.3829264011
          1688704.631577957 1702645.2308554037 1716585.83013285 772023.7748063498 1905399.7270734997 765198.9441384717
          1994413.5400315055 758374.1134705934 2083427.3529895106 2381894.1975880642 3281010.7156231995 2403151.5746272877
          3320037.5254943795 2424408.9516665107 3359064.335365559 4191599.6591889625 4328510.138903537 4465420.618618112
          3531898.679090227 4658018.678682784 3500052.8850184013 4812785.291418141 3468207.090946576 4967551.904153499
          -4921371.469034754 700797.9109075493 -2619590.0860210434 -4242318.010294851 -5042339.814234437 1154906.5134712185
          -2568749.3063252065 -4167307.277289649 -5163308.159434121 1609015.1160348875 -2517908.5266293706 -4092296.5442844457
          -774603.2781979179 -714234.8544358747 -653866.4306738314 -2279844.4034343697 -2184446.3280149787 -2089048.252595588
          -20707.341361409693 -307622.26826982066 -143788.05832775444 -562959.0369464419 -266868.77529409924 -818295.805623063
          229303.51542674753 298732.1322124275 368160.7489981075 81200.95722871805 371184.3748262343 142439.57471325627
          176586.0591600398 203678.1921977945 -18012.256506154663 -2442035.132745994 -3505743.047099176 -2437539.9709427664
          -3651540.841861834 -2433044.8091395395 -3797338.6366244913 562897.6960354559 650103.8741465502 737310.0522576442
          3630550.7041677125 4865519.735103189 3856118.924532933 5175416.3495697295 4081687.1448981552 5485312.964036269
          -4366551.6554344995 -3647012.375964932 -2379242.460584575 -3587846.0485881176 -4405903.549342225 -3558957.9252015376
          -2313295.664879713 -3711419.318223674 -4445255.443249951 -3470903.4744381434 -2247348.869174852 -3834992.5878592297
          114186.49026127672 107867.696785531 101548.9033097853 -2900355.511127483 -4208827.364139042 -2940186.898675419
          -4042904.8960240153 -2980018.2862233547 -3876982.42790899 469737.96054412104 4036769.0196491256 451052.27003494755
          4248752.935235339 432366.579525774 4460736.850821553 4045165.6940955822 4174498.524098901 4303831.354102219
          1949940.521668161 1968527.8565282114 1987115.1913882613 -258494.12874730877 -318560.5873528272 -378627.04595834564
          -2567403.1969926804 -2647068.95995441 -2726734.7229161393 -4440182.317269642 -4550010.3515810575 -4659838.385892471
          -1357847.2638070597 564303.3344926682 -1378823.7744482176 444028.89894887165 -1399800.2850893755 323754.46340507525
          -1731313.5928264526 -1838634.715928141 -1945955.83902983 2371676.8191715945 3154297.442918914 3936918.066666233
          1143053.6520908654 1093341.4416519217 1043629.2312129779 1186292.73454127 1149352.1789737104 1112411.6234061513
          -5160650.968956224 -5169890.25953549 -5179129.550114758 1681620.3128920093 1749304.8396221704 1816989.3663523314
          3402241.3541684453 3310566.4513961575 4934186.648638783 3342344.256316305 3328018.2517221803 4967961.2906282125
          3282447.1584641654 3345470.0520482035 5001735.932617642 601425.652517942 1093330.023055582 1585234.393593222
          253752.02681761462 1499160.2123993188 17868.18158344266 1195559.6584115594 -218015.66365072932 891959.1044238
          -3884331.624926156 -3964804.258521997 -4045276.8921178384 -3981449.3487327704 -3952598.6672814544 -3923747.9858301384
          5846135.335198083 5798535.184241476 5750935.033284868 -4613177.767019506 -4541945.356786629 -4470712.946553752
          -15781.229387730007 585252.5419006845 60105.674804700466 619866.5025690035 135992.57899713097 654480.4632373224
          -4890635.7207765505 -4915296.257195819 -4939956.793615089 -2410285.84495436 -2589999.9793871045 -2769714.1138198497
          -4039198.4399659075 -4640098.085131641 -5240997.730297375 -76367.25542496669 -62785.877701625344 -49204.49997828406
          943166.9460671097 982427.8112919355 1021688.6765167619 3568106.518762939 3881354.474199258 4194602.429635576
          1579681.4216856365 1320713.6001048891 1380626.1641045746 1241732.6311041377 1181570.9065235127 1162751.6621033861
          -1876586.8609751272 -1959706.6896978095 -2042826.5184204914 -773143.2078434315 -143442.92745859473 -836349.0919189877
          -172487.33232388156 -899554.9759945438 -201531.7371891684 1164521.3507726083 1159863.9717432936 1155206.592713979
          454093.4322582369 384339.0051401912 314584.57802214543 -1149733.671176666 -1179067.4655226388 -1208401.2598686116
          -2681771.556227331 -3779727.3469897 -1935034.9086656566 -3409217.909156865 -1188298.2611039823 -3038708.4713240294
          -210099.12117787474 -251348.6774222202 -292598.23366656556 -2562180.101630496 -2666358.2842139117 -2770536.4667973267
        </DataArray>
        <DataArray type="Float64" Name="peeq" format="ascii" RangeMin="0.002530186358461258" RangeMax="0.010666696610886896">
          0.0060439827480676745 0.005939102302674009 0.005305956598055897 0.0055187591370930225 0.006043235524236091 0.005938194533629565
          0.005305412946748192 0.0055185944280699475 0.006042488300404507 0.005937286764585122 0.005304869295440487 0.005518429719046871
          0.008006732564561228 0.0076379438329147575 0.007603183286974903 0.007949018688785257 0.008004719616883944 0.0076378735055523846
          0.00760406581824524 0.007948534634288412 0.008002706669206657 0.007637803178190013 0.0076049483495155765 0.007948050579791567
          0.004161016678532055 0.004736687766190385 0.004160305842537489 0.004736739609833037 0.0041595950065429245 0.004736791453475686
          0.00924101720458024 0.0094149106501003 0.00874333702543697 0.008760640930127236 0.009240277247909162 0.009412690507558849
          0.00873977710428367 0.008756719338361649 0.009239537291238081 0.009410470365017395 0.00873621718313037 0.008752797746596062
          0.007644730689215947 0.008002600766779645 0.007647397779542453 0.008004146189056415 0.007650064869868961 0.008005691611333184
          0.006361310725135341 0.006094857822145433 0.00616611081923621 0.006465990884868701 0.006359721109095139 0.006097208004779339
          0.006162884982188859 0.006456718499390685 0.0063581314930549375 0.0060995581874132435 0.006159659145141509 0.006447446113912668
          0.00868303786953635 0.009329876842016218 0.008918463641911494 0.008362852217010735 0.008681001270175107 0.009323996553812802
          0.008914595358576591 0.008361777560246517 0.008678964670813862 0.009318116265609383 0.008910727075241692 0.0083607029034823
          0.005729013548428455 0.006143653493183381 0.005729749774180297 0.006143509696342857 0.005730485999932138 0.006143365899502332
          0.006486142097595217 0.006174619992661576 0.007490493474552416 0.007592172528303243 0.006479602015619958 0.006168713319201343
          0.0074857539031330965 0.007588405426669303 0.006473061933644698 0.006162806645741108 0.007481014331713777 0.007584638325035363
          0.006916480630653808 0.007002648672812041 0.0074883360360359615 0.006914791691194019 0.0070010816356886624 0.007487500218426119
          0.0069131027517342295 0.006999514598565284 0.0074866644008162765 0.010129367621465156 0.01050730982059548 0.01032919331416406
          0.010010122310968542 0.010120443889161229 0.010500098555366051 0.010320965927108955 0.010000723786751554 0.0101115201568573
          0.010492887290136622 0.01031273854005385 0.009991325262534566 0.00740859887269861 0.007788716778195953 0.007337561146476606
          0.007160804741230181 0.007406677365519931 0.0077880137601027445 0.007337879207742225 0.007160145891044671 0.00740475585834125
          0.0077873107420095376 0.007338197269007843 0.0071594870408591615 0.008950292151822373 0.0089504052895966 0.008950518427370827
          0.006451894811730311 0.006258961994024933 0.006017261759561323 0.006452189333328696 0.0062599897954145195 0.006019632425995474
          0.00645248385492708 0.006261017596804108 0.0060220030924296244 0.00757653861873016 0.008126739291047822 0.007573430359275163
          0.008125561687819551 0.007570322099820165 0.008124384084591282 0.009720558087864215 0.00932752007169687 0.009642067724627246
          0.010095140658529749 0.009721455077892143 0.009329695548632123 0.00964356538297025 0.010094656128231199 0.009722352067920076
          0.009331871025567377 0.009645063041313255 0.01009417159793265 0.004771929167117876 0.0053067782737305415 0.0041605861096306925
          0.003281335442775056 0.0047650662176182855 0.005298126236147717 0.004154136481066784 0.0032828319995732726 0.004758203268118695
          0.0052894741985648926 0.004147686852502875 0.0032843285563714892 0.008481364375358715 0.008297307492756588 0.008137532253027463
          0.008484759468501874 0.008298683620744077 0.008141537233003917 0.008488154561645034 0.008300059748731565 0.008145542212980373
          0.002530186358461258 0.004485282279065726 0.0025386331946477994 0.004479488824986384 0.00254708003083434 0.004473695370907041
          0.007368857880988086 0.007430327964445333 0.008071034931049128 0.008313351028947223 0.0073651670288176025 0.007428553672831064
          0.008067527011463061 0.00830627655727131 0.0073614761766471176 0.0074267793812167965 0.008064019091876998 0.008299202085595397
          0.008886976498103766 0.008611196393376368 0.00889005314803996 0.00861225792510522 0.008893129797976155 0.008613319456834075
          0.005875800945430323 0.006193751569002041 0.005869908782073037 0.0061866672128651715 0.00586401661871575 0.0061795828567283015
          0.008522356169104848 0.007769849518131949 0.008516901877885836 0.007768484632282754 0.008511447586666825 0.007767119746433559
          0.00619236344803927 0.005880951059058159 0.005802817579221224 0.006210646244737155 0.006193647241730891 0.005882727936157121
          0.005805310686725548 0.006213385089170376 0.006194931035422515 0.005884504813256085 0.005807803794229873 0.006216123933603595
          0.005894090475936421 0.005605384318429423 0.0058951167803583 0.00560473371440605 0.005896143084780179 0.005604083110382677
          0.005494989416449554 0.005489005959424205 0.005483022502398856 0.006804694686559094 0.00670163665223421 0.006806469430075499
          0.006702539795401762 0.006808244173591904 0.006703442938569313 0.006625358783938659 0.006561465379891189 0.006504297579930132
          0.006623755286106978 0.006560067309022197 0.006498118009234058 0.006622151788275295 0.006558669238153203 0.006491938438537985
          0.005944305966805768 0.006161624249349849 0.005075654442104874 0.005938907193571981 0.00615869710062686 0.005069134489792888
          0.005933508420338193 0.006155769951903872 0.005062614537480901 0.005719420089490947 0.0057240351002054175 0.005728650110919888
          0.006015165107926642 0.006009450043243646 0.00600373497856065 0.008495402820959971 0.008625796024858494 0.008490977847799612
          0.00862028888476989 0.008486552874639253 0.008614781744681284 0.006373166820070283 0.006371396253239859 0.006369625686409436
          0.005609072326077133 0.005938743513288988 0.006443457317066801 0.005612102526032063 0.005942445899715274 0.006442610950618462
          0.005615132725986994 0.00594614828614156 0.006441764584170122 0.008942638962721908 0.009197375030924671 0.008933482712281803
          0.009188434400822825 0.008924326461841698 0.009179493770720977 0.004050254515293337 0.0035871834174654046 0.003594335631829147
          0.004213531675569634 0.00404911280055645 0.003587109190921966 0.0035952533015392607 0.0042128038272610455 0.004047971085819562
          0.003587034964378528 0.0035961709712493753 0.004212075978952458 0.005714922718133842 0.004981938190409683 0.005125708646001907
          0.0058376183391794815 0.005714638868344694 0.004981933777546145 0.005125208953059219 0.005836703812158916 0.005714355018555547
          0.004981929364682606 0.00512470926011653 0.005835789285138351 0.008177376947372677 0.007721827794980739 0.00821784696001206
          0.00817497153248178 0.0077202264868046575 0.008214272520504634 0.00817256611759088 0.007718625178628574 0.00821069808099721
          0.006498182238585442 0.006499218559405091 0.006500254880224739 0.006417078737623518 0.00640717894585646 0.0063972791540894015
          0.0031772172598254784 0.0029406281547925887 0.0031802336336288865 0.002944762538656282 0.0031832500074322947 0.0029488969225199757
          0.00428171072000845 0.004864274606309029 0.004281702907583161 0.004864715442017322 0.0042816950951578715 0.004865156277725617
          0.006277551916704478 0.006280072927048408 0.006282593937392339 0.006651554814689162 0.007077975176324099 0.00703621456700504
          0.006464024496459339 0.006652962498723711 0.007078977497688471 0.007035858190225815 0.006464061057297925 0.00665437018275826
          0.007079979819052843 0.007035501813446589 0.006464097618136511 0.007565215225115763 0.007564424161422509 0.007563633097729258
          0.006584630118238543 0.0065860851836679 0.006587540249097257 0.006674286378427363 0.006077960143369298 0.006674072972200793
          0.006077315037400282 0.006673859565974222 0.006076669931431266 0.00519475492267144 0.005199898205357092 0.005205041488042744
          0.005834969116796752 0.006316877780790668 0.005836390276028863 0.0063195974319367205 0.005837811435260975 0.006322317083082774
          0.0051658903336007835 0.005166024285123138 0.005166158236645491 0.006641536387984031 0.006668177099145637 0.006643088758674228
          0.006670726152822236 0.006644641129364423 0.006673275206498838 0.006621229718745653 0.006622302530599408 0.006623375342453163
          0.006401160879824769 0.0064002061618134735 0.006399251443802179 0.006778887507226243 0.006782561954129704 0.006786236401033168
          0.004715303189705986 0.005179621560917232 0.004715748354637048 0.005180189149612897 0.004716193519568106 0.005180756738308563
          0.0071268810053642965 0.00712927073087304 0.007131660456381783 0.008161416710890974 0.008118882598017966 0.00815872237399323
          0.008116498503973661 0.008156028037095487 0.00811411440992936 0.009398387673781712 0.00976072108116423 0.00937384305785594
          0.009392359022130568 0.00975212721793691 0.00936844307763137 0.009386330370479423 0.009743533354709587 0.009363043097406801
          0.010554963304733798 0.010390049347968337 0.010265493834119135 0.010550349074952472 0.010388195748131268 0.01026204836192739
          0.010545734845171139 0.010386342148294198 0.010258602889735647 0.004668750691917412 0.005456220922510801 0.004672493101587517
          0.005461015049480029 0.0046762355112576195 0.0054658091764492565 0.008423390059578501 0.008262861515798107 0.008175088708934788
          0.00842126719174503 0.008259124206578799 0.008172844211786386 0.008419144323911557 0.008255386897359494 0.008170599714637985
          0.008354239257421299 0.008165475267722967 0.008351944491240514 0.008164343847853129 0.008349649725059728 0.00816321242798329
          0.005342902185122674 0.005343022946477979 0.005343143707833284 0.010481857681708444 0.010666696610886896 0.010479714092991392
          0.010662680459933892 0.01047757050427434 0.010658664308980886 0.010570004535077525 0.010174340396106934 0.010563374991108465
          0.010165844435167645 0.010556745447139405 0.010157348474228355 0.009383783810872657 0.009718311523649718 0.009374068004601567
          0.009707903246668877 0.009364352198330478 0.009697494969688036 0.008569060768306144 0.0085651718248949 0.008561282881483657
          0.01007074785160285 0.00998333535429374 0.010069485353769765 0.009982803586647646 0.010068222855936679 0.009982271819001548
          0.009458538610698187 0.009455205049831744 0.0094518714889653 0.007325293875704897 0.00732674212973175 0.007328190383758606
          0.008680078795346257 0.008676643075033928 0.008673207354721602 0.007162529004601802 0.007165143911267525 0.007167758817933247
          0.007150593330313734 0.007152565971176212 0.007154538612038692 0.007975952681944763 0.007782430332729311 0.00797807903084504
          0.007786358782756952 0.007980205379745321 0.007790287232784594 0.007228621044537026 0.007146957249933127 0.007232227239546024
          0.007149204993555091 0.007235833434555021 0.007151452737177056 0.005379767317454483 0.005380971644730138 0.005382175972005793
          0.005579230578785818 0.005579618640329569 0.005580006701873318 0.007141971203540449 0.007143676544777913 0.007145381886015377
          0.006821319895975157 0.006821925135098019 0.006822530374220881 0.004374271281325672 0.00438207930691397 0.004389887332502267
          0.003909672848716702 0.003913330811963831 0.0039169887752109585 0.008654650943408474 0.007995305439214132 0.008654375639930613
          0.007998489184780026 0.008654100336452754 0.008001672930345921 0.009303699369541951 0.00930016267001987 0.00929662597049779
          0.010013397212416047 0.00963101516173941 0.010003640147187496 0.009621120999653952 0.009993883081958945 0.009611226837568496
          0.006288875331489734 0.006784863664055335 0.0061339451687831194 0.006287798908666996 0.006783839330978347 0.006133590045123984
          0.006286722485844258 0.006782814997901358 0.00613323492146485 0.005965990448952155 0.005966693691656243 0.005967396934360333
          0.009861841172903136 0.009855948904984922 0.009850056637066706 0.007680535737922821 0.007728592492869879 0.00768053172285222
          0.007728454121563501 0.007680527707781619 0.0077283157502571215 0.009826096050636883 0.00927851035118174 0.009824932307736898
          0.009279884377119064 0.009823768564836915 0.00928125840305639 0.0087029868636321 0.008706877066027071 0.008710767268422041
          0.00912855317306833 0.008640365641004866 0.009131872950452658 0.008645257873165016 0.009135192727836985 0.008650150105325166
          0.003196868235230897 0.003584623916338834 0.003508365959222647 0.0030840837192783574 0.0032043517767410754 0.0035945404833617376
          0.0035152542072738402 0.0030917090798998604 0.003211835318251254 0.0036044570503846397 0.0035221424553250327 0.003099334440521363
          0.004429609426431771 0.004430074308732509 0.004430539191033247 0.004825541413851817 0.004832674647673092 0.004839807881494365
          0.006915970034782903 0.006938929109200072 0.006913748851413408 0.006937378207082403 0.0069115276680439125 0.006935827304964735
          0.007485568984376216 0.007490190717685961 0.007494812450995704 0.008550931362996027 0.008385967677163379 0.008547824234070078
          0.00838008491536596 0.008544717105144126 0.008374202153568542 0.005690403252226884 0.00465641952210406 0.005682322329828623
          0.004649038110870373 0.005674241407430364 0.004641656699636686 0.006599302055387896 0.006599905722695766 0.0066005093900036345
          0.008181735808922584 0.008300634087462412 0.00818749913558911 0.008306421530795784 0.008193262462255636 0.008312208974129159
          0.0047594652470998745 0.005059807244107814 0.0047025857675353985 0.004261185442374863 0.004760274735816723 0.005060833229950981
          0.004703317644375938 0.004262095945603389 0.004761084224533571 0.0050618592157941475 0.004704049521216477 0.004263006448831913
          0.0068920152204479355 0.006888553540639075 0.006885091860830214 0.0037380721621780967 0.0032075258177576365 0.003740238118308369
          0.0032127231173187747 0.003742404074438643 0.003217920416879913 0.007675531995749116 0.008561111471707473 0.007672067393515999
          0.008558625701139654 0.0076686027912828796 0.00855613993057183 0.008599878914187458 0.00859560786292763 0.008591336811667804
          0.0079038464531989 0.007901384306258002 0.007898922159317102 0.006851880890692056 0.006846649081351298 0.00684141727201054
          0.004065181869961515 0.004069679143451355 0.004074176416941195 0.002843187806297053 0.0028480494104847647 0.0028529110146724755
          0.006728462527725449 0.00767925928679423 0.006721901791348472 0.007675665536592169 0.006715341054971494 0.007672071786390108
          0.0036362539193366735 0.003637614211932247 0.0036389745045278202 0.0039039462641339844 0.003911399055657188 0.003918851847180393
          0.008214230381024751 0.00820952796264424 0.00820482554426373 0.010242113269968177 0.010235316776782149 0.010228520283596118
          0.002818242369697063 0.0028236268516740855 0.002829011333651108 0.0078164002906035 0.007821430119436458 0.007826459948269417
          0.009529770156290356 0.009481899292703613 0.008624082975855527 0.009522807148057423 0.009475174237954314 0.008618847991206966
          0.009515844139824491 0.009468449183205014 0.00861361300655841 0.00412975034166003 0.004139710129856902 0.0041496699180537736
          0.008438394885583645 0.008226874831871442 0.008431506482554743 0.008220728049163429 0.008424618079525844 0.008214581266455415
          0.004682693950520712 0.004685659596100257 0.0046886252416797995 0.005431933503481263 0.005433543623937689 0.005435153744394116
          0.007438527726000923 0.0074332063206517885 0.007427884915302656 0.003107859347121215 0.003112538782031291 0.003117218216941368
          0.004777563268060883 0.005446273433048337 0.004777987086812015 0.005446850041862658 0.004778410905563147 0.00544742665067698
          0.005305040097674382 0.005306007879959333 0.005306975662244284 0.002559794777714402 0.002562681758543556 0.0025655687393727096
          0.008292175401605388 0.008290375391036945 0.0082885753804685 0.008639535810880176 0.008634786209136701 0.008630036607393227
          0.010428000056041336 0.010421487526927986 0.010414974997814635 0.00784831310955944 0.007847473858756537 0.007846634607953635
          0.008139766204623757 0.008049759807018036 0.008134948716696512 0.008046613650740712 0.008130131228769266 0.008043467494463385
          0.008476462502486366 0.008473102637239322 0.008469742771992275 0.007981282553989024 0.008053018310411404 0.007981803287732552
          0.00805221448667165 0.007982324021476079 0.008051410662931895 0.008288566336455725 0.008286904795969649 0.008285243255483573
          0.008096271596363301 0.00809587430012778 0.00809547700389226 0.00805244583099476 0.008051512518608897 0.008050579206223036
          0.007101248195313508 0.007253406886791415 0.007109801796810698 0.007261304298485418 0.007118355398307887 0.007269201710179423
          0.007908699541485221 0.007910908851696555 0.007913118161907888 0.007933739440325925 0.00793533274390913 0.007936926047492333
        </DataArray>
        <DataArray type="Float64" Name="pe11" format="ascii" RangeMin="0.0025252293321543855" RangeMax="0.010663260569208355">
          0.006043194090454507 0.005938465156781729 0.0053051914434403 0.005517485134224119 0.006042424747848171 0.005937546089373517
          0.005304627014192125 0.005517274687810262 0.006041655405241835 0.005936627021965308 0.00530406258494395 0.005517064241396405
          0.008005107712705212 0.0076360432852138884 0.007599324145303291 0.007945146180652058 0.008003050823716851 0.007635916404242037
          0.0076001425163499375 0.007944601609900436 0.00800099393472849 0.007635789523270185 0.007600960887396583 0.007944057039148814
          0.004160502116812284 0.004736179779185707 0.004159782153355436 0.004736222154784465 0.004159062189898589 0.00473626453038322
          0.00923400309327378 0.009407831353240262 0.00873729019151048 0.008755196910781596 0.009233109594758652 0.009405462448044802
          0.008733663649272994 0.008751091868383553 0.009232216096243522 0.009403093542849341 0.008730037107035508 0.00874698682598551
          0.007638078935719072 0.007995985270674067 0.007640691636636216 0.007997486304306543 0.0076433043375533595 0.007998987337939018
          0.006358071855505169 0.0060900060433107485 0.006162063038535283 0.006464635973608822 0.0063564145688191865 0.006092340995747052
          0.00615875826367653 0.006455229234896775 0.006354757282133206 0.0060946759481833555 0.006155453488817778 0.006445822496184727
          0.008680129720069612 0.00932607822231328 0.008913616450106337 0.008359869854451763 0.008678113146421149 0.009320178127625936
          0.008909779578110762 0.008358837736635325 0.008676096572772686 0.009314278032938593 0.008905942706115187 0.008357805618818888
          0.005726727578822107 0.0061422340886439835 0.005727376535114554 0.006142044369804777 0.005728025491407002 0.006141854650965572
          0.006481104275851612 0.006169387692123917 0.007487449661617714 0.007589530274361403 0.006474694622009335 0.00616352789917336
          0.0074827473484532815 0.007585812399107537 0.006468284968167059 0.006157668106222801 0.007478045035288849 0.00758209452385367
          0.006915804679239062 0.007001985567189603 0.00748748452536291 0.006914129986018299 0.007000425840907156 0.007486641347750462
          0.006912455292797538 0.006998866114624709 0.007485798170138013 0.010128483029399532 0.010505512168969099 0.010326299377344472
          0.010008054774348935 0.010119561238949226 0.010498237661198355 0.01031801116197793 0.009998633791507238 0.010110639448498921
          0.01049096315342761 0.010309722946611385 0.009989212808665542 0.007406122695729721 0.007783544582262225 0.007331046719751074
          0.007157699675179344 0.007404245421245577 0.007782895534677607 0.007331453769489007 0.007157085099830515 0.007402368146761432
          0.007782246487092988 0.00733186081922694 0.007156470524481685 0.008942964340075209 0.008942973756814649 0.008942983173554093
          0.006448342110616114 0.006253535136706997 0.006010898104415002 0.006448595917041176 0.006254573644354647 0.0060132360573073055
          0.006448849723466238 0.006255612152002299 0.0060155740101996095 0.007574817879260672 0.008123278196812089 0.0075717279036613865
          0.008122129526233944 0.007568637928062101 0.008120980855655801 0.009712323639396047 0.009318394145051201 0.009632346526624974
          0.010086780657398878 0.009713093220006814 0.009320483170105816 0.0096337590981956 0.01008618339650225 0.00971386280061758
          0.009322572195160427 0.009635171669766221 0.010085586135605621 0.0047651342756683075 0.005299653354103548 0.004150882002413404
          0.003273278922260623 0.004758327953450216 0.0052911645380246215 0.004144292981819835 0.0032745661440835737 0.004751521631232125
          0.005282675721945694 0.004137703961226264 0.003275853365906525 0.008471669223191876 0.008290514660177443 0.008127887492676967
          0.008475049804002406 0.008291853797341783 0.008131887277043606 0.008478430384812937 0.008293192934506123 0.008135887061410241
          0.0025252293321543855 0.004479721712588525 0.002533434322017468 0.004473835175939118 0.0025416393118805514 0.00446794863928971
          0.00735686664309301 0.007421042438438873 0.008063059726227506 0.008301920796493995 0.007353073492997408 0.007419316084806456
          0.008059593281771162 0.00829480754673255 0.0073492803429018065 0.0074175897311740385 0.008056126837314818 0.008287694296971102
          0.008877405593193121 0.008604208504247333 0.008880435874591738 0.008605221482133805 0.008883466155990359 0.008606234460020276
          0.005872561743603171 0.006191649755020083 0.005866518446703366 0.006184459479048468 0.005860475149803562 0.006177269203076853
          0.008509328825228249 0.007756999034677567 0.008503737795221346 0.007755473779048136 0.008498146765214445 0.007753948523418705
          0.006189451757614883 0.005877614483281709 0.005796947957712531 0.006204882171325308 0.006190658423448023 0.005879274759593604
          0.005799269932167649 0.0062074989531651645 0.006191865089281164 0.005880935035905498 0.0058015919066227665 0.006210115735005022
          0.005884861096500373 0.005595039211404628 0.00588599781809412 0.00559430928116623 0.005887134539687864 0.0055935793509278315
          0.005490486562259074 0.00548431671663356 0.005478146871008047 0.006797328650911699 0.006691586053604295 0.006799253413628402
          0.006692598818934486 0.006801178176345107 0.006693611584264677 0.006623861500681333 0.006559077167978096 0.006502848254607921
          0.006622225070934877 0.006557648978665203 0.006496546854374537 0.006620588641188423 0.006556220789352307 0.006490245454141155
          0.0059404359135860245 0.0061590776754380525 0.005069745461153288 0.00593497282356999 0.006156048100863106 0.005063038795680965
          0.005929509733553955 0.006153018526288159 0.005056332130208643 0.005711464956342477 0.005716123851436668 0.0057207827465308595
          0.006010603594818429 0.006004837992241142 0.005999072389663856 0.00849440469986207 0.008624851318741437 0.008490005066209203
          0.008619368457950149 0.008485605432556335 0.008613885597158859 0.006371592587329077 0.006369737418618011 0.006367882249906946
          0.005596188653330135 0.005927342225332674 0.0064314180444549375 0.005599300206134688 0.005931278092830527 0.006430532710716112
          0.005602411758939239 0.005935213960328379 0.006429647376977283 0.008933726513869023 0.009187287105004072 0.008924583258905962
          0.009178270234285569 0.008915440003942902 0.009169253363567068 0.004049655553220236 0.0035866303730066676 0.0035937982081746486
          0.004212853209293597 0.004048503637870937 0.003586553042140095 0.003594709931093294 0.004212109214558694 0.004047351722521637
          0.0035864757112735227 0.0035956216540119395 0.004211365219823791 0.005714325568951387 0.00498127751502497 0.005125081910693023
          0.005836990284112664 0.005714042483717145 0.004981265356264393 0.00512457230625618 0.005836069575389559 0.005713759398482905
          0.004981253197503817 0.005124062701819337 0.005835148866666456 0.008176319615635686 0.007720909593929052 0.008217108104307017
          0.008173909746904746 0.007719304816836784 0.00821353519062642 0.008171499878173807 0.007717700039744514 0.008209962276945822
          0.006493354353326592 0.006494481932217444 0.0064956095111082975 0.006415935043848713 0.006405890538475214 0.006395846033101716
          0.003176458841970465 0.0029401146378273723 0.0031794599328056027 0.00294424976865241 0.0031824610236407397 0.002948384899477447
          0.004281042247404013 0.004863577698404791 0.004281015017666902 0.004864005777254342 0.004280987787929791 0.004864433856103892
          0.006269520704742999 0.006272247417000151 0.006274974129257304 0.006650802318689963 0.0070769650896856775 0.007035407243976951
          0.0064633879519102105 0.006652195463101899 0.007077954583455263 0.007035044670980147 0.006463411210858306 0.006653588607513838
          0.007078944077224848 0.007034682097983343 0.006463434469806404 0.0075643510025105555 0.007563554392651303 0.007562757782792048
          0.0065838962036610625 0.006585339756578181 0.0065867833094953 0.006662743212733228 0.006065703080364035 0.006662350640620889
          0.00606487763338861 0.00666195806850855 0.0060640521864131856 0.005182881748733071 0.005188245286124398 0.005193608823515725
          0.005825446696218279 0.006307466036132399 0.005826644404845977 0.006310014149186849 0.005827842113473675 0.006312562262241301
          0.005154555253645846 0.005154638409501019 0.0051547215653561925 0.006639109928278565 0.006663352521943319 0.0066406299102127146
          0.006665839750175244 0.006642149892146865 0.006668326978407168 0.006620011055148831 0.006621067043118735 0.006622123031088638
          0.006400577764627849 0.00639962581420136 0.0063986738637748725 0.006770614342481328 0.00677418754823096 0.006777760753980592
          0.004701761975694004 0.0051675608317505615 0.00470209212828681 0.0051680844201481575 0.004702422280879615 0.0051686080085457525
          0.007116287546518534 0.007118545950760434 0.007120804355002334 0.008158791105823281 0.008116767561088811 0.008155991377111454
          0.008114313134838583 0.00815319164839963 0.008111858708588354 0.009396120593439963 0.00975766619183657 0.009370669291397042
          0.0093900961739369 0.009749031235919949 0.009365258078141871 0.009384071754433839 0.009740396280003328 0.0093598468648867
          0.010550589719389722 0.010383402128443818 0.010258310956177574 0.010545862937988457 0.010381392950357077 0.01025477046091064
          0.01054113615658719 0.010379383772270337 0.010251229965643706 0.004654574613246612 0.005445877101997118 0.004658504123679023
          0.0054507911707395405 0.004662433634111433 0.005455705239481962 0.008421658939872286 0.008261995778170581 0.008173786283364794
          0.00841952359862239 0.008258254928808299 0.008171533900270936 0.008417388257372494 0.008254514079446017 0.008169281517177078
          0.008350151333173027 0.00816154847076694 0.008347770519216785 0.008160352011372532 0.008345389705260546 0.008159155551978122
          0.005342323382943529 0.005342424464313834 0.005342525545684139 0.010476118586311402 0.010663260569208355 0.010473786888235106
          0.010659103819121387 0.010471455190158813 0.010654947069034422 0.010568654831912957 0.010173764386563566 0.010561959750219778
          0.010165285835630753 0.010555264668526599 0.010156807284697943 0.009377440692056753 0.009710814558641628 0.009367707329060889
          0.009700353634340613 0.009357973966065029 0.009689892710039599 0.008562771538387411 0.008558933647988121 0.008555095757588829
          0.010063083179274571 0.009975716070779263 0.01006163208887019 0.009975017881209235 0.010060180998465808 0.009974319691639205
          0.009450750145745642 0.009447280264805659 0.009443810383865676 0.007324557611715106 0.007325997729365568 0.0073274378470160285
          0.008672514865005596 0.008669105221047026 0.008665695577088454 0.007161809175951378 0.007164411682851683 0.0071670141897519895
          0.007149530322841526 0.007151486568948918 0.00715344281505631 0.007969711697229171 0.007774466192318575 0.007971876019653022
          0.007778601718830376 0.007974040342076872 0.007782737245342177 0.007221586501602345 0.0071429711155804225 0.007225127612851976
          0.007145169042148835 0.0072286687241016065 0.0071473669687172475 0.005368229108637459 0.005369298821105069 0.0053703685335726795
          0.005578621050854833 0.00557900614925805 0.005579391247661268 0.0071400035784884245 0.007141676337594105 0.007143349096699788
          0.006817487762923658 0.006818166772749115 0.006818845782574574 0.004362047935607401 0.004369995693027262 0.004377943450447121
          0.003897136400505304 0.0039007671600461086 0.0039043979195869127 0.008642030155803743 0.007983057513694151 0.00864164518738507
          0.007986124320532497 0.008641260218966393 0.007989191127370841 0.009292836343574829 0.009289217960617883 0.009285599577660932
          0.010008788033965288 0.009626587253548428 0.009998973986480636 0.00961663341526575 0.009989159938995984 0.00960667957698307
          0.006288217521304989 0.006784293147522701 0.006133297100791218 0.006287149287643772 0.0067832810561559735 0.006132940605994867
          0.006286081053982555 0.006782268964789248 0.006132584111198517 0.005965422511810647 0.005966110865529497 0.005966799219248347
          0.009853178924417595 0.009847221020529357 0.00984126311664112 0.007679605227625959 0.007727943987134386 0.0076795645427325965
          0.007727776422549386 0.007679523857839235 0.007727608857964387 0.009816656500764681 0.009267084705148507 0.00981541551110341
          0.009268421847057423 0.009814174521442138 0.009269758988966339 0.008690193491311077 0.008694078720136326 0.008697963948961579
          0.009117610655851911 0.008628485624398346 0.00912089243821569 0.00863339470368122 0.00912417422057947 0.008638303782964093
          0.003191196205726746 0.0035775904343690653 0.0035037860394510354 0.0030814468475102537 0.003198662272643257 0.003587688833043555
          0.0035107958236910283 0.003089110416473142 0.0032061283395597683 0.0035977872317180452 0.003517805607931021 0.0030967739854360302
          0.004428767874690286 0.00442920892263134 0.004429649970572394 0.00481294547239558 0.004820288489131857 0.0048276315058681345
          0.006914894111694848 0.006937577915156178 0.0069126828532804505 0.006936042273781466 0.0069104715948660545 0.006934506632406755
          0.007475550229931219 0.007480083639543092 0.007484617049154965 0.008549737153219859 0.008385197043821641 0.008546628595170823
          0.008379324498942211 0.00854352003712179 0.008373451954062777 0.005685014952007876 0.004649427599689114 0.0056769776098344
          0.004641877809783537 0.005668940267660922 0.0046343280198779604 0.006598823669125591 0.006599427000354672 0.006600030331583753
          0.00816962338280291 0.008288795086689423 0.008175372085973732 0.008294614822467497 0.008181120789144552 0.00830043455824557
          0.004753430875890707 0.00505691084773516 0.004701053050796258 0.004257743852733543 0.004754122031054889 0.005057861899519869
          0.0047017488366305924 0.004258610592472659 0.0047548131862190715 0.005058812951304578 0.004702444622464929 0.004259477332211775
          0.0068907079115155655 0.00688723631730926 0.006883764723102955 0.0037364064727419114 0.003206372747437113 0.0037385601945739465
          0.003211574994736699 0.003740713916405981 0.0032167772420362843 0.007673346347303259 0.008559071596626054 0.007669925157505982
          0.00855659643178647 0.007666503967708705 0.008554121266946888 0.008598358420029423 0.00859412834935515 0.008589898278680877
          0.007903239497837961 0.00790075575951433 0.007898272021190698 0.0068497284230934355 0.006844509205345796 0.006839289987598157
          0.004058486216319316 0.004063072248722909 0.0040676582811265015 0.002838593820985276 0.002843428287236006 0.0028482627534867364
          0.006725039870658975 0.00767739246723336 0.006718553968216542 0.007673826550417556 0.0067120680657741065 0.007670260633601754
          0.0036357085794951945 0.0036370517163041237 0.003638394853113053 0.0038927885957664755 0.003900265689929751 0.003907742784093026
          0.00821359091737332 0.008208886535889748 0.008204182154406173 0.010236090889011135 0.01022923030354207 0.01022236971807301
          0.0028171583305582606 0.0028225568305683584 0.002827955330578457 0.0078067727998662965 0.007811764051430519 0.007816755302994742
          0.009528952368180889 0.009480899560827422 0.008622627176697883 0.009522049244267465 0.009474210130072854 0.008617452824165197
          0.009515146120354041 0.009467520699318287 0.008612278471632512 0.004119637405511064 0.004129894358848215 0.004140151312185367
          0.008437718234626457 0.008226313581578782 0.008430835839026655 0.008220145255759191 0.008423953443426856 0.008213976929939604
          0.004673100537158402 0.0046760180223137425 0.0046789355074690845 0.005427218252240579 0.005428684879894152 0.005430151507547725
          0.007435601343891414 0.0074302955810197305 0.0074249898181480475 0.0031073612432496282 0.003112049548519122 0.003116737853788615
          0.004776984232105676 0.005445660007054009 0.0047773933695300815 0.0054462230287143625 0.004777802506954487 0.005446786050374717
          0.005296581483804934 0.005297351326315603 0.005298121168826273 0.0025590184699184324 0.002561927945792702 0.002564837421666971
          0.008287243160815154 0.00828527412453905 0.008283305088262945 0.008638493622101756 0.008633760819424786 0.008629028016747814
          0.010424043373652157 0.010417454649677487 0.01041086592570282 0.007847387466531547 0.007846515208063383 0.00784564294959522
          0.008139176117445081 0.00804905050768688 0.008134341857036247 0.008045880016683491 0.008129507596627412 0.008042709525680102
          0.008471526983782604 0.008468046422293051 0.008464565860803502 0.007978358288360151 0.008050719020535741 0.007978848189712857
          0.008049901509448584 0.007979338091065564 0.008049083998361429 0.008285941237005549 0.008284283562587869 0.008282625888170188
          0.008092834187237755 0.008092453583016416 0.008092072978795073 0.008048862758261766 0.008047893087645938 0.00804692341703011
          0.00709482306312301 0.007248516129478246 0.0071035811641545574 0.007256506979719371 0.0071123392651861045 0.007264497829960495
          0.007904881088602302 0.007907098132837175 0.007909315177072048 0.007929243976696324 0.007930766889712913 0.007932289802729503
        </DataArray>
        <DataArray type="Float64" Name="pe22" format="ascii" RangeMin="-0.0055442066271376" RangeMax="-0.0012010544030866324">
          -0.003002435913058791 -0.0029456150742139912 -0.002636334838983126 -0.002751532706082726 -0.003001898246401461 -0.002945083469408396
          -0.0026354097160272566 -0.0027509506265240903 -0.003001360579744132 -0.002944551864602801 -0.0026344845930713874 -0.002750368546965455
          -0.004098257507375597 -0.0039082018793617015 -0.003930168639112554 -0.004123636168312666 -0.004097860283932977 -0.00390849183641026
          -0.0039304452198349405 -0.004123424596501258 -0.004097463060490357 -0.003908781793458817 -0.003930721800557327 -0.004123213024689849
          -0.0020557315187361407 -0.0023375590257936002 -0.002055133456356213 -0.002337055981487096 -0.0020545353939762853 -0.0023365529371805914
          -0.004895961341561689 -0.005004159158678895 -0.0046261712742558785 -0.004617417759329977 -0.004898184299858431 -0.00500565946615387
          -0.004625586599366541 -0.004619073291160544 -0.004900407258155173 -0.005007159773628846 -0.004625001924477203 -0.004620728822991111
          -0.003993014177289789 -0.0042024578400559325 -0.003993398355196333 -0.004202325225366866 -0.003993782533102876 -0.004202192610677799
          -0.0033226576005623877 -0.003224018720905081 -0.003231010924794153 -0.003311756013667756 -0.00332451625162244 -0.0032263336898421522
          -0.00323323522654589 -0.0033128558656594547 -0.0033263749026824926 -0.0032286486587792245 -0.0032354595282976274 -0.0033139557176511533
          -0.00431731228430953 -0.004687303434065529 -0.004484950900001842 -0.0041850799387867545 -0.004318854473123914 -0.004688992531214362
          -0.004487081456263276 -0.004186881142679054 -0.0043203966619382965 -0.004690681628363195 -0.00448921201252471 -0.004188682346571354
          -0.0028643757707848827 -0.0030682473362318354 -0.002864189234948341 -0.0030677011609587957 -0.0028640026991117993 -0.0030671549856857564
          -0.003060877873912446 -0.002907719362883825 -0.003600923923876041 -0.0036639598118446614 -0.0030614840627278704 -0.002906217775396731
          -0.003600946788556685 -0.0036645716144651833 -0.0030620902515432953 -0.002904716187909638 -0.00360096965323733 -0.0036651834170857065
          -0.0034251578496160727 -0.0034679464816903325 -0.003690510648309494 -0.003426174656649889 -0.003468417905270374 -0.0036904078371056553
          -0.003427191463683706 -0.003468889328850416 -0.0036903050259018176 -0.005048573351755676 -0.00533688031006483 -0.005241023557432264
          -0.00501594862950806 -0.005050378527396569 -0.005339102415786029 -0.005243011839794783 -0.005017445359806905 -0.00505218370303746
          -0.0053413245215072295 -0.005245000122157304 -0.005018942090105749 -0.0037458988376091167 -0.003975795275769365 -0.003796264838482408
          -0.0036732828151471715 -0.003747188046362389 -0.0039783338075747125 -0.0037981122234291634 -0.003674786530214515 -0.0037484772551156617
          -0.003980872339380062 -0.003799959608375919 -0.003676290245281859 -0.00474086508136941 -0.0047421052600226275 -0.004743345438675846
          -0.003386126686053138 -0.003315483875691556 -0.003206144152632401 -0.003388442130597606 -0.003316560733324837 -0.003208358304183773
          -0.003390757575142074 -0.0033176375909581175 -0.0032105724557351454 -0.0037817521282470824 -0.0041077218302029515 -0.0037827196851603503
          -0.004109965776646229 -0.003783687242073617 -0.004112209723089507 -0.005159023533677094 -0.0049496642272745 -0.005094888151617844
          -0.005326835475484436 -0.005161742968737615 -0.004951612865649945 -0.005097375895163361 -0.005329734131287556 -0.005164462403798135
          -0.004953561504025391 -0.005099863638708879 -0.005332632787090678 -0.0022176755673498387 -0.002461890393918414 -0.0019097222367960346
          -0.0015225436194138873 -0.0022149383384134397 -0.002461426311254411 -0.0019071821003146657 -0.001520927459043684 -0.0022122011094770407
          -0.0024609622285904093 -0.001904641963833297 -0.001519311298673481 -0.004509230598499288 -0.004372837786464972 -0.004319143452381742
          -0.004508733099100027 -0.0043724774662088715 -0.004318653529250386 -0.004508235599700764 -0.0043721171459527725 -0.0043181636061190316
          -0.0012017357465037388 -0.002104860453383117 -0.0012013950747951855 -0.0020998130327793867 -0.0012010544030866324 -0.0020947656121756567
          -0.0037945167767468235 -0.0038449015709718414 -0.004117168995992267 -0.004239725380062904 -0.0037938475761534634 -0.003845680892106414
          -0.004119319070803763 -0.004240645518567866 -0.003793178375560103 -0.0038464602132409873 -0.004121469145615259 -0.004241565657072829
          -0.004719763119915241 -0.004552147075126515 -0.004720515750432997 -0.004552273527698789 -0.004721268380950752 -0.0045523999802710635
          -0.0028849849719995557 -0.003085106415102501 -0.0028851059446026424 -0.0030866387122631444 -0.0028852269172057283 -0.003088171009423788
          -0.004383252777327789 -0.004025372647523071 -0.00438395376851237 -0.0040246998881827145 -0.004384654759696953 -0.004024027128842357
          -0.003111414829322839 -0.0029460318204047285 -0.0029192446850059436 -0.0031418202176660194 -0.0031107406092155147 -0.0029459026127597906
          -0.0029190307403975705 -0.003141232201438485 -0.0031100663891081913 -0.0029457734051148523 -0.002918816795789198 -0.0031406441852109505
          -0.003135242342751256 -0.0029812938749791467 -0.003135453749254016 -0.002983349886375033 -0.003135665155756776 -0.00298540589777092
          -0.0026564247373203863 -0.002655515066693303 -0.0026546053960662197 -0.003564193424467513 -0.0035124616112278653 -0.003564711542226926
          -0.003512206007932598 -0.0035652296599863395 -0.0035119504046373304 -0.003364320179447826 -0.0033967318160035165 -0.003323332428998232
          -0.003365978251596248 -0.0033991733084284726 -0.003325483756001831 -0.003367636323744671 -0.0034016148008534286 -0.0033276350830054304
          -0.0028441230954617774 -0.0029986709033406798 -0.0024115575580175574 -0.00284325766711042 -0.002998492530480518 -0.002409681828025215
          -0.002842392238759062 -0.0029983141576203575 -0.002407806098032873 -0.003061308975546546 -0.003064576752135017 -0.0030678445287234883
          -0.002848423200628185 -0.0028450532424079333 -0.0028416832841876814 -0.0042124234441926174 -0.004279683674717702 -0.004213863694352192
          -0.00428099562372119 -0.0042153039445117675 -0.0042823075727246775 -0.0031569683209562885 -0.0031575084243040162 -0.0031580485276517436
          -0.002910353461702967 -0.003129539305208416 -0.0033312770013934918 -0.0029108511667533467 -0.0031296520341770936 -0.0033310593111962727
          -0.0029113488718037262 -0.0031297647631457716 -0.003330841620999053 -0.004519812093590814 -0.004688061841271933 -0.004521992688778355
          -0.004690236822447684 -0.004524173283965895 -0.004692411803623435 -0.001997079975768058 -0.0017746469428070427 -0.0017807790563332477
          -0.0020700984735203447 -0.0019960842110784754 -0.0017734379216744766 -0.0017794896646395133 -0.0020689107284087723 -0.0019950884463888928
          -0.0017722289005419108 -0.0017782002729457792 -0.0020677229832971994 -0.002834124808533898 -0.0024562815872917576 -0.0025370884376612604
          -0.002898451663220329 -0.0028345449736969512 -0.0024556791464005138 -0.0025361908713276574 -0.002898307080519215 -0.002834965138860004
          -0.0024550767055092695 -0.002535293304994055 -0.0028981624978181007 -0.004046774012230819 -0.0038212761511792837 -0.004083723765390038
          -0.004047197163976999 -0.003821964879129196 -0.004085148999534057 -0.00404762031572318 -0.003822653607079108 -0.004086574233678077
          -0.003405303941134076 -0.0034062876648241805 -0.003407271388514284 -0.0032461854570454015 -0.0032476232276559772 -0.0032490609982665525
          -0.0015772267999876067 -0.0014781935377990898 -0.001576616232477083 -0.001477528029265322 -0.0015760056649665594 -0.0014768625207315545
          -0.002107722853048558 -0.002395550598077478 -0.0021061328315448375 -0.0023950614386079637 -0.0021045428100411176 -0.00239457227913845
          -0.003319800157442771 -0.0033194494841776493 -0.0033190988109125285 -0.0033055370069572736 -0.00350577397288581 -0.0034787194110131306
          -0.003212950972037443 -0.0033056377702888203 -0.003506250843350061 -0.0034791079759321844 -0.0032133740172031306 -0.003305738533620368
          -0.003506727713814312 -0.003479496540851239 -0.0032137970623688176 -0.0037637969764077344 -0.0037645077827410727 -0.003765218589074411
          -0.003285476257367031 -0.0032851155669146714 -0.0032847548764623124 -0.0034071269125005355 -0.003090964433711859 -0.0034066703527507874
          -0.00309088738034777 -0.0034062137930010385 -0.00309081032698368 -0.00274727220086796 -0.0027480998595624893 -0.0027489275182570193
          -0.0029467252404346824 -0.0032069156840755023 -0.002946503541572818 -0.0032069030966518823 -0.0029462818427109533 -0.0032068905092282616
          -0.002720277634784732 -0.002721938866232263 -0.0027236000976797944 -0.003362884391916713 -0.0034021284153819766 -0.0033621682405508627
          -0.0034015525234168545 -0.003361452089185013 -0.003400976631451734 -0.0033286503956983654 -0.003327949961995206 -0.0033272495282920464
          -0.003182323688268391 -0.0031833407976086096 -0.003184357906948828 -0.0034770186107050223 -0.0034770367924111326 -0.0034770549741172433
          -0.0025135807497152353 -0.002765014841697162 -0.002513880233324525 -0.0027673077465903122 -0.0025141797169338145 -0.0027696006514834628
          -0.003679646780035806 -0.0036792529793069294 -0.0036788591785780526 -0.004234061559822149 -0.00418517660190469 -0.00423479643942374
          -0.004185311543222556 -0.004235531319025331 -0.004185446484540422 -0.004663715755791628 -0.004910670466334995 -0.004685428606862308
          -0.004665260238781567 -0.004912153954027758 -0.004687005829301888 -0.004666804721771506 -0.0049136374417205215 -0.004688583051741469
          -0.00546489143808302 -0.005475660576942784 -0.005345766382497237 -0.005467828365688796 -0.005479158784870367 -0.005348699214906637
          -0.0054707652932945725 -0.00548265699279795 -0.005351632047316038 -0.002533446664242168 -0.0029429103482602817 -0.0025339228182672266
          -0.002945820189048448 -0.0025343989722922842 -0.0029487300298366146 -0.0042421190816218654 -0.004156936620044788 -0.004158732239181676
          -0.004242625227804628 -0.00415688017855296 -0.004158505796516086 -0.004243131373987391 -0.004156823737061132 -0.004158279353850494
          -0.004365264706951975 -0.00424582003605057 -0.004365295662411748 -0.004245698773885638 -0.00436532661787152 -0.004245577511720708
          -0.0026391824336969866 -0.0026384539091052336 -0.0026377253845134814 -0.005522360547503352 -0.005537557005657302 -0.005526298660130213
          -0.005540881816397451 -0.005530236772757075 -0.0055442066271376 -0.005369828260016693 -0.005055560336512152 -0.0053724698064005144
          -0.0050578358143574306 -0.005375111352784337 -0.005060111292202709 -0.00472357230983657 -0.004935705960995646 -0.004725991755328045
          -0.00493832457349432 -0.004728411200819519 -0.0049409431859929916 -0.004338829345690154 -0.004341297553192711 -0.004343765760695268
          -0.005362536691341102 -0.005307946840306553 -0.005365858501804516 -0.005311141097747324 -0.00536918031226793 -0.005314335355188097
          -0.005044331883147531 -0.005044793371182972 -0.0050452548592184124 -0.003663062681315587 -0.003663194971407331 -0.0036633272614990755
          -0.004628055848022075 -0.004624885264224259 -0.004621714680426443 -0.003600631820596451 -0.003600355035055955 -0.0036000782495154596
          -0.003620587352674485 -0.0036204269674363653 -0.0036202665821982454 -0.004227068367326709 -0.004166601796836628 -0.004227646203871469
          -0.00416416284873065 -0.00422822404041623 -0.004161723900624673 -0.0037469336652643462 -0.0036740873715849355 -0.003747243434829984
          -0.003674297909739553 -0.0037475532043956218 -0.003674508447894171 -0.0027455879415514257 -0.002745113119154685 -0.002744638296757944
          -0.002761552847906897 -0.002761769862888435 -0.0027619868778699735 -0.0036400276203716834 -0.003640231213143856 -0.003640434805916028
          -0.0035359707695342205 -0.0035374452758685586 -0.003538919782202897 -0.0023501898185610145 -0.0023497044052529963 -0.0023492189919449777
          -0.00211245879301878 -0.002111409444104895 -0.0021103600951910095 -0.004517696842466146 -0.004190516662450414 -0.004518383785009028
          -0.004190507862013161 -0.004519070727551911 -0.004190499061575909 -0.004822107176365772 -0.004824029920978096 -0.004825952665590421
          -0.005071176803928151 -0.0048417190848976535 -0.005073227779115028 -0.004843613118663722 -0.005075278754301906 -0.004845507152429791
          -0.0031191463227179285 -0.0033643876926289533 -0.003041029242343818 -0.0031200390732385444 -0.003365798505066515 -0.0030414346488291033
          -0.0031209318237591602 -0.003367209317504077 -0.003041840055314388 -0.0029617217301773453 -0.002961504093057248 -0.0029612864559371505
          -0.005086512047567866 -0.005089075221035945 -0.005091638394504024 -0.0038982974037650503 -0.00389506931578596 -0.0038986686902867202
          -0.0038953216004152073 -0.0038990399768083902 -0.0038955738850444542 -0.005140567232673728 -0.004877937712339617 -0.00514323666487965
          -0.004879620486456314 -0.005145906097085573 -0.004881303260573012 -0.0046050073236537465 -0.004605276875868822 -0.004605546428083898
          -0.004835879989122827 -0.004600571242068574 -0.004837327812685847 -0.004600460870273965 -0.004838775636248868 -0.004600350498479356
          -0.0016773011898271787 -0.001903488746935365 -0.00180046893813659 -0.0015735558393232868 -0.0016770117705985597 -0.0019021013612500253
          -0.0017985843036695235 -0.001572923751594816 -0.0016767223513699404 -0.0019007139755646857 -0.0017966996692024572 -0.0015722916638663453
          -0.00219666215466258 -0.0021948924380424378 -0.0021931227214222956 -0.002531958439536162 -0.0025316896485608116 -0.0025314208575854613
          -0.003455546548060501 -0.0035193450611540715 -0.003456021701423226 -0.0035202004977354733 -0.003456496854785951 -0.003521055934316874
          -0.003909057711021171 -0.003909226484878161 -0.003909395258735152 -0.004278446411039933 -0.004183625339778181 -0.0042794407538562906
          -0.004184482760196284 -0.004280435096672649 -0.004185340180614387 -0.00267868142184888 -0.002175311216746276 -0.0026778235193156683
          -0.0021722736255159066 -0.002676965616782457 -0.0021692360342855377 -0.0032836571514298705 -0.003284437393241289 -0.0032852176350527075
          -0.00433988758696486 -0.004429107612610517 -0.004339772667659667 -0.00442848423283203 -0.004339657748354472 -0.004427860853053543
          -0.0024011739640743134 -0.002536621557070466 -0.002345940699615519 -0.002145827632483249 -0.002399140239927805 -0.00253560696100305
          -0.002344459194548786 -0.0021433005980579243 -0.002397106515781298 -0.0025345923649356334 -0.0023429776894820526 -0.0021407735636325997
          -0.0033912342426365956 -0.0033914366984212846 -0.0033916391542059736 -0.0018685261887172705 -0.001607844350979189 -0.001866295483699819
          -0.0016064700331194243 -0.0018640647786823672 -0.0016050957152596594 -0.0037418447821761093 -0.004210544224301696 -0.0037427101806627775
          -0.004211902617212913 -0.0037435755791494453 -0.00421326101012413 -0.004208937191475874 -0.004210774996617929 -0.004212612801759984
          -0.00396319025094862 -0.003963242881905484 -0.0039632955128623484 -0.003325238448261092 -0.0033254230267340344 -0.0033256076052069765
          -0.002099523653855684 -0.00209646811210385 -0.002093412570352016 -0.001492147416566408 -0.001491033489702502 -0.0014899195628385962
          -0.003220481773981371 -0.003788347648379205 -0.0032210286534605573 -0.003789296190436764 -0.0032215755329397435 -0.0037902447324943238
          -0.0018002550693048756 -0.0017984257059734474 -0.0017965963426420195 -0.0021210629690985063 -0.0021196759120398925 -0.0021182888549812783
          -0.004094274549969829 -0.004094949779937145 -0.004095625009904462 -0.005255657351145096 -0.005258314180810734 -0.0052609710104763695
          -0.0014469739606157387 -0.0014459494812658026 -0.0014449250019158662 -0.004121164845924258 -0.004121458219327677 -0.004121751592731098
          -0.004684638091285848 -0.004677830487106773 -0.00420864738724993 -0.004687188623667168 -0.004679872666458985 -0.00421085362867816
          -0.00468973915604849 -0.004681914845811197 -0.004213059870106391 -0.0021990318182779868 -0.002197134463011799 -0.002195237107745612
          -0.00420527502672826 -0.004111941540390032 -0.004206080178590501 -0.004112465790029618 -0.004206885330452742 -0.004112990039669203
          -0.002405222041878635 -0.002403138495836551 -0.0024010549497944667 -0.0027287771364217705 -0.002728293707810574 -0.002727810279199378
          -0.0035779192937728955 -0.0035774358851881523 -0.003576952476603409 -0.0015640212837438577 -0.0015630054739841509 -0.0015619896642244438
          -0.002356688007279383 -0.0026922303174561173 -0.0023560440744550782 -0.002691796167845626 -0.0023554001416307736 -0.0026913620182351353
          -0.0026779365076010963 -0.002676918747667875 -0.0026759009877346538 -0.001309688232217051 -0.0013079257539522953 -0.0013061632756875391
          -0.004363284829906923 -0.004366023134545941 -0.004368761439184961 -0.004304617469306176 -0.0043057407714085436 -0.004306864073510911
          -0.005333535414734026 -0.005336084610360244 -0.005338633805986464 -0.0038640077643074407 -0.003863682992313228 -0.003863358220319015
          -0.004077819937587439 -0.004067116828068748 -0.004078541920868008 -0.004067220707871113 -0.004079263904148578 -0.004067324587673478
          -0.0044600979245359666 -0.004460223535426045 -0.004460349146316123 -0.004156600738477845 -0.004146449098458651 -0.004157621123578953
          -0.004146945405396341 -0.004158641508680061 -0.004147441712334031 -0.004209300006256978 -0.00420956289502092 -0.004209825783784865
          -0.004143487662714794 -0.004143678440083802 -0.004143869217452812 -0.004212722718246324 -0.004212386217007797 -0.004212049715769271
          -0.0037880553926410397 -0.003828077586567337 -0.003788248685187654 -0.0038297270829814045 -0.0037884419777342686 -0.003831376579395472
          -0.004149027448155499 -0.004149386768485038 -0.0041497460888145765 -0.0041713877165289945 -0.004173014503633075 -0.004174641290737155
        </DataArray>
        <DataArray type="Float64" Name="pe33" format="ascii" RangeMin="-0.005198826571896261" RangeMax="-0.0012493302377013808">
          -0.0030407581773957146 -0.002992850082567736 -0.0026688566044571734 -0.0027659524281413933 -0.0030405265014467084 -0.0029924626199651213
          -0.002669217298164868 -0.0027663240612861716 -0.003040294825497702 -0.0029920751573625066 -0.0026695779918725626 -0.002766695694430949
          -0.003906850205329614 -0.0037278414058521856 -0.0036691555061907355 -0.003821510012339392 -0.0039051905397838723 -0.0037274245678317764
          -0.0036696972965149957 -0.0038211770133991783 -0.003903530874238132 -0.003727007729811367 -0.0036702390868392555 -0.003820844014458965
          -0.002104770598076143 -0.0023986207533921076 -0.002104648696999223 -0.002399166173297368 -0.0021045267959223027 -0.002399711593202629
          -0.004338041751712092 -0.004403672194561366 -0.004111118917254599 -0.00413777915145162 -0.0043349252949002205 -0.004399802981890929
          -0.004108077049906452 -0.004132018577223008 -0.004331808838088348 -0.004395933769220494 -0.0041050351825583035 -0.004126258002994397
          -0.0036450647584292807 -0.003793527430618133 -0.003647293281439882 -0.0037951610789396764 -0.0036495218044504834 -0.0037967947272612196
          -0.003035414254942782 -0.0028659873224056672 -0.0029310521137411285 -0.0031528799599410645 -0.003031898317196747 -0.0028660073059048993
          -0.002925523037130639 -0.0031423733692373186 -0.003028382379450712 -0.0028660272894041315 -0.002919993960520149 -0.003131866778533573
          -0.0043628174357600805 -0.004638774788247751 -0.004428665550104494 -0.004174789915665008 -0.004359258673297235 -0.004631185596411574
          -0.004422698121847485 -0.004171956593956271 -0.00435569991083439 -0.004623596404575396 -0.0044167306935904765 -0.004169123272247534
          -0.002862351808037224 -0.003073986752412148 -0.002863187300166213 -0.003074343208845981 -0.002864022792295202 -0.0030746996652798145
          -0.003420226401939166 -0.0032616683292400915 -0.003886525737741671 -0.003925570462516741 -0.003413210559281464 -0.003257310123776627
          -0.0038818005598965943 -0.003921240784642352 -0.0034061947166237625 -0.003252951918313164 -0.003877075382051518 -0.003916911106767962
          -0.0034906468296229884 -0.003534039085499271 -0.0037969738770534155 -0.0034879553293684098 -0.0035320079356367827 -0.0037962335106448055
          -0.003485263829113831 -0.003529976785774294 -0.003795493144236196 -0.005079909677643856 -0.005168631858904268 -0.005085275819912207
          -0.0049921061448408716 -0.005069182711552658 -0.005159135245412325 -0.005074999322183144 -0.004981188431700333 -0.005058455745461461
          -0.005149638631920382 -0.005064722824454082 -0.004970270718559792 -0.003660223858120604 -0.003807749306492859 -0.0035347818812686655
          -0.003484416860032172 -0.003657057374883187 -0.003804561727102893 -0.0035333415460598438 -0.0034822985696159993 -0.00365389089164577
          -0.003801374147712926 -0.0035319012108510216 -0.0034801802791998263 -0.004202099258705801 -0.004200868496792023 -0.004199637734878246
          -0.0030622154245629764 -0.0029380512610154407 -0.0028047539517826008 -0.00306015378644357 -0.00293801291102981 -0.0028048777531235326
          -0.003058092148324164 -0.0029379745610441797 -0.002805001554464464 -0.0037930657510135903 -0.004015556366609137 -0.0037890082185010362
          -0.004012163749587714 -0.0037849506859884835 -0.004008771132566292 -0.004553300105718952 -0.004368729917776703 -0.0045374583750071315
          -0.004759945181914442 -0.004551350251269197 -0.004368870304455869 -0.004536383203032237 -0.004756449265214692 -0.0045494003968194405
          -0.004369010691135034 -0.004535308031057341 -0.00475295334851494 -0.0025474587083184684 -0.0028377629601851343 -0.00224115976561737
          -0.0017507353028467358 -0.002543389615036776 -0.0028297382267702086 -0.0022371108815051684 -0.0017536386850398895 -0.002539320521755084
          -0.0028217134933552833 -0.0022330619973929666 -0.0017565420672330432 -0.003962438624692588 -0.003917676873712471 -0.0038087440402952252
          -0.00396631670490238 -0.00391937633113291 -0.003813233747793217 -0.003970194785112173 -0.003921075788553349 -0.0038177234552912095
          -0.0013234935856506463 -0.0023748612592054074 -0.001332039247222282 -0.0023740221431597305 -0.001340584908793918 -0.0023731830271140533
          -0.0035623498663461843 -0.003576140867467031 -0.003945890730235239 -0.00406219541643109 -0.0035592259168439437 -0.003573635192700042
          -0.003940274210967399 -0.004054162028164682 -0.003556101967341703 -0.0035711295179330534 -0.003934657691699558 -0.004046128639898273
          -0.004157642473277879 -0.004052061429120818 -0.004159920124158742 -0.004052947954435015 -0.004162197775039606 -0.004053834479749212
          -0.0029875767716036152 -0.0031065433399175817 -0.002981412502100724 -0.003097820766785323 -0.002975248232597833 -0.0030890981936530647
          -0.004126076047900459 -0.003731626387154495 -0.004119784026708976 -0.003730773890865421 -0.004113492005517493 -0.003729921394576347
          -0.0030780369282920423 -0.0029315826628769797 -0.002877703272706587 -0.003063061953659288 -0.0030799178142325075 -0.002933372146833812
          -0.002880239191770077 -0.0030662667517266794 -0.0030817987001729727 -0.002935161630790644 -0.002882775110833567 -0.0030694715497940708
          -0.0027496187537491175 -0.002613745336425482 -0.002750544068840103 -0.0026109593947911975 -0.002751469383931089 -0.0026081734531569123
          -0.0028340618249386865 -0.002828801649940256 -0.002823541474941825 -0.0032331352264441857 -0.003179124442376429 -0.0032345418714014753
          -0.0031803928110018874 -0.0032359485163587654 -0.003181661179627346 -0.0032595413212335063 -0.0031623453519745806 -0.003179515825609689
          -0.003256246819338629 -0.0031584756702367294 -0.0031710630983727063 -0.0032529523174437526 -0.0031546059884988787 -0.003162610371135723
          -0.003096312818124247 -0.0031604067720973714 -0.0026581879031357296 -0.0030917151564595693 -0.003157555570382585 -0.002653356967655749
          -0.003087117494794892 -0.0031547043686678 -0.0026485260321757686 -0.0026501559807959314 -0.0026515470993016517 -0.0026529382178073716
          -0.0031621803941902418 -0.003159784749833209 -0.003157389105476177 -0.0042819812556694516 -0.004345167644023732 -0.0042761413718570085
          -0.004338372834228957 -0.0042703014880445655 -0.004331578024434181 -0.0032146242663727877 -0.0032122289943139954 -0.0032098337222552027
          -0.0026858351916271674 -0.0027978029201242574 -0.0031001410430614457 -0.0026884490393813405 -0.0028016260586534326 -0.003099473399519838
          -0.0026910628871355128 -0.002805449197182607 -0.0030988057559782297 -0.004413914420278209 -0.004499225263732138 -0.004402590570127606
          -0.004488033411837885 -0.004391266719977004 -0.004476841559943632 -0.0020525755774521777 -0.0018119834301996245 -0.0018130191518414003
          -0.002142754735773251 -0.0020524194267924614 -0.001813115120465618 -0.0018152202664537798 -0.002143198486149921 -0.0020522632761327446
          -0.0018142468107316112 -0.00181742138106616 -0.0021436422365265907 -0.0028802007604174893 -0.0025249959277332127 -0.0025879934730317633
          -0.0029385386208923337 -0.0028794975100201953 -0.0025255862098638795 -0.0025883814349285227 -0.0029377624948703444 -0.002878794259622901
          -0.0025261764919945464 -0.002588769396825282 -0.0029369863688483546 -0.004129545603404867 -0.003899633442749769 -0.004133384338916978
          -0.004126712582927745 -0.003897339937707586 -0.004128386191092361 -0.004123879562450625 -0.003895046432665404 -0.004123388043267742
          -0.003088050412192516 -0.003088194267393264 -0.003088338122594012 -0.0031697495868033107 -0.0031582673108192377 -0.0031467850348351634
          -0.001599232041982858 -0.0014619211000282818 -0.0016028437003285192 -0.0014667217393870872 -0.00160645535867418 -0.0014715223787458926
          -0.0021733193943554545 -0.0024680271003273127 -0.0021748821861220635 -0.0024689443386463773 -0.0021764449778886733 -0.0024698615769654427
          -0.0029497205473002284 -0.002952797932822501 -0.0029558753183447748 -0.0033452653117326896 -0.0035711911167998676 -0.003556687832963821
          -0.003250436979872767 -0.00334655769281308 -0.003571703740105202 -0.0035559366950479623 -0.0032500371936551764 -0.0033478500738934698
          -0.0035722163634105356 -0.0035551855571321037 -0.003249637407437586 -0.0038005540261028207 -0.003799046609910228 -0.0037975391937176365
          -0.0032984199462940305 -0.003300224189663509 -0.003302028433032987 -0.0032556163002326914 -0.0029747386466521756 -0.003255680287870102
          -0.0029739902530408393 -0.0032557442755075114 -0.0029732418594295034 -0.00243560954786511 -0.002440145426561908 -0.0024446813052587052
          -0.0028787214557835956 -0.0031005503520568954 -0.002880140863273158 -0.0031031110525349664 -0.00288156027076272 -0.0031056717530130377
          -0.002434277618861114 -0.002432699543268756 -0.0024311214676763977 -0.0032762255363618506 -0.003261224106561343 -0.003278461669661851
          -0.003264287226758388 -0.003280697802961852 -0.003267350346955434 -0.003291360659450465 -0.0032931170811235284 -0.003294873502796591
          -0.003218254076359458 -0.0032162850165927508 -0.0032143159568260435 -0.003293595731776307 -0.0032971507558198273 -0.003300705779863348
          -0.002188181225978769 -0.0024025459900533994 -0.0021882118949622846 -0.0024007766735578448 -0.0021882425639458 -0.0023990073570622893
          -0.0034366407664827283 -0.0034392929714535045 -0.0034419451764242806 -0.0039247295460011315 -0.003931590959184122 -0.003921194937687715
          -0.003929001591616027 -0.0039176603293742986 -0.00392641222404793 -0.004732404837648334 -0.0048469957255015735 -0.004685240684534732
          -0.0047248359351553335 -0.00483687728189219 -0.0046782522488399815 -0.004717267032662334 -0.0048267588382828065 -0.004671263813145231
          -0.005085698281306701 -0.004907741551501034 -0.004912544573680336 -0.005078034572299659 -0.0049022341654867095 -0.0049060712460040025
          -0.005070370863292618 -0.004896726779472385 -0.0048995979183276694 -0.002121127949004444 -0.0025029667537368357 -0.002124581305411796
          -0.0025049709816910913 -0.0021280346618191477 -0.002506975209645347 -0.004179539858250417 -0.0041050591581257906 -0.004015054044183116
          -0.0041768983708177585 -0.004101374750255337 -0.0040130281037548485 -0.0041742568833851015 -0.004097690342384883 -0.004011002163326583
          -0.0039848866262210516 -0.0039157284347163725 -0.003982474856805038 -0.003914653237486893 -0.0039800630873890255 -0.003913578040257413
          -0.0027031409492465413 -0.0027039705552086 -0.0027048001611706587 -0.00495375803880805 -0.00512570356355105 -0.004947488228104893
          -0.005118222002723935 -0.004941218417401737 -0.005110740441896821 -0.005198826571896261 -0.00511820405005141 -0.005189489943819262
          -0.005107450021273321 -0.005180153315742263 -0.005096695992495232 -0.004653868382220182 -0.0047751085976459814 -0.004641715573732844
          -0.004762029060846293 -0.004629562765245507 -0.004748949524046605 -0.004223942192697255 -0.004217636094795406 -0.004211329996893558
          -0.004700546487933471 -0.00466776923047271 -0.004695773587065674 -0.004663876783461908 -0.004691000686197877 -0.0046599843364511055
          -0.004406418262598111 -0.004402486893622687 -0.004398555524647262 -0.0036614949303995182 -0.003662802757958236 -0.0036641105855169534
          -0.004044459016983521 -0.004044219956822764 -0.0040439808966620085 -0.0035611773553549256 -0.003564056647795727 -0.0035669359402365286
          -0.0035289429701670415 -0.003531059601512552 -0.0035331762328580634 -0.0037426433299024603 -0.0036078643954819464 -0.0037442298157815508
          -0.0036144388700997242 -0.003745816301660641 -0.0036210133447175013 -0.003474652836337998 -0.0034688837439954857 -0.0034778841780219913
          -0.0034708711324092814 -0.0034811155197059843 -0.003472858520823076 -0.0026226411670860327 -0.002624185701950384 -0.002625730236814735
          -0.0028170682029479365 -0.0028172362863696154 -0.0028174043697912947 -0.0034999759581167402 -0.0035014451244502493 -0.0035029142907837597
          -0.003281516993389436 -0.0032807214968805557 -0.0032799260003716765 -0.0020118581170463874 -0.0020202912877742654 -0.0020287244585021433
          -0.0017846776074865237 -0.0017893577159412133 -0.0017940378243959027 -0.004124333313337597 -0.0037925408512437383 -0.00412326140237604
          -0.0037956164585193357 -0.004122189491414483 -0.0037986920657949322 -0.004470729167209057 -0.004465188039639785 -0.004459646912070512
          -0.004937611230037135 -0.004784868168650774 -0.004925746207365607 -0.004773020296602026 -0.00491388118469408 -0.004761172424553278
          -0.00316907119858706 -0.003419905454893747 -0.003092267858447399 -0.003167110214405228 -0.0034174825510894583 -0.0030915059571657647
          -0.003165149230223396 -0.0034150596472851697 -0.0030907440558841297 -0.003003700781633302 -0.0030046067724722493 -0.0030055127633111965
          -0.004766666876849729 -0.004758145799493412 -0.004749624722137095 -0.0037813078238609077 -0.003832874671348424 -0.0037808958524458754
          -0.0038324548221341775 -0.003780483881030844 -0.003832034972919931 -0.004676089268090954 -0.00438914699280889 -0.004672178846223759
          -0.0043888013606011075 -0.004668268424356564 -0.004388455728393325 -0.004085186167657329 -0.004088801844267504 -0.00409241752087768
          -0.004281730666729085 -0.004027914382329772 -0.004283564625529843 -0.004032933833407254 -0.004285398584330601 -0.0040379532844847365
          -0.0015138950158995667 -0.0016741016874336993 -0.0017033171013144453 -0.0015078910081869669 -0.001521650502044697 -0.0016855874717935293
          -0.0017122115200215043 -0.0015161866648783257 -0.0015294059881898274 -0.0016970732561533593 -0.001721105938728564 -0.001524482321569684
          -0.0022321057200277053 -0.002234316484588901 -0.002236527249150097 -0.0022809870328594174 -0.0022885988405710453 -0.002296210648282673
          -0.0034593475636343477 -0.003418232854002106 -0.0034566611518572253 -0.003415841776045993 -0.003453974740080103 -0.0034134506980898808
          -0.003566492518910048 -0.0035708571546649304 -0.0035752217904198133 -0.004271290742179922 -0.004201571704043459 -0.004267187841314531
          -0.004194841738745924 -0.00426308494044914 -0.00418811177344839 -0.0030063335301589965 -0.0024741163829428365 -0.002999154090518731
          -0.0024696041842676296 -0.0029919746508784654 -0.0024650919855924228 -0.003315166517695721 -0.003314989607113382 -0.003314812696531044
          -0.0038297357958380508 -0.0038596874740789056 -0.0038355994183140655 -0.003866130589635466 -0.0038414630407900803 -0.003872573705192027
          -0.002352256911816393 -0.002520289290664694 -0.002355112351180738 -0.002111916220250294 -0.002354981791127083 -0.0025222549385168188
          -0.0023572896420818064 -0.002115309994414734 -0.0023577066704377732 -0.0025242205863689436 -0.0023594669329828747 -0.002118703768579174
          -0.0034994736688789703 -0.003495799618887976 -0.0034921255688969816 -0.0018678802840246408 -0.0015985283964579237 -0.0018722647108741271
          -0.001605104961617274 -0.0018766491377236135 -0.0016116815267766245 -0.0039315015651271495 -0.004348527372324355 -0.003927214976843204
          -0.004344693814573556 -0.0039229283885592586 -0.004340860256822757 -0.004389421228553548 -0.00438335335273722 -0.004377285476920892
          -0.00394004924688934 -0.003937512877608844 -0.003934976508328348 -0.0035244899748323433 -0.003519086178611762 -0.0035136823823911805
          -0.0019589625624636315 -0.0019666041366190583 -0.0019742457107744856 -0.0013464464044188672 -0.0013523947975335035 -0.0013583431906481396
          -0.003504558096677605 -0.003889044818854156 -0.0034975253147559835 -0.0038845303599807923 -0.0034904925328343626 -0.0038800159011074297
          -0.0018354535101903192 -0.001838626010330676 -0.001841798510471033 -0.0017717256266679686 -0.0017805897778898586 -0.0017894539291117486
          -0.004119316367403489 -0.0041139367559525995 -0.004108557144501711 -0.004980433537866037 -0.004970916122731338 -0.004961398707596639
          -0.001370184369942521 -0.0013766073493025554 -0.0013830303286625901 -0.0036856079539420382 -0.003690305832102841 -0.003695003710263643
          -0.004844314276895039 -0.004803069073720646 -0.004413979789447952 -0.004834860620600295 -0.004794337463613868 -0.004406599195487035
          -0.0048254069643055494 -0.00478560585350709 -0.004399218601526119 -0.0019206055872330761 -0.0019327598958364155 -0.001944914204439755
          -0.004232443207898196 -0.004114372041188749 -0.004224755660436154 -0.004107679465729575 -0.004217068112974112 -0.0041009868902704
          -0.002267878495279767 -0.002272879526477192 -0.002277880557674617 -0.0026984411158188087 -0.0027003911720835773 -0.002702341228348346
          -0.003857682050118517 -0.0038528596958315783 -0.0038480373415446397 -0.0015433399595057705 -0.0015490440745349707 -0.0015547481895641711
          -0.002420296224826292 -0.0027534296895978918 -0.002421349295075003 -0.002754426860868737 -0.0024224023653237137 -0.002755424032139583
          -0.002618644976203837 -0.0026204325786477268 -0.002622220181091617 -0.0012493302377013808 -0.0012540021918404061 -0.0012586741459794317
          -0.0039239583309082305 -0.003919250989993107 -0.003914543649077983 -0.004333876152795578 -0.004328020048016239 -0.0043221639432369
          -0.005090507958918127 -0.005081370039317242 -0.005072232119716357 -0.003983379702224106 -0.003982832215750155 -0.0039822847292762045
          -0.004061356179857642 -0.003981933679618131 -0.004055799936168237 -0.0039786593088123766 -0.004050243692478832 -0.003975384938006622
          -0.004011429059246638 -0.004007822886867008 -0.004004216714487378 -0.003821757549882305 -0.00390426992207709 -0.0038212270661339034
          -0.003902956104052243 -0.003820696582385502 -0.0039016422860273956 -0.00407664123074857 -0.004074720667566947 -0.004072800104385324
          -0.003949346524522962 -0.00394877514293261 -0.00394820376134226 -0.0038361400400154406 -0.0038355068706381395 -0.0038348737012608384
          -0.003306767670481969 -0.0034204385429109072 -0.0033153324789669016 -0.003426779896737964 -0.0033238972874518337 -0.0034331212505650218
          -0.003755853640446801 -0.003757711364352136 -0.0037595690882574716 -0.003757856260167328 -0.003757752386079837 -0.0037576485119923467
        </DataArray>
        <DataArray type="Float64" Name="disp_x" format="ascii" RangeMin="0.000008168036941899686" RangeMax="0.00008154159853188964">
          0.00005639173423268233 0.00005692259325621766 0.000053560994322631334 0.000053189062882410076 0.00005639741994870722 0.00005692946818128892
          0.000053568157567295074 0.000053195468123531924 0.00005641463114632628 0.000056948956050865426 0.00005359132671577723 0.00005321647386719222
          0.00006888482837399212 0.00006395415126121418 0.00006115761841283145 0.00006390595961214167 0.00006888700851868739 0.00006395855420309521
          0.00006116102568081084 0.00006390818944919986 0.00006889378924073638 0.00006397264358651546 0.00006117141776668636 0.00006391529314100373
          0.00005521870380628404 0.00005794272236220793 0.0000552256484362306 0.00005794918422459989 0.00005524461465606652 0.0000579682754517169
          0.00006279709151748802 0.00006319330406981073 0.00006828879798356592 0.00006757908843451513 0.0000627929247977311 0.00006318695518071615
          0.00006827999374972772 0.00006757238002543866 0.00006277853957497242 0.00006317048385645854 0.00006825475011689293 0.00006755723176030061
          0.00005774267092048391 0.00006011739188337459 0.000057745013342449165 0.00006011939545457585 0.00005775162340348376 0.000060124227602671616
          0.000025863610430634208 0.000028869703629772392 0.00002831038763250216 0.00002434675805853602 0.000025859277599991663 0.0000288638041394696
          0.000028302206370123485 0.000024343684441562217 0.000025843907674185474 0.00002884373653467487 0.00002827661392071932 0.000024332458312292167
          0.000026018236972091012 0.00003105573540150676 0.00003136327323080997 0.000026967118478498047 0.000026026826949688472 0.00003106270764124253
          0.00003136974860354406 0.000026974571781007845 0.00002605477206477771 0.00003108656094522514 0.00003139256242414704 0.000026993531510668052
          0.000052893775332479924 0.000055625753708151145 0.00005289920623104289 0.000055630985229322274 0.0000529160609661349 0.000055646616874674804
          0.00001591661065277761 0.000014765760562364224 0.00001865064453205976 0.00001967091115316301 0.000015929173341800602 0.000014780527865056088
          0.00001866382659350345 0.00001968188788220071 0.000015969016062440487 0.00001482872250218156 0.00001870188706226073 0.000019712901014284877
          0.00006580581786142157 0.0000652070565408027 0.00006920229528162611 0.00006581260611586278 0.00006521372649015304 0.00006920926926571057
          0.00006583316282689891 0.00006523326118836879 0.00006922377447529996 0.000033035345175870855 0.000038507177987517285 0.0000372908844544829
          0.0000324829622023015 0.000033039919146643006 0.00003850724938749802 0.00003729207976041541 0.00003248838745756002 0.00003305236675728926
          0.000038507864664185 0.0000372949271535098 0.000032503888944338194 0.000025904358017949283 0.000029852228219435457 0.000031128835974802394
          0.000027205266847700273 0.000025910282782115813 0.00002985711520926289 0.0000311315404481227 0.000027209014938374742 0.000025926079231309643
          0.000029871409525548634 0.00003114103743574861 0.000027217360627746717 0.00006269172005255022 0.00006268859662832398 0.00006267917418539129
          0.000027292631941910217 0.00003000735536084174 0.000030791133356775964 0.0000272895932025632 0.000030004877270640845 0.000030787730437186276
          0.000027281026808572433 0.000029996193659682947 0.00003077827240309042 0.000024216925979324698 0.000028325454712932974 0.0000242242064265036
          0.000028331792677110217 0.000024245798662463643 0.000028350612388984562 0.00005763326699559175 0.000057627808581402445 0.00005292299801772936
          0.00005219839136659046 0.000057628328960280875 0.00005762399706799477 0.000052917934694102636 0.000052192878616315294 0.00005761283493265469
          0.000057611741572906565 0.00005290301041463347 0.0000521764303937916 0.000011643277092825022 0.000012921433561197905 0.000010811948584037784
          0.000009270097566734024 0.000011662085858378254 0.000012939316216458213 0.000010832783060096111 0.000009292892955347955 0.000011714824022121291
          0.000012988464727352875 0.00001089853409055228 0.000009362194027249338 0.00005757894748689845 0.00006154118851674656 0.00005661187133700726
          0.000057577800298313406 0.00006154169216259624 0.00005661185144651955 0.000057575141051748633 0.00006154314351021602 0.00005661349097490209
          0.000008168036941899686 0.000010636694722913824 0.000008189027760094893 0.000010657733140169846 0.000008255445048604126 0.00001071454223144669
          0.00004132154868342709 0.00003562346738289723 0.00003431375813473057 0.00003888495560480305 0.00004132141373635602 0.00003562594135314787
          0.000034317531781937126 0.00003888529685842516 0.000041320899728877255 0.00003563370932584063 0.000034330120851400195 0.00003888655772217322
          0.000057765129082090286 0.00006229154350706926 0.000057762473975781536 0.00006229054955864375 0.0000577525567044417 0.00006228681766829527
          0.00001734392960537572 0.0000196102102492013 0.00001735077444516664 0.00001961352389302856 0.000017368424064690983 0.000019623452324098233
          0.00004313834347186558 0.00004558589286870807 0.00004313496152106255 0.00004558294870353587 0.000043123056821436134 0.00004557293339884531
          0.000054394472116909506 0.0000526576247201128 0.00005076407078010866 0.000052262815155072344 0.000054399022433979586 0.00005266216240936665
          0.00005076726402350786 0.00005226569770285747 0.00005441238473444829 0.00005267605390404822 0.000050777762094102436 0.00005227538992623083
          0.000033727541714377915 0.00003434916888564969 0.00003372454615127346 0.000034345191431962164 0.00003371432615336964 0.000034337492777221975
          0.00001525273703094908 0.000015263226722749518 0.000015294820161919028 0.000032143560141709126 0.000036402704754930244 0.00003214464941363835
          0.00003640445236445902 0.00003214690472506814 0.000036408841081290045 0.00002348119549756798 0.00002574789001274374 0.000023164491815918697
          0.000023483410097304885 0.00002574641495084857 0.00002316381379220025 0.000023491751225782 0.00002574020397765533 0.00002316257818603857
          0.000015756673386869983 0.00001760778870628573 0.000013493161840446988 0.000015769705221045163 0.000017617569981164606 0.000013507418756444286
          0.00001580865672873479 0.000017646430740926543 0.000013550610139442764 0.00003181132581269266 0.00003180705543295092 0.00003179576503088278
          0.000013927057149068591 0.000013943071828210326 0.000013995481385097336 0.0000752698194724273 0.00007654751825608098 0.00007527492654290917
          0.00007655098477706529 0.00007528852032568258 0.00007656148661792747 0.000019917080344034332 0.00001992367287492251 0.000019944332391055876
          0.00004090360952549698 0.00003703415891680421 0.000040680421518176175 0.000040905482582717184 0.00003703428689621736 0.00004068225784909226
          0.00004091046171280041 0.000037036928987108244 0.0000406885374874165 0.000037038455798821714 0.00004124208668519442 0.000037040831861346995
          0.000041239672048519525 0.00003704789504666216 0.00004123187101858154 0.00005320923241333672 0.00005095804411680945 0.000050252516727221476
          0.00005267396994823674 0.000053216412347008847 0.00005096646389339792 0.0000502609112788201 0.000052681779632749356 0.000053238523431239305
          0.000050991443107793425 0.000050288257714151184 0.00005270461604671888 0.00005789674898904487 0.000054712195290509635 0.00005403486249652982
          0.000057344124695676716 0.0000579048605957862 0.00005472009802220263 0.000054042813481437826 0.000057351658091371145 0.00005792917401430773
          0.000054745034582544414 0.000054068985513211285 0.00005737309125259506 0.00007352918427486648 0.00006916752219671708 0.00007206510308262063
          0.00007353483115705649 0.00006917411951660309 0.00007207133997691132 0.00007355447345365521 0.00006919585302600009 0.00007208904269821848
          0.00002912054325877775 0.000029118870749522732 0.000029112852998623868 0.000021352393300943586 0.000021353592582428094 0.00002135983424708538
          0.00004994252253055323 0.00004802461859109161 0.00004995077268106289 0.00004803106627045024 0.00004997582537904928 0.000048051149146532545
          0.000051825708811064374 0.000055533443729647344 0.00005183409895049685 0.00005554124615745401 0.00005185837622085948 0.00005556312124186735
          0.00003299568892558681 0.000032994664081849254 0.000032991796677957345 0.00006130958187040782 0.00006440108181101373 0.0000646209184365898
          0.00006093622812653566 0.00006131610299479906 0.00006440862368977764 0.00006462843702466032 0.00006094350297918324 0.00006133676865349298
          0.00006443127485318811 0.00006465183009825893 0.000060963632251273396 0.00006708310460033194 0.0000670917930723726 0.0000671144403656913
          0.000060001764728191454 0.00006000740521063418 0.00006002171208843293 0.00004602446382222126 0.000044620022795834735 0.000046023545387639465
          0.000044621364428169504 0.00004601978105202191 0.000044625194141785426 0.00003805176292797568 0.00003804905091212261 0.00003803780678250143
          0.000048038963926254506 0.000049415774428182606 0.000048040848025240275 0.00004941679063653267 0.00004804526019046399 0.00004941872985358105
          0.00003683195249256141 0.000036827919536704035 0.00003681264208781558 0.000057241648268350475 0.00005486647099588482 0.00005724602995917063
          0.000054869738989715374 0.00005725836836312441 0.000054878999512166195 0.000058868840382364954 0.00005887398304757262 0.00005888814683572178
          0.00006136395009386848 0.00006137183745121839 0.00006139573296160503 0.00005188365822181846 0.00005188509946677563 0.00005188937108614134
          0.00003816929150405941 0.0000353588614272304 0.00003816383062279055 0.00003535480910810623 0.000038143274481861967 0.00003534673253666609
          0.00004864150210966163 0.000048640074675487665 0.00004863531287868002 0.00007119776657429661 0.00007053452298437223 0.00007119556508712673
          0.00007053465245751246 0.0000711890268314262 0.00007053481256609994 0.000028016627339190796 0.000031766646900235243 0.000028639601338042334
          0.00002802493578813758 0.00003177380803400608 0.000028648124577834313 0.00002805494412564968 0.00003179073484096701 0.00002867447789252209
          0.00004478053927945257 0.000051859461897543074 0.00004700095120508755 0.00004477765432715727 0.00005185448895291982 0.00004699688202526086
          0.000044769376817355494 0.00005184013538747837 0.00004698251691800015 0.000036666973913022234 0.00003288937882280506 0.0000366617248905663
          0.0000328820564345781 0.00003664814629309169 0.00003285795019060286 0.00007892955981232359 0.00007449276357118902 0.00007500394964609189
          0.00007893027449356154 0.00007449472595144086 0.00007500522467715232 0.00007893264652342713 0.00007449993219554404 0.0000750083279910623
          0.00006678227916557534 0.00006580880050376247 0.00006678162756599264 0.00006581034933969507 0.00006678079325737176 0.00006581362437909434
          0.00006103568106516774 0.00006104268506614513 0.00006106401326296174 0.0000525116206739159 0.00004633657492090203 0.000052506665222311184
          0.000046333362108951 0.00005249166101162284 0.0000463236178855931 0.00004014261029974665 0.00003407441654118635 0.00004014233944143356
          0.000034078033761065295 0.00004013931607002822 0.00003408915984862045 0.00003544968142185732 0.00003945204711239115 0.000035453869291053495
          0.000039451904896426256 0.000035468533384961666 0.00003944882825369092 0.00003272860598049389 0.00003273417321718628 0.000032751013282026106
          0.000058516181416199276 0.00005780264889126154 0.000058510791359060415 0.00005779781967440128 0.000058491455817695206 0.0000577806759366047
          0.00006423608367350791 0.00006422898433140048 0.00006420749876424347 0.00006515723252396498 0.0000651652501653415 0.00006518861871576631
          0.0000695609313436213 0.00006955094719388214 0.00006951732744743908 0.00006363391310800414 0.00006364061564169652 0.00006366004741917393
          0.00006230162768684137 0.00006230738834254392 0.00006232424770869169 0.00007266865400208972 0.00007438445875377416 0.00007265898134641245
          0.0000743756362268436 0.00007262359525295402 0.00007434724786125675 0.00005490359915278456 0.00005799957737412867 0.00005490568665923734
          0.00005800333982502417 0.000054911214840486184 0.00005801341457754552 0.00004438314893992657 0.00004438594866451437 0.00004439396616913091
          0.00005868478153944862 0.00005869296570845824 0.00005871802176715921 0.000060417327686194125 0.00006042240346236799 0.00006043705615479178
          0.00002807759694581645 0.000028078827650062398 0.000028082559500279616 0.00004034369208093622 0.00004033976278866258 0.00004032391209860477
          0.000040346684383977695 0.00004034357082091389 0.00004033307421029255 0.00004700576338575052 0.000049120416613945684 0.00004700052243217365
          0.00004911661668031074 0.00004698309396147299 0.00004910535702724196 0.00004530905661724389 0.000045303832920082694 0.00004528720977353769
          0.000036795104283788665 0.000034294941104419316 0.00003679667059268981 0.00003429998365956232 0.00003680212745738339 0.00003431367317849842
          0.00006209714317189906 0.00006660624863470045 0.00006303937633106923 0.00006210543818041028 0.0000666136233393709 0.00006304716739055177
          0.00006212889557159621 0.00006663637317078543 0.00006307030432570833 0.00006424905932941866 0.00006425612055756021 0.00006427696708589214
          0.00004373102531256345 0.00004372684846206334 0.00004371261205453966 0.00006595944437236071 0.00006711752863124632 0.00006596544814482679
          0.00006712512102670269 0.00006598218705382788 0.00006714786046211622 0.00004822865908991078 0.00004938033451397251 0.00004822341695847506
          0.000049374965947615045 0.00004820758102082343 0.00004935828520598366 0.000050593516686955 0.00005058876384812128 0.000050573263880177785
          0.000053500403318288624 0.00005402455970690695 0.00005349632592403147 0.000054021911295478664 0.000053482725227872175 0.000054012486376699756
          0.000043302003328826005 0.000043133990093803 0.000045358327594311766 0.00004543636331189857 0.000043301832104365606 0.00004313455328377158
          0.000045364155067712145 0.000045440910601128564 0.000043300304806905155 0.00004313911044170113 0.00004538251242414315 0.00004545156852549131
          0.000051049098575535964 0.00005105746878435159 0.00005108076016955495 0.00004170548154738263 0.000041706440570228205 0.0000417106237063228
          0.000022629685649066467 0.000024412330867803038 0.000022636168664071897 0.000024416685957189496 0.000022659394937601666 0.000024429556809573197
          0.00005184416346089116 0.00005184360050602916 0.00005184122926969982 0.00007837875768083444 0.0000742679476887591 0.00007837938557824223
          0.00007427113236629179 0.00007838111879097793 0.00007427869983504904 0.000014236550633706571 0.000012071009579601915 0.000014251666418257661
          0.00001208891313315003 0.000014297082081074988 0.000012142728836865428 0.00006762242250743164 0.00006762973949092581 0.000067651879293994
          0.00005226089938701059 0.0000543245372730868 0.00005225897005467252 0.00005432324742246223 0.00005224986967787567 0.000054318549643880144
          0.000047495865076587795 0.00005028651916699461 0.000050563917210893394 0.00004777124264091474 0.00004750121700135736 0.000050292800146647296
          0.00005057129606116796 0.000047777931786427774 0.00004751749739826471 0.00005031129476297923 0.00005059247306252504 0.00004779723546882697
          0.00002058213242432178 0.000020591041588556875 0.000020617743063088466 0.00004798803817270072 0.000046897070918217305 0.00004799568169776683
          0.000046903536022585775 0.000048019029427984527 0.00004692541712166647 0.00002099387252568234 0.00002382293565736612 0.00002100386020928837
          0.000023833341876694882 0.00002103140179922546 0.00002386310252498304 0.000023075209495220974 0.00002308595737927285 0.0000231174445601853
          0.00006853540971941866 0.00006854336128582832 0.00006856772242828666 0.000018728011954572516 0.00001873867662281883 0.000018772635059111973
          0.00004512907304674967 0.000045135269936269965 0.00004515405557928968 0.00004359133479478816 0.00004359284247554449 0.00004359728253263303
          0.00001724007878357853 0.0000225337273441863 0.000017251769460236875 0.00002254189407130503 0.00001728786873338383 0.00002256583347927867
          0.00004937042876052365 0.00004937873785700238 0.00004940253693723879 0.0000414047455958796 0.00004140272921961304 0.000041392111818654745
          0.00007142374665767606 0.00007143046378702335 0.00007145126702494284 0.000042192564764026444 0.00004219045147618754 0.00004218429962783887
          0.00004555133906718395 0.000045555288673227426 0.000045567718725726354 0.00005464547026607271 0.000054646002195145844 0.000054646765037622775
          0.000028271371729128894 0.00002793753460537592 0.000022873089307902317 0.000028279408778330123 0.00002794611341976345 0.000022884526952111144
          0.00002830491183788775 0.00002797157994039842 0.000022918725752260538 0.00004259212160508604 0.00004259351316736435 0.00004260065815576516
          0.00007351738329779697 0.00007085243264459724 0.00007352227935293918 0.00007085869244619122 0.00007353316948923355 0.00007087870416135021
          0.00004470372506674552 0.000044708521470270515 0.00004472204470262077 0.00005029493383670116 0.00005030009358826552 0.00005031435171830878
          0.00001803791999309226 0.000018052379635746033 0.000018095546733775324 0.00004737695603382179 0.00004738409719963653 0.000047404995651574197
          0.0000565557619831852 0.000059712321820013726 0.00005656307919293958 0.00005971991352105021 0.000056583711166792885 0.00005974308774133687
          0.00004750813063711777 0.00004751201016667261 0.000047522977913434424 0.000045647464685186236 0.0000456518405571838 0.000045662664878328186
          0.00007121821354417451 0.00007120995927122012 0.00007118483799152131 0.00007760630363668082 0.00007760829843375593 0.00007761214793275172
          0.00004114222322188801 0.00004114100806453962 0.000041137139536740184 0.0000723170581902608 0.000072323266526085 0.0000723428210695177
          0.00007054075982066571 0.00007002302078530119 0.0000705471797372031 0.00007002764794910298 0.00007056591724370304 0.00007003924226926464
          0.0000684828328027593 0.00006847804870313045 0.00006846461530208645 0.00007528005816497701 0.00007660636248657752 0.00007527739957806823
          0.00007660497342711112 0.00007526734129508416 0.00007660145378964405 0.00007977761065717075 0.00007977813657397078 0.00007977969761710428
          0.00008154159853188964 0.00008154088794647681 0.00008153756124839685 0.00007255251663472451 0.00007254783401853132 0.00007253120411031836
          0.00007870074076673586 0.00007744513695126908 0.00007869772624387425 0.0000774395923068349 0.00007869327436571931 0.00007742258878506269
          0.00007503992310127326 0.00007503666313726833 0.00007502425890860458 0.00007318328432462643 0.00007317564012962429 0.00007314644086370605
        </DataArray>
        <DataArray type="Float64" Name="disp_y" format="ascii" RangeMin="-0.00003606831658172795" RangeMax="0">
          -0.000025226537838459233 -0.000026823572534468508 -0.000026872257829020262 -0.00002549928721404067 -0.000025228661052377225 -0.000026825550382442212
          -0.00002687499285839925 -0.000025502500639140788 -0.000025235288268929162 -0.00002683160903292932 -0.00002688337818840617 -0.000025512632238314927
          -0.000015867899187372804 -0.00001837251104743216 -0.00001728367118613699 -0.000015075503669565933 -0.00001586817022918908 -0.00001837408364967924
          -0.00001728595377464143 -0.000015077494525981844 -0.000015868449737969076 -0.00001837869139514606 -0.00001729315689850435 -0.000015083298502804746
          -0.00003341965582206231 -0.00003419776752315869 -0.00003342117049491848 -0.00003419911702333193 -0.00003342497142799095 -0.00003420265201784373
          -0.000004954865351658884 -0.0000024538417893212504 -0.0000022166168311894515 -0.0000044093604472099175 -0.000004957260962089683 -0.0000024551049059580856
          -0.0000022167432432706712 -0.000004409814779722538 -0.000004964772871915809 -0.0000024574975930024173 -0.000002215099826739826 -0.000004414637738704629
          -0.00001663213229961705 -0.000014646207005132872 -0.00001663538370236123 -0.000014648854696145223 -0.000016645547590977615 -0.000014657291986932952
          -0.000014915865999994016 -0.000017128527602287796 -0.000017023400279915743 -0.000014188725025266409 -0.00001491839547243432 -0.000017132584805587475
          -0.00001702714090456765 -0.000014190013179313489 -0.000014928860225515386 -0.000017144608176381967 -0.000017037838154923046 -0.000014194195032061312
          -0.000006771529272999575 -0.000008482264641145077 -0.000010452263442593055 -0.000009187997265512094 -0.00000677405682365385 -0.00000848631892916026
          -0.000010457152096440987 -0.000009191455302810015 -0.000006782018316926405 -0.0000084999386048456 -0.000010472103856807681 -0.000009201573024877024
          -0.000024217898984603324 -0.000023802868697765547 -0.00002422141641102076 -0.00002380542323664087 -0.00002423221845141645 -0.000023811968228197748
          -0.000003111179290510634 -0.0000014774524740220587 -0.000001801512337190691 -0.00000368611019187941 -0.00000311005579775278 -0.0000014759346662652195
          -0.0000018020716471169361 -0.0000036868666808175215 -0.000003108594083295219 -0.0000014707923314831832 -0.000001802134080553703 -0.000003689910800083973
          -0.000032221241973384155 -0.000030349533541946738 -0.00003033767737521688 -0.00003222306582723066 -0.000030351382908907057 -0.000030339694234012896
          -0.00003223018954095075 -0.00003035508830366622 -0.000030344897007287438 -0.0000023863505497158367 -0.000002656051482542655 -0.000005129073460149621
          -0.000004689083544348343 -0.0000023876921825499614 -0.0000026572124633665774 -0.000005131359169490132 -0.000004691442868090589 -0.0000023916288155055437
          -0.0000026624833028305943 -0.000005138347167507431 -0.000004698227744732576 -0.000011855163071651788 -0.000013416291626240568 -0.000015255455922124925
          -0.000013449879644740436 -0.000011859327815970896 -0.000013422196184516448 -0.000015262803401023948 -0.000013454717085643328 -0.000011872153260505296
          -0.000013440621000925645 -0.000015284088883855044 -0.000013470616096679627 -0.0000075216453855468715 -0.0000075250371473855695 -0.000007535807279916534
          -0.00001543282253900542 -0.000017080578333379964 -0.000018042763256313747 -0.000015436189086929988 -0.000017086240492779776 -0.00001804790693849246
          -0.000015448169321272232 -0.000017101325071462344 -0.000018064650054416808 -0.000009945083540802769 -0.00001137688410623515 -0.000009948506985154655
          -0.000011381502012297768 -0.000009959065369801859 -0.000011394475156433837 -0.0000053094519744990636 -0.000007844764817728943 -0.000008340021478445194
          -0.000005683344988481435 -0.000005312792677666486 -0.000007849688922136304 -0.000008345422475522977 -0.00000568733423795095 -0.0000053240876945512414
          -0.000007863961931845937 -0.000008361365142765586 -0.000005699555187830272 -0.000001264735750128952 -0.000002649828252693424 -0.000002376675845243051
          -0.0000012257610399493365 -0.0000012632472516433946 -0.000002648609672339658 -0.000002374529871242132 -0.0000012230862177920934 -0.0000012519251041311586
          -0.0000026437344961401005 -0.0000023728467020926313 -0.0000012175187267304602 -0.000012467727499137301 -0.00001247507860994372 -0.000014323499801923725
          -0.000012472481772142835 -0.000012478130509591562 -0.000014327796444503756 -0.000012487049209666321 -0.000012485679563038201 -0.000014339970059797351
          0 0 0 0 0 0
          -0.00001854644222187572 -0.000016980020265069845 -0.000014878131996334993 -0.00001562335627686142 -0.000018555588280362077 -0.000016989144873621677
          -0.000014885859440593092 -0.000015632095692621228 -0.00001858333042616549 -0.000017018276319989387 -0.000014909769887997833 -0.000015659625307244444
          -0.00001026702629949587 -0.000010104342936507542 -0.000010272266298974382 -0.000010107560886173102 -0.000010288374325263432 -0.00001011788715480843
          -0.000008207926817060154 -0.00001026028229530737 -0.000008205396860178589 -0.000010258437314313294 -0.000008197527957039643 -0.000010252243821469123
          -0.000015486530996332506 -0.000017575868564235302 -0.00001549540296658249 -0.000017583974109345447 -0.0000155225789535874 -0.00001760947445546095
          -0.000022721161900783678 -0.000023360572432587534 -0.00002305642250232309 -0.000021957574588051004 -0.000022724222029724987 -0.000023364273043289908
          -0.00002306131510686769 -0.00002196173690514248 -0.000022732435847399064 -0.000023375281636681006 -0.00002307533181776843 -0.0000219738011798637
          -0.000019256063085044767 -0.00002015353725763415 -0.0000192617765536059 -0.00002015970203526045 -0.000019276793961743115 -0.000020174903310950176
          -0.0000064058480591946606 -0.000006403187112895388 -0.0000063956745557556505 -0.000016837453022423968 -0.000018754998988129026 -0.00001684512842674212
          -0.000018764277729946244 -0.00001686891078788088 -0.000018791970003646206 -0.000012155970123611314 -0.000014157846736665645 -0.000012879838447258032
          -0.000012157585224113023 -0.000014160459957245207 -0.000012881360018735915 -0.000012161286802375166 -0.00001416901324526706 -0.000012885290392916908
          -0.000005634143267963507 -0.000007382715135712187 -0.0000048398685835677875 -0.0000056342383939267455 -0.000007382494010311225 -0.000004837475591136246
          -0.000005633941369039952 -0.000007383464534322087 -0.000004829693946253036 -0.000019054679183995802 -0.000019060047399947466 -0.000019075450484990683
          0 0 0 -0.000027040116765782853 -0.00002489149295457755 -0.00002704160063161351
          -0.000024891614353827098 -0.000027046391233033337 -0.000024891246921292623 -0.000009407396313594977 -0.000009407587004459202 -0.000009408461933039888
          -0.000021861246037219725 -0.00002023661365168766 -0.000020410523710490477 -0.000021870835429000456 -0.000020244483975078805 -0.00002041957837378862
          -0.000021900066327495342 -0.000020268776863998156 -0.00002044593103855025 -0.000013272005363764582 -0.000013149511844237649 -0.000013279427794517536
          -0.000013157160306161083 -0.000013302051980445322 -0.000013179996332369826 -0.00003167490516649712 -0.00003052229010114772 -0.000029759736027326795
          -0.00003038618547738143 -0.00003167599500652934 -0.000030523529308975406 -0.00002976093350580698 -0.000030387316456895677 -0.0000316795626473612
          -0.00003052644095746157 -0.00002976496624807348 -0.00003039065213625843 -0.000030123807197857434 -0.000029717462764894333 -0.00002830704554493011
          -0.000028527176291340358 -0.00003012586349734876 -0.000029719491854410846 -0.00002830947264470851 -0.00002852908517720553 -0.000030132770271767758
          -0.000029726373972234768 -0.00002831649957307683 -0.000028534557349886727 -0.00002899614295766807 -0.000028147824844132524 -0.000026653765972045747
          -0.00002899785993102575 -0.000028149448792349784 -0.000026654879957368354 -0.00002900614887676279 -0.000028155869480117954 -0.000026658775723665076
          -0.000016014867306229032 -0.00001602027007875285 -0.000016037103086871917 -0.000012025470943021513 -0.000012025478359860001 -0.000012021990357252602
          -0.000030434828801853523 -0.000029136736744287177 -0.000030435515849055707 -0.000029137957434156793 -0.000030436882588919915 -0.000029142323178691568
          -0.00002917563482561123 -0.00003113010012834219 -0.000029177674434370604 -0.00003113230809479681 -0.000029181387802867903 -0.000031138533525371464
          -0.000018162751660667085 -0.000018169578081675067 -0.000018191121669673366 -0.000026381112729713826 -0.00002709615291413587 -0.000028506615157879
          -0.000028550968485481363 -0.00002638238676313889 -0.000027097158047511315 -0.000028507654204107844 -0.000028552062971214957 -0.00002638589178144645
          -0.000027100574965577995 -0.000028511011675834614 -0.000028554688964741213 -0.000026230131394857252 -0.000026231412323680617 -0.000026233397026684106
          -0.00002438375376608388 -0.00002438538748890634 -0.000024389618057438514 -0.000020369832820767286 -0.000021672518269747795 -0.000020377140944367473
          -0.000021680574114904904 -0.00002039834994063397 -0.000021705992894800886 -0.000021733226348818893 -0.000021741848330270113 -0.00002176539836282118
          -0.000022524497333375227 -0.000021285604221229494 -0.00002253112881916769 -0.000021291286466085475 -0.000022550229482883846 -0.00002130907137612272
          -0.000021497983930169956 -0.00002150634571038561 -0.000021526210764636538 -0.00002156257419650537 -0.000020666235293489582 -0.000021565588821126407
          -0.00002066995516778171 -0.000021573489944101513 -0.000020681047580025204 -0.000022796167851091712 -0.000022798566270377568 -0.00002280502511227789
          -0.000030316174786553875 -0.000030317935685847835 -0.000030321685226122886 -0.000019945704467010306 -0.00001995063629248482 -0.000019965191325723683
          -0.000022576118516526703 -0.00002119292508455234 -0.000022583660599037156 -0.00002120064045625015 -0.000022611383564572605 -0.000021225898140985748
          -0.000019059284948750212 -0.00001906570044584574 -0.000019083405037289864 -0.000010032912065488338 -0.000012567394832858931 -0.000010031737598105174
          -0.00001256730677513618 -0.000010028452750350216 -0.000012568044830511098 -0.000004364995354577009 -0.000006725710691835653 -0.000005912556975042938
          -0.000004367816661675052 -0.000006728867919937391 -0.000005915471063506413 -0.00000437350871988984 -0.000006739744875304149 -0.000005924411475092072
          -0.000003506073953873763 -0.000002849043363611135 -0.000006451484886787219 -0.0000035081158590837258 -0.0000028513242147362936 -0.000006455431595056006
          -0.0000035133986198978633 -0.000002859297178397206 -0.000006467161168464659 -0.000022306044189943025 -0.000020005858480256025 -0.0000223142258482317
          -0.00002001268669886483 -0.000022343066606283493 -0.000020030679269009936 -0.00001799552031699685 -0.000017960469179293036 -0.000015407114244017336
          -0.000017993137785485687 -0.00001795857507516497 -0.000015405206363623884 -0.000017986173648390003 -0.000017952104851560743 -0.000015400134139512274
          -0.000010058615433706917 -0.000012580959993239406 -0.000010059851856436554 -0.000012582588823873704 -0.000010063795465618033 -0.000012587081297947217
          -0.00003502186587755214 -0.000035023944702139656 -0.000035029546718659446 0 0 0
          0 0 0 0 0 0
          0 0 0 -0.000011043647269138221 -0.000010723468973574276 -0.000011048732259440882
          -0.000010729097892977182 -0.000011065679623386465 -0.000010744409570285618 -0.000012658651517403615 -0.000012665026224501044 -0.00001268165032449837
          0 -0.000002641949892816611 0 -0.0000026438361065317833 0 -0.000002649626382905445
          0 0 0 -0.00002465206417311449 -0.000024653094702187162 -0.00002465488580615703
          0 0 0 -0.000023036241952588157 -0.000023037731215686968 -0.000023041762119951303
          -0.000021422081770411845 -0.000021424252694817714 -0.00002143122137651484 -0.000002189123248680124 0 -0.0000021876333545604555
          0 -0.000002175250539233798 0 -0.000018392094848594283 -0.000019116172390647277 -0.000018396425086402393
          -0.000019119440494022783 -0.000018408756175308487 -0.00001912894648069255 -0.000023004773823356204 -0.000023013650106808482 -0.00002304149738650934
          -0.00003169593414989377 -0.00003169855973255635 -0.000031705992980438904 -0.000020116599995979907 -0.000020119497398866522 -0.000020127456185288528
          -0.000014759452238184264 -0.000014765000583111074 -0.00001478157876062624 -0.000023495762321261215 -0.00002350343778823516 -0.000023531461367698087
          -0.000024311399973847132 -0.000024319344269032392 -0.000024340570611796675 -0.000014525160109973125 -0.000016345703205396765 -0.0000145326469794484
          -0.000016352418853311056 -0.000014555058370555738 -0.000016372835012864986 -0.000012301609650961787 -0.000012308764028482809 -0.000012329853091701305
          -0.000007977702074802959 -0.000009332641894683738 -0.00000798136603331659 -0.000009336992317877935 -0.000007990553293789408 -0.000009348013128641623
          -0.00003204740945918995 -0.00003410514168839884 -0.00003382549676785165 -0.00003204975474891355 -0.000034108176572161283 -0.00003382840320730246
          -0.0000320570157323402 -0.00003411675080844713 -0.000033837030614879435 -0.000035667046005667974 -0.00003567029918135807 -0.00003567991402506426
          -0.000009885782706643496 -0.000009891470535836303 -0.000009908258959776461 -0.000019901492723629246 -0.000021634872628425343 -0.00001990285629493714
          -0.000021636070545793736 -0.000019907775099806523 -0.00002164031942415587 -0.000008967024131091779 -0.00001134234085333619 -0.00000897269360325688
          -0.00001134924905399026 -0.0000089902486263827 -0.000011369862327566937 -0.000013438344385930408 -0.000013445025317384585 -0.000013466178560341832
          -0.000010643623270364298 -0.000012699909558747936 -0.000010650029554809281 -0.000012705740277206962 -0.000010669681538174965 -0.000012725704090520033
          -0.000025884023149733546 -0.000025293227929509973 -0.000026246058718266092 -0.000026841266211118378 -0.000025888760382449297 -0.000025298883170784732
          -0.000026250663432852235 -0.00002684496536992363 -0.000025902054324496067 -0.00002531203911903353 -0.000026265541383113842 -0.000026855991990818976
          -0.000027915999514125993 -0.000027918844105742944 -0.000027927248086877293 -0.000023227947731538704 -0.000023237670192629184 -0.000023269363221054454
          -0.000010507162251725474 -0.000011992779120352342 -0.000010509859539110533 -0.000011995611091392842 -0.000010516110735670906 -0.000012005056034090424
          -0.000017554585955965604 -0.00001756005911642107 -0.000017575960331509098 -0.00002029991281106512 -0.00002020825392384481 -0.000020297941200626062
          -0.000020207119321902773 -0.00002029197863578009 -0.000020201012063378178 -0.0000040797709811020005 -0.000003524990302774712 -0.0000040794778746392774
          -0.0000035229906381441257 -0.000004079987709554754 -0.0000035187257346227546 -0.000036052213517169304 -0.00003605568195413546 -0.00003606831658172795
          -0.000015011118565139598 -0.000014056677598418914 -0.000015017225136164084 -0.000014062180934180766 -0.000015033895033077023 -0.000014078228281044704
          -0.00002496027302777835 -0.000025400625354916146 -0.000026659190992476697 -0.00002612626980069768 -0.00002496623237505076 -0.000025405340431791953
          -0.000026663179383033183 -0.00002613120726211328 -0.000024984345076498653 -0.0000254191387663411 -0.000026675232317288722 -0.00002614567853624937
          -0.0000085681055590764 -0.000008569910207187582 -0.000008575487648549523 -0.00002735660050532031 -0.000027465623804657986 -0.000027360108694150078
          -0.00002746888259139204 -0.000027371031372945673 -0.00002747798376304227 -0.000005758415861287127 -0.0000041986334033867265 -0.000005760157869629769
          -0.0000042004391253834256 -0.000005763661928276138 -0.000004206724484035063 -0.000002074125120815627 -0.0000020752327148942605 -0.000002080540551414532
          -0.000023188462057582356 -0.00002318911884465098 -0.000023191540690345566 -0.000006625668192611619 -0.000006626953793541901 -0.000006631642763706343
          -0.000025368203155019386 -0.000025374706105511268 -0.00002539493298939616 -0.000026490121489725383 -0.00002649477111991063 -0.000026510662356655243
          -0.000004836616495914985 -0.000007875342791130003 -0.000004837342507506676 -0.000007877758985281275 -0.000004839111124408778 -0.000007885115814194926
          -0.00002869584745563875 -0.00002869797292300421 -0.00002870418091643118 -0.00002440966127394827 -0.00002441759940102702 -0.00002443634207989252
          -0.000024739963783434138 -0.00002474079171134449 -0.000024742668466626705 -0.000007349473076077 -0.000007353381303273136 -0.000007366036746289245
          -0.00002741592897409309 -0.00002741854551173369 -0.000027425026091769986 -0.000015974088249619407 -0.000015978773020016337 -0.000015991326730591895
          0 -0.000002231099649696319 0 0 -0.000002232219574620503 0
          0 -0.0000022365486657595123 0 -0.00002444430248453936 -0.00002445186223557858 -0.000024476468741043644
          -0.00002227809371299787 -0.000022056490695988417 -0.000022277877979970773 -0.00002205706262746133 -0.00002227820213281622 -0.000022058110241948868
          -0.00002425581331417086 -0.000024264334910836992 -0.000024288865168043315 -0.000024163056748119952 -0.000024168038738771115 -0.000024182893200013494
          0 0 0 -0.00002812723985681711 -0.000028129965227963367 -0.000028136871707584208
          -0.000032627079655906875 -0.000033324839159209875 -0.000032628975553022946 -0.00003332716637734293 -0.00003263404601962215 -0.000033334590442962246
          -0.000023749787242830023 -0.00002375648625423921 -0.000023776655789194725 -0.000027952389418996838 -0.000027953915180821573 -0.000027958698883710146
          -0.000003813757810164837 -0.0000038121800440835667 -0.0000038092579204062873 -0.000022600575722917504 -0.000022599831543980386 -0.000022596082211455652
          -0.000005460090047549355 -0.0000054632276686529655 -0.000005470526222269368 -0.00003034622566361813 -0.00003034837924785487 -0.000030354049710557096
          -0.0000206401598206748 -0.000018623006356216908 -0.000020640430377253 -0.000018622641751858586 -0.00002063899101921894 -0.000018620587233346715
          -0.000007002963260945496 -0.000007004289725492244 -0.000007007713931669676 -0.000009594559450846607 -0.000012147648278696157 -0.000009592383560553089
          -0.00001214549409398627 -0.000009584626402576084 -0.000012138968417090678 -0.000015650144400261965 -0.000015647550463741955 -0.00001563989633364387
          -0.000013360971287677399 -0.00001335821596706509 -0.000013348674983750857 -0.000007824592855169081 -0.000007822663464278214 -0.00000781531929664133
          0 -0.0000025889886516517865 0 -0.0000025861969647395414 0 -0.000002577517832154136
          -0.000008150578043377793 -0.000008148319838304611 -0.000008140014743850514 -0.000004771365981244592 -0.000004769858970106693 -0.000004768538929352521
        </DataArray>
        <DataArray type="Float64" Name="disp_z" format="ascii" RangeMin="-0.0000016906777873760313" RangeMax="0">
          0 0 0 0 -5.187370902255413e-7 -5.075149149696094e-7
          -4.5664843723730385e-7 -4.706721793999651e-7 -0.000001037095193332903 -0.0000010148235944127272 -9.132312254597882e-7 -9.413500714165172e-7
          0 0 0 0 -6.430471565921272e-7 -6.178713361943813e-7
          -6.040321066721403e-7 -6.267989339594245e-7 -0.0000012857121671339528 -0.0000012351831943576475 -0.0000012082483945204299 -0.000001253487400440309
          0 0 -3.7805547213848086e-7 -4.158047772243065e-7 -7.557814613691742e-7 -8.318606915905453e-7
          0 0 0 0 -7.030488627081612e-7 -7.216962167837181e-7
          -6.907161421400524e-7 -6.77861044967738e-7 -0.000001405398655011161 -0.000001442020128739905 -0.0000013804651392312629 -0.0000013526418768784575
          0 0 -5.999291649185965e-7 -6.232373676417222e-7 -0.000001200576275358563 -0.0000012465071984206903
          0 0 0 0 -5.148187197900832e-7 -4.696976793745638e-7
          -4.973333771704031e-7 -5.458497637692814e-7 -0.0000010286623936091531 -9.401751022761775e-7 -9.926697503929903e-7 -0.0000010876695686769315
          0 0 0 0 -7.062445830727098e-7 -7.578087032076516e-7
          -7.128040367500532e-7 -6.787799048212534e-7 -0.000001411865043977356 -0.0000015136872937229659 -0.000001424498250231888 -0.0000013572622840698771
          0 0 -4.861837426247662e-7 -5.200500421751997e-7 -9.723922138910725e-7 -0.0000010398757333072618
          0 0 0 0 -5.782709132679284e-7 -5.568939196905827e-7
          -6.50070117100507e-7 -6.523749392484904e-7 -0.000001153693125909829 -0.0000011136662286078695 -0.0000012983891151186421 -0.0000013038173153030599
          0 0 0 -5.820821551818349e-7 -5.958041510913501e-7 -6.233279086129804e-7
          -0.000001162995537552555 -0.0000011906557635095926 -0.0000012475118783908507 0 0 0
          0 -8.221997967584458e-7 -8.327142085433484e-7 -8.199864490391048e-7 -8.160210783767543e-7 -0.0000016404667418398357
          -0.0000016623919393382398 -0.0000016371037238928926 -0.0000016286179335490282 0 0 0
          0 -6.116299826507681e-7 -6.273592334767945e-7 -5.850893828914318e-7 -5.769202614156892e-7 -0.000001222288974886821
          -0.0000012537935420096257 -0.0000011699262704460008 -0.0000011523198003774728 0 -6.878027304621346e-7 -0.0000013754083728012278
          0 0 0 -5.104268948505251e-7 -4.934394875505148e-7 -4.7428901404735853e-7
          -0.0000010204333322140721 -9.866936237165328e-7 -9.503990166069897e-7 0 0 -6.281568664420564e-7
          -6.601502769481036e-7 -0.0000012547443474581795 -0.000001319326258052657 0 0 0
          0 -7.374413745566314e-7 -7.090593602012794e-7 -7.356778459506559e-7 -7.671830022476726e-7 -0.0000014743483738151621
          -0.000001418413158266459 -0.0000014711415101232158 -0.0000015333876513709062 0 0 0
          0 -4.459852557577637e-7 -4.990249311944614e-7 -4.136757456425535e-7 -3.4408265721411214e-7 -8.89150687314057e-7
          -9.932810151614082e-7 -8.2665266247171e-7 -6.890620760730136e-7 0 0 0
          -6.419585067866382e-7 -6.400060189116744e-7 -6.210687783347481e-7 -0.0000012853681674888041 -0.0000012808623265517007 -0.0000012440851387247965
          0 0 -2.585996646351034e-7 -3.870722103966247e-7 -5.224877138076591e-7 -7.724965621024064e-7
          0 0 0 0 -5.927562063633748e-7 -5.936302961850338e-7
          -6.554190939465925e-7 -6.766597631935339e-7 -0.0000011843206404536225 -0.0000011862975974807543 -0.0000013086316660013643 -0.0000013502645252007006
          0 0 -6.748998578016608e-7 -6.529245691121021e-7 -0.0000013507254050497231 -0.0000013066062996080614
          0 0 -5.068501014919787e-7 -5.282613174492875e-7 -0.0000010125552071244807 -0.0000010541951701437928
          0 0 -6.818364527122672e-7 -6.089138695999201e-7 -0.000001361568280247298 -0.0000012175775376044852
          0 0 0 0 -5.18965338293694e-7 -4.972322200220746e-7
          -4.872205929631572e-7 -5.123828237413563e-7 -0.0000010385013287040193 -9.95201943479663e-7 -9.754912874762983e-7 -0.000001026064148850401
          0 0 -4.626872819566887e-7 -4.5064574355701484e-7 -9.255873066538686e-7 -8.980751158904866e-7
          0 -4.866979069019979e-7 -9.717583837373228e-7 0 0 -5.402984285215211e-7
          -5.261448833554905e-7 -0.0000010812287504137758 -0.0000010530605565363124 0 0 0
          -5.472409108959302e-7 -5.344399514044995e-7 -5.412661128331484e-7 -0.0000010931976693102261 -0.0000010675637293904712 -0.0000010790640434676976
          0 0 0 -5.251652262184164e-7 -5.346545672811401e-7 -4.598518258631835e-7
          -0.0000010491869570646793 -0.0000010689140410535044 -9.185844700978571e-7 0 -4.435025788439237e-7 -8.88542087726164e-7
          0 -5.174548406045078e-7 -0.000001035228251664108 0 0 -7.002235074463693e-7
          -7.174486365867942e-7 -0.0000013975320771569266 -0.0000014323866161437184 0 -5.322685475383958e-7 -0.0000010642158341703531
          0 0 0 -4.6213866011600004e-7 -4.7199667744507315e-7 -5.19560395598037e-7
          -9.245722215726446e-7 -9.458850758368775e-7 -0.0000010387064382153668 0 0 -7.257145915828825e-7
          -7.374661306819657e-7 -0.0000014471002712934265 -0.0000014705431309911422 0 0 0
          0 -3.7016465953902507e-7 -3.2960606593394956e-7 -3.3012544685537427e-7 -3.869693416844678e-7 -7.399319618733127e-7
          -6.583032488963408e-7 -6.608413854532005e-7 -7.739424126918473e-7 0 0 0
          0 -4.907491147587573e-7 -4.3675101485414365e-7 -4.453306534118444e-7 -5.031712077186846e-7 -9.812076548700219e-7
          -8.737052366983078e-7 -8.906840444477008e-7 -0.0000010058590331857964 0 0 0
          -6.793915368952503e-7 -6.451860363473865e-7 -6.876707080697707e-7 -0.0000013585950464355014 -0.0000012893005042563763 -0.0000013746906441354193
          0 -5.158100425549407e-7 -0.0000010319101233794072 0 -5.344976036574721e-7 -0.0000010649629608710377
          0 0 -2.98905459353263e-7 -2.6880951297526104e-7 -6.003785805693796e-7 -5.397386698601647e-7
          0 0 -3.823845118537314e-7 -4.2544005918712687e-7 -7.651198934874912e-7 -8.51084563866932e-7
          0 -4.896285097047884e-7 -9.812835914141423e-7 0 0 0
          0 -5.543021308540496e-7 -6.009146352742087e-7 -5.870480772952274e-7 -5.37692692631292e-7 -0.0000011090416187723766
          -0.0000012036225136563146 -0.0000011737437156664412 -0.0000010752745859328714 0 -6.256705536691195e-7 -0.0000012499946995264924
          0 -5.481875272048214e-7 -0.0000010969319561465046 0 0 -5.476563132785235e-7
          -5.075190693131421e-7 -0.0000010952023130448552 -0.0000010138494736213814 0 -4.1326925413673694e-7 -8.27216581881746e-7
          0 0 -4.868317989518359e-7 -5.157827645927488e-7 -9.73984489851321e-7 -0.0000010326758944633837
          0 -4.410710638936063e-7 -8.835447592493411e-7 0 0 -5.460640873275992e-7
          -5.438096915351808e-7 -0.000001092930854732343 -0.0000010886951097447903 0 -5.502537928885092e-7 -0.000001101112365513525
          0 -5.418066855826876e-7 -0.0000010827665331345483 0 -5.462136314205112e-7 -0.0000010937276555112348
          0 0 -3.930636289837443e-7 -4.2004404063256244e-7 -7.85225919277892e-7 -8.373220147809232e-7
          0 -5.638903582647318e-7 -0.0000011292032962323922 0 0 -6.518830889193332e-7
          -6.47131482714788e-7 -0.000001301611792470354 -0.0000012932915744348116 0 0 0
          -7.671986824412339e-7 -7.843841746366852e-7 -7.719741672697208e-7 -0.0000015316929825642525 -0.0000015641441954667549 -0.0000015431889002834935
          0 0 0 -8.216015896228647e-7 -7.975006058588797e-7 -7.965866423231752e-7
          -0.0000016408632034214953 -0.0000015930802713951264 -0.000001590968811910722 0 0 -3.59390795680299e-7
          -4.2884228855432113e-7 -7.204880961317354e-7 -8.592368950770233e-7 0 0 0
          -6.82361774070892e-7 -6.717529543987934e-7 -6.58009402300916e-7 -0.0000013642231340028596 -0.000001342392741769346 -0.0000013154791099728574
          0 0 -6.530665771493665e-7 -6.411293099011904e-7 -0.000001305428158480245 -0.0000012817914266383966
          0 -4.6238418921373494e-7 -9.252381763742713e-7 0 0 -8.026427287224862e-7
          -8.244682173876605e-7 -0.0000016028848156063727 -0.0000016469573361063902 0 0 -8.466371922666913e-7
          -8.391476545788833e-7 -0.0000016906777873760313 -0.0000016749128496621692 0 0 -7.663263269241366e-7
          -7.840827098022796e-7 -0.0000015280180263313781 -0.0000015633110605871906 0 -6.940350823163721e-7 -0.0000013864063395486266
          0 0 -7.559925187358297e-7 -7.601895469815594e-7 -0.0000015105407755639736 -0.0000015194266632338868
          0 -7.06566187607472e-7 -0.0000014107813717302644 0 -6.05357060449013e-7 -0.0000012118908491791133
          0 -6.497036602655807e-7 -0.0000012994124092763543 0 -5.843641513730874e-7 -0.0000011704181355719042
          0 -5.85764176231819e-7 -0.0000011725237906746566 0 0 -6.171894607248969e-7
          -5.502535973587039e-7 -0.0000012350987041462487 -0.0000011050307029220932 0 0 -5.726381310863176e-7
          -5.734834510833034e-7 -0.0000011462721085839136 -0.0000011476754913867027 0 -4.4793199621453217e-7 -8.962963898580976e-7
          0 -4.813850241647095e-7 -9.631952448626697e-7 0 -5.781585404480967e-7 -0.0000011567336875261711
          0 -5.499506456760478e-7 -0.0000010996258882403548 0 -3.3988661933010777e-7 -6.840091047932473e-7
          0 -3.1957759051582994e-7 -6.409137435385463e-7 0 0 -6.708421732648518e-7
          -6.190963391145757e-7 -0.0000013413094536281195 -0.000001239513743343402 0 -7.28085555413109e-7 -0.0000014545267880015517
          0 0 -7.987750127846823e-7 -7.806117390183764e-7 -0.000001594005029540147 -0.0000015572612364656476
          0 0 0 -5.346745869279551e-7 -5.718290744240439e-7 -5.220996862045308e-7
          -0.0000010682231924724212 -0.0000011427050337018827 -0.0000010439303239666262 0 -5.093032896991226e-7 -0.0000010187823901103938
          0 -7.715209596917418e-7 -0.000001540317694852573 0 0 -6.270133747346897e-7
          -6.275198129354007e-7 -0.00000125383415493876 -0.0000012552385958500562 0 0 -7.560756802679794e-7
          -7.125997003346787e-7 -0.000001511053540322686 -0.0000014254154081646146 0 -6.61855064387299e-7 -0.0000013253503347808868
          0 0 -6.956071202183416e-7 -6.512965264244913e-7 -0.000001391525387817603 -0.0000013050062927121715
          0 0 0 0 -2.834488912205809e-7 -2.9358619305602067e-7
          -3.0201155323521074e-7 -2.765111303503826e-7 -5.698167782596588e-7 -5.927400665565932e-7 -6.063078004364614e-7 -5.569171607487552e-7
          0 -3.8701946789573327e-7 -7.748179750095582e-7 0 -3.893343414609615e-7 -7.817048416061683e-7
          0 0 -5.809128002884227e-7 -5.7747759496547e-7 -0.0000011607809275811147 -0.0000011558169752396416
          0 -5.84043159215969e-7 -0.0000011699810253788883 0 0 -6.992135667844005e-7
          -6.935595028102126e-7 -0.0000013974237414168209 -0.0000013842809321701913 0 0 -5.147761087142341e-7
          -4.335080467433824e-7 -0.0000010267759160983386 -8.655018767669445e-7 0 -5.542419969840472e-7 -0.0000011085755936286055
          0 0 -6.209719069809041e-7 -6.2052852399491e-7 -0.0000012447543764021118 -0.0000012426981642563455
          0 0 0 0 -4.0656724252042463e-7 -4.32049414103362e-7
          -4.0733664760168467e-7 -3.7448295882132194e-7 -8.138280950124553e-7 -8.64860355322896e-7 -8.156077792227596e-7 -7.496717387940458e-7
          0 -5.837492314982939e-7 -0.0000011665502315344606 0 0 -3.377568233285499e-7
          -2.9317806134808225e-7 -6.76964190512972e-7 -5.878374681690196e-7 0 0 -6.504828887252783e-7
          -6.98120717163856e-7 -0.0000012999452858179707 -0.0000013955064471129607 0 -7.175189984921431e-7 -0.0000014333923189511811
          0 -6.462083044343665e-7 -0.0000012918678263488137 0 -5.910251853114305e-7 -0.0000011799508636052329
          0 -3.4587108812409503e-7 -6.939924623817597e-7 0 -2.493215022108283e-7 -4.993210179593897e-7
          0 0 -5.911945405678053e-7 -6.508423828767998e-7 -0.00000117989075239803 -0.0000012999399383870238
          0 -3.3299509420686945e-7 -6.669209321308413e-7 0 -2.952744214397277e-7 -5.90045983146092e-7
          0 -6.78386346704818e-7 -0.0000013548456953746172 0 -8.116556695611576e-7 -0.0000016200352042289921
          0 -2.5783512440091846e-7 -5.18083232721629e-7 0 -6.019936384988275e-7 -0.0000012055041036593039
          0 0 0 -7.940167115059672e-7 -7.817181177693338e-7 -7.221872730742943e-7
          -0.0000015849284487050835 -0.0000015610163655085505 -0.0000014414689849574594 0 -3.289584247391608e-7 -6.643737959555775e-7
          0 0 -7.016441896255131e-7 -6.830850915836389e-7 -0.0000014002887210086067 -0.000001363951813970442
          0 -3.905889709097496e-7 -7.825867407718846e-7 0 -4.606415480916682e-7 -9.219020829865004e-7
          0 -6.335795163717511e-7 -0.0000012652487217454752 0 -2.873557126931329e-7 -5.768007683113513e-7
          0 0 -4.18847449528268e-7 -4.702625336710214e-7 -8.381955026038088e-7 -9.411901295337131e-7
          0 -4.495400041893657e-7 -8.998157483604804e-7 0 -2.43089017990067e-7 -4.874366882325443e-7
          0 -6.714535433969638e-7 -0.0000013402353244769009 0 -7.081298198823643e-7 -0.0000014142937367854027
          0 -8.251168812698916e-7 -0.0000016474904674956807 0 -6.368967490319645e-7 -0.0000012728358777769043
          0 0 -6.709814338478671e-7 -6.560918434846442e-7 -0.0000013394386001974149 -0.000001311101258430433
          0 -6.626345297701481e-7 -0.0000013238099540540424 0 0 -6.273474871100142e-7
          -6.436584514496564e-7 -0.0000012544790681656673 -0.0000012866085645159428 0 -6.705478754768889e-7 -0.0000013403728055047154
          0 -6.491410380027362e-7 -0.0000012980684128382989 0 -6.321453129041694e-7 -0.0000012632606094378413
          0 0 -5.260008675589257e-7 -5.466869421763812e-7 -0.0000010555206579833739 -0.0000010962627026297557
          0 -6.153507021151788e-7 -0.0000012317915901573472 0 -6.208316423607475e-7 -0.000001241041091412303
        </DataArray>
      </PointData>
      <CellData>
        <DataArray type="Int32" Name="libmesh_elem_id" format="ascii" RangeMin="1392" RangeMax="3231">
          1392 1393 1402 1403 1418 1419
          1434 1435 1442 1443 1448 1449
          1454 1455 1478 1479 1500 1501
          1512 1513 1522 1523 1546 1547
          1572 1573 1582 1583 1590 1591
          1608 1609 1614 1615 1616 1617
          1630 1631 1638 1639 1650 1651
          1654 1655 1656 1657 1678 1679
          1682 1683 1684 1685 1704 1705
          1714 1715 1718 1719 1746 1747
          1760 1761 1762 1763 1772 1773
          1790 1791 1794 1795 1802 1803
          1816 1817 1824 1825 1832 1833
          1838 1839 1840 1841 1846 1847
          1848 1849 1852 1853 1856 1857
          1858 1859 1862 1863 1864 1865
          1874 1875 1876 1877 1878 1879
          1882 1883 1888 1889 1904 1905
          1906 1907 1910 1911 1916 1917
          1924 1925 1926 1927 1930 1931
          1936 1937 1946 1947 1950 1951
          1956 1957 1960 1961 1982 1983
          1996 1997 1998 1999 2026 2027
          2028 2029 2038 2039 2046 2047
          2048 2049 2052 2053 2054 2055
          2058 2059 2060 2061 2084 2085
          2088 2089 2096 2097 2102 2103
          2106 2107 2110 2111 2126 2127
          2136 2137 2138 2139 2144 2145
          2148 2149 2154 2155 2158 2159
          2162 2163 2164 2165 2170 2171
          2176 2177 2178 2179 2196 2197
          2200 2201 2202 2203 2204 2205
          2212 2213 2220 2221 2222 2223
          2224 2225 2226 2227 2228 2229
          2232 2233 2236 2237 2246 2247
          2250 2251 2252 2253 2254 2255
          2260 2261 2264 2265 2266 2267
          2274 2275 2282 2283 2308 2309
          2310 2311 2312 2313 2318 2319
          2324 2325 2328 2329 2346 2347
          2350 2351 2364 2365 2368 2369
          2370 2371 2402 2403 2416 2417
          2420 2421 2444 2445 2458 2459
          2462 2463 2466 2467 2468 2469
          2470 2471 2478 2479 2484 2485
          2488 2489 2490 2491 2502 2503
          2504 2505 2510 2511 2512 2513
          2524 2525 2550 2551 2566 2567
          2570 2571 2580 2581 2582 2583
          2602 2603 2608 2609 2616 2617
          2628 2629 2634 2635 2636 2637
          2640 2641 2642 2643 2644 2645
          2650 2651 2666 2667 2668 2669
          2684 2685 2690 2691 2696 2697
          2700 2701 2710 2711 2714 2715
          2716 2717 2726 2727 2750 2751
          2760 2761 2766 2767 2772 2773
          2782 2783 2798 2799 2802 2803
          2810 2811 2826 2827 2830 2831
          2838 2839 2860 2861 2868 2869
          2874 2875 2884 2885 2922 2923
          2928 2929 2934 2935 2938 2939
          2946 2947 2948 2949 2960 2961
          2962 2963 2964 2965 2974 2975
          2978 2979 2994 2995 2998 2999
          3004 3005 3008 3009 3020 3021
          3028 3029 3034 3035 3038 3039
          3040 3041 3042 3043 3050 3051
          3052 3053 3054 3055 3060 3061
          3066 3067 3072 3073 3076 3077
          3082 3083 3086 3087 3096 3097
          3100 3101 3102 3103 3112 3113
          3116 3117 3148 3149 3154 3155
          3158 3159 3166 3167 3182 3183
          3230 3231
        </DataArray>
        <DataArray type="Int32" Name="subdomain_id" format="ascii" RangeMin="107" RangeMax="107">
          107 107 107 107 107 107
          107 107 107 107 107 107
          107 107 107 107 107 107
          107 107 107 107 107 107
          107 107 107 107 107 107
          107 107 107 107 107 107
          107 107 107 107 107 107
          107 107 107 107 107 107
          107 107 107 107 107 107
          107 107 107 107 107 107
          107 107 107 107 107 107
          107 107 107 107 107 107
          107 107 107 107 107 107
          107 107 107 107 107 107
          107 107 107 107 107 107
          107 107 107 107 107 107
          107 107 107 107 107 107
          107 107 107 107 107 107
          107 107 107 107 107 107
          107 107 107 107 107 107
          107 107 107 107 107 107
          107 107 107 107 107 107
          107 107 107 107 107 107
          107 107 107 107 107 107
          107 107 107 107 107 107
          107 107 107 107 107 107
          107 107 107 107 107 107
          107 107 107 107 107 107
          107 107 107 107 107 107
          107 107 107 107 107 107
          107 107 107 107 107 107
          107 107 107 107 107 107
          107 107 107 107 107 107
          107 107 107 107 107 107
          107 107 107 107 107 107
          107 107 107 107 107 107
          107 107 107 107 107 107
          107 107 107 107 107 107
          107 107 107 107 107 107
          107 107 107 107 107 107
          107 107 107 107 107 107
          107 107 107 107 107 107
          107 107 107 107 107 107
          107 107 107 107 107 107
          107 107 107 107 107 107
          107 107 107 107 107 107
          107 107 107 107 107 107
          107 107 107 107 107 107
          107 107 107 107 107 107
          107 107 107 107 107 107
          107 107 107 107 107 107
          107 107 107 107 107 107
          107 107 107 107 107 107
          107 107 107 107 107 107
          107 107 107 107 107 107
          107 107 107 107 107 107
          107 107 107 107 107 107
          107 107 107 107 107 107
          107 107 107 107 107 107
          107 107 107 107 107 107
          107 107 107 107 107 107
          107 107 107 107 107 107
          107 107 107 107 107 107
          107 107 107 107 107 107
          107 107 107 107 107 107
          107 107 107 107 107 107
          107 107 107 107 107 107
          107 107 107 107 107 107
          107 107 107 107 107 107
          107 107 107 107 107 107
          107 107 107 107 107 107
          107 107 107 107 107 107
          107 107 107 107 107 107
          107 107 107 107 107 107
          107 107 107 107 107 107
          107 107
        </DataArray>
        <DataArray type="Int32" Name="processor_id" format="ascii" RangeMin="2" RangeMax="2">
          2 2 2 2 2 2
          2 2 2 2 2 2
          2 2 2 2 2 2
          2 2 2 2 2 2
          2 2 2 2 2 2
          2 2 2 2 2 2
          2 2 2 2 2 2
          2 2 2 2 2 2
          2 2 2 2 2 2
          2 2 2 2 2 2
          2 2 2 2 2 2
          2 2 2 2 2 2
          2 2 2 2 2 2
          2 2 2 2 2 2
          2 2 2 2 2 2
          2 2 2 2 2 2
          2 2 2 2 2 2
          2 2 2 2 2 2
          2 2 2 2 2 2
          2 2 2 2 2 2
          2 2 2 2 2 2
          2 2 2 2 2 2
          2 2 2 2 2 2
          2 2 2 2 2 2
          2 2 2 2 2 2
          2 2 2 2 2 2
          2 2 2 2 2 2
          2 2 2 2 2 2
          2 2 2 2 2 2
          2 2 2 2 2 2
          2 2 2 2 2 2
          2 2 2 2 2 2
          2 2 2 2 2 2
          2 2 2 2 2 2
          2 2 2 2 2 2
          2 2 2 2 2 2
          2 2 2 2 2 2
          2 2 2 2 2 2
          2 2 2 2 2 2
          2 2 2 2 2 2
          2 2 2 2 2 2
          2 2 2 2 2 2
          2 2 2 2 2 2
          2 2 2 2 2 2
          2 2 2 2 2 2
          2 2 2 2 2 2
          2 2 2 2 2 2
          2 2 2 2 2 2
          2 2 2 2 2 2
          2 2 2 2 2 2
          2 2 2 2 2 2
          2 2 2 2 2 2
          2 2 2 2 2 2
          2 2 2 2 2 2
          2 2 2 2 2 2
          2 2 2 2 2 2
          2 2 2 2 2 2
          2 2 2 2 2 2
          2 2 2 2 2 2
          2 2 2 2 2 2
          2 2 2 2 2 2
          2 2 2 2 2 2
          2 2 2 2 2 2
          2 2 2 2 2 2
          2 2 2 2 2 2
          2 2 2 2 2 2
          2 2 2 2 2 2
          2 2 2 2 2 2
          2 2 2 2 2 2
          2 2 2 2 2 2
          2 2 2 2 2 2
          2 2 2 2 2 2
          2 2 2 2 2 2
          2 2 2 2 2 2
          2 2 2 2 2 2
          2 2
        </DataArray>
      </CellData>
      <Points>
        <DataArray type="Float64" Name="Points" NumberOfComponents="3" format="ascii" RangeMin="0.0055128205128194" RangeMax="0.014586579917196396">
          0.010655961336451 0.0054415469453289 0 0.010738296327413 0.0059250363170334 0
          0.010252884061106 0.0059462536680524 0 0.010205117478458 0.0054994523140404 0
          0.010655961336451 0.0054415469453289 0.00015 0.010738296327413 0.0059250363170334 0.00015
          0.010252884061106 0.0059462536680524 0.00015 0.010205117478458 0.0054994523140404 0.00015
          0.010655961336451 0.0054415469453289 0.0003 0.010738296327413 0.0059250363170334 0.0003
          0.010252884061106 0.0059462536680524 0.0003 0.010205117478458 0.0054994523140404 0.0003
          0.011940440807394 0.0034141066074527 0 0.011459595517011 0.003824326979063 0
          0.011102612382238 0.0034627190197861 0 0.011355953963772 0.0030463545109029 0
          0.011940440807394 0.0034141066074527 0.00015 0.011459595517011 0.003824326979063 0.00015
          0.011102612382238 0.0034627190197861 0.00015 0.011355953963772 0.0030463545109029 0.00015
          0.011940440807394 0.0034141066074527 0.0003 0.011459595517011 0.003824326979063 0.0003
          0.011102612382238 0.0034627190197861 0.0003 0.011355953963772 0.0030463545109029 0.0003
          0.010057653370411 0.0084974472595183 0 0.01054988842507 0.0084422245958245 0
          0.010057653370411 0.0084974472595183 0.00015 0.01054988842507 0.0084422245958245 0.00015
          0.010057653370411 0.0084974472595183 0.0003 0.01054988842507 0.0084422245958245 0.0003
          0.011046194733105 0.00090743319272295 0 0.011064186406242 0.00044456569898216 0
          0.011549090679959 0.00043919238601916 0 0.011507246232172 0.00087204304167501 0
          0.011046194733105 0.00090743319272295 0.00015 0.011064186406242 0.00044456569898216 0.00015
          0.011549090679959 0.00043919238601916 0.00015 0.011507246232172 0.00087204304167501 0.00015
          0.011046194733105 0.00090743319272295 0.0003 0.011064186406242 0.00044456569898216 0.0003
          0.011549090679959 0.00043919238601916 0.0003 0.011507246232172 0.00087204304167501 0.0003
          0.010695724673322 0.003201084864495 0 0.010922769205465 0.002821493997395 0
          0.010695724673322 0.003201084864495 0.00015 0.010922769205465 0.002821493997395 0.00015
          0.010695724673322 0.003201084864495 0.0003 0.010922769205465 0.002821493997395 0.0003
          0.0063972422249218 0.0045440807567198 0 0.0065062213292024 0.0050164807168814 0
          0.0062389906493372 0.0053128670028646 0 0.0060512178389602 0.0047929387822649 0
          0.0063972422249218 0.0045440807567198 0.00015 0.0065062213292024 0.0050164807168814 0.00015
          0.0062389906493372 0.0053128670028646 0.00015 0.0060512178389602 0.0047929387822649 0.00015
          0.0063972422249218 0.0045440807567198 0.0003 0.0065062213292024 0.0050164807168814 0.0003
          0.0062389906493372 0.0053128670028646 0.0003 0.0060512178389602 0.0047929387822649 0.0003
          0.0077450758336629 0.0014176167893871 0 0.0081853433575 0.0016343392489207 0
          0.0081296210030831 0.0020475545417094 0 0.0077097822266787 0.0019577759081516 0
          0.0077450758336629 0.0014176167893871 0.00015 0.0081853433575 0.0016343392489207 0.00015
          0.0081296210030831 0.0020475545417094 0.00015 0.0077097822266787 0.0019577759081516 0.00015
          0.0077450758336629 0.0014176167893871 0.0003 0.0081853433575 0.0016343392489207 0.0003
          0.0081296210030831 0.0020475545417094 0.0003 0.0077097822266787 0.0019577759081516 0.0003
          0.010163700921554 0.0050965322104848 0 0.010539876174215 0.0050107335132671 0
          0.010163700921554 0.0050965322104848 0.00015 0.010539876174215 0.0050107335132671 0.00015
          0.010163700921554 0.0050965322104848 0.0003 0.010539876174215 0.0050107335132671 0.0003
          0.0067145785472978 0.00092067788586619 0 0.0066311284750677 0.00045344715700039 0
          0.0071039644964018 0.00045254776362746 0 0.0071622170579096 0.00091220258976311 0
          0.0067145785472978 0.00092067788586619 0.00015 0.0066311284750677 0.00045344715700039 0.00015
          0.0071039644964018 0.00045254776362746 0.00015 0.0071622170579096 0.00091220258976311 0.00015
          0.0067145785472978 0.00092067788586619 0.0003 0.0066311284750677 0.00045344715700039 0.0003
          0.0071039644964018 0.00045254776362746 0.0003 0.0071622170579096 0.00091220258976311 0.0003
          0.011832021157187 0.0073476785459853 0 0.011779780861271 0.0068646395959748 0
          0.012243708910156 0.0068324173193727 0 0.011832021157187 0.0073476785459853 0.00015
          0.011779780861271 0.0068646395959748 0.00015 0.012243708910156 0.0068324173193727 0.00015
          0.011832021157187 0.0073476785459853 0.0003 0.011779780861271 0.0068646395959748 0.0003
          0.012243708910156 0.0068324173193727 0.0003 0.0084907788898463 0.00044286110481525 0
          0.0089555217282148 0.00046389179151574 0 0.0088246864415892 0.00090448805343066 0
          0.0084146790711037 0.00087434414493667 0 0.0084907788898463 0.00044286110481525 0.00015
          0.0089555217282148 0.00046389179151574 0.00015 0.0088246864415892 0.00090448805343066 0.00015
          0.0084146790711037 0.00087434414493667 0.00015 0.0084907788898463 0.00044286110481525 0.0003
          0.0089555217282148 0.00046389179151574 0.0003 0.0088246864415892 0.00090448805343066 0.0003
          0.0084146790711037 0.00087434414493667 0.0003 0.0073198391209489 0.002802975731369 0
          0.007729981097025 0.0028801564362105 0 0.0077015154526268 0.0033237594367458 0
          0.0072927827923603 0.0032114269239825 0 0.0073198391209489 0.002802975731369 0.00015
          0.007729981097025 0.0028801564362105 0.00015 0.0077015154526268 0.0033237594367458 0.00015
          0.0072927827923603 0.0032114269239825 0.00015 0.0073198391209489 0.002802975731369 0.0003
          0.007729981097025 0.0028801564362105 0.0003 0.0077015154526268 0.0033237594367458 0.0003
          0.0072927827923603 0.0032114269239825 0.0003 0.011061956134478 0.0014022262787872 0
          0.011061956134478 0.0014022262787872 0.00015 0.011061956134478 0.0014022262787872 0.0003
          0.0067262777673885 0.0043003855308917 0 0.0070184374453973 0.0044097475846897 0
          0.0069143452336461 0.0047780273607631 0 0.0067262777673885 0.0043003855308917 0.00015
          0.0070184374453973 0.0044097475846897 0.00015 0.0069143452336461 0.0047780273607631 0.00015
          0.0067262777673885 0.0043003855308917 0.0003 0.0070184374453973 0.0044097475846897 0.0003
          0.0069143452336461 0.0047780273607631 0.0003 0.0072966772765568 0.0023596996909359 0
          0.0077191611848381 0.0024307703640478 0 0.0072966772765568 0.0023596996909359 0.00015
          0.0077191611848381 0.0024307703640478 0.00015 0.0072966772765568 0.0023596996909359 0.0003
          0.0077191611848381 0.0024307703640478 0.0003 0.010569749843509 0.00092230265866691 0
          0.010578573679683 0.0013844170604281 0 0.010145320905195 0.0014335884987508 0
          0.01008894187929 0.00096115561381429 0 0.010569749843509 0.00092230265866691 0.00015
          0.010578573679683 0.0013844170604281 0.00015 0.010145320905195 0.0014335884987508 0.00015
          0.01008894187929 0.00096115561381429 0.00015 0.010569749843509 0.00092230265866691 0.0003
          0.010578573679683 0.0013844170604281 0.0003 0.010145320905195 0.0014335884987508 0.0003
          0.01008894187929 0.00096115561381429 0.0003 0.0061669869081239 0.00049673093518566 0
          0.0062913293509889 0.00097410606592609 0 0.0059245902968253 0.0010856763727913 0
          0.0057061681768373 0.00065177476244477 0 0.0061669869081239 0.00049673093518566 0.00015
          0.0062913293509889 0.00097410606592609 0.00015 0.0059245902968253 0.0010856763727913 0.00015
          0.0057061681768373 0.00065177476244477 0.00015 0.0061669869081239 0.00049673093518566 0.0003
          0.0062913293509889 0.00097410606592609 0.0003 0.0059245902968253 0.0010856763727913 0.0003
          0.0057061681768373 0.00065177476244477 0.0003 0.010613957240618 0.0022894151744625 0
          0.011031068838334 0.0023895404946521 0 0.01053554486979 0.0026566023779455 0
          0.010613957240618 0.0022894151744625 0.00015 0.011031068838334 0.0023895404946521 0.00015
          0.01053554486979 0.0026566023779455 0.00015 0.010613957240618 0.0022894151744625 0.0003
          0.011031068838334 0.0023895404946521 0.0003 0.01053554486979 0.0026566023779455 0.0003
          0.0055128205128194 0 0 0.0060256410256386 0 0
          0.0055128205128194 0 0.00015 0.0060256410256386 0 0.00015
          0.0055128205128194 0 0.0003 0.0060256410256386 0 0.0003
          0.0087932726011055 0.003543484648519 0 0.0081725565838686 0.0034418576035907 0
          0.0081844882448281 0.0029554535172717 0 0.0086653225286358 0.0029358056411338 0
          0.0087932726011055 0.003543484648519 0.00015 0.0081725565838686 0.0034418576035907 0.00015
          0.0081844882448281 0.0029554535172717 0.00015 0.0086653225286358 0.0029358056411338 0.00015
          0.0087932726011055 0.003543484648519 0.0003 0.0081725565838686 0.0034418576035907 0.0003
          0.0081844882448281 0.0029554535172717 0.0003 0.0086653225286358 0.0029358056411338 0.0003
          0.010609256891376 0.0018508518753275 0 0.011063963632424 0.0019108783312894 0
          0.010609256891376 0.0018508518753275 0.00015 0.011063963632424 0.0019108783312894 0.00015
          0.010609256891376 0.0018508518753275 0.0003 0.011063963632424 0.0019108783312894 0.0003
          0.0061614658010566 0.0029736343202522 0 0.0061372854142827 0.0036106222238676 0
          0.0061614658010566 0.0029736343202522 0.00015 0.0061372854142827 0.0036106222238676 0.00015
          0.0061614658010566 0.0029736343202522 0.0003 0.0061372854142827 0.0036106222238676 0.0003
          0.0091223832784702 0.0028108558594978 0 0.0093224708097351 0.0032450014434347 0
          0.0091223832784702 0.0028108558594978 0.00015 0.0093224708097351 0.0032450014434347 0.00015
          0.0091223832784702 0.0028108558594978 0.0003 0.0093224708097351 0.0032450014434347 0.0003
          0.010365654248251 0.0046741943492533 0 0.010130092133721 0.0048347586786618 0
          0.0098673679311407 0.0047157860708196 0 0.010078628200493 0.0044157313734999 0
          0.010365654248251 0.0046741943492533 0.00015 0.010130092133721 0.0048347586786618 0.00015
          0.0098673679311407 0.0047157860708196 0.00015 0.010078628200493 0.0044157313734999 0.00015
          0.010365654248251 0.0046741943492533 0.0003 0.010130092133721 0.0048347586786618 0.0003
          0.0098673679311407 0.0047157860708196 0.0003 0.010078628200493 0.0044157313734999 0.0003
          0.0074225055052033 0.0045889494028562 0 0.0073125071067115 0.0049521547682488 0
          0.0074225055052033 0.0045889494028562 0.00015 0.0073125071067115 0.0049521547682488 0.00015
          0.0074225055052033 0.0045889494028562 0.0003 0.0073125071067115 0.0049521547682488 0.0003
          0.0061231952422177 0.002444135475079 0 0.0061231952422177 0.002444135475079 0.00015
          0.0061231952422177 0.002444135475079 0.0003 0.007634491258567 0.0037589111207536 0
          0.0080978935956725 0.0039120786728548 0 0.007634491258567 0.0037589111207536 0.00015
          0.0080978935956725 0.0039120786728548 0.00015 0.007634491258567 0.0037589111207536 0.0003
          0.0080978935956725 0.0039120786728548 0.0003 0.0067400809843091 0.0034207975388345 0
          0.0067100713183769 0.0039836679330495 0 0.0063054236008776 0.0041223407032968 0
          0.0067400809843091 0.0034207975388345 0.00015 0.0067100713183769 0.0039836679330495 0.00015
          0.0063054236008776 0.0041223407032968 0.00015 0.0067400809843091 0.0034207975388345 0.0003
          0.0067100713183769 0.0039836679330495 0.0003 0.0063054236008776 0.0041223407032968 0.0003
          0.0064429727892239 0.0018594619814901 0 0.0065003657821779 0.0023397297588745 0
          0.0060722038988066 0.0019538017587265 0 0.0064429727892239 0.0018594619814901 0.00015
          0.0065003657821779 0.0023397297588745 0.00015 0.0060722038988066 0.0019538017587265 0.00015
          0.0064429727892239 0.0018594619814901 0.0003 0.0065003657821779 0.0023397297588745 0.0003
          0.0060722038988066 0.0019538017587265 0.0003 0.0068255396015086 0.0051581133306003 0
          0.0068255396015086 0.0051581133306003 0.00015 0.0068255396015086 0.0051581133306003 0.0003
          0.0065384615384579 0 0 0.0065384615384579 0 0.00015
          0.0065384615384579 0 0.0003 0.012879713087233 0.0060908484912964 0
          0.012982043505355 0.0056371881930815 0 0.012879713087233 0.0060908484912964 0.00015
          0.012982043505355 0.0056371881930815 0.00015 0.012879713087233 0.0060908484912964 0.0003
          0.012982043505355 0.0056371881930815 0.0003 0.0065699942646101 0.0028542668018424 0
          0.0065699942646101 0.0028542668018424 0.00015 0.0065699942646101 0.0028542668018424 0.0003
          0.0084683943974961 0.0045583446766593 0 0.0079943718437571 0.0043747262241866 0
          0.0085823759797054 0.0040943119694046 0 0.0084683943974961 0.0045583446766593 0.00015
          0.0079943718437571 0.0043747262241866 0.00015 0.0085823759797054 0.0040943119694046 0.00015
          0.0084683943974961 0.0045583446766593 0.0003 0.0079943718437571 0.0043747262241866 0.0003
          0.0085823759797054 0.0040943119694046 0.0003 0.0085830886495109 0.0024681574500846 0
          0.0090044137010858 0.0023542069269131 0 0.0085830886495109 0.0024681574500846 0.00015
          0.0090044137010858 0.0023542069269131 0.00015 0.0085830886495109 0.0024681574500846 0.0003
          0.0090044137010858 0.0023542069269131 0.0003 0.0098857235699117 0.0079055319030787 0
          0.0095144479526816 0.0076594245921199 0 0.0094715724969347 0.0073263583858313 0
          0.0099283521138692 0.0073475677072736 0 0.0098857235699117 0.0079055319030787 0.00015
          0.0095144479526816 0.0076594245921199 0.00015 0.0094715724969347 0.0073263583858313 0.00015
          0.0099283521138692 0.0073475677072736 0.00015 0.0098857235699117 0.0079055319030787 0.0003
          0.0095144479526816 0.0076594245921199 0.0003 0.0094715724969347 0.0073263583858313 0.0003
          0.0099283521138692 0.0073475677072736 0.0003 0.010833716827414 0.0069257207373803 0
          0.010357413059119 0.0069077241183533 0 0.010300982556592 0.0064274708783385 0
          0.010786080808085 0.0064391381968206 0 0.010833716827414 0.0069257207373803 0.00015
          0.010357413059119 0.0069077241183533 0.00015 0.010300982556592 0.0064274708783385 0.00015
          0.010786080808085 0.0064391381968206 0.00015 0.010833716827414 0.0069257207373803 0.0003
          0.010357413059119 0.0069077241183533 0.0003 0.010300982556592 0.0064274708783385 0.0003
          0.010786080808085 0.0064391381968206 0.0003 0.012723582323863 0.006509831652106 0
          0.012251440655851 0.0062918667587536 0 0.012542392069256 0.0059723735377719 0
          0.012723582323863 0.006509831652106 0.00015 0.012251440655851 0.0062918667587536 0.00015
          0.012542392069256 0.0059723735377719 0.00015 0.012723582323863 0.006509831652106 0.0003
          0.012251440655851 0.0062918667587536 0.0003 0.012542392069256 0.0059723735377719 0.0003
          0.0071151184692216 0.0040272738406853 0 0.0071151184692216 0.0040272738406853 0.00015
          0.0071151184692216 0.0040272738406853 0.0003 0.005927800859391 0.0043689372395662 0
          0.005927800859391 0.0043689372395662 0.00015 0.005927800859391 0.0043689372395662 0.0003
          0.0092411258002763 0.0078319639415625 0 0.0089588909882048 0.0073942383853577 0
          0.0092411258002763 0.0078319639415625 0.00015 0.0089588909882048 0.0073942383853577 0.00015
          0.0092411258002763 0.0078319639415625 0.0003 0.0089588909882048 0.0073942383853577 0.0003
          0.009874674666521 0.0068715373563056 0 0.010410157305432 0.007394545582291 0
          0.009874674666521 0.0068715373563056 0.00015 0.010410157305432 0.007394545582291 0.00015
          0.009874674666521 0.0068715373563056 0.0003 0.010410157305432 0.007394545582291 0.0003
          0.0075354000991736 0.004186248288406 0 0.0075354000991736 0.004186248288406 0.00015
          0.0075354000991736 0.004186248288406 0.0003 0.01131847387487 0.0058224977902188 0
          0.011696082283392 0.0060272916092408 0 0.011725204011411 0.0063910302275778 0
          0.011265055974573 0.0064250601080915 0 0.01131847387487 0.0058224977902188 0.00015
          0.011696082283392 0.0060272916092408 0.00015 0.011725204011411 0.0063910302275778 0.00015
          0.011265055974573 0.0064250601080915 0.00015 0.01131847387487 0.0058224977902188 0.0003
          0.011696082283392 0.0060272916092408 0.0003 0.011725204011411 0.0063910302275778 0.0003
          0.011265055974573 0.0064250601080915 0.0003 0.012000241143886 0.0058170880130831 0
          0.012000241143886 0.0058170880130831 0.00015 0.012000241143886 0.0058170880130831 0.0003
          0.011120492592586 0.0052514705902296 0 0.011120492592586 0.0052514705902296 0.00015
          0.011120492592586 0.0052514705902296 0.0003 0.0092910901193945 0.0039260363263486 0
          0.0090503465409481 0.0043132092761106 0 0.0092910901193945 0.0039260363263486 0.00015
          0.0090503465409481 0.0043132092761106 0.00015 0.0092910901193945 0.0039260363263486 0.0003
          0.0090503465409481 0.0043132092761106 0.0003 0.007889027184575 0.0048982243533992 0
          0.007889027184575 0.0048982243533992 0.00015 0.007889027184575 0.0048982243533992 0.0003
          0.0094935553236164 0.004533528646427 0 0.0097061514105808 0.0041851036755216 0
          0.0094935553236164 0.004533528646427 0.00015 0.0097061514105808 0.0041851036755216 0.00015
          0.0094935553236164 0.004533528646427 0.0003 0.0097061514105808 0.0041851036755216 0.0003
          0.007602124101561 0.0050930903063015 0 0.007602124101561 0.0050930903063015 0.00015
          0.007602124101561 0.0050930903063015 0.0003 0.010723762445737 0.0044202706845482 0
          0.010410164583979 0.0041181159817359 0 0.010723762445737 0.0044202706845482 0.00015
          0.010410164583979 0.0041181159817359 0.00015 0.010723762445737 0.0044202706845482 0.0003
          0.010410164583979 0.0041181159817359 0.0003 0.01095205032792 0.0047963590452232 0
          0.01095205032792 0.0047963590452232 0.00015 0.01095205032792 0.0047963590452232 0.0003
          0.011303178752756 0.0069106117689346 0 0.011303178752756 0.0069106117689346 0.00015
          0.011303178752756 0.0069106117689346 0.0003 0.01003253261535 0.0038623502872685 0
          0.01003253261535 0.0038623502872685 0.00015 0.01003253261535 0.0038623502872685 0.0003
          0.0076528923620256 0.0053996878686031 0 0.0072494384034052 0.005322441352826 0
          0.0076528923620256 0.0053996878686031 0.00015 0.0072494384034052 0.005322441352826 0.00015
          0.0076528923620256 0.0053996878686031 0.0003 0.0072494384034052 0.005322441352826 0.0003
          0.0096442187720765 0.0035928190702974 0 0.0096442187720765 0.0035928190702974 0.00015
          0.0096442187720765 0.0035928190702974 0.0003 0.012013949131265 0.002158444108951 0
          0.012018063243501 0.0027123142038817 0 0.012013949131265 0.002158444108951 0.00015
          0.012018063243501 0.0027123142038817 0.00015 0.012013949131265 0.002158444108951 0.0003
          0.012018063243501 0.0027123142038817 0.0003 0.0080144547016537 0.00086684480617367 0
          0.008304219624614 0.0012703006012415 0 0.0080327132462595 0.0011721512048422 0
          0.0080144547016537 0.00086684480617367 0.00015 0.008304219624614 0.0012703006012415 0.00015
          0.0080327132462595 0.0011721512048422 0.00015 0.0080144547016537 0.00086684480617367 0.0003
          0.008304219624614 0.0012703006012415 0.0003 0.0080327132462595 0.0011721512048422 0.0003
          0.0094736490244467 0.0005865877812969 0 0.010068957850501 0.00047856930843549 0
          0.0096358530086744 0.0010887425154837 0 0.0094736490244467 0.0005865877812969 0.00015
          0.010068957850501 0.00047856930843549 0.00015 0.0096358530086744 0.0010887425154837 0.00015
          0.0094736490244467 0.0005865877812969 0.0003 0.010068957850501 0.00047856930843549 0.0003
          0.0096358530086744 0.0010887425154837 0.0003 0.0071984303565192 0.0057392272964834 0
          0.0067200519522164 0.0055550541115669 0 0.0071984303565192 0.0057392272964834 0.00015
          0.0067200519522164 0.0055550541115669 0.00015 0.0071984303565192 0.0057392272964834 0.0003
          0.0067200519522164 0.0055550541115669 0.0003 0.013091675611077 0.0041736873632184 0
          0.012621380555602 0.004071395146678 0 0.012601464682814 0.0035037767307713 0
          0.013091675611077 0.0041736873632184 0.00015 0.012621380555602 0.004071395146678 0.00015
          0.012601464682814 0.0035037767307713 0.00015 0.013091675611077 0.0041736873632184 0.0003
          0.012621380555602 0.004071395146678 0.0003 0.012601464682814 0.0035037767307713 0.0003
          0.01153639784925 0.0020208067996516 0 0.011496246026306 0.0025480504488598 0
          0.01153639784925 0.0020208067996516 0.00015 0.011496246026306 0.0025480504488598 0.00015
          0.01153639784925 0.0020208067996516 0.0003 0.011496246026306 0.0025480504488598 0.0003
          0.011043213382792 0.0084269911709333 0 0.011043213382792 0.0084269911709333 0.00015
          0.011043213382792 0.0084269911709333 0.0003 0.010128205128191 0 0
          0.0096153846153732 0 0 0.010128205128191 0 0.00015
          0.0096153846153732 0 0.00015 0.010128205128191 0 0.0003
          0.0096153846153732 0 0.0003 0.0091025641025551 0 0
          0.0085897435897353 0 0 0.0091025641025551 0 0.00015
          0.0085897435897353 0 0.00015 0.0091025641025551 0 0.0003
          0.0085897435897353 0 0.0003 0.0085182476127008 0.0020437661198126 0
          0.0089029205554566 0.0019047336662455 0 0.0085182476127008 0.0020437661198126 0.00015
          0.0089029205554566 0.0019047336662455 0.00015 0.0085182476127008 0.0020437661198126 0.0003
          0.0089029205554566 0.0019047336662455 0.0003 0.0081522818828449 0.0024947087352937 0
          0.0081522818828449 0.0024947087352937 0.00015 0.0081522818828449 0.0024947087352937 0.0003
          0.010641025641009 0 0 0.010579843756946 0.00045349299099366 0
          0.010641025641009 0 0.00015 0.010579843756946 0.00045349299099366 0.00015
          0.010641025641009 0 0.0003 0.010579843756946 0.00045349299099366 0.0003
          0.011153846153828 0 0 0.011153846153828 0 0.00015
          0.011153846153828 0 0.0003 0.011760912133753 0.0054122119446059 0
          0.011760912133753 0.0054122119446059 0.00015 0.011760912133753 0.0054122119446059 0.0003
          0.011666666666648 0 0 0.011666666666648 0 0.00015
          0.011666666666648 0 0.0003 0.011547825504055 0.0049713459697514 0
          0.011547825504055 0.0049713459697514 0.00015 0.011547825504055 0.0049713459697514 0.0003
          0.011349632014182 0.0045239710214715 0 0.011349632014182 0.0045239710214715 0.00015
          0.011349632014182 0.0045239710214715 0.0003 0.011997463288521 0.00046572766410539 0
          0.012179487179468 0 0 0.011997463288521 0.00046572766410539 0.00015
          0.012179487179468 0 0.00015 0.011997463288521 0.00046572766410539 0.0003
          0.012179487179468 0 0.0003 0.01039056673058 0.0035410773695937 0
          0.010772622187787 0.0038062315725381 0 0.01039056673058 0.0035410773695937 0.00015
          0.010772622187787 0.0038062315725381 0.00015 0.01039056673058 0.0035410773695937 0.0003
          0.010772622187787 0.0038062315725381 0.0003 0.0089323359070786 0.0047421281357296 0
          0.0089323359070786 0.0047421281357296 0.00015 0.0089323359070786 0.0047421281357296 0.0003
          0.010891746765568 0.007407252260552 0 0.010891746765568 0.007407252260552 0.00015
          0.010891746765568 0.007407252260552 0.0003 0.011089383238376 0.0041358143249023 0
          0.011089383238376 0.0041358143249023 0.00015 0.011089383238376 0.0041358143249023 0.0003
          0.007205317033861 0.0036141963404016 0 0.007205317033861 0.0036141963404016 0.00015
          0.007205317033861 0.0036141963404016 0.0003 0.0080269839945158 0.0054023282425744 0
          0.0080269839945158 0.0054023282425744 0.00015 0.0080269839945158 0.0054023282425744 0.0003
          0.0077721363879251 0.0058968168784219 0 0.0077721363879251 0.0058968168784219 0.00015
          0.0077721363879251 0.0058968168784219 0.0003 0.0095370253310475 0.0025850582106885 0
          0.009732219723835 0.0029713438236062 0 0.0095370253310475 0.0025850582106885 0.00015
          0.009732219723835 0.0029713438236062 0.00015 0.0095370253310475 0.0025850582106885 0.0003
          0.009732219723835 0.0029713438236062 0.0003 0.0094100372761059 0.0021522308351028 0
          0.0094100372761059 0.0021522308351028 0.00015 0.0094100372761059 0.0021522308351028 0.0003
          0.0087313387484914 0.001424359608332 0 0.0084651319029022 0.0017289788972556 0
          0.0087313387484914 0.001424359608332 0.00015 0.0084651319029022 0.0017289788972556 0.00015
          0.0087313387484914 0.001424359608332 0.0003 0.0084651319029022 0.0017289788972556 0.0003
          0.011363196701121 0.0073867521895413 0 0.011894488312007 0.0078344841271679 0
          0.011431801070778 0.0078815011129823 0 0.011363196701121 0.0073867521895413 0.00015
          0.011894488312007 0.0078344841271679 0.00015 0.011431801070778 0.0078815011129823 0.00015
          0.011363196701121 0.0073867521895413 0.0003 0.011894488312007 0.0078344841271679 0.0003
          0.011431801070778 0.0078815011129823 0.0003 0.011511795106494 0.0083968566041475 0
          0.011511795106494 0.0083968566041475 0.00015 0.011511795106494 0.0083968566041475 0.0003
          0.0093066157528448 0.0017085494075796 0 0.0093066157528448 0.0017085494075796 0.00015
          0.0093066157528448 0.0017085494075796 0.0003 0.011737204813157 0.0042624504192267 0
          0.011920232844873 0.0047153506313134 0 0.011737204813157 0.0042624504192267 0.00015
          0.011920232844873 0.0047153506313134 0.00015 0.011737204813157 0.0042624504192267 0.0003
          0.011920232844873 0.0047153506313134 0.0003 0.0097199155871303 0.0015315099671301 0
          0.0098040259351994 0.0019696894002764 0 0.0097199155871303 0.0015315099671301 0.00015
          0.0098040259351994 0.0019696894002764 0.00015 0.0097199155871303 0.0015315099671301 0.0003
          0.0098040259351994 0.0019696894002764 0.0003 0.0099068743951204 0.0023814903757239 0
          0.0099068743951204 0.0023814903757239 0.00015 0.0099068743951204 0.0023814903757239 0.0003
          0.010196799496301 0.0018655242590307 0 0.010252080701677 0.0022738797315184 0
          0.010196799496301 0.0018655242590307 0.00015 0.010252080701677 0.0022738797315184 0.00015
          0.010196799496301 0.0018655242590307 0.0003 0.010252080701677 0.0022738797315184 0.0003
          0.0082479601882269 0.0062087007836213 0 0.0083721174281176 0.0058457654542534 0
          0.0087793359412623 0.006030240425184 0 0.0086690881028679 0.0063945203238097 0
          0.0082479601882269 0.0062087007836213 0.00015 0.0083721174281176 0.0058457654542534 0.00015
          0.0087793359412623 0.006030240425184 0.00015 0.0086690881028679 0.0063945203238097 0.00015
          0.0082479601882269 0.0062087007836213 0.0003 0.0083721174281176 0.0058457654542534 0.0003
          0.0087793359412623 0.006030240425184 0.0003 0.0086690881028679 0.0063945203238097 0.0003
          0.0098103305116681 0.0063862496116293 0 0.0098103305116681 0.0063862496116293 0.00015
          0.0098103305116681 0.0063862496116293 0.0003 0.0084248193747317 0.0050261658136402 0
          0.0084248193747317 0.0050261658136402 0.00015 0.0084248193747317 0.0050261658136402 0.0003
          0.0069463016830039 0.0027787422025108 0 0.0070048409545821 0.0031125297586922 0
          0.0069463016830039 0.0027787422025108 0.00015 0.0070048409545821 0.0031125297586922 0.00015
          0.0069463016830039 0.0027787422025108 0.0003 0.0070048409545821 0.0031125297586922 0.0003
          0.010028456835002 0.0032748409090605 0 0.010028456835002 0.0032748409090605 0.00015
          0.010028456835002 0.0032748409090605 0.0003 0.013084530633285 0.0046685927017207 0
          0.012657407202949 0.0045740785705039 0 0.013084530633285 0.0046685927017207 0.00015
          0.012657407202949 0.0045740785705039 0.00015 0.013084530633285 0.0046685927017207 0.0003
          0.012657407202949 0.0045740785705039 0.0003 0.0063788755008874 0.0014091508241809 0
          0.0060137569775388 0.0015029488511318 0 0.0063788755008874 0.0014091508241809 0.00015
          0.0060137569775388 0.0015029488511318 0.00015 0.0063788755008874 0.0014091508241809 0.0003
          0.0060137569775388 0.0015029488511318 0.0003 0.01196380743939 0.0083394019710021 0
          0.01196380743939 0.0083394019710021 0.00015 0.01196380743939 0.0083394019710021 0.0003
          0.010073855840534 0.0027196155419985 0 0.010289681297386 0.0025561678844121 0
          0.010073855840534 0.0027196155419985 0.00015 0.010289681297386 0.0025561678844121 0.00015
          0.010073855840534 0.0027196155419985 0.0003 0.010289681297386 0.0025561678844121 0.0003
          0.0093223919318803 0.0053434698815888 0 0.009764317340127 0.0054658727348424 0
          0.0097769212248058 0.0059119658621614 0 0.0093027527337708 0.0057939169389015 0
          0.0093223919318803 0.0053434698815888 0.00015 0.009764317340127 0.0054658727348424 0.00015
          0.0097769212248058 0.0059119658621614 0.00015 0.0093027527337708 0.0057939169389015 0.00015
          0.0093223919318803 0.0053434698815888 0.0003 0.009764317340127 0.0054658727348424 0.0003
          0.0097769212248058 0.0059119658621614 0.0003 0.0093027527337708 0.0057939169389015 0.0003
          0.0068882925124701 0.0023177669638962 0 0.0068882925124701 0.0023177669638962 0.00015
          0.0068882925124701 0.0023177669638962 0.0003 0.0092499592325966 0.0063238181416562 0
          0.0089620052424248 0.0065330227489775 0 0.0092499592325966 0.0063238181416562 0.00015
          0.0089620052424248 0.0065330227489775 0.00015 0.0092499592325966 0.0063238181416562 0.0003
          0.0089620052424248 0.0065330227489775 0.0003 0.0072168253422346 0.001397514094839 0
          0.0076041066380058 0.00089936619415626 0 0.0072168253422346 0.001397514094839 0.00015
          0.0076041066380058 0.00089936619415626 0.00015 0.0072168253422346 0.001397514094839 0.0003
          0.0076041066380058 0.00089936619415626 0.0003 0.0075718226613923 0.00044755222139025 0
          0.0075718226613923 0.00044755222139025 0.00015 0.0075718226613923 0.00044755222139025 0.0003
          0.012116660000204 0.0051206445675074 0 0.012116660000204 0.0051206445675074 0.00015
          0.012116660000204 0.0051206445675074 0.0003 0.0068338524094732 0.0018398489073113 0
          0.0068338524094732 0.0018398489073113 0.00015 0.0068338524094732 0.0018398489073113 0.0003
          0.0088473960481577 0.0056214227923259 0 0.0088473960481577 0.0056214227923259 0.00015
          0.0088473960481577 0.0056214227923259 0.0003 0.0081402125110085 0.0066115625704341 0
          0.0081402125110085 0.0066115625704341 0.00015 0.0081402125110085 0.0066115625704341 0.0003
          0.0067824993802385 0.0013824026215467 0 0.0072591856110724 0.0018865642034293 0
          0.0067824993802385 0.0013824026215467 0.00015 0.0072591856110724 0.0018865642034293 0.00015
          0.0067824993802385 0.0013824026215467 0.0003 0.0072591856110724 0.0018865642034293 0.0003
          0.0094035295411974 0.0068662830960629 0 0.0094035295411974 0.0068662830960629 0.00015
          0.0094035295411974 0.0068662830960629 0.0003 0.0080770297303238 0.0057078658228848 0
          0.0080770297303238 0.0057078658228848 0.00015 0.0080770297303238 0.0057078658228848 0.0003
          0.012455160230445 0.0055307966461266 0 0.012455160230445 0.0055307966461266 0.00015
          0.012455160230445 0.0055307966461266 0.0003 0.0092134396095011 0.0012639463069257 0
          0.0092134396095011 0.0012639463069257 0.00015 0.0092134396095011 0.0012639463069257 0.0003
          0.0085681017610313 0.0067725899286886 0 0.0085681017610313 0.0067725899286886 0.00015
          0.0085681017610313 0.0067725899286886 0.0003 0.010337781301114 0.0029713007827362 0
          0.010337781301114 0.0029713007827362 0.00015 0.010337781301114 0.0029713007827362 0.0003
          0.0080769230769162 0 0 0.0080362994401078 0.00044130282391618 0
          0.0075641025640979 0 0 0.0080769230769162 0 0.00015
          0.0080362994401078 0.00044130282391618 0.00015 0.0075641025640979 0 0.00015
          0.0080769230769162 0 0.0003 0.0080362994401078 0.00044130282391618 0.0003
          0.0075641025640979 0 0.0003 0.0084157309119158 0.0054663429893237 0
          0.0084157309119158 0.0054663429893237 0.00015 0.0084157309119158 0.0054663429893237 0.0003
          0.012625060394875 0.0050215313919928 0 0.012340535819996 0.0049145470001145 0
          0.012625060394875 0.0050215313919928 0.00015 0.012340535819996 0.0049145470001145 0.00015
          0.012625060394875 0.0050215313919928 0.0003 0.012340535819996 0.0049145470001145 0.0003
          0.0088807280393962 0.0051824777758032 0 0.0088807280393962 0.0051824777758032 0.00015
          0.0088807280393962 0.0051824777758032 0.0003 0.00978640191627 0.0050564284414982 0
          0.00978640191627 0.0050564284414982 0.00015 0.00978640191627 0.0050564284414982 0.0003
          0.007051282051278 0 0 0.007051282051278 0 0.00015
          0.007051282051278 0 0.0003 0.0089738769927721 0.0068608682916542 0
          0.0089738769927721 0.0068608682916542 0.00015 0.0089738769927721 0.0068608682916542 0.0003
          0.010464396561549 0.007914442793445 0 0.010959162019398 0.0079079830093058 0
          0.010464396561549 0.007914442793445 0.00015 0.010959162019398 0.0079079830093058 0.00015
          0.010464396561549 0.007914442793445 0.0003 0.010959162019398 0.0079079830093058 0.0003
          0.0093768424757788 0.0049206652486621 0 0.0093768424757788 0.0049206652486621 0.00015
          0.0093768424757788 0.0049206652486621 0.0003 0.0084364690699339 0.0071912877673881 0
          0.0084364690699339 0.0071912877673881 0.00015 0.0084364690699339 0.0071912877673881 0.0003
          0.011870414872976 0.00080294526771027 0 0.011870414872976 0.00080294526771027 0.00015
          0.011870414872976 0.00080294526771027 0.0003 0.013048655853798 0.0051555709380823 0
          0.013048655853798 0.0051555709380823 0.00015 0.013048655853798 0.0051555709380823 0.0003
          0.0091480378790118 0.00093783666102615 0 0.0091480378790118 0.00093783666102615 0.00015
          0.0091480378790118 0.00093783666102615 0.0003 0.012592651705639 0.0068198098450163 0
          0.012592651705639 0.0068198098450163 0.00015 0.012592651705639 0.0068198098450163 0.0003
          0.012272070002081 0.0045810549534562 0 0.012153081904124 0.0040944528080542 0
          0.012272070002081 0.0045810549534562 0.00015 0.012153081904124 0.0040944528080542 0.00015
          0.012272070002081 0.0045810549534562 0.0003 0.012153081904124 0.0040944528080542 0.0003
          0.011634800364854 0.0014122839921498 0 0.011634800364854 0.0014122839921498 0.00015
          0.011634800364854 0.0014122839921498 0.0003 0.012451479243686 0.0021914486022899 0
          0.012674188674928 0.0028095410694266 0 0.012451479243686 0.0021914486022899 0.00015
          0.012674188674928 0.0028095410694266 0.00015 0.012451479243686 0.0021914486022899 0.0003
          0.012674188674928 0.0028095410694266 0.0003 0.013121586466294 0.0036708577033715 0
          0.013121586466294 0.0036708577033715 0.00015 0.013121586466294 0.0036708577033715 0.0003
          0.013248150362312 0.0031919567697963 0 0.013248150362312 0.0031919567697963 0.00015
          0.013248150362312 0.0031919567697963 0.0003 0.012096711335481 0.0017058387426491 0
          0.012096711335481 0.0017058387426491 0.00015 0.012096711335481 0.0017058387426491 0.0003
          0.012692307692288 0 0 0.012542896420733 0.00061304595643839 0
          0.012692307692288 0 0.00015 0.012542896420733 0.00061304595643839 0.00015
          0.012692307692288 0 0.0003 0.012542896420733 0.00061304595643839 0.0003
          0.012384518900215 0.0018567382086698 0 0.012384518900215 0.0018567382086698 0.00015
          0.012384518900215 0.0018567382086698 0.0003 0.012087580163866 0.0010424427844857 0
          0.012087580163866 0.0010424427844857 0.00015 0.012087580163866 0.0010424427844857 0.0003
          <InformationKey name="L2_NORM_RANGE" location="vtkDataArray" length="2">
            <Value index="0">
              0.0055128205128
            </Value>
            <Value index="1">
              0.014586579917
            </Value>
          </InformationKey>
        </DataArray>
      </Points>
      <Cells>
        <DataArray type="Int64" Name="connectivity" format="ascii" RangeMin="0" RangeMax="773">
          0 1 2 3 4 5
          6 7 4 5 6 7
          8 9 10 11 12 13
          14 15 16 17 18 19
          16 17 18 19 20 21
          22 23 30 31 32 33
          34 35 36 37 34 35
          36 37 38 39 40 41
          15 14 42 43 19 18
          44 45 19 18 44 45
          23 22 46 47 48 49
          50 51 52 53 54 55
          52 53 54 55 56 57
          58 59 60 61 62 63
          64 65 66 67 64 65
          66 67 68 69 70 71
          3 72 73 0 7 74
          75 4 7 74 75 4
          11 76 77 8 78 79
          80 81 82 83 84 85
          82 83 84 85 86 87
          88 89 99 100 101 102
          103 104 105 106 103 104
          105 106 107 108 109 110
          111 112 113 114 115 116
          117 118 115 116 117 118
          119 120 121 122 744 123
          30 33 745 124 34 37
          745 124 34 37 746 125
          38 41 48 126 127 128
          52 129 130 131 52 129
          130 131 56 132 133 134
          135 136 112 111 137 138
          116 115 137 138 116 115
          139 140 120 119 141 142
          143 144 145 146 147 148
          145 146 147 148 149 150
          151 152 153 154 155 156
          157 158 159 160 157 158
          159 160 161 162 163 164
          165 166 43 167 168 169
          45 170 168 169 45 170
          171 172 47 173 174 175
          153 156 176 177 157 160
          176 177 157 160 178 179
          161 164 180 181 182 183
          184 185 186 187 184 185
          186 187 188 189 190 191
          166 165 192 193 169 168
          194 195 169 168 194 195
          172 171 196 197 112 182
          181 113 116 186 185 117
          116 186 185 117 120 190
          189 121 204 205 180 183
          206 207 184 187 206 207
          184 187 208 209 188 191
          210 211 212 213 214 215
          216 217 214 215 216 217
          218 219 220 221 222 223
          128 127 224 225 131 130
          224 225 131 130 226 227
          134 133 154 153 79 78
          158 157 83 82 158 157
          83 82 162 161 87 86
          231 113 181 232 233 117
          185 234 233 117 185 234
          235 121 189 236 237 238
          239 199 240 241 242 201
          240 241 242 201 243 244
          245 203 246 247 228 248
          249 250 229 251 249 250
          229 251 252 253 230 254
          255 49 48 128 256 53
          52 131 256 53 52 131
          257 57 56 134 175 258
          79 153 177 259 83 157
          177 259 83 157 179 260
          87 161 267 237 199 198
          268 240 201 200 268 240
          201 200 269 243 203 202
          270 271 232 272 273 274
          234 275 273 274 234 275
          276 277 236 278 267 198
          228 247 268 200 229 250
          268 200 229 250 269 202
          230 253 183 279 280 204
          187 281 282 206 187 281
          282 206 191 283 284 208
          285 286 287 288 289 290
          291 292 289 290 291 292
          293 294 295 296 297 298
          299 300 301 302 303 304
          301 302 303 304 305 306
          307 308 261 309 310 311
          263 312 313 314 263 312
          313 314 265 315 316 317
          238 318 127 126 241 319
          130 129 241 319 130 129
          244 320 133 132 324 325
          287 286 326 327 291 290
          326 327 291 290 328 329
          295 294 330 298 331 288
          332 302 333 292 332 302
          333 292 334 306 335 296
          318 336 222 127 319 337
          224 130 319 337 224 130
          320 338 226 133 339 340
          341 342 343 344 345 346
          343 344 345 346 347 348
          349 350 300 1 339 342
          304 5 343 346 304 5
          343 346 308 9 347 350
          351 310 341 340 352 313
          345 344 352 313 345 344
          353 316 349 348 354 339
          1 0 355 343 5 4
          355 343 5 4 356 347
          9 8 357 358 272 180
          359 360 275 184 359 360
          275 184 361 362 278 188
          48 239 238 126 52 242
          241 129 52 242 241 129
          56 245 244 132 336 271
          363 222 337 274 364 224
          337 274 364 224 338 277
          365 226 51 321 239 48
          55 322 242 52 55 322
          242 52 59 323 245 56
          366 367 213 212 368 369
          217 216 368 369 217 216
          370 371 221 220 223 222
          363 372 225 224 364 373
          225 224 364 373 227 226
          365 374 375 210 213 376
          377 214 217 378 377 214
          217 378 379 218 221 380
          375 381 73 210 377 382
          75 214 377 382 75 214
          379 383 77 218 381 354
          0 73 382 355 4 75
          382 355 4 75 383 356
          8 77 297 300 342 384
          301 304 346 385 301 304
          346 385 305 308 350 386
          376 213 367 387 378 217
          369 388 378 217 369 388
          380 221 371 389 223 372
          390 391 225 373 392 393
          225 373 392 393 227 374
          394 395 396 357 180 205
          397 359 184 207 397 359
          184 207 398 361 188 209
          387 367 357 396 388 369
          359 397 388 369 359 397
          389 371 361 398 399 747
          748 400 401 749 750 402
          401 749 750 402 403 751
          752 404 405 102 406 407
          408 106 409 410 408 106
          409 410 411 110 412 413
          180 272 232 181 184 275
          234 185 184 275 234 185
          188 278 236 189 414 415
          144 416 417 418 148 419
          417 418 148 419 420 421
          152 422 423 424 255 391
          425 426 256 393 425 426
          256 393 427 428 257 395
          429 430 431 753 432 433
          434 754 432 433 434 754
          435 436 437 755 438 399
          400 439 440 401 402 441
          440 401 402 441 442 403
          404 443 447 415 414 448
          449 418 417 450 449 418
          417 450 451 421 420 452
          453 100 99 454 455 104
          103 456 455 104 103 456
          457 108 107 458 279 459
          460 280 281 461 462 282
          281 461 462 282 283 463
          464 284 279 465 62 459
          281 466 66 461 281 466
          66 461 283 467 70 463
          448 414 100 453 450 417
          104 455 450 417 104 455
          452 420 108 457 468 469
          415 447 470 471 418 449
          470 471 418 449 472 473
          421 451 753 431 748 756
          754 434 750 757 754 434
          750 757 755 437 752 758
          400 748 431 12 402 750
          434 16 402 750 434 16
          404 752 437 20 474 31
          469 468 475 35 471 470
          475 35 471 470 476 39
          473 472 399 438 744 759
          401 440 745 760 401 440
          745 760 403 442 746 761
          339 477 351 340 343 478
          352 344 343 478 352 344
          347 479 353 348 367 366
          358 357 369 368 360 359
          369 368 360 359 371 370
          362 361 480 32 31 474
          481 36 35 475 481 36
          35 475 482 40 39 476
          483 477 339 354 484 478
          343 355 484 478 343 355
          485 479 347 356 486 483
          354 381 487 484 355 382
          487 484 355 382 488 485
          356 383 183 182 465 279
          187 186 466 281 187 186
          466 281 191 190 467 283
          762 763 489 490 764 765
          491 492 764 765 491 492
          766 767 493 494 490 489
          32 480 492 491 36 481
          492 491 36 481 494 493
          40 482 387 495 496 376
          388 497 498 378 388 497
          498 378 389 499 500 380
          501 270 272 358 502 273
          275 360 502 273 275 360
          503 276 278 362 504 331
          298 297 505 333 302 301
          505 333 302 301 506 335
          306 305 507 486 381 375
          508 487 382 377 508 487
          382 377 509 488 383 379
          318 238 237 510 319 241
          240 511 319 241 240 511
          320 244 243 512 50 49
          255 424 54 53 256 426
          54 53 256 426 58 57
          257 428 363 513 390 372
          364 514 392 373 364 514
          392 373 365 515 394 374
          516 423 391 390 517 425
          393 392 517 425 393 392
          518 427 395 394 519 520
          205 204 521 522 207 206
          521 522 207 206 523 524
          209 208 525 519 204 280
          526 521 206 282 526 521
          206 282 527 523 208 284
          528 460 459 529 530 462
          461 531 530 462 461 531
          532 464 463 533 534 90
          535 536 537 93 538 539
          537 93 538 539 540 96
          541 542 546 525 280 460
          547 526 282 462 547 526
          282 462 548 527 284 464
          759 768 747 399 760 769
          749 401 760 769 749 401
          761 770 751 403 507 375
          376 496 508 377 378 498
          508 377 378 498 509 379
          380 500 483 486 549 550
          484 487 551 552 484 487
          551 552 485 488 553 554
          231 232 271 336 233 234
          274 337 233 234 274 337
          235 236 277 338 391 255
          128 223 393 256 131 225
          393 256 131 225 395 257
          134 227 525 546 555 556
          526 547 557 558 526 547
          557 558 527 548 559 560
          519 525 556 561 521 526
          558 562 521 526 558 562
          523 527 560 563 561 556
          564 565 562 558 566 567
          562 558 566 567 563 560
          568 569 570 571 572 573
          574 575 576 577 574 575
          576 577 578 579 580 581
          2 1 300 299 6 5
          304 303 6 5 304 303
          10 9 308 307 582 299
          298 330 583 303 302 332
          583 303 302 332 584 307
          306 334 585 363 271 270
          586 364 274 273 586 364
          274 273 587 365 277 276
          555 416 144 143 557 419
          148 147 557 419 148 147
          559 422 152 151 588 589
          237 267 590 591 240 268
          590 591 240 268 592 593
          243 269 396 594 495 387
          397 595 497 388 397 595
          497 388 398 596 499 389
          594 396 205 520 595 397
          207 522 595 397 207 522
          596 398 209 524 597 598
          430 429 599 600 433 432
          599 600 433 432 601 602
          436 435 603 246 248 604
          605 249 251 606 605 249
          251 606 607 252 254 608
          72 211 210 73 74 215
          214 75 74 215 214 75
          76 219 218 77 536 535
          609 543 539 538 610 544
          539 538 610 544 542 541
          611 545 612 561 565 613
          614 562 567 615 614 562
          567 615 616 563 569 617
          618 619 620 621 622 623
          624 625 622 623 624 625
          626 627 628 629 630 588
          267 247 631 590 268 250
          631 590 268 250 632 592
          269 253 633 634 573 572
          635 636 577 576 635 636
          577 576 637 638 581 580
          60 639 81 640 64 641
          85 642 64 641 85 642
          68 643 89 644 561 612
          520 519 562 614 522 521
          562 614 522 521 563 616
          524 523 510 231 336 318
          511 233 337 319 511 233
          337 319 512 235 338 320
          640 81 80 645 642 85
          84 646 642 85 84 646
          644 89 88 647 550 648
          477 483 552 649 478 484
          552 649 478 484 554 650
          479 485 630 247 246 651
          631 250 249 652 631 250
          249 652 632 253 252 653
          633 572 654 621 635 576
          655 625 635 576 655 625
          637 580 656 629 15 43
          166 439 19 45 169 441
          19 45 169 441 23 47
          172 443 660 639 661 651
          662 641 663 652 662 641
          663 652 664 643 665 653
          666 330 288 287 667 332
          292 291 667 332 292 291
          668 334 296 295 603 660
          651 246 605 662 652 249
          605 662 652 249 607 664
          653 252 571 570 516 669
          575 574 517 670 575 574
          517 670 579 578 518 671
          672 262 261 311 673 264
          263 314 673 264 263 314
          674 266 265 317 416 555
          546 675 419 557 547 676
          419 557 547 676 422 559
          548 677 570 573 678 657
          574 577 679 658 574 577
          679 658 578 581 680 659
          495 42 14 496 497 44
          18 498 497 44 18 498
          499 46 22 500 61 529
          459 62 65 531 461 66
          65 531 461 66 69 533
          463 70 13 507 496 14
          17 508 498 18 17 508
          498 18 21 509 500 22
          114 510 237 589 118 511
          240 591 118 511 240 591
          122 512 243 593 513 669
          516 390 514 670 517 392
          514 670 517 392 515 671
          518 394 594 681 42 495
          595 682 44 497 595 682
          44 497 596 683 46 499
          114 589 588 111 118 591
          590 115 118 591 590 115
          122 593 592 119 510 114
          113 231 511 118 117 233
          511 118 117 233 512 122
          121 235 681 594 520 612
          682 595 522 614 682 595
          522 614 683 596 524 616
          684 685 645 686 687 688
          646 689 687 688 646 689
          690 691 647 692 693 654
          572 571 694 655 576 575
          694 655 576 575 695 656
          580 579 675 546 460 528
          676 547 462 530 676 547
          462 530 677 548 464 532
          439 400 12 15 441 402
          16 19 441 402 16 19
          443 404 20 23 696 672
          648 697 698 673 649 699
          698 673 649 699 700 674
          650 701 702 618 621 654
          703 622 625 655 703 622
          625 655 704 626 629 656
          72 705 212 211 74 706
          216 215 74 706 216 215
          76 707 220 219 182 112
          136 465 186 116 138 466
          186 116 138 466 190 120
          140 467 708 686 645 80
          709 689 646 84 709 689
          646 84 710 692 647 88
          91 341 310 92 94 345
          313 95 94 345 313 95
          97 349 316 98 135 630
          651 661 137 631 652 663
          137 631 652 663 139 632
          653 665 666 287 325 711
          667 291 327 712 667 291
          327 712 668 295 329 713
          444 25 714 715 445 27
          716 717 445 27 716 717
          446 29 718 719 705 720
          366 212 706 721 368 216
          706 721 368 216 707 722
          370 220 331 504 715 714
          333 505 717 716 333 505
          717 716 335 506 719 718
          13 549 486 507 17 551
          487 508 17 551 487 508
          21 553 488 509 571 669
          513 693 575 670 514 694
          575 670 514 694 579 671
          515 695 102 405 685 99
          106 408 688 103 106 408
          688 103 110 411 691 107
          672 351 477 648 673 352
          478 649 673 352 478 649
          674 353 479 650 693 513
          363 585 694 514 364 586
          694 514 364 586 695 515
          365 587 285 714 25 24
          289 716 27 26 289 716
          27 26 293 718 29 28
          143 142 192 564 147 146
          194 566 147 146 194 566
          151 150 196 568 726 489
          763 771 727 491 765 772
          727 491 765 772 728 493
          767 773 534 536 715 504
          537 539 717 505 537 539
          717 505 540 542 719 506
          165 565 564 192 168 567
          566 194 168 567 566 194
          171 569 568 196 78 81
          639 660 82 85 641 662
          82 85 641 662 86 89
          643 664 136 135 661 63
          138 137 663 67 138 137
          663 67 140 139 665 71
          729 262 672 696 730 264
          673 698 730 264 673 698
          731 266 674 700 630 135
          111 588 631 137 115 590
          631 137 115 590 632 139
          119 592 702 585 270 501
          703 586 273 502 703 586
          273 502 704 587 276 503
          585 702 654 693 586 703
          655 694 586 703 655 694
          587 704 656 695 61 406
          528 529 65 409 530 531
          65 409 530 531 69 412
          532 533 414 732 101 100
          417 733 105 104 417 733
          105 104 420 734 109 108
          63 62 465 136 67 66
          466 138 67 66 466 138
          71 70 467 140 501 720
          618 702 502 721 622 703
          502 721 622 703 503 722
          626 704 720 501 358 366
          721 502 360 368 721 502
          360 368 722 503 362 370
          685 684 454 99 688 687
          456 103 688 687 456 103
          691 690 458 107 685 405
          640 645 688 408 642 646
          688 408 642 646 691 411
          644 647 30 141 469 31
          34 145 471 35 34 145
          471 35 38 149 473 39
          598 738 739 430 600 740
          741 433 600 740 741 433
          602 742 743 436 43 42
          681 167 45 44 682 170
          45 44 682 170 47 46
          683 173 678 711 325 723
          679 712 327 724 679 712
          327 724 680 713 329 725
          619 618 720 705 623 622
          721 706 623 622 721 706
          627 626 722 707 102 101
          528 406 106 105 530 409
          106 105 530 409 110 109
          532 412 549 13 12 739
          551 17 16 741 551 17
          16 741 553 21 20 743
          711 678 573 634 712 679
          577 636 712 679 577 636
          713 680 581 638 80 79
          258 708 84 83 259 709
          84 83 259 709 88 87
          260 710 738 598 696 697
          740 600 698 699 740 600
          698 699 742 602 700 701
          714 285 288 331 716 289
          292 333 716 289 292 333
          718 293 296 335 672 311
          310 351 673 314 313 352
          673 314 313 352 674 317
          316 353 430 739 12 431
          433 741 16 434 433 741
          16 434 436 743 20 437
          193 438 439 166 195 440
          441 169 195 440 441 169
          197 442 443 172 489 726
          33 32 491 727 37 36
          491 727 37 36 493 728
          41 40 444 715 536 543
          445 717 539 544 445 717
          539 544 446 719 542 545
          3 619 705 72 7 623
          706 74 7 623 706 74
          11 627 707 76 633 666
          711 634 635 667 712 636
          635 667 712 636 637 668
          713 638 384 534 504 297
          385 537 505 301 385 537
          505 301 386 540 506 305
          726 771 744 33 727 772
          745 37 727 772 745 37
          728 773 746 41 167 613
          565 165 170 615 567 168
          170 615 567 168 173 617
          569 171 675 732 414 416
          676 733 417 419 676 733
          417 419 677 734 420 422
          550 549 739 738 552 551
          741 740 552 551 741 740
          554 553 743 742 732 675
          528 101 733 676 530 105
          733 676 530 105 734 677
          532 109 63 661 639 60
          67 663 641 64 67 663
          641 64 71 665 643 68
          384 91 90 534 385 94
          93 537 385 94 93 537
          386 97 96 540 123 744
          438 193 124 745 440 195
          124 745 440 195 125 746
          442 197 406 61 60 407
          409 65 64 410 409 65
          64 410 412 69 68 413
          154 78 660 603 158 82
          662 605 158 82 662 605
          162 86 664 607 91 384
          342 341 94 385 346 345
          94 385 346 345 97 386
          350 349 405 407 60 640
          408 410 64 642 408 410
          64 642 411 413 68 644
          648 550 738 697 649 552
          740 699 649 552 740 699
          650 554 742 701 735 92
          310 309 736 95 313 312
          736 95 313 312 737 98
          316 315 633 582 330 666
          635 583 332 667 635 583
          332 667 637 584 334 668
          167 681 612 613 170 682
          614 615 170 682 614 615
          173 683 616 617 620 2
          299 582 624 6 303 583
          624 6 303 583 628 10
          307 584 582 633 621 620
          583 635 625 624 583 635
          625 624 584 637 629 628
          141 144 415 469 145 148
          418 471 145 148 418 471
          149 152 421 473 143 564
          556 555 147 566 558 557
          147 566 558 557 151 568
          560 559 2 620 619 3
          6 624 623 7 6 624
          623 7 10 628 627 11
          729 696 598 597 730 698
          600 599 730 698 600 599
          731 700 602 601 141 30
          123 142 145 34 124 146
          145 34 124 146 149 38
          125 150 154 603 604 155
          158 605 606 159 158 605
          606 159 162 607 608 163
          193 192 142 123 195 194
          146 124 195 194 146 124
          197 196 150 125
        </DataArray>
        <DataArray type="Int64" Name="offsets" format="ascii" RangeMin="8" RangeMax="3616">
          8 16 24 32 40 48
          56 64 72 80 88 96
          104 112 120 128 136 144
          152 160 168 176 184 192
          200 208 216 224 232 240
          248 256 264 272 280 288
          296 304 312 320 328 336
          344 352 360 368 376 384
          392 400 408 416 424 432
          440 448 456 464 472 480
          488 496 504 512 520 528
          536 544 552 560 568 576
          584 592 600 608 616 624
          632 640 648 656 664 672
          680 688 696 704 712 720
          728 736 744 752 760 768
          776 784 792 800 808 816
          824 832 840 848 856 864
          872 880 888 896 904 912
          920 928 936 944 952 960
          968 976 984 992 1000 1008
          1016 1024 1032 1040 1048 1056
          1064 1072 1080 1088 1096 1104
          1112 1120 1128 1136 1144 1152
          1160 1168 1176 1184 1192 1200
          1208 1216 1224 1232 1240 1248
          1256 1264 1272 1280 1288 1296
          1304 1312 1320 1328 1336 1344
          1352 1360 1368 1376 1384 1392
          1400 1408 1416 1424 1432 1440
          1448 1456 1464 1472 1480 1488
          1496 1504 1512 1520 1528 1536
          1544 1552 1560 1568 1576 1584
          1592 1600 1608 1616 1624 1632
          1640 1648 1656 1664 1672 1680
          1688 1696 1704 1712 1720 1728
          1736 1744 1752 1760 1768 1776
          1784 1792 1800 1808 1816 1824
          1832 1840 1848 1856 1864 1872
          1880 1888 1896 1904 1912 1920
          1928 1936 1944 1952 1960 1968
          1976 1984 1992 2000 2008 2016
          2024 2032 2040 2048 2056 2064
          2072 2080 2088 2096 2104 2112
          2120 2128 2136 2144 2152 2160
          2168 2176 2184 2192 2200 2208
          2216 2224 2232 2240 2248 2256
          2264 2272 2280 2288 2296 2304
          2312 2320 2328 2336 2344 2352
          2360 2368 2376 2384 2392 2400
          2408 2416 2424 2432 2440 2448
          2456 2464 2472 2480 2488 2496
          2504 2512 2520 2528 2536 2544
          2552 2560 2568 2576 2584 2592
          2600 2608 2616 2624 2632 2640
          2648 2656 2664 2672 2680 2688
          2696 2704 2712 2720 2728 2736
          2744 2752 2760 2768 2776 2784
          2792 2800 2808 2816 2824 2832
          2840 2848 2856 2864 2872 2880
          2888 2896 2904 2912 2920 2928
          2936 2944 2952 2960 2968 2976
          2984 2992 3000 3008 3016 3024
          3032 3040 3048 3056 3064 3072
          3080 3088 3096 3104 3112 3120
          3128 3136 3144 3152 3160 3168
          3176 3184 3192 3200 3208 3216
          3224 3232 3240 3248 3256 3264
          3272 3280 3288 3296 3304 3312
          3320 3328 3336 3344 3352 3360
          3368 3376 3384 3392 3400 3408
          3416 3424 3432 3440 3448 3456
          3464 3472 3480 3488 3496 3504
          3512 3520 3528 3536 3544 3552
          3560 3568 3576 3584 3592 3600
          3608 3616
        </DataArray>
        <DataArray type="UInt8" Name="types" format="ascii" RangeMin="12" RangeMax="12">
          12 12 12 12 12 12
          12 12 12 12 12 12
          12 12 12 12 12 12
          12 12 12 12 12 12
          12 12 12 12 12 12
          12 12 12 12 12 12
          12 12 12 12 12 12
          12 12 12 12 12 12
          12 12 12 12 12 12
          12 12 12 12 12 12
          12 12 12 12 12 12
          12 12 12 12 12 12
          12 12 12 12 12 12
          12 12 12 12 12 12
          12 12 12 12 12 12
          12 12 12 12 12 12
          12 12 12 12 12 12
          12 12 12 12 12 12
          12 12 12 12 12 12
          12 12 12 12 12 12
          12 12 12 12 12 12
          12 12 12 12 12 12
          12 12 12 12 12 12
          12 12 12 12 12 12
          12 12 12 12 12 12
          12 12 12 12 12 12
          12 12 12 12 12 12
          12 12 12 12 12 12
          12 12 12 12 12 12
          12 12 12 12 12 12
          12 12 12 12 12 12
          12 12 12 12 12 12
          12 12 12 12 12 12
          12 12 12 12 12 12
          12 12 12 12 12 12
          12 12 12 12 12 12
          12 12 12 12 12 12
          12 12 12 12 12 12
          12 12 12 12 12 12
          12 12 12 12 12 12
          12 12 12 12 12 12
          12 12 12 12 12 12
          12 12 12 12 12 12
          12 12 12 12 12 12
          12 12 12 12 12 12
          12 12 12 12 12 12
          12 12 12 12 12 12
          12 12 12 12 12 12
          12 12 12 12 12 12
          12 12 12 12 12 12
          12 12 12 12 12 12
          12 12 12 12 12 12
          12 12 12 12 12 12
          12 12 12 12 12 12
          12 12 12 12 12 12
          12 12 12 12 12 12
          12 12 12 12 12 12
          12 12 12 12 12 12
          12 12 12 12 12 12
          12 12 12 12 12 12
          12 12 12 12 12 12
          12 12 12 12 12 12
          12 12 12 12 12 12
          12 12 12 12 12 12
          12 12 12 12 12 12
          12 12 12 12 12 12
          12 12 12 12 12 12
          12 12 12 12 12 12
          12 12 12 12 12 12
          12 12 12 12 12 12
          12 12 12 12 12 12
          12 12 12 12 12 12
          12 12 12 12 12 12
          12 12 12 12 12 12
          12 12 12 12 12 12
          12 12
        </DataArray>
      </Cells>
    </Piece>
  </UnstructuredGrid>
</VTKFile>
