<?xml version="1.0"?>
<VTKFile type="UnstructuredGrid" version="0.1" byte_order="LittleEndian" header_type="UInt32" compressor="vtkZLibDataCompressor">
  <UnstructuredGrid>
    <Piece NumberOfPoints="756" NumberOfCells="468">
      <PointData>
        <DataArray type="Int32" Name="libmesh_node_id" format="ascii" RangeMin="120" RangeMax="2168">
          120 121 122 123 124 125
          126 127 128 129 130 131
          132 133 134 135 136 137
          138 139 140 141 142 143
          144 145 146 147 148 149
          150 151 152 153 154 155
          156 157 158 159 160 161
          162 163 164 165 166 167
          168 169 170 171 172 173
          174 175 176 177 178 179
          240 241 242 243 244 245
          246 247 248 249 250 251
          252 253 254 255 256 257
          258 259 260 261 262 263
          264 265 266 267 268 269
          330 331 332 333 334 335
          336 337 338 339 340 341
          342 343 344 345 346 347
          348 349 350 351 352 353
          354 355 356 357 358 359
          420 421 422 423 424 425
          426 427 428 429 430 431
          432 433 434 435 436 437
          438 439 440 441 442 443
          444 445 446 447 448 449
          510 511 512 513 514 515
          516 517 518 519 520 521
          522 523 524 525 526 527
          528 529 530 531 532 533
          534 535 536 537 538 539
          600 601 602 603 604 605
          606 607 608 609 610 611
          612 613 614 615 616 617
          618 619 620 621 622 623
          624 625 626 627 628 629
          690 691 692 693 694 695
          696 697 698 699 700 701
          702 703 704 705 706 707
          708 709 710 711 712 713
          714 715 716 717 718 719
          780 781 782 783 784 785
          786 787 788 789 790 791
          792 793 794 795 796 797
          798 799 800 801 802 803
          804 805 806 807 808 809
          876 877 878 879 880 881
          882 883 884 885 886 887
          888 889 890 891 892 893
          894 895 896 897 898 899
          900 901 902 903 904 905
          906 907 908 909 910 911
          912 913 914 915 916 917
          918 919 920 921 922 923
          924 925 926 927 928 929
          930 931 932 933 934 935
          936 937 938 939 940 941
          942 943 944 945 946 947
          948 949 950 951 952 953
          954 955 956 957 958 959
          960 961 962 963 964 965
          966 967 968 969 970 971
          972 973 974 975 976 977
          978 979 980 981 982 983
          984 985 986 987 988 989
          990 991 992 993 994 995
          996 997 998 999 1000 1001
          1002 1003 1004 1005 1006 1007
          1008 1009 1010 1011 1012 1013
          1014 1015 1016 1017 1018 1019
          1020 1021 1022 1023 1024 1025
          1026 1027 1028 1029 1030 1031
          1032 1033 1034 1035 1036 1037
          1038 1039 1040 1041 1042 1043
          1044 1045 1046 1047 1048 1049
          1050 1051 1052 1053 1054 1055
          1056 1057 1058 1059 1060 1061
          1062 1063 1064 1065 1066 1067
          1068 1069 1070 1071 1072 1073
          1074 1075 1076 1077 1078 1079
          1080 1081 1082 1083 1084 1085
          1086 1087 1088 1089 1090 1091
          1092 1093 1094 1095 1096 1097
          1098 1099 1100 1101 1102 1103
          1104 1105 1106 1107 1108 1109
          1110 1111 1112 1113 1114 1115
          1116 1117 1118 1119 1120 1121
          1122 1123 1124 1125 1126 1127
          1128 1129 1130 1131 1132 1133
          1134 1135 1136 1137 1138 1139
          1140 1141 1142 1143 1144 1145
          1146 1147 1148 1149 1150 1151
          1152 1153 1154 1155 1156 1157
          1158 1159 1160 1161 1162 1163
          1164 1165 1166 1167 1168 1169
          1170 1171 1172 1173 1174 1175
          1176 1177 1178 1179 1180 1181
          1182 1183 1184 1185 1186 1187
          1188 1189 1190 1191 1192 1193
          1194 1195 1196 1197 1198 1199
          1200 1201 1202 1203 1204 1205
          1206 1207 1208 1209 1210 1211
          1212 1213 1214 1215 1216 1217
          1218 1219 1220 1221 1222 1223
          1224 1225 1226 1227 1228 1229
          1230 1231 1232 1233 1234 1235
          1236 1237 1238 1239 1240 1241
          1242 1243 1244 1245 1246 1247
          1248 1249 1250 1251 1252 1253
          1254 1255 1256 1257 1258 1259
          1260 1261 1262 1263 1264 1265
          1266 1267 1268 1269 1270 1271
          1893 1894 1895 1896 1897 1898
          1920 1921 1922 1923 1924 1925
          1947 1948 1949 1974 1975 1976
          2001 2002 2003 2028 2029 2030
          2055 2056 2057 2112 2113 2114
          2115 2116 2117 2124 2125 2126
          2127 2128 2129 2130 2131 2132
          2133 2134 2135 2148 2149 2150
          2151 2152 2153 2164 2166 2168
          1926 1899 1927 1900 1928 1901
          1950 1951 1952 1953 1954 1955
          1977 1978 1979 2004 2005 2006
          2031 2032 2033 2058 2059 2060
          2142 2144 2146 2163 2143 2096
          2165 2145 2100 2167 2147 2104
        </DataArray>
        <DataArray type="Float64" Name="resid_x" format="ascii" RangeMin="-19.090587555870382" RangeMax="0.017600773032600436">
          0.000052117538422713494 -8.464314773172713 0.00012695092655512497 -16.927500215501876 0.00005553695320070773 -8.458959165906114
          0.000005316133321109362 -8.43360675715049 -0.0000069061550034277275 -16.873660195675864 -0.000011070316387140622 -8.432855841860153
          0.000014766427907986213 -8.422295092977752 -0.000007080094944100779 -16.887671288198028 -0.000009451876219479516 -8.45943935971015
          0.00001627246592494913 -8.457201306447452 0.0009747340075989541 -17.081690937611572 0.00013401971087745324 -8.664654864923445
          0.00014339497515170052 -8.659921966161502 0.0038336832301144597 -17.611344902782626 0.0004964147087802573 -9.146712037752275
          0.00020932110934079873 -8.85079393326882 0.0003138988219486549 -17.918881166590758 -0.0013610344480294856 -9.490071273618891
          0.00019060381626356815 -8.958152360652342 0.0003417629750543938 -18.09361383633272 -0.001567140941293843 -9.641498637687928
          0.00004490990516536897 -9.169408909639873 0.0000906160643872056 -18.384216134330785 -0.0006089660616712678 -9.600306048464969
          0.00046134939775921424 -9.590710769522627 0.0006567118193423482 -19.090587555870382 0.0034625061872679552 -9.20049482605977
          0.0017019827793624542 -5.960514373061118 0.0030204171385281864 -11.756716479273232 0.007721483282707775 -5.021033590196096
          -0.0001690719672264862 -0.00020545630086310496 -0.00007304198267199524 -0.000057829394716435445 -0.00009118096287075161 -0.000012158151418972807
          -0.00001044451937470825 -0.00005351943105758039 -0.000029559553592406473 -0.004315239504246726 0.0004194494390299397 0.00005359352073064372
          -0.017813579675912905 -0.007355211201309331 -0.002248183406555526 0.00005653787337234206 0.0002023344107584535 -0.002741052960113066
          -0.000028931060377601625 0.00017583020918987557 -0.0029257252125125532 -0.0005879803863351185 -0.0005489273758625401 -0.0010993069014597623
          -0.0005782953883830544 -0.0006883122442786771 0.005618315444374744 0.0010404085049595668 0.002204035459855591 0.01249108423462042
          -0.000015528696109434748 -0.000009564629255720547 -0.000019918357062387315 0.000023941620116652018 -0.000008406212573142113 -0.000031376604096244876
          0.000022492770541227003 0.001355301598538361 0.0019414147356693334 0.004924942145711597 0.002410779212814518 -0.00030111971517499114
          0.017600773032600436 0.004143706838896755 -0.0027691264296780815 0.00015160339659203714 0.0004492709116297178 -0.0037618708064881545
          0.00002358277398517572 0.0004168968855573496 -0.003790111761721171 -0.00014061220128791518 0.0000729642932393304 -0.0012526380326614017
          0.0001657246989807959 0.00032095546626553784 0.007254330972141787 0.001542152017864666 0.002808108485875982 0.016221588797030475
          -0.00004296809810533375 -0.00007947640978844817 -0.000048168621048283455 0.0000413932233458425 0.000005750960561101692 -0.00017118910227420514
          0.000026705639291080274 -0.00130634883604408 -0.002915013697259994 0.00008206291693557688 -0.0031148360907202743 -0.0033721431752233855
          -0.0001436384150048653 0.00031540674191887774 -0.0035120776346246885 0.000014346986419333518 0.00034132873704262323 -0.004654480913994341
          -0.00005192310981438908 0.00034749753980367615 -0.004074145071076174 -0.00026653953350663784 0.00006412152310275587 -0.0006033733978565436
          -0.00009930550789682968 0.000057328066294104474 0.008399886687693758 0.0005228246477009257 0.000807585511026998 0.014877148507522975
          -0.000042649436331032575 -0.000022849102680133626 -0.00011714217616010103 0.00003246085280927957 0.00005712251007761182 -0.0006305029336974854
          0.00003487327574624999 0.00017750121418735887 -0.001767099542781203 -4.1366254421859594e-8 0.00015348636290113404 -0.003261943757323138
          -0.00010051209438532993 0.0001052371294418819 -0.004764423544993512 -0.000016927176089254203 0.00032334411483248005 -0.005061323113505267
          -0.00005056446690865357 0.00038674241582459246 -0.003588355646529706 -0.00023792831014457505 0.00011768322388139296 0.0004949155203961553
          -0.0003381583798578447 -0.000028225766459222257 0.009133144412096783 -0.0003999521786499649 -0.0003945105421130357 0.012992814306096223
          0.00006049810660613275 0.001103704479201717 -0.00023516338234230716 0.00006988754779158057 0.00013849589730252632 -0.001446731948132829
          0.00003954590665955493 0.00016533047837619108 -0.002922466689190273 -0.00008072408109871532 0.00008516418762205546 -0.00443950166646534
          -0.00024741951260054407 0.0001415098609509613 -0.005114574596224664 -0.00012177652465084066 0.00027878478015441743 -0.0048016289124817035
          -0.00019591569780708085 0.0002430482239557108 -0.002694937791872576 -0.0002195328207532654 0.00015012751799403645 0.0018308571474445756
          -0.0003276116341579538 0.0002618469495923037 0.009833663696971584 -0.0003276343855764807 -0.0002140528575849121 0.011087841300271739
          0.000045595134406717364 -0.0008483917573931521 -0.0015873252701323892 -0.00009025153472830283 0.00013732297556945383 -0.0024485825902216263
          -0.00009179360035460604 0.0003131256045350028 -0.003830898653096604 -0.00038333735267670477 0.00003814550171110653 -0.005032456146700781
          -0.00034221808061030146 0.00008140619309671138 -0.005247902555203687 -0.00021508119430890815 0.00003572888460290358 -0.004356994972548378
          -0.0002700633851553391 0.00008723201300764316 -0.0015582243266525353 -0.00004169967693812282 0.0006381039338965167 0.0036402138770972314
          -0.00018862495745253227 0.00046586707824403106 0.009938689035474901 -0.0006440663044950945 -0.0008256617084835272 0.008863282026245423
          -0.00043020273907590223 -0.0007770018940185253 -0.0027501094183710606 -0.000580589281934607 -0.0008673846470870217 -0.00412331541498645
          -0.0006025283372368406 -0.0005165442379500007 -0.004827844391649627 -0.00043156552678702553 -0.00038327444812225053 -0.005487094934514936
          -0.00042924959170420607 -0.000558994459258777 -0.005416447997356855 -0.0005990073092840831 -0.00048750062718383447 -0.003582960671376423
          -0.0003163393895784239 0.00011585542882919242 0.000013416803192889404 0.00023695753342778403 0.001138806203592857 0.005217890551677762
          -0.0000763689260914191 0.0012196880037853575 0.010638831960760875 -0.0010975879381127651 -0.0014564327172805758 0.007203732075369285
          -0.0006298309579069183 -0.0012455360331298237 -0.006418581154266967 -0.00014143324847459837 -0.00040591314304805337 -0.005348298289141518
          0.000034786027956812404 0.0003528809618789097 -0.0034465790973809973 -0.0001555478226764606 0.00006611566048420059 -0.0012287938094042161
          -0.0008667225227343422 -0.0004977154789829186 0.00201706182668282 -0.001060198216404018 -0.00047831868402781197 0.0066430187578996325
          -0.0013741004565703818 -0.0010480777770238703 0.010962650889544179 -0.0014834935167113983 -0.0021253460491061915 0.006770454788020519
          -0.0008189463570395933 -0.00017895715873261775 -0.0029831323617877173 -0.002513647438735528 -0.00212190610235944 -0.0037634553525640047
          -0.006168146350478687 -0.0052079723282789925 -0.00039088042913416887 -0.0005927869786262613 -0.0030197556294260797 -0.002440766193327726
          -0.0012389665746585926 -0.002156715613621126 -0.0028984940635458645 -0.004499598675001722 -0.001980509785988925 -0.002349604439771606
          -0.003513947088994822 -0.001203736732176568 -0.002555105082317717 -0.006544318733517074 -0.002583166380406778 -0.0053202449137200805
          -0.0021579838326154788 -0.0011338934530357204 -0.00288923010064894 0.0004161246929819118 0.0017086163744113314 -0.0022672875354171618
          -0.00014878859885764095 0.0006926509131724989 0.0021694638868103855 -0.0030936418485203454 -0.0003136061759237696 0.004839182989710644
          0.008636973754472144 0.003791578014076369 0.0022036566473508934 -0.0014031605137867498 -0.001653145057155192 -0.00213245384340377
          -0.004318372803371929 -0.0026067324741548825 -0.005824484324787993 -0.0032540693306141177 -0.002608288072089404 0.007546129630162435
          0.005434211534376399 0.00748109720302248 0.0029164455779741826 -0.000068618667666831 0.0011259029822880962 -0.0014199307497954061
          -0.0013160758241599346 -0.0010698812331704222 0.0015759180090844094 -0.0024845262145892777 -0.002742034849462671 0.005931862625131457
          0.0072158053337991745 0.004341823999642447 0.0044000137514410564 -0.0003473129992555002 0.00013268960277401654 -0.002323683330522963
          -0.000611576516532486 -0.002080872850924731 -0.0006656448206037169 -0.004793900696296816 -0.0015674499663140828 0.0030531045098336485
          0.004060767034155477 0.0026808207205087364 0.003477945608297728 -0.0010326818522021775 -0.002858081427563608 -0.0021885372038350503
          -0.005598962017457021 0.001358725692851781 0.0007637561563407225 -0.00004300050132899358 -0.000871834828081397 -0.000746077951594537
          -0.0014647504271402267 0.0028942694740110575 0.006103893996525334 -0.002358602628886451 -0.0004661161595251838 -0.00009807019235889836
          -0.0004582640488183798 -0.004664702576927169 -0.0012377863054137527 -0.0008680059148762935 -0.0006417689539256477 -0.0027714879507536594
          -0.0008488531226530927 -0.0008961943436907177 -0.00106998383156362 0.00006578833463133371 0.0007841065164750916 0.0006820851041958731
          -1.549884055443239 -0.00009385295526065374 0.001010938996903965 0.0012534759116408223 -3.0127456866411606 0.000568257179253906
          0.0031847663127306802 0.002829136744395444 -1.1735482683522251 0.0003804038607573279 -0.001303199344336925 -0.0004042035650063669
          -0.0013317282191110114 0.004913477657208509 0.009796033121486414 -0.0016358213911983333 -0.0009969416308150958 -0.0014510633328164158
          -0.003791376482989106 -0.004063447417158139 -0.002119324542901424 -0.003615581029271564 -0.008307701236355491 -0.001864926557375246
          -0.0005049466626254606 -0.001930661489747132 -0.004348177790713281 0.005202915957996712 -0.0025991588932727794 0.007747692707161691
          0.008143010784234628 0.0052352843749413625 -0.008070124427129621 0.012101302472314335 0.01339505360773141 0.0028327153463540977
          -0.0032592844129437637 0.008443127890197966 0.016308145705142663 0.00027009012832260705 -0.00006041137618028811 -0.0028841550180125873
          -0.0012053289526022873 0.00031435733826595813 0.00009523730898843528 -0.005848812943173742 -0.0023734652116920996 -0.0002406086561985571
          0.0009357634336005227 -0.0030003540217080557 -0.001176089858506063 -0.0015568485448103075 -0.0022353499805063404 -0.003131019828505055
          -0.004129973497462247 0.0016812239738792645 0.0034098301831486655 0.00041784570286629297 0.00043705492374024324 0.007415746732559625
          -0.005519098246120846 -0.0038557480872253302 -0.011337464258169838 -0.006936015002765528 -0.006761835586324261 -0.006155197831496456
          -0.0013248997637547166 -0.0028382572621350466 -0.0022408081410471015 -0.004045554934108075 -0.006776660148037905 -0.006601498261925687
          -0.004570020950485532 -0.0037100990830314373 -0.004008373455524072 -0.0001852065781401957 -0.001589959087453352 -0.0010360738533043978
          -0.0006918486564450599 -0.0004240060371943355 -0.003032954984334868 -0.002377752227432861 -0.0011582246063790158 0.008464744836204408
          0.008597870976384647 0.012856328688179763 0.014209991191574872 -1.3352626176989046 0.00038043247136415603 -1.4936288715102262
          -2.662901230353175 0.0006972057735971093 -2.894964253392059 -1.0614560968802949 0.0015570108942598582 -1.135558149323113
          -0.0007348923395436163 -0.0020555709751204354 -0.0014076037606886756 -0.004072965033576903 0.003365135284280528 0.0028994532074235746
          -0.004011411979432555 -0.002236950093980561 -0.0020047404250255196 -0.0037230132373337055 0.001006340563222352 -0.0010205154428271634
          -0.0014645580082461307 -0.0017154158136795106 -0.0033450215702662822 -0.003186863857143174 0.001513926563254775 0.002738718739088486
          -1.3218388998781814 0.0007139143052808938 0.0012276509829953555 -1.5022720772066895 -2.594375095509597 0.0008017857992598243
          0.0019346313404139948 -2.9013182602792416 -1.1666570148291053 0.0014967994355399306 0.0028057776605337204 -1.2615092053542276
          -0.001258594971516147 -0.001523456794433553 -0.00188694174391546 -0.002564700520795382 -0.0030713762412921675 -0.004191777385556428
          0.005618071497688226 0.006797455712445721 0.004529743020690646 -0.0017759963084824776 -0.004390285390657445 -0.003263226847767711
          -0.008508453697521179 -0.0005268665893549129 -0.0037780716607134224 -0.0027311876028250914 -0.001606606719589676 -0.005350136937238625
          -0.003361678817601632 0.006792021977658935 0.004501509705989282 -0.003104895248029531 -0.005654630647582537 -0.006350250860244641
          -0.01152565695661234 0.006887179691914436 0.0020048978497827497 -0.0037002371465089112 -0.0004507012094187024 -0.007380030868346044
          -0.0010512817564454213 -0.0007265496823041229 0.0018451463010913383 -0.00010825389525963292 -0.0035134921073365875 -0.0006416485626364252
          -0.0005240672895132567 -0.006838138527857072 -0.0013309064030923995 -0.00032352005262913965 -0.003195353484916624 -0.0005928989176409612
          -0.0006863782620905035 -0.00045916573099424873 -0.0028575679623766836 -0.0018918323897114675 -0.001504093011130414 -0.006503767076143863
          0.0008170342527933361 0.0004977977164819514 -0.0017746220191460216 -0.0005513574123705012 0.00012286950368367577 -1.4056449960485407
          -0.0008307693249006154 0.00026853406005983294 -2.751654690051972 0.0006492521055340705 0.0010608906578846167 -1.1016044714311384
          -1.2804922068876803 -2.535290080446595 -1.1119156066163962 -0.000042118913076972055 -0.00019882227072726827 -0.004029418791737294
          -0.0017699282007697069 -0.00030695684114800644 -0.0006742923966260653 -0.00810997599633037 -0.0035515161339434755 -0.00019443601435516385
          -0.00027233076349879315 -0.0040897972551151435 -0.0017703721466550398 -0.0008073343292299695 0.00008841225661701535 -0.001991203239781303
          0.00004725716385550749 0.0016433273934688408 0.003958072688728609 -0.0024077067277791103 -0.0027638628962277263 -0.0047375930377595785
          -0.0055166011998128775 -0.0020987841312919593 -0.002599037869154771 0.0006980392391268686 0.0014808752037860778 0.0014863599469229216
          0.0018232367496902324 0.0033540534626228524 0.00785741955786362 0.005401397643296502 -0.009788066813261942 0.00834716048931683
          -0.013073023486150914 0.01419684287293066 0.008215850889697007 -0.00237062844326099 -0.004395446326415135 -0.002020749118903438
          -0.0031970278812674113 -0.005544750829512779 -0.0005040435079814998 -0.005876240097024782 -0.0012325871867309712 -0.01036660792436947
          -0.003808243450618056 0.002996225524905527 -0.0002788763603560618 -0.004935845004606643 -0.009411609739424676 -0.0032841985352201064
          -0.0034607174384072847 -0.007291118348388248 -0.001464037666156992 -0.00225512913168327 -0.004399823747686094 -0.001973261639961096
          -0.004287292953312649 -0.007909078111644874 -0.0030868963134713656 -0.0009647847409818278 -0.002040714414568323 -0.0010160828217180562
          -0.0007064815058807905 -0.0009907043283691186 -0.0015543360105367693 0.006080475960381193 0.007718831590813213 0.008384966229829316
          -1.0290447067589366 -1.995417040786403 -0.8868379788952813 -1.4632550046394721 -2.8748445492980945 -1.1303045381625498
          -0.0025093535966219382 -0.004762579953915019 -0.0022630409433088833 -0.0027474799595569865 -0.005415556798091456 -0.0025252718136509963
          -0.0007927895818093944 -0.0009930283094066183 -0.003379694694851665 -0.0042521789528056075 -0.006163979683894816 -0.0033660700351036965
          -0.0006622630723605027 -0.0007682041766532421 -0.0008947053541481509 -0.004396134002575991 -0.00673850392723363 -0.001208950754144844
          -0.0034878621405933785 -0.004256185960363368 0.0006677127497010105 -0.005162291437134314 -0.0068687094150137185 0.0028231133630773897
          -0.006075630634878593 -0.007222457029650187 0.005119567778071321 -0.007758512353462699 -0.010346191323526988 0.004643286548784431
          -0.007296149506594185 -0.01110356411295399 0.0002982890888481027 -0.0024477478725186685 -0.0018382149221070065 -0.0030724416725909087
          -0.0027442281826237647 -0.00047144729987458334 0.00002557115338791549 -0.004441107355317664 -0.007411179678970203 -0.004696433579436166
          -0.0029655027571364734 -0.009020658015430782 -0.01465082773540649 -0.008971919417800622 -0.004968865025162028 -0.004619882161714439
          -0.007651454644704625 -0.004379497859983372 -0.0022680369075418483 -0.0031880774810399415 -0.00394019901574344 -0.002343658925183456
          -0.0052224167388215115 -0.008081186548205777 -0.0033206948372526135 -0.007433932639991869 -0.014065112431636051 -0.007831250855194316
          -0.0016661182853141554 -0.0034916941709779437 -0.00522925271805974 -0.008171643740798373 -0.0005237233623951454 -0.00334987294346778
          -0.005330188462504992 -0.006833366383125039 0.0016919892958267013 -0.0005336025211972739 -0.0017142571265882367 0.001970278071611986
          -0.0036083557106234565 -0.007291483174551416 0.0027150875768082727 -0.004529185287196924 -0.009279152388501188 0.002481756279438585
          -0.006159462880050093 -0.012056563916024388 0.0003881671933942954 -0.00658223481514586 -0.012666672947903024 -0.004126954471790789
          -0.009267414338368418 -0.014072755616881594 -0.006857431261781066 -0.005467615685912586 -0.010638137190155827 -0.0017960276181367973
          -0.00946500936590322 -0.016908675737973944 -0.005711000083696405 -0.006476718826667227 -0.009299303214036492 -0.0063403586837180725
        </DataArray>
        <DataArray type="Float64" Name="resid_y" format="ascii" RangeMin="-0.01764300644488448" RangeMax="0.01326365238599328">
          -0.000047720933107398 -0.00003186476610440858 -0.00008982049413663873 -0.00004745771319777936 0.000001970293387248967 -0.0000029764898285961072
          0.00002863549174464408 -0.000008453679651493351 0.00005211406456583079 -0.000008691081293171754 0.000022658057519400754 0.000010330692687715581
          0.000054649655247804296 0.000019409496285288652 0.00009713944161793275 0.0000511492853952078 0.00002679698594942881 0.000027140070856385146
          0.00009933852730331649 0.00008224069906376252 0.00002147053935375176 0.00018477760482010774 -0.000033398379076787776 0.00008900585260418481
          0.00013822709726413196 0.00013515643235278985 0.00020552212515123625 0.00026503922729742557 -0.00010617259931910983 -0.0000013123969857531392
          0.00011042974431862973 0.00019641074359927346 0.0003430552947494281 0.0004750717901825241 -0.0005499386319723909 -0.00014360150322656473
          0.00020412177190476388 0.0002514211901641361 0.0006415284452248593 0.0007742436578004885 -0.0014040966092961904 -0.0004159193466338196
          0.00024395579993158334 0.0003043114552325754 0.0009315230413802777 0.0010391209791785205 -0.002667663528173214 -0.00103235192976725
          -0.0003110390921297612 0.00009496939073533328 0.00022090661270407486 0.0009255329407878987 -0.005014199028415434 -0.0021801588369675384
          -0.0005253841631841505 -0.00029290154346428565 -0.00042775860014082623 -0.00020358948092791262 -0.005124657843666169 -0.002346965961420311
          0.000025029416540256477 0.000014163361736374558 0.000018020711932770217 0.00011482693851846276 0.0002025840313439886 0.00007969964187810874
          0.00013020968602108635 0.00020412414912257537 0.00006940161249305299 0.00237147594145888 0.0004654376450498182 -0.00009010382749971568
          0.0002431465042538744 0.0013962278090104696 0.00002078541711908466 0.0004926299182837768 0.0009267789904863766 -0.0002648861891177967
          0.0006537574016829417 0.0012647815891191072 -0.000838843779200904 0.0009074786923450873 0.0017943766329401312 -0.001709384732432151
          0.0008757009508551516 0.0018965286748879318 -0.002994144425561951 0.00033415886211607404 0.001029421159531363 -0.0034648339230449188
          -0.000044786725153955764 -0.00009516735627412842 -0.00002387586192917346 0.00003136012916676867 0.00004147114210570346 0.000009060454853437871
          0.00006827000177050957 -0.0003267942865809448 -0.00019783443218424068 0.00009508379896595864 0.0002079392912923833 0.000008105912901873458
          -0.002237721361731268 -0.00009655940145295028 0.00007035209303773993 0.00021044490113203418 0.0005030386123582586 -0.0002252650274402468
          0.00034286545401529533 0.0007089316606216922 -0.000607421430507793 0.0004861405105118788 0.0008871776732210512 -0.0012314119532852441
          0.00101356961324095 0.0019438181505896934 -0.0016888550799336322 0.0014722626643821068 0.003098636997111659 -0.0013964185835892429
          -0.000026354532327854674 -0.00006633835296149249 -0.0000137253729869391 0.00003799879473136494 0.00003754533125446824 -0.000005461062688588703
          0.000057290065060611184 -0.00003732494071364417 -0.00020982130719106318 0.00003041042137633121 0.00037708842211759894 0.000259049808930073
          0.00022449864285202167 0.000391476972621152 0.00003858180879820483 0.0002854435365495511 0.0005904427364172155 0.000012264877530143714
          0.00045200095915015615 0.0007137234416449978 -0.00022494530857131156 0.0004683761433006417 0.0006766307325698495 -0.0005957836256130777
          0.0012169594114666005 0.002069528043326496 -0.0005824670055309122 0.0025702990893254896 0.004722110443693306 0.0007191083021677591
          -0.000012338668123862417 -0.00004347666385767779 -0.00002676632853287897 0.000042585928411595364 0.00003646349717121439 -0.000006759900011560349
          0.00006365970307201096 0.00009192121550454999 0.000011397397237267182 0.00011115897333245639 0.00026770924769497356 0.0000994066800538429
          0.00013893806155922464 0.0003310359866783349 0.00021978376996877047 0.00016746777670531565 0.0003340183881053449 0.00020295264372854893
          0.00042720470920043496 0.0005763630079157755 0.000055827073400738225 0.000519034726882861 0.000565556133457018 -0.0001836156506677955
          0.0012805843103500525 0.002110768148976483 0.00028716524354321926 0.002064906132281538 0.0037824870304122224 0.0014613450156811814
          9.936748168737353e-8 -0.00003555325394183351 -0.00005275732678469702 0.000028002266311992485 0.00004643283397087056 -0.00000884267077760903
          -0.000012071041081404554 0.00011088579895125739 0.00006323792054141464 0.000073084781089236 0.00017436913968806034 0.0001898635394756848
          0.0000875993725120705 0.00013750945808298914 0.00025033864021222624 0.000252295419044285 0.0002483783857124347 0.0002922634190686488
          0.0004302365069789038 0.0004638195694901537 0.00022015580746884839 0.0006302429892237893 0.0005765004172942623 0.000045776873225447656
          0.0014985882267571915 0.0023166760534972797 0.0009270791682906288 0.0017567133395085255 0.0030969345216641797 0.0017077192060938051
          -0.000036299697445535406 0.00012900508722057946 -0.0000027856076301180366 0.00003550407455774063 0.00010801224425936728 0.00003378363680531238
          0.000036663135566026434 0.00013766598650194126 0.0001466481628879801 0.00001486404606805547 0.00003230452597485778 0.0002646584214918944
          0.0000460941620254382 -0.000014240752166532616 0.00036502971101141923 0.00013921966891880522 0.00007075888678452491 0.0003679425651140836
          0.0005586650833468987 0.0005166601756922545 0.0002652916527652819 0.0008815556925284018 0.0008668370515065027 0.0002001991088533689
          0.0019188743699137811 0.002768616838628113 0.0012210950102218843 0.0019505970766357308 0.003418595070224781 0.0020567016429580975
          0.00008119577761128705 0.0001787203546632088 0.00003497834142685008 0.00014412182155432163 0.0003231319295511348 0.00024203432469976915
          0.00007882065545783412 0.00015042971298517838 0.00031034522545991816 -0.00004936749848164293 -0.0001698344092540948 0.00038894211251876143
          -0.000060165517462809626 -0.0002794349379287844 0.0004618815156141737 0.00022330320910693424 -0.000046674572109745016 0.0003572408148394268
          0.0005660509291685045 0.00038898781848592523 0.00012103294874205722 0.0012864288524838674 0.0014703934046427919 0.00020456657595301075
          0.002161397208811533 0.003400005008339424 0.001237881232544008 0.0010086846200329375 0.0016746543420853438 0.0008477712509532762
          0.00042759441383860564 0.0007831574773267125 0.00020843265723663462 0.0006818814173406018 0.0011208740770389802 0.00026281885736079147
          0.0002950611537325676 -0.000179310937648558 -0.0003858702015177573 0.0003638087613537788 -0.00024945908245227466 -0.0001732108279157707
          0.0006106623465743921 -0.00019341266517544642 0.00024082445837435296 0.0010140309598158093 0.0004146222957300272 0.001269511272357915
          0.0025587689423418603 0.00359815695004706 0.004068124563946396 0.0021365896220419955 0.003212880759430714 0.003100403034426935
          -0.00012080383815520589 0.0011263005500074079 0.0009482814921319138 -0.00007456991210660902 0.00045339959167367896 0.002170533573838229
          0.002236876996813273 0.00011631694991072472 -0.00035652691758690513 -0.002663336616648637 0.0010925534178863258 0.000421277222690343
          0.0017403115322257162 0.0006776343810946791 0.0029588312248936405 0.0012904838474883558 0.0007500981157889386 0.0005278272359354741
          0.0018798787343670582 0.0003272168769039769 0.0003806930135592766 0.0035757097037583327 0.0007214019905047026 0.0005535038507994416
          0.002401993284618001 0.0002743354128398115 -0.000024531549088380178 -0.0002174871149700497 -0.0002711595205760753 0.003880946593883605
          -0.00007392269846517863 0.00005914962934894241 0.00030468856056332927 0.006799895752188034 0.00034957200286067636 -0.0009118328674465603
          -0.00041192228781594675 0.002238171765714961 -0.00029466313278203593 0.000500649937280162 0.00038232108731314773 0.0012176528298293576
          0.002081353446082084 0.001098916641735892 0.0014643453899985115 0.008024121038431725 0.0031275926688712485 0.0019723765817796224
          0.004821636625598424 0.01326365238599328 0.0019540986646621183 0.0013042070798221228 0.0012771524075457785 0.0009698866682122942
          0.0015869686427212315 0.002996055990588553 0.002613939092076495 0.001977238352892541 0.0031784567904121763 0.0014740275960883065
          0.001417919926103281 0.000624922034237585 0.0011006582436215856 0.0003377840841348734 0.0022528330417558307 0.0016564992301400794
          0.0008729518877965137 0.000050785593169205834 0.004294593372872524 0.0034502905866332367 0.0016676736106303047 0.0004944919900848888
          0.0026487605026520034 0.002510046201574183 0.0019297361443502137 0.000985878890121028 0.002038855267495976 0.0017908112373151985
          0.0036563924170498474 0.0013229052029749694 0.0022620227485220246 0.0008961724268104453 0.0017089876394174586 0.0020017955533926934
          0.00321265840112836 0.0006868515380029638 0.0014243134980226613 -0.0005780025537616452 0.0013277532817553561 0.0013814780236132695
          0.0006715897780790459 -0.000853715008034911 0.0028147300835648856 0.002010997348665791 -0.0015941177851263588 -0.0005483004007660053
          0.0013041342301852998 0.00034266926326817493 -0.0022957355731707957 -0.0001944088111565682 0.00021305219758521732 -0.0008268134396386628
          -0.0006948287151249399 -0.0002312097340669058 0.0010084093618651924 -0.0013312039221181806 -0.0011718454264752487 -0.0009033354612889895
          -0.0002833222905074817 -0.0016806252699853614 -0.0011239568498817715 -0.0003300753469767659 -0.002815798377426626 0.0005551780327715528
          -0.0035748766768029516 0.0009327935227400608 -0.0005666567283499901 0.0008227754118443342 0.0004994101184367036 0.00043665287505245676
          0.0015420651213789577 0.0022800047727516426 0.0016150164424222069 0.0016505041485557204 0.0035803343034923607 0.001380498621059767
          0.0009836904987428896 0.001249570827464186 0.002024269731697309 -0.010118043620467088 -0.005465826141580199 -0.003267757682684419
          0.0004573782954283151 -0.01764300644488448 -0.009796991400047972 -0.005229627031171802 0.0017346540156673654 -0.005050590845308789
          -0.0038372474869122764 -0.0008133925013677629 0.0025105349964538934 0.00010617664910445371 0.00018876169953024186 0.0015959352279689802
          0.00007901567601572429 0.00005953975360427355 0.0004651317317125852 0.0034965735765614785 -0.0001233011416671946 -0.00022292068629173323
          0.0007110066580497953 0.0023521601931929467 -0.0005459616844908574 0.0008763902103050766 0.002537839419904632 0.0017973965715214115
          0.005105682970212404 0.0011221209785178543 0.003041710941890069 0.0013818188258535036 0.0032387120637301925 0.00030254092176415504
          0.0014021240539980606 -0.00010456010811384087 0.0018285730383886811 -0.001532668442328064 0.0013852300114430283 -0.00012622282264251883
          -0.0007695094291569893 0.000795841806836145 0.00038669805236345167 -0.0014546209218238952 -0.00020668204719859196 0.002680151061775604
          0.0018772222935456162 0.0006119830956056171 0.0014264242493888246 0.0014653583585233013 0.004481379578537781 0.005008855534617274
          0.003125817677147119 0.0038028603729706456 0.009473655079202725 0.0096238342424666 0.006961670622410862 0.0030407451544141317
          0.007627659225623307 0.006676533769244486 0.004911377662671343 0.00011992688614581581 -0.0007327391386365845 -0.001002750596523383
          0.0004937958914860152 -0.0010752501596760777 -0.0016492862990393209 0.00017489986360416654 -0.001047603368580119 -0.0009943118902425024
          0.0000739890325744258 0.0026852355763693214 -0.000042351242226179586 0.005042557543508214 0.0005320418266710758 0.0031589340138319932
          -0.000585627957888607 -0.0006106549983611043 -0.001006557790468654 -0.0034485768078500456 0.0020688555700243416 -0.0015811053679994358
          0.0018633897118180975 -0.0002682605554886197 0.002714963849464458 -0.0003381499772339147 0.002106451178425839 0.0017746295629364889
          -0.0024525081002388927 -0.0006201227004747067 -0.00025579443199863494 -0.0018809418453086812 -0.0034017749890992433 -0.0006971456883320126
          -0.0002512536898933715 -0.002538647173509802 -0.001009950887173025 -0.0005971458030547411 -0.0005831284149288019 -0.0006850081662495219
          0.0009189779641281537 0.0037631935644474868 0.0025445767384250917 0.0018285998713882343 0.006629054390768163 0.004774178243035443
          0.0014352450015800433 0.003711068299163678 0.0024911512123655527 -0.0005827780261399573 0.002721157268184893 -0.0008649563224494838
          0.005489275069623295 0.00020075673299366215 0.00354632871679178 0.0034855464236353273 0.0026572760680645124 0.006213685495375348
          0.0049597511311913756 0.003267309783687722 0.00303950831657393 0.003525911842474916 0.0017575217627160133 0.005764796070138578
          0.0036296795588643127 0.0044049810156628205 0.003981629375373719 0.0022096001033591883 0.0008816392116628435 0.004230671563874133
          0.0012837524712942805 0.0032544941934473104 0.0012111122628449267 -0.00023434632130519585 0.001654078503635588 -0.0002780219942549213
          -0.0004315343516456049 0.003306998786072251 -0.0005320854386971843 -0.00016838721780793736 0.0015653016527662957 -0.0001824710129236459
          -0.0003854534960996969 0.0029591530045205428 0.0010120860332475945 -0.00011025037808176652 0.005871986007630836 0.0019455182802975979
          0.0006034740988380138 0.003439257719540234 0.0018193177920097225 -0.0004182090424274254 0.001494059698796124 -0.0010737810277930346
          -0.000469337708124018 0.002593096446764115 -0.0016934406126478674 -0.00043648483398567306 0.0002968837314318573 -0.0006903258050721429
          -0.0007861533173124206 -0.0009332844636631282 -0.00019482695891567293 -2.662949926922342e-7 -0.00004198286475861138 0.0017369062182629527
          -0.00037164131139585596 0.00019702817649882957 0.00007099844851389883 0.0032634198252392034 -0.0007521515672734326 0.00008512252966978544
          0.0001430042577247638 0.0014595637821992573 -0.0003209590338432815 -0.0004475113425091784 0.0016631295833203774 -0.0004412326858765775
          0.003003264290658947 -0.00038360147158635755 0.00007611118496586577 0.0003495845420508348 0.002523864976049686 0.000748614701175411
          0.00502118880181545 0.0003723395079463926 0.0025006157896658547 0.00004354924507965485 -0.003775684981558669 -0.00010069746940882807
          -0.006113324373856588 -0.0008592605163194045 -0.002196370753373089 -0.003802543697437044 0.0070173053887348374 -0.006331056361858822
          0.012365020683103675 -0.0020586986422249653 0.005865013587541601 0.0020742980299712378 0.0036386710036502424 0.0015721925038008912
          0.004524867650655295 0.008238980595578038 0.004728484030517177 -0.000980291189859095 -0.0008398295006683543 -0.0008362234909281285
          -0.0020367420650125867 0.0011533291029707238 -0.0023903668514316245 0.0030684673940375717 0.006024155467332509 0.003576729672940482
          -0.00047708498779991393 0.0014829316814775478 -0.0005659130802529444 0.0008617921859994343 0.001648968680136879 0.0007696102892684499
          0.0025013265405317286 0.0044411108453744075 0.0026270388283414214 -0.0000024162178615116936 -0.00021939718400257324 -0.0003024985850618167
          -0.0006395433304547393 -0.0012757531000839803 -0.0011350249643057309 -0.002448059229133437 -0.004293196583904868 0.00025571847469718634
          -0.004168866683066867 -0.007079248685954777 -0.0030178416720719643 0.0006870908601836201 0.0012737069779016896 0.00014295921474037632
          0.0003081583065524668 0.00019202736359225786 0.00025244289542910095 0.001574202895365309 0.0029270902531430207 0.0010328558784053095
          0.0012766515779656373 0.0027115524103702437 0.0015812261606924505 0.0010125432261129663 0.001793353502741124 0.0014166329652193638
          0.0002226744723374252 -0.00030288067041550626 0.0001094819184520035 0.002355409298060024 0.004521403037383742 0.0023180730251237125
          0.0009939012999530122 -0.00014724581961356176 0.0005950507277602268 0.002332992508829179 0.0023766799853200404 0.0021269496621085238
          0.0028722689109225152 0.003629693837872927 0.0036902738167593485 0.00420011750367566 0.00626772835037076 0.005483908649428937
          0.0012575022535525893 0.0009733381042558165 0.001603982494608469 0.0026505666975693565 0.0004629732803681508 0.004885940715505188
          0.00014616502748232563 0.003130403898358197 0.00025695287533938904 0.0002910617642106761 0.0014406504555642408 0.00039082734309159317
          0.0019768527758721594 0.0015152575475462782 0.003758666213267342 0.0013888935884084908 0.003872739107896761 0.001428213036709175
          0.002549508807769635 0.001214063191423559 0.0025292656929731816 0.0021809044876314326 0.0024331162511533055 0.0013140508710584864
          0.0037522577285022535 0.004557399618358746 0.002198564082981913 0.0035296837626644095 0.006189978447984162 0.003005760643422506
          -0.0006893379788444898 0.002257288355737741 -0.0014380596880165797 0.006165385899330467 0.0008953202241698544 0.004427296026382366
          0.0036317913651517375 0.006064610008255089 0.004338904241574459 0.003221751219577046 0.0027322150696125203 0.003591147172985809
          0.0025524836984078814 0.003376406296553669 0.0030001664478210843 0.004738146470693261 0.0049996363207720496 0.004332142159886754
          0.004174956095955196 0.0035227433735758318 0.0035108143187283503 0.0024273134208065983 -0.000906334481991955 0.001160048859736973
          0.003569913101551636 0.004217786019040881 0.003773018165468711 0.0028482031087834203 0.0022177761841404436 -0.00004614996944996008
          0.0005652519528466238 0.0035336740989872495 0.00024711717184233706 0.0005517032850642922 0.0024821016813662555 0.0019056945867792496
        </DataArray>
        <DataArray type="Float64" Name="resid_z" format="ascii" RangeMin="0" RangeMax="0">
          0 0 0 0 0 0
          0 0 0 0 0 0
          0 0 0 0 0 0
          0 0 0 0 0 0
          0 0 0 0 0 0
          0 0 0 0 0 0
          0 0 0 0 0 0
          0 0 0 0 0 0
          0 0 0 0 0 0
          0 0 0 0 0 0
          0 0 0 0 0 0
          0 0 0 0 0 0
          0 0 0 0 0 0
          0 0 0 0 0 0
          0 0 0 0 0 0
          0 0 0 0 0 0
          0 0 0 0 0 0
          0 0 0 0 0 0
          0 0 0 0 0 0
          0 0 0 0 0 0
          0 0 0 0 0 0
          0 0 0 0 0 0
          0 0 0 0 0 0
          0 0 0 0 0 0
          0 0 0 0 0 0
          0 0 0 0 0 0
          0 0 0 0 0 0
          0 0 0 0 0 0
          0 0 0 0 0 0
          0 0 0 0 0 0
          0 0 0 0 0 0
          0 0 0 0 0 0
          0 0 0 0 0 0
          0 0 0 0 0 0
          0 0 0 0 0 0
          0 0 0 0 0 0
          0 0 0 0 0 0
          0 0 0 0 0 0
          0 0 0 0 0 0
          0 0 0 0 0 0
          0 0 0 0 0 0
          0 0 0 0 0 0
          0 0 0 0 0 0
          0 0 0 0 0 0
          0 0 0 0 0 0
          0 0 0 0 0 0
          0 0 0 0 0 0
          0 0 0 0 0 0
          0 0 0 0 0 0
          0 0 0 0 0 0
          0 0 0 0 0 0
          0 0 0 0 0 0
          0 0 0 0 0 0
          0 0 0 0 0 0
          0 0 0 0 0 0
          0 0 0 0 0 0
          0 0 0 0 0 0
          0 0 0 0 0 0
          0 0 0 0 0 0
          0 0 0 0 0 0
          0 0 0 0 0 0
          0 0 0 0 0 0
          0 0 0 0 0 0
          0 0 0 0 0 0
          0 0 0 0 0 0
          0 0 0 0 0 0
          0 0 0 0 0 0
          0 0 0 0 0 0
          0 0 0 0 0 0
          0 0 0 0 0 0
          0 0 0 0 0 0
          0 0 0 0 0 0
          0 0 0 0 0 0
          0 0 0 0 0 0
          0 0 0 0 0 0
          0 0 0 0 0 0
          0 0 0 0 0 0
          0 0 0 0 0 0
          0 0 0 0 0 0
          0 0 0 0 0 0
          0 0 0 0 0 0
          0 0 0 0 0 0
          0 0 0 0 0 0
          0 0 0 0 0 0
          0 0 0 0 0 0
          0 0 0 0 0 0
          0 0 0 0 0 0
          0 0 0 0 0 0
          0 0 0 0 0 0
          0 0 0 0 0 0
          0 0 0 0 0 0
          0 0 0 0 0 0
          0 0 0 0 0 0
          0 0 0 0 0 0
          0 0 0 0 0 0
          0 0 0 0 0 0
          0 0 0 0 0 0
          0 0 0 0 0 0
          0 0 0 0 0 0
          0 0 0 0 0 0
          0 0 0 0 0 0
          0 0 0 0 0 0
          0 0 0 0 0 0
          0 0 0 0 0 0
          0 0 0 0 0 0
          0 0 0 0 0 0
          0 0 0 0 0 0
          0 0 0 0 0 0
          0 0 0 0 0 0
          0 0 0 0 0 0
          0 0 0 0 0 0
          0 0 0 0 0 0
          0 0 0 0 0 0
          0 0 0 0 0 0
          0 0 0 0 0 0
          0 0 0 0 0 0
          0 0 0 0 0 0
          0 0 0 0 0 0
          0 0 0 0 0 0
          0 0 0 0 0 0
          0 0 0 0 0 0
          0 0 0 0 0 0
          0 0 0 0 0 0
          0 0 0 0 0 0
          0 0 0 0 0 0
          0 0 0 0 0 0
        </DataArray>
        <DataArray type="Float64" Name="stress_zz" format="ascii" RangeMin="-78066000.61708578" RangeMax="112591798.2925047">
          299900.9399711042 187488.8805560925 171259.5375482978 93553.74533281798 42618.13512549143 -381.3898904565485
          811683.367005992 615402.6076534643 495855.46746950113 371429.12820880394 180027.56793301034 127455.64876414358
          1954155.7249520998 1829381.4639984393 1251765.956323088 1133136.173597556 549376.187694076 436890.88319667266
          2851466.759867903 3656118.405311919 1749254.134328093 2382310.767291608 647041.5087882834 1108503.1292712968
          -361549.046872991 732315.9248112263 -525797.5472022538 345873.48224729754 -690046.0475315165 -40568.96031663101
          -4078271.3554500416 -4169085.0612599496 -3013508.008388101 -3119197.972209575 -1948744.6613261597 -2069310.8831592007
          -3904834.9560019793 -4708503.806044312 -2907807.0577911227 -3575283.536245793 -1910779.1595802652 -2442063.266447275
          -2279595.3893981865 -3464804.0321101607 -1029717.3883681382 -2182766.988956028 220160.6126619106 -900729.9458018958
          857145.4525448462 594843.7737586943 318577.4307076128 -97461.13126756926 -219990.59112962094 -789766.0362938328
          16460731.76015327 7791253.132190317 11239954.690323563 3388696.5238124537 6019177.620493857 -1013860.0845654095
          640098.7758112948 401001.5006015701 161904.22539184548 1308975.046102045 835740.1086874693 362505.1712728933
          1967179.8579001864 1280693.4015121057 594206.9451240248 506798.1355162506 11454.273965956992 -483889.58758433664
          -2620409.1703535635 -2187461.8584200623 -1754514.546486562 -3290382.903882857 -2347687.95092296 -1404992.9979630632
          -1657984.2877208614 -1013921.1571508779 -369858.02658089425 229346.49055998796 1364681.054618077 2500015.618676165
          1191393.5175201853 995728.996998851 800064.4764775163 -793951.833465854 -3839161.0194307696 -6884370.205395684
          1137599.7295851375 747395.3471279563 357190.9646707753 1705651.6201078205 1106300.2043975263 506948.7886872323
          835569.9937881259 266277.6167932277 -303014.7602016707 -2534134.5947950818 -2211888.3549999823 -1889642.1152048828
          -3844522.230178409 -2865491.155255853 -1886460.0803332978 -1502646.8792906485 -915532.8501077485 -328418.82092484843
          1237515.594475984 1470267.2871349477 1703018.9797939113 2765855.0340508893 3673501.1342123365 4581147.234373783
          -272871.1631142653 -32369.962221416237 208131.23867143271 -3329198.9562786226 -4210318.93579474 -5091438.915310858
          1457589.0934897475 947379.0415470034 437168.9896042595 1012954.1343822544 382894.93294367136 -247164.26849491178
          -2170132.5555779277 -2047988.362674815 -1925844.169771702 -4902594.308870583 -3682035.057559588 -2461475.806248593
          -3080861.9814645005 -2075559.116606876 -1070256.2517492515 559506.7512354336 756651.5221935809 953796.2931517282
          3798024.344086199 3678575.303962603 3559126.263839008 4599379.333508722 5165512.734059867 5731646.134611012
          -1366080.378924355 -1092979.3231468587 -819878.2673693621 -7994142.000251693 -8859800.211497923 -9725458.422744155
          562568.0549939875 167375.62900897957 -227816.7969760283 -2382371.6327621853 -2091256.7520658225 -1800141.8713694597
          -6043958.410869561 -4412715.666365332 -2781472.9218611023 -5491997.392429915 -3675169.363892375 -1858341.3353548357
          -1652627.5671686835 -847465.61621162 -42303.665254556865 2101971.735548138 2086518.9891143567 2071066.2426805752
          5477142.897467451 5075953.072036032 4674763.246604612 5630068.570515247 5623824.165075492 5617579.759635737
          -564094.2490096735 -944114.7374936492 -1324135.2259776252 -11462148.981776822 -12889881.876386018 -14317614.770995213
          -3455757.730560987 -2544337.213873545 -1632916.6971861024 -7738384.212759965 -5336841.556799131 -2935298.900838297
          -8504987.282889444 -5590056.764873337 -2675126.2468572296 -5118853.411766904 -3095405.574443831 -1071957.7371207578
          -931993.5609320736 -67770.37607666873 796452.8087787359 2916404.016351036 2840838.6750580147 2765273.3337649936
          6252458.387740865 5570929.022814348 4889399.657887831 6265442.764929722 5390476.78578367 4515510.80663762
          1073637.8772662329 -373821.4968882138 -1821280.8710426604 -2698452.0043151877 -5444622.7639019 -8190793.523488611
          -9056730.158377895 -6235651.637558767 -3414573.116739638 -11084070.36378647 -7500530.595915714 -3916990.8280449584
          -8951981.929037651 -5916638.477263933 -2881295.0254902146 -4867412.293855449 -2919919.394540406 -972426.495225363
          -626822.742075309 178735.35561330925 984293.4533019275 3330225.209077132 3075197.0460716714 2820168.883066209
          6433994.340651773 5389133.996249108 4344273.651846442 6973854.44223634 5161286.814371895 3348719.1865074504
          4643888.225246609 2093318.8729354194 -457250.47937577026 2933403.774762163 211329.96579389382 -2510743.843174375
          -10475522.580496173 -9025447.317573711 -7575372.054651247 -9242681.110726332 -8644973.040012455 -8047264.969298576
          -5930148.989037717 -6388274.595414981 -6846400.201792244 -2044250.4655780592 -3301144.7369548287 -4558039.008331599
          1514908.0665056575 -134825.85843731475 -1784559.7833802868 4556020.574510438 2910473.812219656 1264927.0499288733
          6320372.734493026 5157039.377738325 3993706.0209836257 6551523.863203555 5897628.502264526 5243733.141325496
          6671365.937131882 6813961.615995704 6956557.294859526 4056171.7032271917 5737360.797183692 7418549.891140192
          -1881475.0338419036 -4622993.94040357 -7364512.8469652375 759488.3923285591 -2189787.3420672785 -5139063.0764631145
          2860579.2779801334 286722.6463052744 -2287133.985369585 4445128.283253065 2714771.3951113713 984414.506969677
          4861286.050951184 4474448.322135142 4087610.5933191003 4231906.402238069 5064034.853816706 5896163.305395342
          6625373.423553163 9044062.12421331 11462750.824873455 7231023.173092309 10499263.037160289 13767502.901228268
          14917207.565184813 -346731.13078025077 3578210.556083981 10581649.149459345 10559304.71321268 -1809837.2802397048
          341924.16527566704 6848154.409067225 6201401.86124055 -3272943.429699158 -2894362.2255326468 3114659.6686751037
          19707823.973044083 12396383.05688464 11386125.451335669 8689603.673207186 3064426.9296272527 4982824.2895297315
          23609777.293228142 23507830.155209105 31735692.750983056 16131475.225030582 15048763.071385201 26804675.64703826
          8653173.156833017 6589695.987561291 21873658.543093465 22524684.2611862 11369816.052505452 50629849.03528492
          28666368.78092935 17871054.980578467 8975682.579301024 43306949.60426737 22766634.072623014 13217425.699970737
          6581549.106096597 35984050.173249826 16866899.364316683 -27895516.768642243 -47944438.87513417 -51713502.09743538
          -64905353.83057681 -6176671.228350891 -31253162.427022465 -31165742.696274735 -44056661.38594167 15542174.311940461
          -14561885.978910763 -10617983.295114087 -23207968.941306524 515899.5020732046 -2203626.5884921025 15548615.704586472
          3674957.4912960366 1804505.1182768848 -1477169.690135143 14464456.395950228 3182778.2812199974 3093110.7344805654
          -750712.7917781835 13380297.087313985 2690599.071143958 -10941101.655065285 11308585.369834177 -6185668.96102636
          -16118147.535195759 -6778766.760821774 15838683.456287693 -3819118.482582883 -12208787.015861433 -2616431.8665782614
          20368781.54274121 -1452568.0041394061 -8299426.496527107 6394744.972051759 5688518.251238475 8958360.944288258
          4138007.831374659 11521976.916524753 2587497.411510844 16407803.667322494 3204585.24959753 15069024.633771984
          855949.5272674067 13730245.60022147 -1492686.195062716 156735.45426707342 14127294.595832508 11362610.988776937
          -47257783.073937185 3920704.6079125665 7455355.462986595 -8857755.046646463 -34191645.38924993 7684673.7615580605
          783416.3301406782 -29078121.082069863 -21125507.704562683 22950278.204682432 28625690.389253803 26032664.364847496
          16531806.67527785 16093993.441189902 22690798.761987835 20324587.447823934 11222380.106634146 9237708.677697368
          16755907.134721871 14616510.530800369 5912953.53799044 -27198345.229848433 -6508029.050616881 -27768298.724489015
          -10839783.627960837 -28338252.219129592 -15171538.205304805 32367.954464450246 -1762851.929754228 3742764.571412088
          5161650.933778617 -2415122.2363866162 -2323987.451134617 2793726.990910028 3020196.597239635 -4862612.427237682
          -2885122.972515004 1844689.4104079679 878742.2607006526 66639005.10299252 112591798.2925047 28893031.01503883
          33365430.44725714 49319140.344393015 97459036.74844159 26179774.254387785 24761976.314254485 31999275.585793518
          82326275.20437849 23466517.493736744 16158522.181251839 33899945.277983196 28438357.321897835 32611978.94461872
          43029588.220315725 9081065.54879584 2690618.2431404223 19890601.95877477 27610433.259075504 -15737814.18039152
          -23057120.83561699 7169224.9729308225 12191278.297835281 8128220.13529143 -5358912.670965285 13849154.120532379
          -1209444.8438858448 19570088.105773333 2940022.983193597 6249171.079494303 3876046.8251059293 1502922.5707175557
          -7928604.076679598 -10460538.33771993 -1868359.9285094962 -12524994.374867186 4191884.2196606062 -14589450.412014443
          -30555160.705817346 -41573599.21736207 -16997844.427211378 -30937305.20905785 -32806134.156277318 -19605537.00460731
          -31319449.712298356 -24038669.095192567 -22213229.58200324 -9405413.035542069 -18258176.816597074 24441129.862777784
          18227962.34910819 -18988473.932748877 -25182546.340593215 23204186.774610758 12834226.503643684 -28571534.82995569
          -32106915.864589356 21967243.686443727 7440490.658179182 30469293.475172732 20493748.55381704 28578503.51892829
          23873091.77263569 13474334.83514851 20143541.217731256 17276890.070098653 6454921.116479977 11708578.916534225
          4924976.6803103 -4563222.408795875 7551360.454638834 -6692472.897746772 10177744.228967369 -8821723.386697669
          -64969901.55051143 -74958758.06598157 -42184946.01141287 -68778216.5236739 -19399990.472314302 -62597674.981366254
          -47062976.48378351 -33853821.48400425 -25396158.41911453 -25513111.19492342 -3729340.354445547 -17172400.905842576
          51245685.95440441 58336864.08182607 46688751.2981441 34901580.030740306 47569164.56887683 52226488.81266439
          40086134.25851379 30488104.624181032 43892643.18334925 46116113.5435027 33483517.21888348 26074629.217621766
          -6432633.939837839 5221873.154158835 1751338.8006170825 -4324114.4703285545 3894256.8753276966 -380167.4531660257
          -2215595.0008192677 2566640.5964965587 -2511673.7069491358 -14443601.974984437 -6495148.752940803 -14192909.838252528
          -7725434.746419017 -13942217.701520618 -8955720.739897233 -5043682.893436802 -1244596.5925489422 -3117227.2515757196
          -455418.70080378884 -1190771.6097146384 333759.19094136823 -20737643.530291215 -33328153.538470507 -15241887.075726002
          -34612811.89939165 -9746130.621160783 -35897470.260312796 -21434110.447841324 -15865240.215389179 -16678353.983888762
          -9586019.294426613 -11922597.519936202 -3306798.3734640423 26003104.357245333 15333087.536646798 16677208.200014472
          15713500.992233291 9511678.387975153 10235911.672217207 5423897.627221252 3690269.2393035083 3794615.1444199425
          -3713513.084072484 -5315901.50094629 712866.8594073276 -3070512.183241588 -3242171.024622864 7273302.985458619
          -2427511.282410692 -1168440.5482994393 13833739.111509908 18540701.797066316 19231554.25511676 5573093.901766246
          14147903.018169926 18197230.726310454 2774980.288764183 9755104.239273533 17162907.197504144 -23133.324237880763
          22911608.291683022 22680327.802290995 22449047.312898967 5021313.167156662 5310994.193942864 2601790.417105222
          -81419.05832542502 2139723.423654686 2781463.4445174183 539897.740324379 -2294036.0952793257 -741866.3198472894
          251932.6950919723 -1521994.936456464 -4506653.132233227 38535308.08501982 6685842.507624745 34398465.50615323
          1917372.7925997889 30261622.927286636 -2851096.922425166 10013658.65204997 10469700.726073343 6164969.813129426
          5720765.515941678 2316280.9742088835 971830.305810013 41782249.025222436 -12943838.668802556 35896158.3240532
          -12924236.792264894 30010067.62288397 -12904634.915727224 67317032.38044128 -21788660.775095988 57430326.53582667
          -24174795.061317425 47543620.69121206 -26560929.347538862 7257611.293106546 4665151.712247351 2072692.1313881562
          -121131.41019567195 1100651.568518788 2322434.5472332486 16226335.456443857 7252771.693668644 26534453.97165758
          782521.9278591027 36842572.4868713 -5687727.8379504355 -8518617.701161757 -1932847.7922707207 4652922.116620318
          -51571451.53724022 -40079523.292852506 -28587595.048464805 37467429.67811474 26962241.256267633 16457052.83442052
          -15165306.009266037 -12247992.863563847 -9330679.717861658 3438120.2124324767 1605888.504697134 -226343.20303820912
          -78066000.61708578 -67192614.73896344 -56319228.86084108 38993041.04126241 30820070.820622835 22647100.59998326
          70367844.58103082 61766509.07058896 53165173.56014711 2347645.7844392154 -3306334.4079125104 -8960314.600264236
          701022.5541712143 -1077962.1201580733 -2856946.794487361 24492572.406247977 -1844670.4815033935 -28181913.369254764
          1980899.5314248404 1906359.155078544 1831818.7787322477 4098508.6818039655 4678538.7981216265 5258568.914439289
          2736198.21498111 2816248.232005718 2896298.2490303265 3627082.1223853114 4156985.798518385 4686889.474651457
          3027551.4468022916 3212804.4082641024 3398057.369725913 2453035.7718951823 2730356.0536500444 3007676.335404907
          1348155.1591922808 1176445.459016037 1004735.7588397933 2311239.0930660316 2152701.874565594 1994164.6560651571
          3745427.5983323315 3636726.9249561727 3528026.2515800158 949485.1298247353 -2602641.2913123844 -922705.7182211581
          -4010078.346791912 -2794896.5662670517 -5417515.402271438 -1787818.6057266323 -742877.2001029046 1432249.6500937399
          -2655608.048792331 -1671136.3776447352 -1031838.0697395883 1247041.8814698162 -2618627.943993252 -1554454.149562838
          -1320798.9393762723 1061834.1128458923 -2581647.839194172 3338628.3442080286 2567752.0932881422 1796875.8423682563
          1265757.0262474185 1326183.091636178 1386609.1570249377 1659651.3803453771 1193763.4557127783 727875.5310801795
          2867447.5677047037 4232462.469931318 2645255.04681067 4009112.981986798 2423062.5259166355 3785763.4940422773
          2336690.4235374737 2672552.6869273633 3008414.950317253 616387.3501898358 423097.26963648456 229807.18908313342
          114054.31781830359 138139.62585754506 162224.93389678677 -2535453.2871196805 -3057869.713319185 -3580286.139518691
          -3547101.0208856636 -4269809.770533373 -4992518.520181082 1107559.9854857125 1146828.785502713 1186097.5855197136
          2520401.3051664964 2738911.1832434568 2957421.061320417 1653516.2268885435 277196.3791268412 796265.0045933696
          1509063.3216854183 -80604.58604684152 585287.3642265591 1364610.4164822937 -438405.55122052424 374309.7238597487
        </DataArray>
        <DataArray type="Float64" Name="peeq" format="ascii" RangeMin="0" RangeMax="0.04400765972895745">
          0 0 0 0 0 0
          0 0 0 0 0 0
          0 0 0 0 0 0
          0 0 0.0000010286899748525368 0 0.0000020573799497050736 0
          0.00006164080329942664 0.00003926534909898708 0.00008774064259141253 0.00006313637898933017 0.00011384048188339841 0.00008700740887967326
          0.000488800404215274 0.00042146662318126896 0.0005547578906989895 0.0004886227553023062 0.0006207153771827052 0.0005557788874233436
          0.0016721077089536616 0.0015749615532855987 0.0017489169434645648 0.0016579532688842133 0.0018257261779754679 0.001740944984482828
          0.00399146192373232 0.00390117421573525 0.004011677931591661 0.0039263338968416606 0.004031893939451004 0.003951493577948072
          0.00835000803213361 0.008420320789679251 0.008183307861948565 0.008238591059608762 0.00801660769176352 0.008056861329538274
          0.014373857579730148 0.013933710258580428 0.013891067716011599 0.013463425568826803 0.013408277852293048 0.012993140879073177
          0 0 0 0 0 0
          0 0 0 0.0000058018937990995335 0.000013112933800066713 0.000020423973801033894
          0.00014189821820100677 0.00017621413643407357 0.00021053005466714037 0.0006943001244390504 0.0007550938689860425 0.0008158876135330347
          0.001953898547621095 0.0020128593018936313 0.002071820056166168 0.004242929614792866 0.004249775704591353 0.00425662179438984
          0.008150646322762217 0.008021198721377435 0.007891751119992655 0.012708765077169771 0.012392925678767555 0.012077086280365341
          0 0 0 0 0 0
          0 0.000002461182968245952 0.000004922365936491904 0.00004293501007520245 0.00006411989607204976 0.00008530478206889706
          0.0003152294933598875 0.0003606739925301493 0.0004061184917004111 0.001036603787307049 0.0010862283563112174 0.0011358529253153859
          0.002388072010277954 0.002420501486467377 0.0024529309626567996 0.004601871321207241 0.004589424245668244 0.0045769771701292495
          0.0078455624410127 0.007763250713384395 0.007680938985756091 0.011302041292983428 0.011177488760321477 0.011052936227659526
          0 0 0 0 0.0000014523973943413222 0.0000029047947886826445
          0.000012154526201805723 0.000028172016555435836 0.000044189506909065945 0.000153746802164561 0.000195155181286945 0.00023656356040932904
          0.0006117355626800254 0.000660843589922957 0.0007099516171658885 0.0014981648407503265 0.0015300862691103726 0.0015620076974704187
          0.002919975993285793 0.00292192179346879 0.0029238675936517867 0.004984946610223322 0.004951052336820416 0.00491715806341751
          0.0074731671278795144 0.0074342542777287605 0.0073953414275780074 0.009169521191689237 0.00919677056980779 0.00922401994792634
          0 0.0000016205987776713658 0.0000032411975553427317 0.0000048701234545269095 0.000018996494933923773 0.00003312286641332064
          0.00008136028243485498 0.00012123466064696422 0.00016110903885907345 0.00038624711176945094 0.0004396184226500885 0.0004929897335307261
          0.0010311315875715097 0.0010703295529742773 0.0011095275183770448 0.0020468553607822446 0.00205519941624417 0.0020635434717060945
          0.0034789555096165904 0.003451401538645718 0.0034238475676748453 0.005299038699443008 0.005248485978940454 0.005197933258437899
          0.007034271839347047 0.007027468979059218 0.0070206661187713895 0.007741986242261527 0.007856323239810137 0.007970660237358748
          0.000004661091501615345 0.000015460439678966478 0.000026259787856317607 0.000058728955666211034 0.00009133196234701322 0.0001239349690278154
          0.0002746907123107387 0.0003219689178679648 0.00036924712342519103 0.00076175966208998 0.0008009259371146585 0.0008400922121393371
          0.0015539321984681996 0.0015672342905410615 0.0015805363826139234 0.002639474410313608 0.002618987112449907 0.002598499814586206
          0.0039887941180178355 0.003938692383987755 0.0038885906499576744 0.005462824813196977 0.005410451367349762 0.005358077921502545
          0.006488484536312396 0.006512263380391439 0.006536042224470483 0.006497397014680827 0.006664020851311687 0.006830644687942544
          0.00005693212871806637 0.00007336094446060592 0.00008978976020314546 0.0002348129716101164 0.0002590726211535062 0.00028333227069689596
          0.000622885790645047 0.0006386495985973176 0.0006544134065495881 0.0012647343260881983 0.0012595478675692367 0.0012543614090502755
          0.002150560097164105 0.0021199182630363246 0.0020892764289085443 0.0032236487617443646 0.0031714125058265796 0.0031191762499087937
          0.004381195928133727 0.004323244856814072 0.004265293785494418 0.005420041401152406 0.005391869802386112 0.005363698203619818
          0.005821164632269028 0.0058889580965536025 0.005956751560838176 0.005332632379662248 0.0055282617562959074 0.005723891132929567
          0.00020969647987894772 0.0002167590183106866 0.00022382155674242543 0.0005442523748508355 0.0005398230149154284 0.0005353936549800213
          0.0010898656924352764 0.001064774344578905 0.0010396829967225332 0.001846688120307029 0.0017990782602616366 0.0017514684002162444
          0.00276195136979334 0.0026976354620334994 0.0026333195542736602 0.0037339979949651187 0.003666894509003701 0.003599791023042285
          0.004608761325031905 0.004561884007730533 0.004515006690429161 0.005166431017497149 0.00517371298454698 0.005180994951596812
          0.005049325171641837 0.005147784428562256 0.0052462436854826735 0.004259638604451445 0.004439427487289093 0.004619216370126741
          0.0016437976168059256 0.0016133532137225107 0.0015829088106390956 0.0024307549589754483 0.002386090890538399 0.0023414268221013507
          0.0032782929638207167 0.0032264663144951087 0.0031746396651695014 0.004060706481273395 0.004014037685553933 0.0039673688898344715
          0.004609410776913007 0.004584591691340278 0.004559772605767549 0.004719757403905889 0.004737131550682757 0.004754505697459624
          0.004182778435956681 0.004253154269952664 0.0043235301039486465 0.003288340324590068 0.0033974461877012523 0.0035065520508124354
          0 0 0 0 0.0004214478726924125 0.001072590819035446
          0.000007036293795845696 0 0.000842895745384825 0.002145181638070892 0.000014072587591691392 0
          0 0 0.00012114051787522787 0 0.00024228103575045574 0
          0 0 0 0.00027757157604378104 0.00003733473050451098 0.00012099967038415829
          0.0005551431520875621 0.00007466946100902196 0.00024199934076831657 0.020263246405065122 0.01849834270944891 0.023927540961359975
          0.023966183634026413 0.019539679892444616 0.018067828543065653 0.023109873451918683 0.022977482416139776 0.018816113379824112
          0.01763731437668239 0.022292205942477383 0.021988781198253145 0.005737172706067745 0.003457914966060206 0.003929918287846354
          0.004775731194010049 0.007755789308362588 0.005061769411714219 0.006340274681477547 0.0070960092023534755 0.009774405910657431
          0.006665623857368233 0.008750631075108739 0.009416287210696903 0.011491432412938065 0.011442774343476278 0.013995992110546078
          0.013483256617107336 0.011494604849335024 0.011556760482335053 0.01386931367039835 0.013300473671589593 0.011497777285731987
          0.011670746621193828 0.013742635230250624 0.013117690726071852 0.00512495400142241 0.005808452714442532 0.0038978328784973993
          0.002917062373714688 0.005547456278369589 0.006160813214799023 0.004216318899684039 0.0032828962558729196 0.005969958555316767
          0.006513173715155516 0.00453480492087068 0.003648730138031151 0.003336850330986288 0.004348218633406554 0.0035382970488757525
          0.0046072813465979166 0.0037397437667652175 0.004866344059789279 0.016210884619033094 0.014569663189949447 0.015856152163005992
          0.014497872406378488 0.015501419706978893 0.014426081622807528 0.000007264178620147327 0 0
          0.00035593084216720513 0.000590378077424933 0.00047844781729246906 0.0005565711305669099 0.001775020114896361 0.0011734919762297186
          0.0009568956345849381 0.0011131422611338198 0.0031941093876255173 0.0179935396034894 0.017831261203167956 0.021638916872324554
          0.020223851728990015 0.01728857171868705 0.017150456254240373 0.020696266787609142 0.019358832433553293 0.0165836038338847
          0.016469651305312798 0.019753616702893724 0.018493813138116575 0.019062562526329957 0.025918883277054567 0.01869526682130281
          0.025117356742107227 0.018327971116275665 0.02431583020715989 0 0.00002698870691333215 0
          0 7.24801616625524e-7 0.000034632857981452435 0 0 0.000001449603233251048
          0.000042277009049572725 0 0 0.035677016282770195 0.04323265954625075 0.040728950965238375
          0.03184590388404686 0.034583071889620835 0.04145865170190291 0.03897122210537096 0.03096413488300967 0.03348912749647148
          0.039684643857555074 0.03721349324550355 0.030082365881972484 0 0 0
          0 0.0007713887970630779 0.0007973612367663793 0.0005517357550557048 0.000511488572265624 0.0015427775941261558
          0.0015947224735327586 0.0011034715101114097 0.001022977144531248 0.007124594339070496 0.00707851837321571 0.00747015308512193
          0.007497181601814864 0.00781571183117336 0.007915844830414019 0.01628955030853902 0.015818995378349424 0.015348440448159828
          0.00011971590879007096 0.00017581621028966694 0.0018978468362642572 0.0031214083507684304 0.0036759777637384436 0.0060670004912471934
          0.002008299758851114 0.001232293335619557 0.000053052332444966134 0.005032553916140333 0.00322282257845157 0.0014499072058731805
          0.008056808073429554 0.005213351821283584 0.002846762079301395 0.00901689156324852 0.0077930099230836426 0.01534569078252927
          0.014319465573987694 0.009663447974212884 0.00889491543512097 0.016298532511839735 0.014454204311465888 0.010310004385177247
          0.0099968209471583 0.017251374241150204 0.01458894304894408 0.023364995399080636 0.025073127330074756 0.027173445489005032
          0.02226562688516053 0.023899805279129258 0.025778937283932005 0.02116625837124042 0.02272648322818377 0.024384429078858978
          0.0027605733656789026 0.005504975710280356 0.00297544689706014 0.005780580516217625 0.0031903204284413774 0.006056185322154894
          0.0038820462540669564 0.004332847371468879 0.005329067631317162 0.005995805713916398 0.006776089008567368 0.007658764056363916
          0.0024872479241385 0.0009681692411577531 0.0030307735791639946 0.0013667227213446764 0.00357429923418949 0.0017652762015315992
          0.036729904642108846 0.03524547415427285 0.0391491321877168 0.04021100910913656 0.03453234540648297 0.03327081461128344
          0.037098857753146725 0.037955704410901195 0.0323347861708571 0.03129615506829402 0.03504858331857665 0.03570039971266582
          0.009046688425063718 0.008992349487293664 0.011632462890067636 0.009346946762697669 0.009459004204504826 0.01187741351095351
          0.009647205100331622 0.009925658921715985 0.012122364131839388 0.00007580074157537402 0.0000038200719067886745 0.00019661759037533104
          0.00009255305138829949 0.00031743443917528805 0.0001812860308698103 0.00891921884680272 0.0069945573369443745 0.009104806951107342
          0.007240968142919659 0.009290395055411963 0.007487378948894945 0.005222668138880824 0.0059122856150246985 0.0057372093322387826
          0.006595679982633653 0.006251750525596741 0.007279074350242609 0.0025860325501405688 0.0011709881408016071 0.00302564942297213
          0.0014357250994869828 0.003465266295803691 0.0017004620581723584 0 0 0
          0.000005681076951731729 0 0 0.000011362153903463459 0 0
          0.0015115577129247494 0.0006085043011188438 0.0016341434571961215 0.001621975668675154 0.000683092067607323 0.0018344340575199476
          0.0017323936244255588 0.0007576798340958022 0.0020347246578437733 0.028321583977404564 0.031784001889376176 0.031648948617767285
          0.02686894545615203 0.030030405426934637 0.029852484366229837 0.025416306934899505 0.028276808964493094 0.02805602011469239
          0.03363915011310924 0.03167152398820859 0.02970389786330795 0 0 0
          0 0 0 0 0 0
          0 0 0 0.02817984127080762 0.03182803226387283 0.02687698956001524
          0.030333167834480042 0.025574137849222873 0.02883830340508726 0 0 0
          0 0 0 0.04262661486781847 0.03474467806052668 0.04067682311719678
          0.03324470179776471 0.03872703136657509 0.03174472553500274 0.021657752037395363 0.024437828089551333 0.02146822832852845
          0.024827242197326942 0.021278704619661536 0.025216656305102548 0 0 0
          0.0024042635241631324 0.002526836926563359 0.002649410328963586 0.011916509074238512 0.008109528189846208 0.013930245118878491
          0.01019282146944339 0.015943981163518472 0.01227611474904057 0.0024467437315594215 0.0027350906874429224 0.0030234376433264224
          0.0018048133312465048 0.0037892269673041054 0.005773640603361705 0 0.000005681076951731729 0.000011362153903463459
          0.00028352238898090795 0.0003878198532248702 0.0004921173174688325 0 0 0
          0.002312477514455304 0.003967610334206367 0.005622743153957431 0.021663513761668623 0.022660304794454494 0.023657095827240373
          0.04400765972895745 0.04196457044395237 0.03992148115894728 0.017612456360856205 0.01693927222986644 0.016266088098876676
          0 0 0 0 0.0005198004495949076 0.0010396008991898152
          0.002960691369008223 0.0029427854333061716 0.0029248794976041203 0.003335368864491102 0.0033302746607156326 0.003325180456940163
          0.003611669948432804 0.0035925650937692244 0.0035734602391056455 0.0036937276965388443 0.003689723652863754 0.0036857196091886636
          0.004108114859159329 0.0040925113001327425 0.004076907741106155 0.0042991492939325505 0.004292764554939764 0.004286379815946978
          0.004020912263293552 0.004030340805842663 0.004039769348391774 0.003161343483907409 0.0031863808633532803 0.0032114182427991507
          0.0018595203937806584 0.0018925057266656032 0.0019254910595505477 0.0016583908290989397 0.0009049491215748582 0.0017221787989897196
          0.0009473154979860937 0.0017859667688804998 0.0009896818743973293 0.00017279610426010979 0.00000693469248655707 0.000017379349108935473
          0.00028487564633648403 0.0001748325329284148 0.000007453858868935946 0.000018973885979380897 0.00029985647951669635 0.00017686896159671987
          0.000007973025251314823 0.00002056842284982632 0.0003148373126969086 0 0 0
          0.0005989925060783621 0.0006078041461932284 0.0006166157863080946 0 0 0
          0.003460213687218348 0.003420603181328075 0.0034573988421479555 0.0034156883318701616 0.0034545839970775635 0.003410773482412249
          0.0038335686897461377 0.0038316812161889304 0.003829793742631723 0.003254210064252215 0.003254349695369021 0.0032544893264858273
          0.0036468467947754057 0.003648388368147638 0.0036499299415198704 0.00304969019310862 0.003055998566753518 0.003062306940398416
          0.0020686885229872004 0.002077200688176238 0.0020857128533652764 0.0010197623270698291 0.0010239994330028936 0.0010282365389359582
          0.00028683226153323647 0.0002875151439338879 0.0002881980263345392 0 0.000009296206610121517 0.000005864048929077933
          0 0.0000096619041803417 0.000006053145112323163 0 0.000010027601750561886 0.000006242241295568394
        </DataArray>
        <DataArray type="Float64" Name="pe11" format="ascii" RangeMin="-0.00190258528105721" RangeMax="0.04321471460758676">
          0 0 0 0 0 0
          0 0 0 0 0 0
          0 0 0 0 0 0
          0 0 0.000001011496327169125 0 0.00000202299265433825 0
          0.000060312548177223606 0.00003843203065451189 0.00008534555862214278 0.00006132049873649059 0.00011037856906706197 0.00008420896681846928
          0.0004754286105798984 0.00040954688310281944 0.0005362501690592362 0.00047148285015162505 0.000597071727538574 0.0005334188172004306
          0.0016144691321373786 0.0015183682826379861 0.0016789839149251363 0.0015884376393116334 0.001743498697712894 0.0016585069959852805
          0.0038179188417938772 0.0037215894928313287 0.003821356314216224 0.0037287816948827525 0.003824793786638571 0.003735973896934176
          0.007872324925175095 0.007900541623747353 0.0076966648402060425 0.007709790552547278 0.00752100475523699 0.007519039481347202
          0.013468587889164043 0.012953895331823954 0.012998506023945885 0.012485632407591582 0.012528424158727727 0.01201736948335921
          0 0 0 0 0 0
          0 0 0 0.000005709214548781489 0.000012880229126959082 0.000020051243705136676
          0.00013889086638739097 0.00017190078581996466 0.00020491070525253835 0.0006766893498685181 0.0007326883575715427 0.0007886873652745669
          0.001893641297154903 0.0019420892101065894 0.0019905371230582755 0.00408585499636588 0.004078940992359667 0.004072026988353454
          0.00777467249382028 0.007638286343426182 0.007501900193032084 0.012051338812081973 0.011754281358003297 0.011457223903924625
          0 0 0 0 0 0
          0 0.0000024365143898364174 0.000004873028779672835 0.000042165520910278095 0.00006296948170187624 0.00008377344249347438
          0.0003087389177559916 0.00035263227128640954 0.0003965256248168274 0.0010123796743782964 0.0010578974759715034 0.0011034152775647103
          0.0023249367280159714 0.002349361064473603 0.0023737854009312346 0.0044683380310458435 0.004446077953089445 0.004423817875133047
          0.00758460574455138 0.007499415825041317 0.007414225905531256 0.010867067063175516 0.010767550469346805 0.010668033875518096
          0 0 0 0 0.000001444177277269098 0.000002888354554538196
          0.000012004194646369485 0.00002784642642086105 0.00004368865819535262 0.00015100941351162123 0.00019174158178885057 0.00023247375006608001
          0.0005994829005180123 0.0006470011087532908 0.0006945193169885695 0.001465891552582297 0.00149463604870778 0.001523380544833263
          0.002855505106177952 0.002852022944664477 0.0028485407831510016 0.004878298414907861 0.00483865733971414 0.004799016264520419
          0.007310567796619999 0.007272882973670026 0.007235198150720052 0.008916448090880002 0.008964575634118444 0.009012703177356888
          0 0.0000016138823288722171 0.0000032277646577444342 0.0000048348481586052375 0.000018859620586312817 0.000032884393014020395
          0.0000802517185603748 0.00011970177264883656 0.00015915182673729834 0.00037942661716382643 0.0004319600084608068 0.0004844933997577871
          0.0010109649290868218 0.001048818514821125 0.001086672100555428 0.002006570403753006 0.002012697811730191 0.0020188252197073753
          0.0034165097345887135 0.0033856596330784543 0.003354809531568195 0.005219605249863691 0.005166665451574539 0.005113725653285387
          0.006939658434003435 0.0069372079399123016 0.006934757445821168 0.007572813861739599 0.007703359457963852 0.007833905054188102
          0.000004635324413085942 0.000015375332617973882 0.000026115340822861825 0.00005814107568982201 0.0000905014568884522 0.00012286183808708236
          0.0002706426418133739 0.00031748670794886713 0.0003643307740843603 0.0007479840836994091 0.0007866587875673847 0.0008253334914353602
          0.001524267063226184 0.0015368950845303193 0.0015495231058344542 0.002592910415403071 0.0025711413985794233 0.0025493723817557757
          0.003932741706281044 0.003880773471561523 0.003828805236842002 0.005408954286788857 0.005356216980332678 0.005303479673876501
          0.006431158233888513 0.006460315871053839 0.0064894735082191655 0.006362808750533211 0.006540392398726213 0.006717976046919217
          0.00005643209580589475 0.00007278602807774688 0.000089139960349599 0.0002318106664568824 0.00025604770567793907 0.0002802847448989956
          0.0006124212434755767 0.0006285153529147705 0.0006446094623539643 0.0012406982760552242 0.0012362489107897645 0.0012317995455243046
          0.0021108301859755372 0.0020807981350776314 0.002050766084179726 0.0031742053722416466 0.0031216365512246663 0.003069067730207686
          0.004335705253427804 0.004276499347259368 0.004217293441090932 0.005387688657745426 0.005359544426014292 0.005331400194283161
          0.005778860829417118 0.005851129586240851 0.0059233983430645835 0.0052090212463415785 0.00541071449556153 0.005612407744781481
          0.00020736187663128973 0.0002142614410788509 0.00022116100552641203 0.0005359592255000885 0.0005314328569443744 0.0005269064883886604
          0.0010696981307208623 0.0010448372703809273 0.0010199764100409924 0.0018110318394075917 0.0017640209720555294 0.0017170101047034676
          0.0027144804695890166 0.0026507272520907774 0.0025869740345925386 0.0036868535957814376 0.003619499137061545 0.0035521446783416516
          0.004576602009788495 0.004528311035827052 0.004480020061865609 0.005148974432751338 0.005154993313929404 0.0051610121951074705
          0.005002509523378851 0.005102258772274414 0.005202008021169976 0.0041218556289786944 0.004302298819278538 0.004482742009578379
          0.001619255461929134 0.0015885029693319284 0.001557750476734723 0.0023961738659847693 0.0023512311512428954 0.0023062884365010216
          0.0032409920927382327 0.0031889498696702607 0.0031369076466022886 0.004031621500208053 0.003984634274813784 0.003937647049419515
          0.00459372008290899 0.0045682938219192525 0.0045428675609295146 0.00470265134941763 0.004719385868087508 0.0047361203867573864
          0.004120030943434308 0.004190009267837323 0.00425998759224034 0.0031420834660483344 0.0032486465919895147 0.0033552097179306946
          0 0 0 0 -0.000010642842037151818 -0.0003825631935331902
          0.000003233396135841306 0 -0.000021285684074303636 -0.0007651263870663804 0.000006466792271682612 0
          0 0 -0.000022471371094903784 0 -0.00004494274218980757 0
          0 0 0 0.00009142201444897863 -0.00000944199467006303 0.000012764483870447736
          0.00018284402889795726 -0.00001888398934012606 0.000025528967740895472 0.019327573471860544 0.017431467113409854 0.022860256993752343
          0.023022881142059505 0.018614256924061733 0.017078890639392802 0.022076374881857208 0.022043190649029282 0.017900940376262914
          0.016726314165375754 0.021292492769962083 0.021063500155999056 0.0032305563911564266 0.0014082967064850025 -0.0010265137157043581
          0.0013720834153879333 0.004171212155979549 0.0015655600491514116 0.00010495394420749566 0.0031239914841712604 0.005111867920802671
          0.0017228233918178209 0.0012364216041193497 0.004875899552954586 0.011072970986151072 0.010939832838782715 0.013275964637601364
          0.012878167368007055 0.011120437472792259 0.011106969030128765 0.013231557096400438 0.012751540258189512 0.011167903959433446
          0.011274105221474812 0.013187149555199512 0.012624913148371969 0.004711740429114235 0.0055106001562348315 0.003595695565799291
          0.002588085133454803 0.005124668141984705 0.0058659075533914785 0.003901939139647783 0.002927699818849708 0.0055375958548551756
          0.006221214950548124 0.004208182713496274 0.0032673145042446125 0.003143390410700179 0.004150116157261142 0.003338533312709132
          0.004409807217971846 0.003533676214718085 0.0046694982786825495 0.015347075558398938 0.01363588464644477 0.015081916010692073
          0.013683098645022885 0.014816756462985211 0.013730312643601004 0.000002115349486579737 0 0
          0.00001055699902677489 0.00004234024931310923 0.00022439133900185897 0.00012021530058730734 -0.0005754265013632657 0.0000825651491396387
          0.00044878267800371795 0.00024043060117461465 -0.0011614100017533061 0.016920992112252876 0.016846897448621716 0.020794847020209922
          0.019293728071445134 0.01621530584202268 0.01618523978183308 0.019829176515302548 0.018407309419943306 0.015509619571792477
          0.015523582115044442 0.01886350601039518 0.017520890768441478 0.017538257679628386 0.024413757822598896 0.017314380236905878
          0.023754649400857926 0.017090502794183365 0.023095540979116955 0 0.000026396157898057736 0
          0 6.27792907112224e-7 0.00003344185624941835 0 0 0.000001255585814224448
          0.00004048755460077897 0 0 0.030516014261075666 0.04101467998471277 0.03903237997374734
          0.02844438013448628 0.029926568983351092 0.039336963194372354 0.0373190090916129 0.02792902906533547 0.029337123705626522
          0.03765924640403194 0.03560563820947846 0.02741367799618467 0 0 0
          0 -0.0002132140098245757 -0.000018871652803721872 0.000031176517306327495 -0.00016696645308735943 -0.0004264280196491514
          -0.000037743305607443744 0.00006235303461265499 -0.00033393290617471887 0.006826145827865757 0.006661879841872298 0.0071931175634697905
          0.007093542042705803 0.007560089299073825 0.007525204243539305 0.01545137110231438 0.015027777786050047 0.014604184469785713
          0.0000167917692505078 -0.000015608952340663107 -0.00013791244749563516 -0.0009590971166989367 -0.0002926166642417781 -0.00190258528105721
          -0.0010018657953438134 -0.00011939979368889905 -0.000022023368554707595 -0.00138444878154993 -0.0006932795610746762 -0.0005897196442178148
          -0.0017670317677560465 -0.0012671593284604534 -0.001157415919880922 0.008135311564132558 0.0063459503591657175 0.012008460903551234
          0.012759886475694539 0.00875830123761473 0.006993493982648371 0.01277105184039253 0.013043354960863738 0.009381290911096898
          0.007641037606131024 0.013533642777233828 0.013326823446032936 0.022656414883947276 0.024315821975872794 0.026594964437273657
          0.021511632065012717 0.023098862049083964 0.025128647335543538 0.020366849246078154 0.02188190212229514 0.023662330233813422
          0.0025684069377373145 0.005274447337617565 0.0027699504198972383 0.005556512944019495 0.002971493902057163 0.005838578550421424
          -0.0018147350067716297 0.000048090251293704 0.00029196816292022205 0.002023348815966431 0.0023986713326120735 0.003998607380639158
          0.0020387581354698835 0.0008084321835106202 0.0025067283026698624 0.0011502757880577019 0.0029746984698698423 0.0014921193926047836
          0.03627462378603109 0.03466223291257699 0.038450240796551 0.03965287721216028 0.033997883817953795 0.032643635054766126
          0.03630291425853257 0.03730489248943969 0.031721143849876496 0.030625037196955272 0.03415558772051413 0.0349569077667191
          0.008618147060243022 0.008379357141634214 0.01094727952413879 0.008959400252325753 0.008882224841406385 0.011263915244814704
          0.009300653444408485 0.009385092541178558 0.01158055096549062 0.00006908469841887486 0.0000035680930946502413 0.00016953268073563747
          0.00007230301204860071 0.00026998066305240005 0.00014103793100255117 0.008607223678089967 0.006748905584439477 0.008828117040208517
          0.00701250841613587 0.009049010402327065 0.007276111247832262 0.004676132004235878 0.005091329684873961 0.0051653424906985945
          0.005597744759321703 0.005654552977161313 0.006104159833769445 0.0022156127662999923 0.001048153117120048 0.0026131424119699887
          0.0012787801227298018 0.003010672057639986 0.0015094071283395555 0 0 0
          0.000002457707143953126 0 0 0.000004915414287906252 0 0
          0.0013859497279038136 0.0005574350587624609 0.001495132375030156 0.0014832433567508673 0.0006202134121094029 0.0016719743367354114
          0.0015805369855979206 0.000682991765456345 0.0018488162984406664 0.02775645239067854 0.03135981712665968 0.03130745524255397
          0.026246239445852543 0.029535178145930496 0.02941800137508596 0.024736026501026548 0.02771053916520131 0.027528547507617955
          0.03322955921341504 0.031176463473990626 0.029123367734566207 0 0 0
          0 0 0 0 0 0
          0 0 0 0.027413710445642503 0.03089768425124563 0.02611394823429012
          0.029449138301579976 0.02481418602293774 0.028000592351914315 0 0 0
          0 0 0 0.04182651566502138 0.0334498813216728 0.03971614450572858
          0.032034550948951815 0.037605773346435785 0.030619220576230833 0.019040714744657003 0.01895334395848583 0.0191531271846582
          0.019520944997208505 0.019265539624659395 0.020088546035931177 0 0 0
          0.0022242185708851504 0.0023382222344698602 0.0024522258980545705 0.006855010509390411 0.0036319239321889116 0.008210743263604551
          0.005221714871161392 0.009566476017818692 0.006811505810133871 0.0022015680533686586 0.002465987953915978 0.0027304078544632972
          -0.0009018425187125045 -0.0006705846866054765 -0.00043932685449844854 0 0.000002457707143953126 0.000004915414287906252
          0.00025514248679919766 0.0003426107014608001 0.00043007891612240263 0 0 0
          -0.000989961770459041 -0.0010353331893494118 -0.0010807046082397824 0.014464221902134077 0.015373304029488203 0.01628238615684233
          0.04321471460758676 0.04103706343979391 0.03885941227200105 0.016492213027357847 0.015806810332231944 0.015121407637106038
          0 0 0 0 -0.00009249511347443256 -0.0001849902269488651
          0.002943452573772428 0.0029254223757656135 0.0029073921777588 0.0033315742232079655 0.003326402943580657 0.003321231663953349
          0.003598162746635967 0.0035789656572555078 0.0035597685678750487 0.0036905911922638724 0.0036866090891398045 0.0036826269860157365
          0.004099725267070862 0.004084154771149049 0.004068584275227235 0.004288531898320481 0.004282415043360115 0.0042762981883997485
          0.003989793563596655 0.003999613360849977 0.004009433158103299 0.003094320489116801 0.0031188019466898724 0.0031432834042629445
          0.0017815704868756048 0.0018123558767439748 0.0018431412666123452 0.001556108926620309 0.0008586349122668881 0.0016149400968474377
          0.0008966348919560315 0.001673771267074566 0.0009346348716451748 0.0001678205130607015 0.0000067609723997781875 0.000016950060991519624
          0.00027303550501069524 0.00016940447072325525 0.000007248930899736408 0.000018405631790523795 0.0002860618698915478 0.000170988428385809
          0.000007736889399694628 0.00001986120258952797 0.00029908823477240034 0 0 0
          0.0005818923907627266 0.0005894072649794089 0.0005969221391960907 0 0 0
          0.003452648941143489 0.0034178976529733503 0.0034499391330540894 0.003412992013430831 0.0034472293249646893 0.0034080863738883116
          0.003825749794617836 0.0038239859712803034 0.003822222147942772 0.0032377165473487547 0.0032380021665023044 0.003238287785655855
          0.0036260544307824293 0.003627671106929954 0.003629287783077478 0.0030111720313947604 0.003017097809866573 0.003023023588338385
          0.002022882456479141 0.0020302245104963776 0.0020375665645136144 0.0009925667595356903 0.0009957353677169918 0.0009989039758982934
          0.00028069502257618676 0.0002810302095845222 0.00028136539659285746 0 0.00000914990523556908 0.000005782808621227817
          0 0.000009495227814565394 0.000005960964603246878 0 0.00000984055039356171 0.000006139120585265939
        </DataArray>
        <DataArray type="Float64" Name="pe22" format="ascii" RangeMin="-0.019362747971421068" RangeMax="0.0011821283060368492">
          0 0 0 0 0 0
          0 0 0 0 0 0
          0 0 0 0 0 0
          0 0 -3.491870738531897e-7 0 -6.983741477063794e-7 0
          -0.000019776450119058845 -0.000012374169260252046 -0.000025831655438823113 -0.000017983345199728384 -0.000031886860758587385 -0.000023592521139204724
          -0.00014337183775620584 -0.00012069531980626247 -0.00014963524846352245 -0.00012756254743726038 -0.00015589865917083908 -0.00013442977506825828
          -0.00044228863601609205 -0.0004052809211797828 -0.0004282605482152675 -0.0003920790347556337 -0.000414232460414443 -0.0003788771483314846
          -0.0009247378366778847 -0.0008661888060277284 -0.0008790027790492364 -0.0008182907742663829 -0.0008332677214205881 -0.0007703927425050372
          -0.001577001799232501 -0.0014723576892423699 -0.0015080050592169555 -0.0013956998062793706 -0.0014390083192014102 -0.0013190419233163712
          -0.0025029133390461486 -0.002105712118453172 -0.002396735685510701 -0.0019928896371569104 -0.0022905580319752534 -0.0018800671558606486
          0 0 0 0 0 0
          0 0 0 -0.0000021358173902955456 -0.000004530734966699677 -0.000006925652543103808
          -0.00004750703521989844 -0.00005539969392854866 -0.00006329235263719888 -0.0002147602286029413 -0.00021889404090298984 -0.00022302785320303832
          -0.0005528726134808831 -0.0005368442948844067 -0.0005208159762879302 -0.0010910552518786166 -0.0010514157995635237 -0.0010117763472484304
          -0.001834811892398866 -0.0017868729666097513 -0.0017389340408206363 -0.0026992941539025787 -0.0026533442698144596 -0.0026073943857263405
          0 0 0 0 0 0
          0 -9.424913997229723e-7 -0.0000018849827994459446 -0.000015980551400683535 -0.0000227974411142895 -0.000029614330827895465
          -0.00011022858899559861 -0.00012033974830973353 -0.00013045090762386842 -0.00033892984486823074 -0.0003393671319254515 -0.00033980441898267226
          -0.0007315745268532398 -0.0007137240890342419 -0.0006958736512152441 -0.0013374084886363328 -0.0013068935526020142 -0.0012763786165676952
          -0.0021358985563782107 -0.002117186778186776 -0.0020984749999953412 -0.0030794567397802474 -0.0031142558946213677 -0.0031490550494624884
          0 0 0 0 -5.958617016954917e-7 -0.0000011917234033909835
          -0.0000048793427624624325 -0.000010853923055266214 -0.000016828503348069993 -0.00005842938622691168 -0.00007140296635046935 -0.00008437654647402702
          -0.00022116881416918158 -0.00023062240744881185 -0.00024007600072844214 -0.0005139180948191433 -0.0005099675714972853 -0.0005060170481754272
          -0.0009637309409165217 -0.0009457059443132236 -0.0009276809477099254 -0.0016192425995713573 -0.0015998655664426582 -0.0015804885333139587
          -0.00240886900417915 -0.0024173710438614784 -0.0024258730835438067 -0.003066554420291257 -0.0031321238345005543 -0.0031976932487098523
          0 -6.83721230206385e-7 -0.00000136744246041277 -0.0000020366178474954107 -0.000007671925538962384 -0.000013307233230429357
          -0.00003246622655132896 -0.0000468341950287644 -0.00006120216350619985 -0.00014811069677747924 -0.0001635102410035764 -0.0001789097852296736
          -0.0003804400661929147 -0.00038551514558213333 -0.0003905902249713519 -0.000730921440708628 -0.000723176297945315 -0.0007154311551820021
          -0.001226375991355078 -0.0012104828574113831 -0.0011945897234676883 -0.0018896172158276154 -0.0018815767546810959 -0.0018735362935345767
          -0.002599476310497122 -0.0026253809380214653 -0.002651285565545809 -0.003046497517320036 -0.0031200418744692818 -0.0031935862316185273
          -0.0000019483236626846543 -0.000006369504032011098 -0.00001079068440133754 -0.000023688539686855936 -0.000036252159645904086 -0.000048815779604952236
          -0.00010722970886738797 -0.00012325663153503062 -0.00013928355420267328 -0.0002891059301544456 -0.0002987179518901895 -0.0003083299736259334
          -0.0005782064081715446 -0.0005769744986854396 -0.0005757425891993346 -0.0009753877507205529 -0.00096537092952871 -0.0009553541083368669
          -0.0014921987322424066 -0.001480468528456249 -0.0014687383246700908 -0.002111343857057612 -0.002113002626885087 -0.0021146613967125616
          -0.0026686087784582252 -0.002703108527055305 -0.002737608275652385 -0.002907966987062649 -0.002979309322899491 -0.0030506516587363334
          -0.00002264445383856938 -0.000029280334880705984 -0.000035916215922842594 -0.00009046917740407794 -0.00009978254903898542 -0.00010909592067389289
          -0.00023358349510471915 -0.00023908568067551513 -0.0002445878662463111 -0.0004683280217886615 -0.00046662950569538756 -0.0004649309896021136
          -0.0008010720389610678 -0.0007931211683329595 -0.0007851702977048512 -0.0012288968465438226 -0.0012184640901427412 -0.0012080313337416598
          -0.0017354722381380523 -0.001729427059562951 -0.0017233818809878503 -0.0022597564508093208 -0.002269487037690765 -0.0022792176245722104
          -0.0026261574179476535 -0.00266385133470441 -0.0027015452514611675 -0.0026427194086271278 -0.002708207288229828 -0.002773695167832527
          -0.00008022471754888036 -0.00008257511296456163 -0.00008492550838024291 -0.0002007608014050551 -0.00019869081647669117 -0.00019662083154832724
          -0.00039346296908361817 -0.00038511392267406424 -0.0003767648762645102 -0.000669683707426849 -0.0006568016600319905 -0.0006439196126371318
          -0.0010332918243546837 -0.0010199532706970569 -0.0010066147170394303 -0.0014713494055347965 -0.0014622622522654806 -0.0014531750989961647
          -0.0019366342183598324 -0.0019377234400738456 -0.0019388126617878585 -0.002327295427177199 -0.0023458490610141288 -0.0023644026948510585
          -0.0024812841810550375 -0.002521449965068994 -0.00256161574908295 -0.0022894149270999437 -0.002346599420022478 -0.0024037839129450135
          -0.0006248147279568185 -0.0006137103502122834 -0.0006026059724677482 -0.0009388767989269708 -0.0009266497296112795 -0.0009144226602955882
          -0.001317577158600385 -0.0013083985299633572 -0.0012992199013263294 -0.001728707910587434 -0.001726349454995629 -0.0017239909994038235
          -0.0020974497537214055 -0.00210575463448433 -0.002114059515247255 -0.0022965703328803903 -0.0023181805111570338 -0.0023397906894336773
          -0.002191566070578396 -0.0022231495321021763 -0.0022547329936259577 -0.0018609956620791387 -0.0018959182161418925 -0.0019308407702046462
          0 0 0 0 -0.00012685104288060316 -0.000048580345544486754
          -2.3198015273284793e-8 0 -0.0002537020857612063 -0.00009716069108897348 -4.6396030546569586e-8 0
          0 0 0.00001376230460417908 0 0.00002752460920835816 0
          0 0 0 -0.00009122667895120381 0.00000980839598792669 -0.000014228149564636876
          -0.00018245335790240764 0.00001961679197585338 -0.000028456299129273756 -0.005144376924386211 -0.004799393970585981 -0.0072126311067140765
          -0.006944022183308686 -0.0048750071586220346 -0.004745687250738915 -0.006802492792406557 -0.00644067618073229 -0.004605637392857859
          -0.004691980530891847 -0.006392354478099036 -0.005937330178155894 -0.0004466691226560106 -0.0005522114892688053 0.000030149143210419244
          -0.0007158806232526853 -0.0005817616479439132 -0.00012030735427946172 -0.00004051388862722257 -0.0009134531918237475 -0.0007168541732318161
          0.0003115967807098818 -0.00011117692046486442 -0.0011110257603948097 -0.003605295751206085 -0.0036783578727863247 -0.0037075043772963334
          -0.00354266009095832 -0.0037186513725651644 -0.0038330750518817346 -0.0038280639639614294 -0.003613084900668113 -0.0038320069939242448
          -0.003987792230977144 -0.003948623550626525 -0.0036835097103779064 -0.002546131296205253 -0.002754234747205989 -0.0020042853804056325
          -0.0014571203194886772 -0.002668717257612799 -0.0028833180096502348 -0.0020847647618511466 -0.0015403817813860667 -0.0027913032190203446
          -0.0030124012720944807 -0.0021652441432966595 -0.0016236432432834562 -0.0018726893571793576 -0.0023252475280408796 -0.0019290829408146358
          -0.002397355056304106 -0.001985476524449914 -0.002469462584567332 -0.0040127471231893716 -0.0038993770950391153 -0.004047612742398507
          -0.0040680257789673605 -0.004082478361607644 -0.004236674462895605 -8.106029425109973e-7 0 0
          0.00004037903226607391 -0.0001476236445510428 -0.00023195984422848308 -0.00010511764302754464 -0.00009211603210514852 -0.0002944366861595746
          -0.0004639196884569662 -0.00021023528605508928 -0.00022461109647637094 -0.0033045127537194344 -0.0036012417211577392 -0.005599763515947816
          -0.004587305028308995 -0.0030987516536613623 -0.003421536915251878 -0.005168451050460628 -0.004241499603406926 -0.0028929905536032915
          -0.0032418321093460175 -0.004737138584973441 -0.003895694178504857 -0.005177764497548761 -0.009051191609304371 -0.005160295161023272
          -0.008621283780296326 -0.005142825824497782 -0.00819137595128828 0 -0.000014070891861563113 0
          0 -2.41859211775749e-7 -0.000016576943079845986 0 0 -4.83718423551498e-7
          -0.000019082994298128855 0 0 -0.013776969518812448 -0.019362747971421068 -0.018324489000480566
          -0.012382241495367725 -0.01322153945957733 -0.01788901893064559 -0.016869400272028386 -0.011981304459402155 -0.012666109400342213
          -0.016415289889870115 -0.015414311543576201 -0.011580367423436582 0 0 0
          0 0.0003027419007725113 0.000039462623831525157 -0.00004408651556243175 0.0002034480250054872 0.0006054838015450226
          0.00007892524766305031 -0.0000881730311248635 0.0004068960500109744 -0.003127805886514051 -0.0032479532225526014 -0.003286895574249197
          -0.0034090123874219555 -0.003445985261984342 -0.0035700715522913097 -0.0037399024521908323 -0.0036766331256699292 -0.0036133637991490283
          -0.000024068547463960508 -0.000006787571694452884 -0.0006912012031150899 -0.00029547523925960975 -0.0013583338587662194 -0.0005841629068247665
          0.00035103535001465303 0.0000338103101870272 0.00001214571582953102 0.000036823027814499466 0.0006079693081119383 0.00022782171931730566
          -0.00027738929438565416 0.0011821283060368492 0.0004434977228050803 -0.002868590914454209 -0.0017035899840976382 -0.0033564974333964493
          -0.0035444877097984234 -0.003078780209232015 -0.0018632708430516088 -0.003896167227984258 -0.0037867819263089904 -0.0032889695040098214
          -0.002022951702005579 -0.0044358370225720655 -0.004029076142819557 -0.006594441173429581 -0.007574294289412684 -0.00913152003501728
          -0.00602714534378594 -0.006880740725287776 -0.008194726944031937 -0.0054598495141423 -0.00618718716116287 -0.007257933853046593
          -0.0015123180804090812 -0.0026841204341225286 -0.0015635164534914623 -0.0027719443983901487 -0.0016147148265738432 -0.0028597683626577688
          0.0005769427522469529 -0.00041878173696562374 -0.0009140193467031937 -0.0012373968159704704 -0.0024049814456533402 -0.0020560118949753173
          -0.000865778382854055 -0.00039531364827406773 -0.0010327176949390848 -0.0005047692866957297 -0.0011996570070241148 -0.0006142249251173921
          -0.015360788727026134 -0.014399259557270006 -0.016687493499482765 -0.016808364691595135 -0.013603403552021373 -0.012863630187718272
          -0.014902435072795133 -0.014826857928448876 -0.011846018377016616 -0.011328000818166543 -0.0131173766461075 -0.012845351165302617
          -0.003505527605736726 -0.0033052688741011444 -0.003484946486412133 -0.0036681139893569555 -0.0035402574703898397 -0.0037216115322826673
          -0.0038307003729771845 -0.0037752460666785354 -0.003958276578153201 -0.00003651454285481243 -0.000001679818769603325 -0.00007499909671823668
          -0.000026329534801579244 -0.00011348365058166094 -0.00005097925083355517 -0.0033581525949456445 -0.002999671909788179 -0.0034903188048617875
          -0.003111807101515513 -0.0036224850147779306 -0.003223942293242847 -0.0022591223611581556 -0.0020513970149748464 -0.002423177436731085
          -0.0021279625688230726 -0.0025872325123040157 -0.002204528122671299 -0.0011368740374606081 -0.0006124899929947883 -0.0012297504420303454
          -0.0006832602972811886 -0.0013226268466000827 -0.0007540306015675889 0 0 0
          -0.0000021372454476485408 0 0 -0.0000042744908952970816 0 0
          -0.0008412560699959979 -0.00032996787732480733 -0.0008821396556370417 -0.0008652836378244007 -0.0003484798470138771 -0.0009304663178966538
          -0.0008893112056528033 -0.00036699181670294686 -0.0009787929801562654 -0.009939702177522186 -0.012437618267427243 -0.012625570273254795
          -0.0089580504010935 -0.011137897956131456 -0.011234339108772706 -0.007976398624664814 -0.009838177644835666 -0.009843107944290618
          -0.013677856497755794 -0.012147722494989702 -0.01061758849222361 0 0 0
          0 0 0 0 0 0
          0 0 0 -0.009777969162413141 -0.012467325848075445 -0.008961985869005838
          -0.011376198650589127 -0.008146002575598532 -0.010285071453102812 0 0 0
          0 0 0 -0.018894206177378043 -0.014786219798624179 -0.017061209785240793
          -0.013650309123808445 -0.015228213393103545 -0.012514398448992714 -0.0063535084340499304 -0.0072683911019311535 -0.006556583306319711
          -0.00773780720949144 -0.006759658178589493 -0.008207223317051726 0 0 0
          -0.0013851890201309765 -0.0014157337988681754 -0.0014462785776053744 -0.0008808869876171357 -0.000046014183413505124 -0.0017660339802290765
          -0.000746577696915857 -0.002651180972841017 -0.0014471412104182086 -0.0013001110813099244 -0.0013656848041356687 -0.0014312585269614134
          0.0005079045622580159 -0.0006978500415149274 -0.0019036046452878708 0 -0.0000021372454476485408 -0.0000042744908952970816
          -0.00014542670641286629 -0.00017717063526693567 -0.00020891456412100502 0 0 0
          0.0008244709445872933 -0.00019101175928614838 -0.00120649446315959 -0.004635846257394858 -0.005346332574646042 -0.006056818891897226
          -0.019347946921957883 -0.01742512445392881 -0.015502301985899736 -0.0030111369997057177 -0.0028058572258286073 -0.0026005774519514964
          0 0 0 0 0.00019858775153404817 0.00039717550306809634
          -0.001305368390403543 -0.0013038640357245744 -0.0013023596810456059 -0.001621252698252259 -0.001624924379427868 -0.001628596060603477
          -0.00165106268319232 -0.001652967961442586 -0.0016548732396928516 -0.0018524084256557492 -0.0018582615866957254 -0.0018641147477357015
          -0.0019598343380026703 -0.0019660323075598226 -0.0019722302771169745 -0.0021421062263291004 -0.002153113608872949 -0.002164120991416797
          -0.0020828625243863555 -0.002097200476744915 -0.0021115384291034737 -0.0017024884309398193 -0.0017144532341166223 -0.0017264180372934257
          -0.0010498169300411561 -0.0010547905620613737 -0.0010597641940815912 -0.0009660974855717659 -0.0005087156718746901 -0.000975862074437899
          -0.000514117777527966 -0.000985626663304032 -0.000519519883181242 -0.00009276400114571789 -0.0000035005158347712767 -0.000009036383581263538
          -0.00015693191279141577 -0.0000917727430756126 -0.0000036702509362644917 -0.000009415817098249554 -0.0001591709270454542 -0.00009078148500550727
          -0.000003839986037757706 -0.000009795250615235568 -0.00016140994129949262 0 0 0
          -0.0003263828743453158 -0.0003233421191021397 -0.0003203013638589636 0 0 0
          -0.001808158261618593 -0.0017435381373570097 -0.001812471220427036 -0.0017468622263132544 -0.0018167841792354792 -0.0017501863152694992
          -0.001980233548249471 -0.0019877292169408495 -0.0019952248856322276 -0.0017372988693732552 -0.0017419221953097795 -0.0017465455212463035
          -0.0019299535204393005 -0.001937991437543701 -0.0019460293546481014 -0.0016387765795931228 -0.0016451374958751145 -0.0016514984121571061
          -0.0011190282810285802 -0.0011206162449207706 -0.001122204208812961 -0.0005510566353998753 -0.0005482218988150932 -0.0005453871622303111
          -0.0001534654495535136 -0.00015141544653076404 -0.00014936544350801448 0 -0.000004520718877015546 -0.0000028144367424114625
          0 -0.000004626558178149063 -0.0000028691607603830964 0 -0.000004732397479282579 -0.00000292388477835473
        </DataArray>
        <DataArray type="Float64" Name="pe33" format="ascii" RangeMin="-0.023866767685628745" RangeMax="0.002486748187886305">
          0 0 0 0 0 0
          0 0 0 0 0 0
          0 0 0 0 0 0
          0 0 -6.623092533159352e-7 0 -0.0000013246185066318705 0
          -0.00004053609805816476 -0.000026057861394259837 -0.00005951390318331966 -0.00004333715353676219 -0.00007849170830847457 -0.00006061644567926454
          -0.00033205677282369247 -0.0002888515632965569 -0.0003866149205957136 -0.00034392030271436453 -0.00044117306836773465 -0.00039898904213217214
          -0.0011721804961212863 -0.0011130873614582032 -0.0012507233667098684 -0.0011963586045559992 -0.0013292662372984506 -0.0012796298476537955
          -0.0028931810051159917 -0.0028554006868036002 -0.002942353535166987 -0.002910490920616369 -0.0029915260652179825 -0.002965581154429138
          -0.006295323125942591 -0.006428183934504983 -0.006188659780989084 -0.006314090746267907 -0.006081996436035578 -0.006199997558030832
          -0.01096567455011788 -0.010848183213370782 -0.01060177033843517 -0.010492742770434677 -0.010237866126752461 -0.010137302327498572
          0 0 0 0 0 0
          0 0 0 -0.000003573397158485942 -0.000008349494160259405 -0.000013125591162032867
          -0.0000913838311674925 -0.00011650109189141597 -0.00014161835261533947 -0.0004619291212655767 -0.0005137943166685526 -0.0005656595120715284
          -0.0013407686836740197 -0.001405244915222182 -0.001469721146770345 -0.002994799744487261 -0.0030275251927961424 -0.003060250641105023
          -0.005939860601421405 -0.005851413376816422 -0.0057629661522114375 -0.009352044658179313 -0.00910093708818874 -0.008849829518198163
          0 0 0 0 0 0
          0 -0.0000014940229901134446 -0.000002988045980226889 -0.00002618496950959455 -0.00004017204058758673 -0.00005415911166557892
          -0.00019851032876039293 -0.00023229252297667593 -0.0002660747171929589 -0.0006734498295100657 -0.000718530344046052 -0.0007636108585820381
          -0.0015933622011627306 -0.0016356369754393604 -0.0016779117497159903 -0.0031309295424095085 -0.0031391844004874294 -0.003147439258565349
          -0.005448707188173152 -0.00538222904685452 -0.005315750905535889 -0.007787610323395103 -0.007653294574725208 -0.007518978826055314
          0 0 0 0 -8.483155755736062e-7 -0.0000016966311511472124
          -0.0000071248518839070505 -0.000016992503365594828 -0.000026860154847282607 -0.00009258002728470952 -0.00012033861543838125 -0.000148097203592053
          -0.0003783140863488306 -0.00041637870130447897 -0.00045444331626012737 -0.0009519734577631532 -0.0009846684772104944 -0.0010173634966578358
          -0.0018917741652614295 -0.001906317000351253 -0.0019208598354410757 -0.0032590558153365 -0.003238791773271478 -0.0032185277312064566
          -0.004901698792440821 -0.004855511929808512 -0.0048093250671762035 -0.005849893670588597 -0.005832451799617699 -0.005815009928646803
          0 -9.301610986658314e-7 -0.000001860322197331663 -0.000002798230311109826 -0.000011187695047350432 -0.000019577159783591037
          -0.00004778549200904584 -0.00007286757762007214 -0.00009794966323109845 -0.0002313159203863472 -0.0002684497674572303 -0.00030558361452811346
          -0.0006305248628939071 -0.0006633033692389916 -0.000696081875584076 -0.0012756489630443776 -0.0012895215137848752 -0.001303394064525373
          -0.002190133743233634 -0.0021751767756670705 -0.0021602198081005063 -0.0033299880340360677 -0.0032850886968934356 -0.0032401893597508043
          -0.0043401821235062804 -0.004311827001890798 -0.004283471880275317 -0.0045263163444194685 -0.004583317583494448 -0.0046403188225694275
          -0.000002687000750401287 -0.000009005828585962781 -0.000015324656421524275 -0.00003445253600296608 -0.00005424929724254808 -0.0000740460584821301
          -0.00016341293294598597 -0.00019423007641383648 -0.000225047219881687 -0.00045887815354496355 -0.00048794083567719505 -0.0005170035178094267
          -0.0009460606550546395 -0.0009599205858448795 -0.0009737805166351193 -0.0016175226646825177 -0.0016057704690507135 -0.001594018273418909
          -0.0024405429740386353 -0.002400304943105272 -0.002360066912171909 -0.0032976104297312335 -0.0032432143534475814 -0.0031888182771639293
          -0.0037625494554302578 -0.0037572073439985014 -0.0037518652325667454 -0.0034548417634705127 -0.0035610830758266605 -0.0036673243881828075
          -0.00003378764196732536 -0.00004350569319704089 -0.0000532237444267564 -0.00014134148905280443 -0.0001562651566389536 -0.00017118882422510273
          -0.0003788377483708575 -0.00038942967223925537 -0.0004000215961076532 -0.0007723702542665626 -0.0007696194050943768 -0.000766868555922191
          -0.0013097581470144695 -0.0012876769667446721 -0.0012655957864748748 -0.0019453085256978236 -0.0019031724610819247 -0.0018610363964660257
          -0.002600233015289749 -0.002547072287696413 -0.0024939115601030778 -0.0031279322069360936 -0.0030900573883235155 -0.003052182569710938
          -0.003152703411469442 -0.0031872782515364162 -0.0032218530916033896 -0.0025663018377144243 -0.0027025072073316703 -0.002838712576948915
          -0.0001271371590824093 -0.0001316863281142892 -0.0001362354971461691 -0.0003351984240950333 -0.00033274204046768315 -0.00033028565684033303
          -0.0006762351616372441 -0.0006597233477068632 -0.0006432115337764821 -0.0011413481319807425 -0.001107219312023539 -0.0010730904920663357
          -0.0016811886452343325 -0.00163077398139372 -0.0015803593175531074 -0.0022155041902466397 -0.0021572368847960627 -0.0020989695793454857
          -0.0026399677914286587 -0.002590587595753203 -0.002541207400077747 -0.0028216790055741294 -0.0028091442529152647 -0.0027966095002564004
          -0.0025212253423237984 -0.0025808088072054036 -0.0026403922720870084 -0.0018324407018787388 -0.0019556993992560436 -0.002078958096633348
          -0.0009944407339723153 -0.000974792619119645 -0.0009551445042669747 -0.0014572970670577985 -0.0014245814216316158 -0.0013918657762054326
          -0.0019234149341378474 -0.0018805513397069024 -0.0018376877452759574 -0.0023029135896206177 -0.0022582848198181536 -0.002213656050015689
          -0.002496270329187581 -0.002462539187434919 -0.0024288080456822563 -0.0024060810165372325 -0.002401205356930467 -0.002396329697323702
          -0.0019284648728559054 -0.0019668597357351395 -0.002005254598614374 -0.0012810878039691915 -0.0013527283758476172 -0.0014243689477260427
          0 0 0 0 0.00013749388491651778 0.00043114353906841555
          -0.00000321019812056802 0 0.0002749877698330356 0.000862287078136831 -0.00000642039624113604 0
          0 0 0.000008709066490724704 0 0.000017418132981449408 0
          0 0 0 -1.953354977763614e-7 -3.6640131786365153e-7 0.0000014636656941890204
          -3.9067099555271976e-7 -7.328026357273031e-7 0.000002927331388378041 -0.014183196547474188 -0.012632073142823441 -0.015647625887038063
          -0.016078858958750778 -0.013739249765439485 -0.012333203388652935 -0.015273882089450212 -0.01560251446829696 -0.013295302983404783
          -0.012034333634482433 -0.014900138291862356 -0.015126169977843142 -0.0027838872684977124 -0.0008560852172157969 0.0009963645724958006
          -0.0006562027921339909 -0.0035894505080238666 -0.0014452526948596413 -0.00006444005555932555 -0.002210538292337887 -0.004395013747550022
          -0.0020344201725034858 -0.0011252446836144516 -0.0037648737925417832 -0.007467675234944668 -0.007261474965995822 -0.009568460260304437
          -0.00933550727704838 -0.007401786100226629 -0.0072738939782461525 -0.009403493132438094 -0.009138455357520902 -0.0073358969655085895
          -0.007286312990496486 -0.00923852600457175 -0.008941403437993423 -0.0021656091329088955 -0.00275636540902876 -0.0015914101853936387
          -0.0011309648139661143 -0.002455950884371763 -0.002982589543741116 -0.0018171743777966073 -0.001387318037463622 -0.0027462926358346297
          -0.0032088136784534727 -0.0020429385701995757 -0.0016436712609611299 -0.0012707010535208138 -0.0018248686292202435 -0.001409450371894485
          -0.0020124521616677136 -0.0015481996902681565 -0.0022000356941151837 -0.011334328435209129 -0.009736507551404653 -0.01103430326829287
          -0.009615072866053943 -0.01073427810137661 -0.009493638180703234 -0.0000013047465440687357 0 0
          -0.000050936031292847696 0.00010528339523805762 0.0000075685052266222056 -0.000015097657559762716 0.0006675425334688 0.00021187153702018397
          0.000015137010453244415 -0.000030195315119525422 0.0013860210982304475 -0.013616479358533442 -0.013245655727463937 -0.015195083504262085
          -0.014706423043136135 -0.01311655418836132 -0.012763702866581163 -0.014660725464841928 -0.014165809816536387 -0.012616629018189203
          -0.012281750005698389 -0.014126367425421777 -0.01362519658993664 -0.012360493182078658 -0.015362566213294057 -0.01215408507587999
          -0.015133365620560297 -0.011947676969681324 -0.014904165027826535 0 -0.00001232526603649462 0
          0 -3.859336953364748e-7 -0.00001686491316957236 0 0 -7.718673906729496e-7
          -0.00002140456030265011 0 0 -0.01673904474226304 -0.021651932013291516 -0.02070789097326661
          -0.01606213863911842 -0.016705029523773826 -0.021447944263751472 -0.020449608819597606 -0.01594772460593259 -0.016671014305284608
          -0.021243956514211425 -0.020191326665928593 -0.015833310572746763 0 0 0
          0 -0.00008952789094793736 -0.000020590971027804314 0.000012909998256103655 -0.00003648157191812892 -0.00017905578189587472
          -0.00004118194205560862 0.00002581999651220731 -0.00007296314383625784 -0.0036983399413515806 -0.0034139266193195417 -0.0039062219892203915
          -0.003684529655283573 -0.004114104037089203 -0.0039551326912476035 -0.011711468650123296 -0.011351144660379776 -0.010990820670636253
          0.000007276778213451972 0.000022396524035115215 0.0008291136506069286 0.00125457235596071 0.0016509505230004051 0.002486748187886305
          0.0006508304453299755 0.00008558948350126764 0.000009877652725176545 0.001347625753758551 0.00008531025298409508 0.0003618979249053782
          0.0020444210621871264 0.0000850310224669225 0.0007139181970855799 -0.005266720649677319 -0.004642360375065916 -0.00865196347015282
          -0.00921539876589485 -0.0056795210283806085 -0.005130223139591483 -0.008874884612394543 -0.009256573034551657 -0.006092321407083898
          -0.005618085904117049 -0.009097805754636267 -0.009297747303208462 -0.016061973710517694 -0.016741527686460103 -0.017463444402256365
          -0.015484486721226804 -0.016218121323796228 -0.016933920391511648 -0.014906999731935915 -0.015694714961132356 -0.016404396380766923
          -0.0010560888573282262 -0.0025903269034949924 -0.001206433966405766 -0.002784568545629286 -0.001356779075483306 -0.0029788101877635796
          0.0012377922545266735 0.00037069148567202325 0.00062205118379072 -0.000785951999993758 0.000006310113054766471 -0.0019425954856595394
          -0.00117297975261581 -0.0004131185352365494 -0.0014740106077307342 -0.0006455065013619665 -0.0017750414628456583 -0.0008778944674873835
          -0.020913835059004966 -0.020262973355306982 -0.021762747297068258 -0.02284451252056517 -0.020394480265935468 -0.019780004867049797
          -0.02140047918574574 -0.022478034561005153 -0.01987512547286597 -0.019297036378792615 -0.021038211074423233 -0.02211155660144514
          -0.005112619454505995 -0.005074088267532566 -0.007462333037725571 -0.005291286262968306 -0.005341967371015639 -0.007542303712530405
          -0.005469953071430616 -0.005609846474498713 -0.007622274387335238 -0.00003257015556406241 -0.0000018882743250469156 -0.00009453358401740072
          -0.00004597347724702145 -0.00015649701247073903 -0.00009005868016899597 -0.005249071083144109 -0.003749233674651184 -0.005337798235346426
          -0.003900701314620201 -0.005426525387548743 -0.004052168954589218 -0.0024170096430775737 -0.0030399326698987684 -0.002742165053967229
          -0.0034697821904977467 -0.0030673204648568836 -0.0038996317110967247 -0.0010787387288393733 -0.0004356631241252581 -0.0013833919699396246
          -0.0005955198254486102 -0.001688045211039876 -0.0007553765267719622 0 0 0
          -3.2046169630458416e-7 0 0 -6.409233926091683e-7 0 0
          -0.000544693657907815 -0.00022746718143765334 -0.0006129927193931117 -0.0006179597189264657 -0.0002717335650955256 -0.000741508018838754
          -0.0006912257799451165 -0.00031599994875339786 -0.000870023318284396 -0.017816750213156346 -0.01892219885923244 -0.018681884969299168
          -0.017288189044759088 -0.0183972801897992 -0.01818366226631331 -0.016759627876361826 -0.01787236152036597 -0.017685439563327455
          -0.019551702715659244 -0.01902874097900114 -0.018505779242343035 0 0 0
          0 0 0 0 0 0
          0 0 0 -0.01763574128322936 -0.018430358403170182 -0.0171519623652844
          -0.018072939650991434 -0.016668183447339443 -0.01771552089881269 0 0 0
          0 0 0 -0.022932309487643257 -0.01866366152304856 -0.022654934720506822
          -0.018384241825144202 -0.02237755995337039 -0.018104822127239836 -0.01268720631060655 -0.011684952856554012 -0.012596543878335378
          -0.011783137787695639 -0.012505881446064208 -0.011881322718837267 0 0 0
          -0.0008390295507541718 -0.0009224884356016827 -0.0010059473204491935 -0.005974123521771244 -0.003585909748775117 -0.006444709283356767
          -0.004475137174239747 -0.006915295044942288 -0.005364364599704377 -0.0009014569720587288 -0.0011003031497803003 -0.001299149327501872
          0.0003939379564556884 0.0013684347281220767 0.002342931499788465 0 -3.2046169630458416e-7 -6.409233926091683e-7
          -0.00010971578038633132 -0.00016544006619386437 -0.00022116435200139742 0 0 0
          0.0001654908258719069 0.0012263449486359605 0.0022871990714000145 -0.009828375644738556 -0.010026971454816411 -0.010225567264894266
          -0.023866767685628745 -0.02361193898589209 -0.02335711028615544 -0.013481076027652129 -0.013000953106403345 -0.012520830185154559
          0 0 0 0 -0.00010609263805961686 -0.00021218527611923372
          -0.0016380841833688845 -0.0016215583400410389 -0.001605032496713193 -0.0017103215249557057 -0.0017014785641527885 -0.0016926356033498714
          -0.0019471000634436462 -0.0019259976958129214 -0.001904895328182196 -0.0018381827666081227 -0.0018283475024440782 -0.0018185122382800342
          -0.0021398909290681898 -0.002118122463589225 -0.0020963539981102594 -0.0021464256719913788 -0.0021293014344871647 -0.00211217719698295
          -0.0019069310392102968 -0.0019024128841050596 -0.0018978947289998223 -0.0013918320581769803 -0.0014043487125732484 -0.0014168653669695164
          -0.0007317535568344478 -0.0007575653146826003 -0.0007833770725307528 -0.0005900114410485424 -0.00034991924039219787 -0.0006390780224095379
          -0.00038251711442806525 -0.0006881446037705335 -0.00041511498846393257 -0.0000750565119149836 -0.0000032604565650069095 -0.000007913677410256084
          -0.00011610359221927946 -0.00007763172764764266 -0.0000035786799634719147 -0.000008989814692274242 -0.00012689094284609357 -0.0000802069433803017
          -0.000003896903361936919 -0.000010065951974292401 -0.00013767829347290767 0 0 0
          -0.0002555095164174108 -0.0002660651458772689 -0.00027662077533712707 0 0 0
          -0.0016444906795248957 -0.0016743595156163403 -0.0016374679126270526 -0.0016661297871175757 -0.0016304451457292094 -0.0016579000586188113
          -0.0018455162463683647 -0.0018362567543394538 -0.0018269972623105428 -0.001500417677975499 -0.0014960799711925246 -0.0014917422644095501
          -0.0016961009103431278 -0.0016896796693862519 -0.0016832584284293757 -0.0013723954518016371 -0.0013719603139914576 -0.001371525176181278
          -0.0009038541754505606 -0.000909608265575607 -0.0009153623557006534 -0.0004415101241358149 -0.0004475134689018985 -0.0004535168136679821
          -0.00012722957302267315 -0.00012961476305375805 -0.00013199995308484295 0 -0.000004629186358553534 -0.0000029683718788163543
          0 -0.000004868669636416331 -0.0000030918038428637817 0 -0.0000051081529142791284 -0.000003215235806911209
        </DataArray>
        <DataArray type="Float64" Name="disp_x" format="ascii" RangeMin="0" RangeMax="0.000014064512329929943">
          1.4060699484659523e-7 0 1.406406668175223e-7 0 1.4054512731312453e-7 0
          1.3941564717779158e-7 0 1.3958405571536896e-7 0 1.3948295875946677e-7 0
          1.3799357462790635e-7 0 1.385357936581494e-7 0 1.389130711784836e-7 0
          1.3655601054984776e-7 0 1.3824757856757945e-7 0 1.4038201844082562e-7 0
          1.3621842572668223e-7 0 1.3904689205700706e-7 0 1.4830637597479417e-7 0
          1.6598043065535946e-7 0 1.7365175911228067e-7 0 1.9866657847550507e-7 0
          2.815500988429523e-7 0 2.90792054603743e-7 0 3.198069087750709e-7 0
          5.14183965227941e-7 0 5.175603281486176e-7 0 5.314169392010153e-7 0
          9.310456162136789e-7 0 9.162015217165812e-7 0 8.731564563719375e-7 0
          0.0000017809496785139878 0 0.0000017230512143141507 0 0.000001531828305245263 0
          2.8115419628131105e-7 2.813300761346062e-7 2.812605826210126e-7 2.7869522703189013e-7 2.7922592384151397e-7 2.793571514938363e-7
          2.756790901416098e-7 2.771984954844292e-7 2.7883850152490334e-7 2.730040630946402e-7 2.7621825896642627e-7 2.81949366640136e-7
          2.752364920496476e-7 2.813199812863784e-7 3.039479313323627e-7 3.4865300996181443e-7 3.639574907553068e-7 4.1238261813326725e-7
          5.868912118831108e-7 6.035814909847534e-7 6.569724655215282e-7 0.0000010531348694319609 0.0000010589486119262214 0.0000010820520346637992
          0.000001878701291808674 0.000001849264606515791 0.0000017671478843082576 0.000003473660421251254 0.0000033685766340608495 0.0000030285315883329036
          4.215365185931253e-7 4.2209704347600914e-7 4.224020802511581e-7 4.175797173174764e-7 4.1892749519210985e-7 4.2024103192856097e-7
          4.130788607959838e-7 4.16080249980932e-7 4.2067533809135775e-7 4.0931663463623083e-7 4.1377761239932766e-7 4.272452101757115e-7
          4.2504564216891074e-7 4.368455351178286e-7 4.788185253795272e-7 5.646661340501121e-7 5.862885538567465e-7 6.542450756664418e-7
          9.366740490762905e-7 9.581176875877872e-7 0.0000010276199299448893 0.0000016396764741466618 0.0000016454473413577686 0.0000016690177277702143
          0.0000028451008555051445 0.00000280316309796414 0.000002689513409147778 0.0000050083763757252 0.0000048739818797376525 0.000004448737901725955
          5.615296377481504e-7 5.628845750621839e-7 5.643720585013176e-7 5.559230165978328e-7 5.587375357890109e-7 5.632037478131931e-7
          5.503401180218533e-7 5.5468437005036e-7 5.648365847150595e-7 5.477349345937005e-7 5.560713500291864e-7 5.872168438627645e-7
          6.007225200492384e-7 6.202454324526129e-7 6.826335652495868e-7 8.281331268905142e-7 8.541209972824542e-7 9.364250925167855e-7
          0.0000013473293619024966 0.000001370233075509072 0.0000014448946986107518 0.00000228627348792143 0.000002288567217725894 0.0000023020857412240637
          0.000003824163064149947 0.000003772852205398854 0.000003634555629828325 0.00000633334723802267 0.000006191012640016084 0.000005752716571409421
          7.008750790672874e-7 7.035893220893392e-7 7.080968149943222e-7 6.941445135330273e-7 6.987025285300313e-7 7.084686037428039e-7
          6.870191935942107e-7 6.944208748317708e-7 7.205895091527686e-7 7.011814193622876e-7 7.183562234604488e-7 7.731312853843172e-7
          8.183898204366596e-7 8.440481868879922e-7 9.242377129488e-7 0.0000011509141974456882 0.0000011793343828583697 0.0000012688897269844535
          0.0000018283983047755151 0.0000018488995634627002 0.0000019169202813603676 0.0000029920785298247573 0.000002988002735022304 0.0000029816809595168225
          0.000004796074727360813 0.000004737738571465594 0.000004581309308497078 0.000007464678261625027 0.000007332732914177623 0.000006930617325764538
          8.3997778237539e-7 8.443957574261064e-7 8.539443800307367e-7 8.319724832344972e-7 8.392979925036402e-7 8.636069138295996e-7
          8.318871521798592e-7 8.481154629287775e-7 8.97948861286312e-7 8.90443148213178e-7 9.152573634254935e-7 9.917657661588334e-7
          0.00000109048865018469 0.0000011200243975464732 0.000001212080736635335 0.0000015424575595300556 0.0000015701070351402096 0.0000016576569626564124
          0.000002380241941907777 0.0000023949635413729534 0.0000024457528150941524 0.0000037421823370971912 0.0000037300570136391947 0.000003698104155729061
          0.000005736259990083064 0.000005674792108499876 0.000005506102328555788 0.000008409029848136655 0.000008298757174419227 0.000007959977421096913
          9.793673383047567e-7 9.857105991206954e-7 0.0000010065422254792652 9.77261031520312e-7 9.90928948476369e-7 0.000001034331398433214
          0.0000010093064152610377 0.0000010309838008893827 0.0000011003875158474152 0.0000011322212867117786 0.0000011595461715119346 0.000001248413830553394
          0.0000014295086263729708 0.000001457743212544357 0.0000015504008686580156 0.00000200716760363612 0.000002029641053599338 0.000002104092828236933
          0.000002993419070476624 0.000003000458029958588 0.000003026997283798542 0.000004511102540822991 0.000004492445958711592 0.000004436071829046455
          0.0000066134872179328585 0.0000065560700768351305 0.000006385809606569747 0.00000918587657039263 0.000009104585993081236 0.000008840585169869383
          0.0000011285650928231975 0.0000011359585846163345 0.0000011680273256747642 0.0000011541580123792427 0.0000011670754264565038 0.0000012204588883269525
          0.000001238798400684202 0.0000012564829655275276 0.0000013292149698763476 0.000001442242330385781 0.0000014625277170032937 0.0000015445783911023619
          0.0000018440478533415515 0.000001863231659887153 0.0000019387857539600367 0.0000025421723507468428 0.0000025551471888467623 0.000002604799321458499
          0.000003650355194239383 0.0000036504929809959384 0.0000036517820658435745 0.000005266465220031796 0.000005247745215857365 0.00000517868431829803
          0.000007398075762677216 0.0000073554816943204165 0.000007205001712308984 0.000009818870612105022 0.000009771010983011699 0.0000095881165551747
          0.000001525709848201875 0.0000015419115572176202 0.0000015936028010479846 0.0000018204429291947142 0.000001837250085184558 0.0000018895915771249822
          0.0000023274816700147027 0.000002341600712865546 0.000002383747378488795 0.0000031320735247015586 0.0000031394460719276073 0.000003158713905726231
          0.000004328235652752857 0.000004324385049815409 0.000004307511306832707 0.000005985332835874778 0.000005966445711214325 0.0000059029215970759045
          0.000008077943341697386 0.0000080434093060216 0.000007934894891574327 0.000010331386713565306 0.000010297541227931709 0.000010191137761551288
          0.000013023767947016691 0.000012732342207110062 0.000012738753979762053 0.000013031651808218713 0.000013022120845949521 0.000012708614469094897
          0.000012736913682358786 0.000013030518097645068 0.000012995710876236352 0.000012812752168624355 0.000012750560987654864 0.000013039862622616248
          0.000013301897345418165 0.000013322625462359762 0.000013295873040856592 0.000013322645947003503 0.000013327641196310709 0.00001333477998417144
          0.000013284972338825385 0.000013493193327472432 0.000013502299911107024 0.000013267596028546739 0.00001348975761842833 0.000013490153632279768
          0.000013306608095061116 0.000013508930468710422 0.000013530941223858294 0.000003503013277683519 0.00000538351008408036 0.000004371157560282969
          0.0000030904938282500263 0.00000334653068950979 0.000005163261266194344 0.0000041598260194356155 0.0000029328178591763364 0.0000028704448840206382
          0.0000044784878965214865 0.0000035258089798189308 0.000002481015794426943 0.000011605189329073112 0.000011784377597890593 0.000012273196775377277
          0.00001220431356424607 0.000011495816351800377 0.000011699334477101018 0.000012503517989686707 0.000012234199116252805 0.000011166906405490125
          0.000011261425801149696 0.000013035804940548945 0.000012282369800637034 0.000006649600862346365 0.000007416927644269716 0.0000061966424699432854
          0.000005449831159983778 0.000006477170116390721 0.000007213755323765775 0.000005990271827846569 0.00000528548608339256 0.000005931022504827138
          0.000006584535484798208 0.000005356342757788346 0.000004759568126432212 0.000010417048222819948 0.000009723710481614286 0.000010525044796683927
          0.00001114791412820639 0.000010312230641657849 0.000009604073636829558 0.000010453309587112205 0.000011087415418995604 0.000009950723221664003
          0.000009231230708564447 0.000010212320381604858 0.000010851659188000973 0.000010513561835778907 0.000010002194376024079 0.00001047046013481528
          0.000009935660606376995 0.000010318239347196205 0.00000970641245477177 0.000005234597440208421 0.0000068285806788593434 0.000005039128483430531
          0.000006595586602339158 0.000004435595862445469 0.000005873245816257176 0.000013143751190735516 0.000013364396771672405 0.00001341403369955039
          0.000013126193613552258 0.000013141208755674692 0.000013353080937436543 0.000013396330635329233 0.000013125747800149271 0.000013056357459204453
          0.000013295358773107367 0.000013316265501049634 0.000013003930941603518 9.867013342057864e-7 0.000002189165384181873 0.0000016645258770596473
          0 9.538607616338584e-7 0.0000021112180701469445 0.0000015870638573283401 0 8.260820372733442e-7
          0.0000018404490160116168 0.0000013538317066243942 0 0.000006452788039232303 0.000005763916799274772 0.000006197957127224084
          0.0000055078977225714375 0.000005388484030028243 0.000004680877372168438 0.000012692221616427646 0.000012597570015765664 0.000012971341248582875
          0.000013062330767549368 0.000012691801177990503 0.000012595797942974805 0.000012971044072297114 0.000013062668421975675 0.000012688100353866052
          0.00001259084438405194 0.000012972457861568735 0.000013068357842383798 0.00000828634299419911 0.000004547001079725786 0.000004459082271859226
          0.000007431011224080075 0.000008143963803202852 0.000004458136162446851 0.000004339112626228725 0.0000072067770365214406 0.000007124796535961192
          0.000003759236800431531 0.0000035690925366562425 0.000006032242969706261 0.000013710201906248984 0.000013567691937008476 0.000013533059127520528
          0.00001369210552161954 0.000013672565510813683 0.000013537005974013335 0.000013508919552985084 0.000013680676162471418 0.000013801323402944197
          0.0000135724141967177 0.000013585954593713956 0.000013635685370788406 0.000009204591920710674 0.00000957611493838602 0.000009060144631066177
          0.000009428767851289359 0.000008599172558800443 0.000008936311311503984 0.000003969715372828224 0.00000382553292136818 0.000003366415960358299
          0.000012879343662064562 0.000012591850128229938 0.00001286881139058765 0.000012591451662545362 0.000012748839587297459 0.000013094951560598278
          0.000012329451824678694 0.000012175194842772941 0.0000124173435151152 0.000012508681600846901 0.000012124236985160248 0.0000124126899026967
          0.000013364443775056715 0.000011932579405223936 0.000012374136048380041 0.000009760227875349261 0.000010595853520633544 0.000009838069565283873
          0.00000820481900567901 0.000009528693999937094 0.000010383469124490175 0.000009539642670210316 0.000007915429569249468 0.000008819590079287909
          0.00000975958084152709 0.000008707424071403717 0.000007045861112695558 0 0.0000016580140489704088 0
          0 0.0000015714350377976366 0 0 0.0000013301480206623932 0
          0.000011030441391969257 0.000009486845804916934 0.00001099019080297166 0.0000093829749443726 0.000010849829920231685 0.000009071588237961081
          0.000012565772890900212 0.000012843895217163681 0.000012707296795570332 0.000012709338594895114 0.000012815508216511325 0.000012247613646238815
          0.000011551039137767198 0.000011979781126852016 0.000011479787792725127 0.000011942789691360494 0.000011117857552297687 0.000011790139760567308
          0 0.0000018126346561669046 0.000002256932611915196 0 0 0.0000017203431498058697
          0.0000021677223229901352 0 0 0.0000013791678555821831 0.000001705096718157286 0
          0.000008649715922178463 0.00000930127248625782 0.000008088755361231097 0.000008465893407345289 0.000009110794409804844 0.000007861777925528214
          0.000007886206540896821 0.000008480805942662627 0.000007163095307857022 0.000012370380734379486 0.000012495586721417032 0.000012371161038682222
          0.000012494187015347035 0.00001236175694022059 0.000012492400917697512 0.000007974934489990152 0.000008734881984609424 0.000007810794205640238
          0.00000860097953191911 0.000007305344449758142 0.000008196812956567122 0.000010771561508108884 0.000010882069530790791 0.000010659907548988591
          0.00001073126683643743 0.000010222445175995178 0.00001018870016127139 0.000011354138655613079 0.000011812120810674198 0.000011283500450803172
          0.000011786845593342197 0.000011000968659047547 0.000011683653924367641 0.000013664009659959122 0.000013507916955230676 0.000013652406945215545
          0.000013655338810125889 0.000013505963179609092 0.000013648414941549059 0.000013660955078738291 0.000013523392810502237 0.000013659922566819728
          0.000011702172380366165 0.000012212120497862798 0.00001158335319771248 0.000011684111216103942 0.00001220729624548515 0.000011553714076579867
          0.00001162700299310786 0.000012189349975185828 0.000011449623313361588 0.000001542473822063148 0.0000012622317590282978 0
          0.0000014609103882148737 0.0000011988189741897776 0 0.0000011948187947926047 9.691881276018055e-7 0
          0 0 0 0.00001364148016328961 0.000013500614369778819 0.000013453846201821723
          0.000013640288763824889 0.000013641642198992725 0.000013501589296476215 0.00001345513397201135 0.000013640900273720843 0.000013651964249326664
          0.000013512665562823987 0.000013465075497684668 0.000013650083323859099 0.000002910354044774765 0.0000034480068817099586 0.0000027602933363165875
          0.0000032790293475516723 0.0000022787352344688747 0.0000027109824870649306 0.000013510689836973973 0.000013644790076444926 0.000013510935656222363
          0.000013643549245877706 0.000013523625933759308 0.000013655759492506093 0.0000024358281103701273 0.0000047743505293788406 0.0000023689239281683477
          0.000004584648109646832 0.0000019171116058340364 0.0000036829680876809087 0.000007966914968926258 0.00000943390036161778 0.000007664402963263682
          0.000009206921866636963 0.000006676825346814341 0.000008183780687200063 0.000013327137642222657 0.000013328234659448565 0.00001333906855163161
          0.000011064857712773074 0.000011031560540519037 0.000010940165925850844 0.000011454498877872593 0.000012056505058836736 0.000011293979950461867
          0.000012082321427470112 0.000010653223630632419 0.000011557114101239866 0.000011217213196011055 0.00001117715806542628 0.000011009157945900619
          0.000012653231563282633 0.000012694417603348739 0.000012885696419042312 0.000013678440868116577 0.000013666112890347673 0.000013651917981358434
          0.000012231763136435452 0.000012229583172356847 0.000012204246449781718 0.000013328720058871046 0.000013330831939978302 0.000013337865391848842
          0.00001265900862257121 0.000012912349797938009 0.000013106375316358915 0.000011262980373272379 0.00001112010439494601 0.000010117839647819236
          0 0 0 0 0 0
          0.00001364193626693446 0.000013643014871987927 0.000013651162640177308 0.000013717089047324848 0.000013660196871516122 0.000013841659220223245
          0.0000036009899500221996 0.0000036048008085052693 0.000003607520468444723 0.000005616467625951942 0.000005614326033523512 0.000005614067922865151
          0.0000044742713347557085 0.000004473395253850041 0.0000044623870553447475 0.000006733935279441491 0.000006727432178703529 0.00000671395737762331
          0.000005598873370342317 0.0000055924299264102955 0.000005567587130028952 0.000006986836942373541 0.000006974716187776259 0.000006938083922583564
          0.0000086073320420738 0.000008590488846800874 0.000008546769995220371 0.000010328336871900572 0.000010311414850381402 0.00001027093469939968
          0.000011890894570766753 0.00001188463677180053 0.000011866075814871528 0.000011732990920554279 0.00001216234523728135 0.000011721206883280194
          0.000012161063274809628 0.00001168507785944611 0.000012142543762032412 0.000012887762266270877 0.000013233036261954546 0.00001299301546963489
          0.000012583125054688303 0.000012886222472515299 0.00001323353202329936 0.000012992511300225415 0.000012581431345981005 0.000012882871179929717
          0.000013235636811648823 0.000012993350181214252 0.000012576104909430133 0.000013350117326097626 0.000013351513962539313 0.000013357118206560108
          0.000012522329235157886 0.000012520284204382981 0.000012509565925114627 0.000013789431578711988 0.000013790666424990677 0.000013795159632559217
          0.00000896181707959424 0.00000775223710346853 0.00000895582147196221 0.000007749912051163907 0.000008936538624375989 0.000007741525665221535
          0.000008017071302918854 0.000008006802262762503 0.00000798034460360564 0.000010223162341205796 0.000010213908500466573 0.000010184757604992104
          0.000009410237885396833 0.000009397665769460083 0.000009360750842398139 0.000010808517390255692 0.000010795918908508932 0.000010754671132862516
          0.000012048329584539855 0.000012040346258789829 0.000012006001376797722 0.000012913646895694611 0.00001290980880350026 0.000012896045240766184
          0.000013152700711023171 0.000013150778630215636 0.000013146885724946077 0.000014060277799058862 0.00001350995995628873 0.000013911684449063842
          0.00001406129911361137 0.000013510234060702724 0.000013911950540981713 0.000014064512329929943 0.000013511636166420827 0.000013912912683652013
        </DataArray>
        <DataArray type="Float64" Name="disp_y" format="ascii" RangeMin="-0.000011018314625805112" RangeMax="-0.000002550736510329172">
          -0.0000025511274461919587 -0.000002550846103359082 -0.0000025510872946850352 -0.0000025508159613581945 -0.0000025510149587847185 -0.000002550736510329172
          -0.000002662947307668451 -0.000002662333340978129 -0.0000026627759088372912 -0.000002662184625109327 -0.0000026624603737491783 -0.0000026618938574617667
          -0.0000027667101685757158 -0.000002765395690544442 -0.0000027662412651656766 -0.0000027650374537825276 -0.0000027653286834363876 -0.0000027641869535696273
          -0.000002858992557114994 -0.0000028562938282420165 -0.0000028570448601588826 -0.0000028546992563722653 -0.000002854192045406372 -0.0000028526951211972094
          -0.000002937942133403502 -0.0000029328863969925093 -0.0000029309532965218544 -0.00000292625257390748 -0.000002915383257535729 -0.000002912261471716356
          -0.000003020014708891611 -0.0000030072469517611658 -0.000003005006793543046 -0.0000029921535997190054 -0.0000029603185807453038 -0.0000029483720327161204
          -0.0000031656877266135036 -0.0000031383980821455456 -0.00000313766767254423 -0.0000031102204370463134 -0.000003046210479720398 -0.0000030183050288155593
          -0.000003447461867175992 -0.000003400175507011839 -0.000003398006460310097 -0.0000033501171888807495 -0.000003238532076833408 -0.0000031881138460193446
          -0.0000039382938370994455 -0.000003855297350250837 -0.0000038676377442136 -0.0000037816758243116807 -0.0000036051958395402635 -0.000003508672826802692
          -0.000004691907158158365 -0.000004541526879082441 -0.000004599456703278135 -0.000004445150080852436 -0.000004235569368568726 -0.00000404959524960297
          -0.0000025519689517666343 -0.000002551884701210426 -0.0000025518152499046943 -0.000002664773999799976 -0.0000026645114846593997 -0.000002664079086282409
          -0.0000027707433108843835 -0.0000027698618260531464 -0.000002768601512173057 -0.0000028668729438439415 -0.0000028638546431948105 -0.0000028580817260315077
          -0.0000029539309534179288 -0.0000029461933523567032 -0.0000029264879269192534 -0.0000030610494590717356 -0.000003046173366852085 -0.000002999155164493404
          -0.0000032488508919695 -0.0000032213521103871444 -0.0000031312117983916227 -0.000003590976201824826 -0.000003543459041364172 -0.000003391736770065174
          -0.000004178623163731989 -0.000004114852911588407 -0.00000388198385364857 -0.000005116436154309406 -0.000005037844700243007 -0.000004748614364709153
          -0.0000025533495545179824 -0.0000025531575862209355 -0.000002552977150578777 -0.0000026678553653103445 -0.0000026673033970843312 -0.000002666618783164705
          -0.0000027775763992366834 -0.0000027758241186028408 -0.000002772927772660659 -0.0000028798658896792086 -0.000002875174205674299 -0.000002864560103588765
          -0.000002984702330740965 -0.000002976552557647271 -0.0000029517336591230903 -0.0000031367263494577228 -0.000003121853261280177 -0.0000030718813413980336
          -0.0000033918520754993115 -0.0000033652778733298066 -0.0000032778288578316417 -0.000003830907259698657 -0.000003787010685232368 -0.0000036485412306700066
          -0.000004560598165751522 -0.000004506912972480026 -0.000004315777178002172 -0.0000056390900044670714 -0.000005584851740930526 -0.00000540240430669199
          -0.000002555257541253059 -0.0000025547825238069843 -0.0000025543147421169343 -0.0000026723425533378885 -0.0000026711355950862815 -0.0000026693121639697458
          -0.0000027870529504187017 -0.0000027836822338265677 -0.0000027769089984281246 -0.0000028996800675217877 -0.0000028939135173709205 -0.0000028781535153947142
          -0.000003038682601143348 -0.0000030303771772281826 -0.000003000164909965036 -0.000003254323668317972 -0.000003239332704050116 -0.0000031869110843241924
          -0.000003599579137373447 -0.000003574644094181171 -0.000003492071545114699 -0.00000416146756078723 -0.000004122705623114404 -0.000004002900123621887
          -0.0000050400573968488476 -0.000004998702636012052 -0.000004856776674428259 -0.000006253533193371909 -0.000006227254302185973 -0.000006149984276447781
          -0.000002557796564791657 -0.000002556757607051826 -0.0000025552049103375523 -0.0000026783426428957536 -0.000002675735366598975 -0.0000026707286230410856
          -0.00000279924712326002 -0.000002794543341400756 -0.0000027833196336837674 -0.0000029335391520260616 -0.000002927872392259886 -0.0000029071311135541313
          -0.000003124735825371769 -0.0000031156911097091346 -0.0000030805678424746402 -0.0000034199775041006716 -0.0000034050859204865137 -0.000003352076992233325
          -0.000003874259432518758 -0.000003851495438263225 -0.0000037766596001929687 -0.000004568655106946982 -0.000004536828029638774 -0.000004440449590858572
          -0.000005575778109145319 -0.000005548346217432964 -0.000005458261733875682 -0.000006877398068218851 -0.0000068668502024102755 -0.0000068590586563902205
          -0.000002561171328070976 -0.0000025589806179502993 -0.0000025546888277023204 -0.000002685332559324867 -0.0000026814682521894513 -0.0000026725334460912757
          -0.0000028192589487583274 -0.000002814626193789584 -0.000002798932746993165 -0.0000029920704346435327 -0.0000029856811460920954 -0.0000029594851748483416
          -0.0000032489074986120154 -0.0000032389716940348404 -0.0000032004738133288892 -0.0000036378528389990374 -0.0000036233418863933204 -0.000003572251560632162
          -0.00000421190570935115 -0.000004191792591855334 -0.000004127962205086573 -0.00000503228085929993 -0.000005008730701142575 -0.000004938768544482355
          -0.000006134455247259795 -0.000006118490756679387 -0.0000060740191134302385 -0.00000743946815473408 -0.00000744442820719932 -0.000007486046497302149
          -0.000002564925172569762 -0.0000025617640647832745 -0.0000025540764323210376 -0.0000026971148255125763 -0.000002693070844471398 -0.0000026799012344907933
          -0.000002857595413267107 -0.0000028521966960674868 -0.000002830890802052513 -0.000003081511850500482 -0.000003073609468720649 -0.0000030425171015183386
          -0.0000034153169537012295 -0.000003404378829158082 -0.000003364417300248269 -0.000003907478531345448 -0.000003893325300267574 -0.00000384663302990955
          -0.000004601954363415023 -0.000004585098714577045 -0.00000453510349741028 -0.00000552994385964495 -0.000005514675333003715 -0.00000547125773865547
          -0.000006682401440410264 -0.000006677183686490305 -0.000006670904160007656 -0.000007948134783621051 -0.000007961793758076757 -0.000008028656499826581
          -0.000002572618325182608 -0.0000025689414809106267 -0.000002557452107201568 -0.0000027230537487937924 -0.000002717753155468398 -0.0000026990438842875955
          -0.000002921250255235538 -0.0000029136183070686926 -0.000002886207945135194 -0.000003206430620356332 -0.0000031961899354866725 -0.0000031607857813433705
          -0.0000036250917077730483 -0.0000036127873185803657 -0.000003572606426160431 -0.000004221383880716868 -0.0000042082972719153715 -0.000004168092681930903
          -0.000005026704396302032 -0.000005014855430935057 -0.000004980668876557754 -0.000006038763787388638 -0.000006033146608810791 -0.00000601547679633386
          -0.000007200464617176137 -0.000007204649464108639 -0.0000072267473680288056 -0.000008403075045375185 -0.00000841832822658866 -0.000008495552994198863
          -0.0000030144521200464674 -0.000003004907339555888 -0.0000029712391885256965 -0.000003368019517778417 -0.0000033560404333976622 -0.0000033173017284626806
          -0.00000387333412639567 -0.000003860216133214368 -0.000003822033993962286 -0.000004566997412629593 -0.000004554880781921605 -0.000004524482993423228
          -0.000005465331206289633 -0.000005456767914892533 -0.000005441865135718267 -0.000006539536256720121 -0.000006539657069607817 -0.000006549521265212701
          -0.00000768942809365107 -0.000007699008295847015 -0.000007746460819029655 -0.000008759821507902756 -0.000008781105849382439 -0.000008848875480758976
          -0.000008777762519533129 -0.000008776452067021968 -0.000008999118198817497 -0.000009069143297464158 -0.000008812287346069808 -0.000008814727200167964
          -0.000009026038413728334 -0.000009091542644955185 -0.000008866704588837375 -0.000008890447412076976 -0.000009097320896257825 -0.000009129598675834537
          -0.000008878335946813891 -0.000009106810950850534 -0.000008907219619878943 -0.00000912312581564611 -0.000008933285414645264 -0.000009162485838251192
          -0.00000862830341641301 -0.00000888591955459275 -0.000008687052012231753 -0.000008657108202103792 -0.000008912569629562342 -0.000008720552041936547
          -0.000008798716237227816 -0.000008947274537044366 -0.000008812365651731297 -0.000005474072280949743 -0.000005971773936213595 -0.0000059482875922795185
          -0.000005726391546276682 -0.000005367289380678907 -0.0000058916975836324914 -0.000005837000268006611 -0.000005589670602793805 -0.000004926517837070128
          -0.000005536064008438368 -0.000005325324312167525 -0.000005027637839832443 -0.000007652577554199623 -0.000008091126040183416 -0.000008045067697165616
          -0.000007696723225048143 -0.000007736778232280729 -0.000008265014215994163 -0.000008187599748188571 -0.000007734898190089967 -0.00000769861630738836
          -0.000008411688657166938 -0.000007814889185175318 -0.00000784038687088419 -0.000006288690018558247 -0.000006591407903018873 -0.0000060834355145810035
          -0.00000584155016163912 -0.000006259923082809505 -0.000006578362375123055 -0.000006048721063499504 -0.000005788106315898556 -0.0000061689621202597235
          -0.000006510037972681606 -0.000005880904700471787 -0.000005588497022583233 -0.000008146876244986065 -0.000007922702214939134 -0.000008445553217103212
          -0.000008562547817013126 -0.000008176341805104497 -0.000007938018139620305 -0.000008463580914058434 -0.000008589494149808371 -0.000008305719573613552
          -0.00000803947700184977 -0.000008573143112716836 -0.000008713738891250806 -0.000008733745114534086 -0.00000832879023480857 -0.000008754264537318645
          -0.000008344268628456019 -0.000008849239557533967 -0.000008433746312903653 -0.000005802623884606368 -0.000006258801455444501 -0.000005734996556795409
          -0.0000062422509686997445 -0.0000054566741233724404 -0.00000611079693558636 -0.000008371815565385793 -0.00000839026435012885 -0.000008126432788983696
          -0.00000799857261365849 -0.000008430862121815998 -0.000008425615656135023 -0.000008175646900292849 -0.000008054609873885673 -0.000008487465908342107
          -0.000008574023472694003 -0.000008381418535975983 -0.000008451862270852086 -0.000004762377801501862 -0.000004964819432082223 -0.000005142853793853744
          -0.0000048800291762680874 -0.000004663188454341743 -0.000004864880066842271 -0.000005029245388332145 -0.00000476821102925456 -0.000004251325979847631
          -0.000004464397780764014 -0.0000045465902456044545 -0.00000429838613350831 -0.000006368469598433183 -0.000006462469066989296 -0.0000063075192530644546
          -0.000006348077672925071 -0.000005991726299167561 -0.000005819039310392083 -0.000009232502988654268 -0.000009536606709267749 -0.000009584404909164532
          -0.00000935767836213623 -0.000009254596259158738 -0.000009553313496987928 -0.00000959827854540244 -0.00000937272543644684 -0.000009307417713201726
          -0.000009595925798728304 -0.000009629502893436779 -0.000009408745102936479 -0.000009027757806438035 -0.000009874783635354952 -0.000008829509686276443
          -0.000007756957885388615 -0.0000087600469550064 -0.000009493987886567656 -0.000008491801910539576 -0.00000757638474122671 -0.000007975544631686463
          -0.000007738127654161108 -0.000007113553887542386 -0.000007084578174970192 -0.000008360380614881122 -0.000008339073559762898 -0.000008485986643045492
          -0.000008557567407230575 -0.000008399599085323478 -0.000008376642908151982 -0.000008510017900343425 -0.00000858988001403722 -0.000008540700087064043
          -0.000008616113713099433 -0.000008725677377783248 -0.00000875096003482491 -0.000007522985891735747 -0.000007627635741621262 -0.0000075346569906723876
          -0.000007647896700156678 -0.000007608573620685814 -0.000007746449174821581 -0.000005355514177000452 -0.000005266918550809029 -0.000004941753145762112
          -0.000008459166810795967 -0.000008540093064517753 -0.000008539109012875813 -0.000008586199414209948 -0.000008597394118754792 -0.000008398891392204363
          -0.000008378085825086152 -0.000008420830828366143 -0.00000869436090153649 -0.000008202936507308374 -0.00000844077458939123 -0.000008711513062834452
          -0.00000791560273606361 -0.000008662649650784429 -0.000008897558428929139 -0.000007330516914727236 -0.000007466383989237738 -0.000006854701454679976
          -0.000006644019391922457 -0.00000739211089943885 -0.000007535148292240344 -0.000006910978307080054 -0.0000066621405424602405 -0.0000074706169284834005
          -0.000007584769277694602 -0.000007072169702889184 -0.000006621330011644907 -0.000005239122451869726 -0.0000055991897539568085 -0.000005629562769723482
          -0.000005101380916509587 -0.000005443180189151233 -0.000005456960863665417 -0.000004545317605615001 -0.000004836994103497223 -0.000004797443177033074
          -0.000008874492098886115 -0.000007965546866444748 -0.000008897380506975522 -0.00000797939610639332 -0.000009001862320568701 -0.000008064786180319008
          -0.000007963266946164512 -0.000007679953872787823 -0.000008122572008570109 -0.000007592858389707844 -0.000008043066179672207 -0.000008092898522898876
          -0.000008299447585533425 -0.000008668842103669939 -0.000008335694567886122 -0.00000869607608984802 -0.000008502580830227794 -0.00000884952483431445
          -0.000008026461257249566 -0.000007312581305645568 -0.000008215662996989435 -0.000008984196437429285 -0.000007660276571230898 -0.000007005369873451553
          -0.000007859812068057132 -0.000008557940498924208 -0.000006150439127142313 -0.0000058732441593182164 -0.0000064136262651249295 -0.000006648189970601576
          -0.000007194088167787408 -0.00000732654089580573 -0.000006794023482965673 -0.000007202557934534973 -0.000007359133890755241 -0.000006793689645043846
          -0.000007231351684251153 -0.000007415335215324367 -0.000006734825882018376 -0.00000902204653866949 -0.000008906617760145982 -0.000009055205551937449
          -0.000008940466054237392 -0.000009147528042513219 -0.000009043275849100037 -0.000006954484983742758 -0.0000074577473260226045 -0.00000694489897274867
          -0.000007457336613083837 -0.000006947493434813877 -0.000007511242865266768 -0.000008091169604117784 -0.000007851942333126313 -0.000008132636924082658
          -0.00000793525261574687 -0.000008278824139151579 -0.00000809262510390978 -0.000008461521613788813 -0.000008922071281916329 -0.00000849041046889364
          -0.000008947950510167203 -0.00000863005308879113 -0.000009051949570502487 -0.00000891895799844387 -0.000009053204923026042 -0.00000908303250481418
          -0.000008943146613051153 -0.000009071572203917293 -0.00000910001649493004 -0.000008975929122682986 -0.000009101351172692015 -0.00000912928197647609
          -0.000009301971554149555 -0.000009465977935840212 -0.000009010663983620497 -0.000009322008265950942 -0.00000948616608833896 -0.000009035942560746015
          -0.000009393129476305704 -0.000009549165402719288 -0.000009137351631635292 -0.000005969417812380829 -0.000006587270484762404 -0.000006378704139982076
          -0.000005770851438223886 -0.0000063327513973016025 -0.00000613706124582856 -0.00000504769287728524 -0.00000540865276044743 -0.0000052336684075818505
          -0.000007160916750256149 -0.000006855176331802526 -0.0000056782585116594984 -0.000009378701002535566 -0.000009325344637354387 -0.000009456161567000151
          -0.00000951499137079899 -0.00000939036633475123 -0.00000933806397115195 -0.000009467594775658062 -0.000009525155031408736 -0.000009418840987313848
          -0.000009368215007491887 -0.000009496087066021542 -0.000009550978072963949 -0.0000062241167706383536 -0.000006835348952708847 -0.00000603167875067662
          -0.000006605841679861787 -0.000005323471342088742 -0.000005792259808722877 -0.000009199533949654852 -0.000009235042337795012 -0.000009213774824701544
          -0.000009248628136650926 -0.000009245767052035647 -0.000009278018350709808 -0.000008857264135169867 -0.000007596400666445759 -0.00000847271345666843
          -0.000007333855104422954 -0.000006815958108766237 -0.000006397828187552145 -0.000006845865032104971 -0.000007345003766274687 -0.0000067850233633847516
          -0.000007272965551681271 -0.000006490354181225473 -0.000007336535769407363 -0.000009312941670688537 -0.000009326806676577712 -0.000009357915572379268
          -0.000009067224468055864 -0.000009091655943808262 -0.000009159226329321854 -0.000007009669169301517 -0.000006890119871608917 -0.000007136122864697142
          -0.000007060012749401371 -0.000007535314553537141 -0.000007874932311578162 -0.000008736858243203194 -0.000008757019675617119 -0.000008864007750418781
          -0.000008110030666296427 -0.000008146400525609789 -0.000008477461797977352 -0.000008743396514170037 -0.000008774804696302522 -0.00000884238004462575
          -0.000009187683621983702 -0.000009215044581716598 -0.000009295140544323255 -0.00000962517350144862 -0.000009635561822590322 -0.000009660747056701177
          -0.000007702841885748569 -0.00000796871527329708 -0.000008344145428718633 -0.000007776869985543756 -0.000007689827428489297 -0.000008123583562926135
          -0.000009959142897965432 -0.000009479546669305976 -0.0000071380483093039424 -0.000004674244020653385 -0.000004572234664069906 -0.0000041532145233002035
          -0.000009644179407265226 -0.000009653069922262434 -0.000009676142132356974 -0.000008166582720847764 -0.000008212463232544053 -0.000008363283533803401
          -0.000004230194065475736 -0.000004221182809189617 -0.000004194247177869234 -0.000005320714602577002 -0.000005316286085555877 -0.000005302861816352774
          -0.0000049928172230182775 -0.00000498619565987249 -0.000004965927263463956 -0.0000062265260395630835 -0.0000062247566761343835 -0.0000062194756667412165
          -0.000005922547639043404 -0.000005920103188584682 -0.000005911568330710431 -0.000006986129171124275 -0.000006989302804090529 -0.000006997549738318148
          -0.00000809774478222189 -0.000008109279412247477 -0.000008139471296300968 -0.000009120855099203761 -0.000009137074748578152 -0.000009193802332366605
          -0.000009914203268436639 -0.00000993037601689198 -0.000009988105389998942 -0.000009554464467133949 -0.000009760161068782091 -0.000009573126856470003
          -0.000009774924151793465 -0.000009633887020218428 -0.000009829356753796704 -0.000010234336127097161 -0.000010312868883902165 -0.000009926361239672191
          -0.00000987185565263627 -0.000010243779282902829 -0.000010319871523360841 -0.000009936731843548243 -0.000009885237089762886 -0.000010269153176923056
          -0.000010338711915782591 -0.000009963212269783815 -0.00000992373168117377 -0.000009968651415882792 -0.000009976813394818614 -0.000009997564750615926
          -0.000010136483871980658 -0.000010149271657174998 -0.00001018485758521933 -0.000010477244281312887 -0.000010482413572032985 -0.000010495770484560664
          -0.000007415534184163972 -0.000006478015354112184 -0.000007418058723407851 -0.000006477581698076085 -0.0000074257472907633615 -0.000006476491319474714
          -0.000007227489718670338 -0.000007229447378674581 -0.000007235480205944168 -0.000008362651070439365 -0.000008368457407066869 -0.000008386053446078779
          -0.00000826086712273858 -0.00000826736403824685 -0.000008287582779234498 -0.000009228397918898587 -0.000009239570103754372 -0.000009274413610372234
          -0.000010011297263402185 -0.000010024630074678788 -0.00001006836471693104 -0.000010510064761057456 -0.000010520587654552677 -0.000010554147742550244
          -0.000010606618936200147 -0.000010614495596943743 -0.000010635559164495848 -0.000010948442331173255 -0.000010674047748279173 -0.000011003764602530449
          -0.000010952367279236109 -0.000010679339382841546 -0.000011007519375166425 -0.000010965481412689619 -0.000010694582115488241 -0.000011018314625805112
        </DataArray>
        <DataArray type="Float64" Name="disp_z" format="ascii" RangeMin="-0.000008005918536203084" RangeMax="8.796904134231969e-7">
          0 0 -6.335211358474594e-8 -6.343833779613395e-8 -1.2680745455161754e-7 -1.2690871410158917e-7
          0 0 -6.345785073342964e-8 -6.363186939771242e-8 -1.2726592089275292e-7 -1.2749156369501742e-7
          0 0 -6.377910530252845e-8 -6.413420958018132e-8 -1.286069409764065e-7 -1.2893971374822315e-7
          0 0 -6.412197166921406e-8 -6.439344076469454e-8 -1.3147932483360715e-7 -1.3191354463907332e-7
          0 0 -6.724491586104895e-8 -6.575580638300868e-8 -1.4196558959417848e-7 -1.3863878704582665e-7
          0 0 -1.0383052658862387e-7 -9.701818465340816e-8 -2.2947535455017047e-7 -2.1577834083442457e-7
          0 0 -2.224211241188833e-7 -2.1280205889027792e-7 -4.7497190149833535e-7 -4.576377336461022e-7
          0 0 -4.635609966897242e-7 -4.557878064210577e-7 -9.542503174900829e-7 -9.410602814399068e-7
          0 0 -9.119978300695957e-7 -9.161057761069209e-7 -0.0000018067610074004339 -0.000001816658933267497
          0 0 -0.0000018574680225574462 -0.0000019482385757121447 -0.0000035983380294303145 -0.000003761946256834769
          0 -6.307809876922503e-8 -1.2650089906383138e-7 0 -6.291500070749908e-8 -1.265704883415068e-7
          0 -6.282143487199329e-8 -1.2783855426446378e-7 0 -6.387535506604866e-8 -1.3076404601226226e-7
          0 -7.307857754393256e-8 -1.5668169516417542e-7 0 -1.2433704823724215e-7 -2.6933228253377106e-7
          0 -2.496644802754711e-7 -5.240876895636586e-7 0 -4.861310096336099e-7 -9.92758974706518e-7
          0 -8.948484147872008e-7 -0.0000017686406311545437 0 -0.0000016316245051534566 -0.0000031803006775002823
          0 -6.258809135456854e-8 -1.2592933600965842e-7 0 -6.194947192926723e-8 -1.2567267919954536e-7
          0 -6.201926977893268e-8 -1.267426842061054e-7 0 -6.491893812528885e-8 -1.350616124037132e-7
          0 -8.742648321570416e-8 -1.9049281015828146e-7 0 -1.5739783625526204e-7 -3.322789458118959e-7
          0 -2.9094434164954754e-7 -5.990144161621127e-7 0 -5.177152205042949e-7 -0.0000010440262970601839
          0 -8.661171982366466e-7 -0.0000017109341108139145 0 -0.0000013454937640188686 -0.0000026471143482518356
          0 -6.184325590103261e-8 -1.2525599727283504e-7 0 -6.121415207486579e-8 -1.2497727652607564e-7
          0 -6.197352005317764e-8 -1.2826246326796594e-7 0 -7.1586523342089e-8 -1.558560440932768e-7
          0 -1.1447979285664242e-7 -2.455397055254785e-7 0 -2.0074037822969816e-7 -4.146539338920864e-7
          0 -3.408665353034325e-7 -6.886167822759519e-7 0 -5.501095198088274e-7 -0.0000010963581080795513
          0 -8.229422480066213e-7 -0.0000016210862320735606 0 -0.0000010537308474083746 -0.0000021035093347988944
          0 -6.139037116263373e-8 -1.250508685892944e-7 0 -6.142339670256028e-8 -1.2698255432824087e-7
          0 -6.586949594379053e-8 -1.4298835073999515e-7 0 -9.166179814350351e-8 -2.0034685200625606e-7
          0 -1.5362326114116155e-7 -3.2118520201700243e-7 0 -2.519683772447492e-7 -5.106977176661617e-7
          0 -3.9203238295634944e-7 -7.79835889221876e-7 0 -5.732037959120738e-7 -0.0000011310131340774216
          0 -7.627441930074251e-7 -0.0000015011443139929662 0 -7.985605869892171e-7 -0.0000016267262997951122
          0 -6.22309128236376e-8 -1.2771457719519266e-7 0 -6.578018279674011e-8 -1.404796384343654e-7
          0 -8.315921733136362e-8 -1.8079779878106545e-7 0 -1.2805251885566462e-7 -2.693213981333618e-7
          0 -2.0366175805513505e-7 -4.1451653317117165e-7 0 -3.075117506822348e-7 -6.123825262695821e-7
          0 -4.363499984156449e-7 -8.587792043112772e-7 0 -5.767799441328729e-7 -0.0000011317976026840887
          0 -6.852774624853067e-7 -0.000001354693733568528 0 -5.888139742927024e-7 -0.000001220166842010675
          0 -6.80337722720539e-8 -1.401010597464763e-7 0 -8.350892745636941e-8 -1.741094888615221e-7
          0 -1.1927751986981222e-7 -2.4393059401725853e-7 0 -1.7976622390894403e-7 -3.601554357058272e-7
          0 -2.630406481710713e-7 -5.196283139269183e-7 0 -3.621256830032831e-7 -7.098405971031446e-7
          0 -4.6600772908726805e-7 -9.126367209620418e-7 0 -5.545696184803353e-7 -0.0000010913508109659144
          0 -5.867452254292808e-7 -0.0000011754630154852067 0 -4.2027764772643916e-7 -8.976663256318945e-7
          0 -8.50327115621896e-8 -1.692262873168871e-7 0 -1.1777679308662595e-7 -2.3019622207154638e-7
          0 -1.707940297527309e-7 -3.2965622906291314e-7 0 -2.4288170031493785e-7 -4.668497875228297e-7
          0 -3.2634136473293287e-7 -6.285080619491181e-7 0 -4.0908250702764493e-7 -7.930923501429502e-7
          0 -4.7509417152501213e-7 -9.322317064798895e-7 0 -5.043661426273722e-7 -0.0000010067053390764157
          0 -4.682632322830739e-7 -9.6803073788393e-7 0 -2.8487174558793294e-7 -6.331755886717937e-7
          0 -2.2174099961495732e-7 -4.4381134895518293e-7 0 -2.99864435063343e-7 -5.952406763623295e-7
          0 -3.770158802456484e-7 -7.44694752468223e-7 0 -4.366518964126273e-7 -8.611756835686455e-7
          0 -4.612978982719864e-7 -9.11341110152615e-7 0 -4.3758258680097817e-7 -8.670124118184528e-7
          0 -3.539119921664234e-7 -7.125594120874883e-7 0 -1.9480499282582234e-7 -4.0003149526126963e-7
          0 0 0 0 -3.236117489314252e-10 -2.3222841999443137e-8
          -2.7904055415750416e-8 -1.2122296156931853e-8 -3.0165275802911495e-8 -3.792683707531683e-8 -6.350032643108333e-8 -3.459051101035866e-8
          0 0 3.782870967223434e-9 -1.819572692927543e-9 6.984645498589964e-9 -9.829867798373462e-9
          0 0 0 1.1469853362504972e-8 1.3929428664546011e-8 2.420630238964334e-8
          2.4783527970865607e-8 2.174670005533986e-8 2.0155195349176587e-8 0 0 0
          0 -0.0000022173377775804053 -0.0000019638072723172226 -0.000002425944133046749 -0.0000024959780843127237 -0.000004298491754504119
          -0.000003837610885832476 -0.000004764512349535063 -0.000004869145009592432 0 0 0
          0 -4.217288742023532e-7 -2.9839262058128614e-7 6.128941927476278e-7 -2.7478293959253226e-7 -9.476534100596337e-7
          -5.438848073140307e-7 2.0160286134297368e-7 -0.000001091600272565353 0 0 0
          0 -0.0000011812103181811265 -0.0000011482050793768695 -0.0000015110466638327759 -0.000001496724261307098 -0.000002329701794415652
          -0.0000022954268602237985 -0.0000029770908554651797 -0.0000029359032413918505 0 0 0
          0 -3.524601804274076e-7 -4.4246885098937676e-7 -2.680262401072447e-7 -1.9397281505097453e-7 -7.683340537254452e-7
          -9.424630095487899e-7 -6.310229656669821e-7 -5.008512764071845e-7 0 0 -2.2039178417193185e-7
          -3.1457443553315905e-7 -4.7049827361619335e-7 -7.073625766452049e-7 0 0 -0.0000017502574553287273
          -0.0000015607018972388408 -0.0000033871296263808593 -0.0000031006419272921816 0 0 0
          0 2.177249468825772e-9 1.7606690427402446e-8 3.436318269537664e-9 1.571330554596259e-8 -7.596115489749923e-8
          5.83738265889182e-8 2.283270690126535e-8 -9.170393393393611e-8 0 0 0
          0 -0.0000021251948427175124 -0.000002067715107896986 -0.000002367566151685353 -0.00000231444265847653 -0.000004103952666117236
          -0.0000039751044769610385 -0.000004575310804058846 -0.000004487407135684487 0 0 -0.0000019196194663432532
          -0.0000023645284145665045 -0.0000037325424670428724 -0.00000474130876848848 0 0 0
          0 -3.525867011512176e-8 -4.597095820796952e-8 -3.041065657658467e-8 -2.0479476273815454e-8 -7.692226499695554e-8
          -9.2769287640901e-8 -6.588072993719062e-8 -4.5947577298196165e-8 0 0 0
          0 -0.0000026992623951019855 -0.000003502819878331525 -0.0000031253487122764458 -0.0000024716222877706126 -0.000005490211255975428
          -0.000006997328046021173 -0.000006078799688889148 -0.0000049340095492728966 0 0 0
          0 3.593265139445391e-8 1.1412628447797247e-8 3.059914037827505e-8 4.333644322291901e-8 -1.1651886055296278e-7
          -1.1176877451433049e-8 6.554918668671218e-8 9.996330543130357e-8 0 0 -6.066818693678636e-7
          -5.755645058156968e-7 -0.000001271773521509903 -0.0000012624179279267304 0 -0.0000018380496762859005 -0.000003573179700622242
          0 0 1.8805480245990888e-10 -3.754864683023838e-8 -4.8432885508785925e-8 8.796904134231969e-7
          0 0 0 7.716511730344479e-8 -8.039075581465403e-8 -3.1217190103774045e-8
          6.539148619569975e-7 -3.2848149928162493e-7 -1.1761788360062818e-7 0 0 0
          0 -8.451489035448411e-7 -6.881962850847547e-7 -0.0000012778112374462187 -0.0000014228580051138787 -0.0000018397753250362283
          -0.000001705951347291015 -0.000002646927721392848 -0.0000028342966906758927 0 0 0
          -0.000002477899624424765 -0.0000025916887393265672 -0.0000026896149018229584 -0.0000047553940770950784 -0.000005066404953165885 -0.0000052315501912333545
          0 0 -1.7341766989331908e-7 -4.347182878121324e-7 -3.968959089385511e-7 -9.39597405110223e-7
          0 0 1.9745344569202998e-7 4.952647560327518e-8 -2.4464861632944413e-8 -4.980822270777735e-7
          0 0 -2.0658892688673613e-7 -9.803743080851749e-8 -4.962176294899714e-7 -2.6718988628878605e-7
          0 0 0 0 -0.0000031780062405489312 -0.0000030678355823308996
          -0.0000033512011189431545 -0.0000035324745386432315 -0.000006176714652871908 -0.0000059918177810262775 -0.0000066301870562624355 -0.0000069543524733463015
          0 0 0 -8.322207277136723e-7 -8.047784157129541e-7 -0.0000011526001049682734
          -0.0000017172511749497975 -0.000001704382715322156 -0.000002339208732218701 0 0 -4.672019263390171e-8
          -3.906207675233963e-8 -1.146293597568828e-7 -9.852421941473055e-8 0 0 -8.487472655417801e-7
          -6.106052626416582e-7 -0.000001722545887220705 -0.0000012650010530889055 0 0 -3.7545046748809563e-7
          -4.801516835713791e-7 -8.59552932787299e-7 -0.000001104413048791742 0 0 -1.9399401554355754e-7
          -1.0026227377913823e-7 -5.222305519102141e-7 -2.4403419217720407e-7 0 0 0
          2.6330822093066023e-8 9.060526313285664e-9 1.6479176696170263e-8 3.166005861639311e-8 1.1056837923985016e-8 2.1428399279037213e-8
          0 0 0 -1.1295694771679601e-7 -7.042084736748103e-8 -1.1617621206811576e-7
          -2.567317793197144e-7 -1.535077972339748e-7 -2.6054554420851555e-7 0 0 0
          -0.0000027290609053932785 -0.00000289375219861354 -0.000002836032408458169 -0.000005303055870902567 -0.000005645963384657735 -0.0000055604478077833145
          0 -0.000002966805951827237 -0.000005771474530593331 0 0 0
          0 4.900931403043601e-9 -7.775366354683291e-10 -7.054312885880397e-9 1.677455712421645e-10 5.890853388918738e-9
          -4.26802082343302e-9 -1.6190917698661322e-8 -1.030805109763727e-9 0 0 -0.000002704197442022742
          -0.0000028614601715122297 -0.000005216493452155715 -0.000005641853466763632 0 0 4.140143840475193e-9
          1.0038619556270913e-8 3.090040891115286e-9 1.3117865701770205e-8 0 0 -0.0000034743129089931073
          -0.000002902818529474039 -0.0000069652887193555144 -0.000005716766890277044 0 0 -0.000001938954425065109
          -0.000001893555496182542 -0.000003831872080837673 -0.000003814182043795067 0 -8.286992221049403e-9 -1.9183628827050853e-8
          0 -1.6097088349334255e-7 -3.498454140125406e-7 0 0 -9.73675245395117e-7
          -5.544617222849629e-7 -0.0000019806477556399692 -0.0000012930976188294576 0 -1.695078307472912e-7 -3.731427246520031e-7
          0 -7.571702192952973e-8 6.694096905175652e-7 0 4.0279892591500636e-8 6.055241153962262e-8
          0 -6.376959192191e-8 -1.475572270562541e-7 0 -1.7353231218851427e-8 -3.871043944232699e-8
          0 -6.83161828380667e-8 4.899119984468358e-7 0 -0.0000014672996433494153 -0.0000030434798571622918
          0 -0.000004032494143123905 -0.000008005918536203084 0 -0.0000021245329479454454 -0.0000041151156568192535
          0 -3.785046431471102e-9 -1.0435562502901905e-8 0 2.6493302650680226e-8 -5.4607577422081616e-8
          0 -3.130520128290219e-7 -6.173763612224714e-7 0 -3.20707613425834e-7 -6.406669889588978e-7
          0 -3.585387066869462e-7 -7.075115626350077e-7 0 -3.3894058880683166e-7 -6.766746228576888e-7
          0 -3.8676723484944094e-7 -7.648153247643819e-7 0 -3.878344906196101e-7 -7.698632853850633e-7
          0 -3.522409029022237e-7 -7.025254988393882e-7 0 -2.697053677391093e-7 -5.494541574777092e-7
          0 -1.3172975227195036e-7 -2.723048756940259e-7 0 0 -1.2603816592734257e-7
          -9.505582113990705e-8 -2.882854255631167e-7 -2.0111607890003506e-7 0 0 0
          0 -5.926075801222893e-8 -4.1684229504268216e-8 -3.8146681643802656e-8 -6.07650024971911e-8 -1.2260217369855627e-7
          -8.304504223582155e-8 -8.169377219931494e-8 -1.2376470378276179e-7 0 -2.4736160184650653e-8 -4.658472421661973e-8
          0 -7.955040373054617e-8 -1.5831230542534677e-7 0 -2.1482440515264235e-8 -4.487497561690313e-8
          0 0 -3.08653570135856e-7 -3.1523996662170195e-7 -6.140182788351388e-7 -6.268138637693885e-7
          0 -3.391100433585093e-7 -6.764408192988011e-7 0 -2.8365079798938505e-7 -5.650087109936316e-7
          0 -3.15095555053601e-7 -6.280480746692324e-7 0 -2.619977199803751e-7 -5.222964690036654e-7
          0 -1.8265346062038338e-7 -3.6596419727577943e-7 0 -1.0016125344988101e-7 -2.0100716800458986e-7
          0 -6.733970427429639e-8 -1.3837467295982665e-7 0 0 0
          -2.8277563345065718e-8 -4.590869734667517e-8 -4.772416408393761e-8 -5.5176959106169745e-8 -9.206055514063622e-8 -9.658267296643411e-8
        </DataArray>
      </PointData>
      <CellData>
        <DataArray type="Int32" Name="libmesh_elem_id" format="ascii" RangeMin="40" RangeMax="1373">
          40 41 42 43 44 45
          46 47 48 49 50 51
          52 53 54 55 56 57
          98 99 100 101 102 103
          104 105 106 107 108 109
          110 111 112 113 114 115
          156 157 158 159 160 161
          162 163 164 165 166 167
          168 169 170 171 172 173
          214 215 216 217 218 219
          220 221 222 223 224 225
          226 227 228 229 230 231
          272 273 274 275 276 277
          278 279 280 281 282 283
          284 285 286 287 288 289
          330 331 332 333 334 335
          336 337 338 339 340 341
          342 343 344 345 346 347
          388 389 390 391 392 393
          394 395 396 397 398 399
          400 401 402 403 404 405
          446 447 448 449 450 451
          452 453 454 455 456 457
          458 459 460 461 462 463
          508 509 510 511 512 513
          514 515 516 517 518 519
          520 521 522 523 524 525
          526 527 528 529 530 531
          532 533 534 535 536 537
          538 539 540 541 542 543
          544 545 546 547 548 549
          550 551 552 553 554 555
          556 557 558 559 560 561
          562 563 564 565 566 567
          568 569 570 571 572 573
          574 575 576 577 578 579
          580 581 582 583 584 585
          586 587 588 589 590 591
          592 593 594 595 596 597
          598 599 600 601 602 603
          604 605 606 607 608 609
          610 611 612 613 614 615
          616 617 618 619 620 621
          622 623 624 625 626 627
          628 629 630 631 632 633
          634 635 636 637 638 639
          640 641 642 643 644 645
          646 647 648 649 650 651
          652 653 654 655 656 657
          658 659 660 661 662 663
          664 665 666 667 668 669
          670 671 672 673 674 675
          676 677 678 679 680 681
          682 683 684 685 686 687
          688 689 690 691 692 693
          694 695 696 697 698 699
          700 701 702 703 704 705
          706 707 708 709 710 711
          712 713 714 715 716 717
          718 719 720 721 722 723
          724 725 726 727 728 729
          730 731 732 733 734 735
          736 737 738 739 740 741
          742 743 744 745 746 747
          748 749 750 751 752 753
          754 755 756 757 758 759
          760 761 762 763 764 765
          766 767 768 769 770 771
          1186 1187 1188 1189 1190 1191
          1204 1205 1206 1207 1208 1209
          1222 1223 1224 1225 1240 1241
          1242 1243 1258 1259 1260 1261
          1276 1277 1278 1279 1300 1301
          1304 1305 1306 1307 1314 1315
          1316 1317 1326 1327 1328 1329
          1330 1331 1338 1339 1344 1345
          1348 1349 1356 1357 1358 1359
          1360 1361 1366 1367 1372 1373
        </DataArray>
        <DataArray type="Int32" Name="subdomain_id" format="ascii" RangeMin="103" RangeMax="143">
          103 103 103 103 103 103
          103 103 103 103 103 103
          103 103 103 103 103 103
          103 103 103 103 103 103
          103 103 103 103 103 103
          103 103 103 103 103 103
          103 103 103 103 103 103
          103 103 103 103 103 103
          103 103 103 103 103 103
          103 103 103 103 103 103
          103 103 103 103 103 103
          103 103 103 103 103 103
          103 103 103 103 103 103
          103 103 103 103 103 103
          103 103 103 103 103 103
          103 103 103 103 103 103
          103 103 103 103 103 103
          103 103 103 103 103 103
          103 103 103 103 103 103
          103 103 103 103 103 103
          103 103 103 103 103 103
          103 103 103 103 103 103
          103 103 103 103 103 103
          103 103 103 103 103 103
          103 103 103 103 103 103
          103 103 103 103 103 103
          103 103 104 104 104 104
          104 104 104 104 104 104
          104 104 104 104 104 104
          104 104 104 104 104 104
          104 104 104 104 104 104
          104 104 104 104 104 104
          104 104 104 104 104 104
          104 104 104 104 104 104
          104 104 104 104 104 104
          104 104 104 104 104 104
          104 104 104 104 104 104
          104 104 104 104 104 104
          104 104 104 104 104 104
          104 104 104 104 104 104
          104 104 104 104 104 104
          104 104 104 104 104 104
          104 104 104 104 104 104
          104 104 104 104 104 104
          104 104 104 104 104 104
          104 104 104 104 104 104
          104 104 104 104 104 104
          104 104 104 104 104 104
          104 104 104 104 104 104
          104 104 104 104 104 104
          104 104 104 104 104 104
          104 104 104 104 104 104
          104 104 104 104 104 104
          104 104 104 104 104 104
          104 104 104 104 104 104
          104 104 104 104 104 104
          104 104 104 104 104 104
          104 104 104 104 104 104
          104 104 104 104 104 104
          141 141 141 141 141 141
          141 141 141 141 141 141
          141 141 141 141 141 141
          141 141 141 141 141 141
          141 141 141 141 141 141
          141 141 141 141 141 141
          141 141 141 141 141 141
          141 141 141 141 141 141
          141 141 141 141 141 141
          105 105 105 105 105 105
          105 105 105 105 105 105
          105 105 105 105 105 105
          105 105 105 105 105 105
          105 105 105 105 106 106
          106 106 106 106 106 106
          106 106 106 106 106 106
          106 106 106 106 106 106
          106 106 106 106 106 106
          143 143 143 143 143 143
        </DataArray>
        <DataArray type="Int32" Name="processor_id" format="ascii" RangeMin="5" RangeMax="5">
          5 5 5 5 5 5
          5 5 5 5 5 5
          5 5 5 5 5 5
          5 5 5 5 5 5
          5 5 5 5 5 5
          5 5 5 5 5 5
          5 5 5 5 5 5
          5 5 5 5 5 5
          5 5 5 5 5 5
          5 5 5 5 5 5
          5 5 5 5 5 5
          5 5 5 5 5 5
          5 5 5 5 5 5
          5 5 5 5 5 5
          5 5 5 5 5 5
          5 5 5 5 5 5
          5 5 5 5 5 5
          5 5 5 5 5 5
          5 5 5 5 5 5
          5 5 5 5 5 5
          5 5 5 5 5 5
          5 5 5 5 5 5
          5 5 5 5 5 5
          5 5 5 5 5 5
          5 5 5 5 5 5
          5 5 5 5 5 5
          5 5 5 5 5 5
          5 5 5 5 5 5
          5 5 5 5 5 5
          5 5 5 5 5 5
          5 5 5 5 5 5
          5 5 5 5 5 5
          5 5 5 5 5 5
          5 5 5 5 5 5
          5 5 5 5 5 5
          5 5 5 5 5 5
          5 5 5 5 5 5
          5 5 5 5 5 5
          5 5 5 5 5 5
          5 5 5 5 5 5
          5 5 5 5 5 5
          5 5 5 5 5 5
          5 5 5 5 5 5
          5 5 5 5 5 5
          5 5 5 5 5 5
          5 5 5 5 5 5
          5 5 5 5 5 5
          5 5 5 5 5 5
          5 5 5 5 5 5
          5 5 5 5 5 5
          5 5 5 5 5 5
          5 5 5 5 5 5
          5 5 5 5 5 5
          5 5 5 5 5 5
          5 5 5 5 5 5
          5 5 5 5 5 5
          5 5 5 5 5 5
          5 5 5 5 5 5
          5 5 5 5 5 5
          5 5 5 5 5 5
          5 5 5 5 5 5
          5 5 5 5 5 5
          5 5 5 5 5 5
          5 5 5 5 5 5
          5 5 5 5 5 5
          5 5 5 5 5 5
          5 5 5 5 5 5
          5 5 5 5 5 5
          5 5 5 5 5 5
          5 5 5 5 5 5
          5 5 5 5 5 5
          5 5 5 5 5 5
          5 5 5 5 5 5
          5 5 5 5 5 5
          5 5 5 5 5 5
          5 5 5 5 5 5
          5 5 5 5 5 5
          5 5 5 5 5 5
        </DataArray>
      </CellData>
      <Points>
        <DataArray type="Float64" Name="Points" NumberOfComponents="3" format="ascii" RangeMin="0.0082758620689774" RangeMax="0.013139935358843113">
          0.00011111111111123 0.0082758620689751 0 0 0.0082758620689774 0
          0.00011111111111123 0.0082758620689751 0.00015 0 0.0082758620689774 0.00015
          0.00011111111111123 0.0082758620689751 0.0003 0 0.0082758620689774 0.0003
          0.00011111111111125 0.0086896551724226 0 0 0.0086896551724246 0
          0.00011111111111125 0.0086896551724226 0.00015 0 0.0086896551724246 0.00015
          0.00011111111111125 0.0086896551724226 0.0003 0 0.0086896551724246 0.0003
          0.00011111111111126 0.0091034482758696 0 0 0.0091034482758716 0
          0.00011111111111126 0.0091034482758696 0.00015 0 0.0091034482758716 0.00015
          0.00011111111111126 0.0091034482758696 0.0003 0 0.0091034482758716 0.0003
          0.00011111111111128 0.0095172413793168 0 0 0.0095172413793185 0
          0.00011111111111128 0.0095172413793168 0.00015 0 0.0095172413793185 0.00015
          0.00011111111111128 0.0095172413793168 0.0003 0 0.0095172413793185 0.0003
          0.00011111111111129 0.0099310344827632 0 0 0.0099310344827645 0
          0.00011111111111129 0.0099310344827632 0.00015 0 0.0099310344827645 0.00015
          0.00011111111111129 0.0099310344827632 0.0003 0 0.0099310344827645 0.0003
          0.00011111111111131 0.01034482758621 0 0 0.01034482758621 0
          0.00011111111111131 0.01034482758621 0.00015 0 0.01034482758621 0.00015
          0.00011111111111131 0.01034482758621 0.0003 0 0.01034482758621 0.0003
          0.00011111111111132 0.010758620689657 0 0 0.010758620689657 0
          0.00011111111111132 0.010758620689657 0.00015 0 0.010758620689657 0.00015
          0.00011111111111132 0.010758620689657 0.0003 0 0.010758620689657 0.0003
          0.00011111111111134 0.011172413793104 0 0 0.011172413793104 0
          0.00011111111111134 0.011172413793104 0.00015 0 0.011172413793104 0.00015
          0.00011111111111134 0.011172413793104 0.0003 0 0.011172413793104 0.0003
          0.00011111111111135 0.011586206896551 0 0 0.011586206896551 0
          0.00011111111111135 0.011586206896551 0.00015 0 0.011586206896551 0.00015
          0.00011111111111135 0.011586206896551 0.0003 0 0.011586206896551 0.0003
          0.00011111111111137 0.012 0 0 0.012 0
          0.00011111111111137 0.012 0.00015 0 0.012 0.00015
          0.00011111111111137 0.012 0.0003 0 0.012 0.0003
          0.00022222222222243 0.0082758620689727 0 0.00022222222222243 0.0082758620689727 0.00015
          0.00022222222222243 0.0082758620689727 0.0003 0.00022222222222246 0.0086896551724206 0
          0.00022222222222246 0.0086896551724206 0.00015 0.00022222222222246 0.0086896551724206 0.0003
          0.00022222222222249 0.0091034482758676 0 0.00022222222222249 0.0091034482758676 0.00015
          0.00022222222222249 0.0091034482758676 0.0003 0.00022222222222253 0.0095172413793151 0
          0.00022222222222253 0.0095172413793151 0.00015 0.00022222222222253 0.0095172413793151 0.0003
          0.00022222222222256 0.0099310344827619 0 0.00022222222222256 0.0099310344827619 0.00015
          0.00022222222222256 0.0099310344827619 0.0003 0.0002222222222226 0.010344827586209 0
          0.0002222222222226 0.010344827586209 0.00015 0.0002222222222226 0.010344827586209 0.0003
          0.00022222222222263 0.010758620689656 0 0.00022222222222263 0.010758620689656 0.00015
          0.00022222222222263 0.010758620689656 0.0003 0.00022222222222266 0.011172413793103 0
          0.00022222222222266 0.011172413793103 0.00015 0.00022222222222266 0.011172413793103 0.0003
          0.0002222222222227 0.011586206896551 0 0.0002222222222227 0.011586206896551 0.00015
          0.0002222222222227 0.011586206896551 0.0003 0.00022222222222273 0.012 0
          0.00022222222222273 0.012 0.00015 0.00022222222222273 0.012 0.0003
          0.00033333333333363 0.0082758620689704 0 0.00033333333333363 0.0082758620689704 0.00015
          0.00033333333333363 0.0082758620689704 0.0003 0.00033333333333368 0.0086896551724185 0
          0.00033333333333368 0.0086896551724185 0.00015 0.00033333333333368 0.0086896551724185 0.0003
          0.00033333333333373 0.0091034482758657 0 0.00033333333333373 0.0091034482758657 0.00015
          0.00033333333333373 0.0091034482758657 0.0003 0.00033333333333379 0.0095172413793133 0
          0.00033333333333379 0.0095172413793133 0.00015 0.00033333333333379 0.0095172413793133 0.0003
          0.00033333333333384 0.0099310344827607 0 0.00033333333333384 0.0099310344827607 0.00015
          0.00033333333333384 0.0099310344827607 0.0003 0.00033333333333389 0.010344827586208 0
          0.00033333333333389 0.010344827586208 0.00015 0.00033333333333389 0.010344827586208 0.0003
          0.00033333333333394 0.010758620689656 0 0.00033333333333394 0.010758620689656 0.00015
          0.00033333333333394 0.010758620689656 0.0003 0.000333333333334 0.011172413793103 0
          0.000333333333334 0.011172413793103 0.00015 0.000333333333334 0.011172413793103 0.0003
          0.00033333333333405 0.011586206896551 0 0.00033333333333405 0.011586206896551 0.00015
          0.00033333333333405 0.011586206896551 0.0003 0.0003333333333341 0.012 0
          0.0003333333333341 0.012 0.00015 0.0003333333333341 0.012 0.0003
          0.00044444444444486 0.0082758620689681 0 0.00044444444444486 0.0082758620689681 0.00015
          0.00044444444444486 0.0082758620689681 0.0003 0.00044444444444493 0.0086896551724165 0
          0.00044444444444493 0.0086896551724165 0.00015 0.00044444444444493 0.0086896551724165 0.0003
          0.00044444444444501 0.0091034482758637 0 0.00044444444444501 0.0091034482758637 0.00015
          0.00044444444444501 0.0091034482758637 0.0003 0.00044444444444508 0.0095172413793116 0
          0.00044444444444508 0.0095172413793116 0.00015 0.00044444444444508 0.0095172413793116 0.0003
          0.00044444444444516 0.0099310344827594 0 0.00044444444444516 0.0099310344827594 0.00015
          0.00044444444444516 0.0099310344827594 0.0003 0.00044444444444523 0.010344827586207 0
          0.00044444444444523 0.010344827586207 0.00015 0.00044444444444523 0.010344827586207 0.0003
          0.00044444444444531 0.010758620689655 0 0.00044444444444531 0.010758620689655 0.00015
          0.00044444444444531 0.010758620689655 0.0003 0.00044444444444538 0.011172413793103 0
          0.00044444444444538 0.011172413793103 0.00015 0.00044444444444538 0.011172413793103 0.0003
          0.00044444444444546 0.011586206896551 0 0.00044444444444546 0.011586206896551 0.00015
          0.00044444444444546 0.011586206896551 0.0003 0.00044444444444553 0.012 0
          0.00044444444444553 0.012 0.00015 0.00044444444444553 0.012 0.0003
          0.00055555555555597 0.0082758620689657 0 0.00055555555555597 0.0082758620689657 0.00015
          0.00055555555555597 0.0082758620689657 0.0003 0.00055555555555605 0.0086896551724145 0
          0.00055555555555605 0.0086896551724145 0.00015 0.00055555555555605 0.0086896551724145 0.0003
          0.00055555555555613 0.0091034482758618 0 0.00055555555555613 0.0091034482758618 0.00015
          0.00055555555555613 0.0091034482758618 0.0003 0.00055555555555621 0.0095172413793099 0
          0.00055555555555621 0.0095172413793099 0.00015 0.00055555555555621 0.0095172413793099 0.0003
          0.00055555555555629 0.0099310344827581 0 0.00055555555555629 0.0099310344827581 0.00015
          0.00055555555555629 0.0099310344827581 0.0003 0.00055555555555636 0.010344827586206 0
          0.00055555555555636 0.010344827586206 0.00015 0.00055555555555636 0.010344827586206 0.0003
          0.00055555555555644 0.010758620689655 0 0.00055555555555644 0.010758620689655 0.00015
          0.00055555555555644 0.010758620689655 0.0003 0.00055555555555652 0.011172413793102 0
          0.00055555555555652 0.011172413793102 0.00015 0.00055555555555652 0.011172413793102 0.0003
          0.0005555555555566 0.011586206896551 0 0.0005555555555566 0.011586206896551 0.00015
          0.0005555555555566 0.011586206896551 0.0003 0.00055555555555667 0.012 0
          0.00055555555555667 0.012 0.00015 0.00055555555555667 0.012 0.0003
          0.00066666666666675 0.0082758620689634 0 0.00066666666666675 0.0082758620689634 0.00015
          0.00066666666666675 0.0082758620689634 0.0003 0.00066666666666679 0.0086896551724125 0
          0.00066666666666679 0.0086896551724125 0.00015 0.00066666666666679 0.0086896551724125 0.0003
          0.00066666666666684 0.0091034482758598 0 0.00066666666666684 0.0091034482758598 0.00015
          0.00066666666666684 0.0091034482758598 0.0003 0.00066666666666688 0.0095172413793081 0
          0.00066666666666688 0.0095172413793081 0.00015 0.00066666666666688 0.0095172413793081 0.0003
          0.00066666666666693 0.0099310344827568 0 0.00066666666666693 0.0099310344827568 0.00015
          0.00066666666666693 0.0099310344827568 0.0003 0.00066666666666697 0.010344827586205 0
          0.00066666666666697 0.010344827586205 0.00015 0.00066666666666697 0.010344827586205 0.0003
          0.00066666666666701 0.010758620689654 0 0.00066666666666701 0.010758620689654 0.00015
          0.00066666666666701 0.010758620689654 0.0003 0.00066666666666706 0.011172413793102 0
          0.00066666666666706 0.011172413793102 0.00015 0.00066666666666706 0.011172413793102 0.0003
          0.0006666666666671 0.01158620689655 0 0.0006666666666671 0.01158620689655 0.00015
          0.0006666666666671 0.01158620689655 0.0003 0.00066666666666715 0.012 0
          0.00066666666666715 0.012 0.00015 0.00066666666666715 0.012 0.0003
          0.00077777777777787 0.0082758620689611 0 0.00077777777777787 0.0082758620689611 0.00015
          0.00077777777777787 0.0082758620689611 0.0003 0.00077777777777791 0.0086896551724104 0
          0.00077777777777791 0.0086896551724104 0.00015 0.00077777777777791 0.0086896551724104 0.0003
          0.00077777777777794 0.0091034482758578 0 0.00077777777777794 0.0091034482758578 0.00015
          0.00077777777777794 0.0091034482758578 0.0003 0.00077777777777797 0.0095172413793064 0
          0.00077777777777797 0.0095172413793064 0.00015 0.00077777777777797 0.0095172413793064 0.0003
          0.000777777777778 0.0099310344827555 0 0.000777777777778 0.0099310344827555 0.00015
          0.000777777777778 0.0099310344827555 0.0003 0.00077777777777803 0.010344827586205 0
          0.00077777777777803 0.010344827586205 0.00015 0.00077777777777803 0.010344827586205 0.0003
          0.00077777777777806 0.010758620689654 0 0.00077777777777806 0.010758620689654 0.00015
          0.00077777777777806 0.010758620689654 0.0003 0.00077777777777809 0.011172413793101 0
          0.00077777777777809 0.011172413793101 0.00015 0.00077777777777809 0.011172413793101 0.0003
          0.00077777777777813 0.01158620689655 0 0.00077777777777813 0.01158620689655 0.00015
          0.00077777777777813 0.01158620689655 0.0003 0.00077777777777816 0.012 0
          0.00077777777777816 0.012 0.00015 0.00077777777777816 0.012 0.0003
          0.0008888888888888 0.0082758620689588 0 0.0008888888888888 0.0082758620689588 0.00015
          0.0008888888888888 0.0082758620689588 0.0003 0.00088888888888881 0.0086896551724084 0
          0.00088888888888881 0.0086896551724084 0.00015 0.00088888888888881 0.0086896551724084 0.0003
          0.00088888888888882 0.0091034482758559 0 0.00088888888888882 0.0091034482758559 0.00015
          0.00088888888888882 0.0091034482758559 0.0003 0.00088888888888883 0.0095172413793047 0
          0.00088888888888883 0.0095172413793047 0.00015 0.00088888888888883 0.0095172413793047 0.0003
          0.00088888888888884 0.0099310344827542 0 0.00088888888888884 0.0099310344827542 0.00015
          0.00088888888888884 0.0099310344827542 0.0003 0.00088888888888885 0.010344827586204 0
          0.00088888888888885 0.010344827586204 0.00015 0.00088888888888885 0.010344827586204 0.0003
          0.00088888888888885 0.010758620689653 0 0.00088888888888885 0.010758620689653 0.00015
          0.00088888888888885 0.010758620689653 0.0003 0.00088888888888886 0.011172413793101 0
          0.00088888888888886 0.011172413793101 0.00015 0.00088888888888886 0.011172413793101 0.0003
          0.00088888888888887 0.01158620689655 0 0.00088888888888887 0.01158620689655 0.00015
          0.00088888888888887 0.01158620689655 0.0003 0.00088888888888888 0.012 0
          0.00088888888888888 0.012 0.00015 0.00088888888888888 0.012 0.0003
          0.001 0.0091034482758539 0 0.001 0.0091034482758539 0.00015
          0.001 0.0091034482758539 0.0003 0.001 0.0095172413793029 0
          0.001 0.0095172413793029 0.00015 0.001 0.0095172413793029 0.0003
          0.001 0.0099310344827529 0 0.001 0.0099310344827529 0.00015
          0.001 0.0099310344827529 0.0003 0.001 0.010344827586203 0
          0.001 0.010344827586203 0.00015 0.001 0.010344827586203 0.0003
          0.001 0.010758620689653 0 0.001 0.010758620689653 0.00015
          0.001 0.010758620689653 0.0003 0.001 0.0111724137931 0
          0.001 0.0111724137931 0.00015 0.001 0.0111724137931 0.0003
          0.001 0.01158620689655 0 0.001 0.01158620689655 0.00015
          0.001 0.01158620689655 0.0003 0.001 0.012 0
          0.001 0.012 0.00015 0.001 0.012 0.0003
          0.00067947077571632 0.012798245728111 0 0.00068678568032061 0.012710429785181 0
          0.00076344362314339 0.012698069087358 0 0.00078000626700894 0.012788238676479 0
          0.00067947077571632 0.012798245728111 0.00015 0.00068678568032061 0.012710429785181 0.00015
          0.00076344362314339 0.012698069087358 0.00015 0.00078000626700894 0.012788238676479 0.00015
          0.00067947077571632 0.012798245728111 0.0003 0.00068678568032061 0.012710429785181 0.0003
          0.00076344362314339 0.012698069087358 0.0003 0.00078000626700894 0.012788238676479 0.0003
          0.0007101811699723 0.012881232243155 0 0.00078737528777453 0.012884598822829 0
          0.0007101811699723 0.012881232243155 0.00015 0.00078737528777453 0.012884598822829 0.00015
          0.0007101811699723 0.012881232243155 0.0003 0.00078737528777453 0.012884598822829 0.0003
          0.00063149088332091 0.012876508075697 0 0.00071156048039536 0.012943694476106 0
          0.00064992343237843 0.012944046337553 0 0.00063149088332091 0.012876508075697 0.00015
          0.00071156048039536 0.012943694476106 0.00015 0.00064992343237843 0.012944046337553 0.00015
          0.00063149088332091 0.012876508075697 0.0003 0.00071156048039536 0.012943694476106 0.0003
          0.00064992343237843 0.012944046337553 0.0003 0.00014271480927744 0.012184528409521 0
          0.00021074182908597 0.012239195039162 0 0.00014617236906556 0.012274772666576 0
          0.00010836971036758 0.0122326927564 0 0.00014271480927744 0.012184528409521 0.00015
          0.00021074182908597 0.012239195039162 0.00015 0.00014617236906556 0.012274772666576 0.00015
          0.00010836971036758 0.0122326927564 0.00015 0.00014271480927744 0.012184528409521 0.0003
          0.00021074182908597 0.012239195039162 0.0003 0.00014617236906556 0.012274772666576 0.0003
          0.00010836971036758 0.0122326927564 0.0003 0.00040316247653445 0.012523054457121 0
          0.00050524235438491 0.012516470580574 0 0.00047556583290331 0.012611926172403 0
          0.00040677839563254 0.01259579728731 0 0.00040316247653445 0.012523054457121 0.00015
          0.00050524235438491 0.012516470580574 0.00015 0.00047556583290331 0.012611926172403 0.00015
          0.00040677839563254 0.01259579728731 0.00015 0.00040316247653445 0.012523054457121 0.0003
          0.00050524235438491 0.012516470580574 0.0003 0.00047556583290331 0.012611926172403 0.0003
          0.00040677839563254 0.01259579728731 0.0003 0.00038389728538556 0.012111104172094 0
          0.00037958632650406 0.012195366170904 0 0.00029855370140418 0.012181148574691 0
          0.00029802321336891 0.012105931916082 0 0.00038389728538556 0.012111104172094 0.00015
          0.00037958632650406 0.012195366170904 0.00015 0.00029855370140418 0.012181148574691 0.00015
          0.00029802321336891 0.012105931916082 0.00015 0.00038389728538556 0.012111104172094 0.0003
          0.00037958632650406 0.012195366170904 0.0003 0.00029855370140418 0.012181148574691 0.0003
          0.00029802321336891 0.012105931916082 0.0003 0.00062435778703091 0.012280526392523 0
          0.00063694887874418 0.012191685157308 0 0.00075163746499696 0.012211869018538 0
          0.0007101306235237 0.012330652999586 0 0.00062435778703091 0.012280526392523 0.00015
          0.00063694887874418 0.012191685157308 0.00015 0.00075163746499696 0.012211869018538 0.00015
          0.0007101306235237 0.012330652999586 0.00015 0.00062435778703091 0.012280526392523 0.0003
          0.00063694887874418 0.012191685157308 0.0003 0.00075163746499696 0.012211869018538 0.0003
          0.0007101306235237 0.012330652999586 0.0003 0.00090036231429234 0.012108977226849 0
          0.00080269198720626 0.012096984730608 0 0.00090036231429234 0.012108977226849 0.00015
          0.00080269198720626 0.012096984730608 0.00015 0.00090036231429234 0.012108977226849 0.0003
          0.00080269198720626 0.012096984730608 0.0003 0.00023865656240352 0.012177237347116 0
          0.00029061852669854 0.01224857812735 0 0.00023865656240352 0.012177237347116 0.00015
          0.00029061852669854 0.01224857812735 0.00015 0.00023865656240352 0.012177237347116 0.0003
          0.00029061852669854 0.01224857812735 0.0003 0.00056164385173704 0.012835416164401 0
          0.00056508360468666 0.012898794448667 0 0.00049240387645224 0.012913175910861 0
          0.00046984631090009 0.012828989929731 0 0.00056164385173704 0.012835416164401 0.00015
          0.00056508360468666 0.012898794448667 0.00015 0.00049240387645224 0.012913175910861 0.00015
          0.00046984631090009 0.012828989929731 0.00015 0.00056164385173704 0.012835416164401 0.0003
          0.00056508360468666 0.012898794448667 0.0003 0.00049240387645224 0.012913175910861 0.0003
          0.00046984631090009 0.012828989929731 0.0003 0.000050495613361417 0.012066083920595 0
          0.00011131843390441 0.012086989142678 0 0.000069577205110887 0.012153607960951 0
          0 0.012111111111109 0 0.000050495613361417 0.012066083920595 0.00015
          0.00011131843390441 0.012086989142678 0.00015 0.000069577205110887 0.012153607960951 0.00015
          0 0.012111111111109 0.00015 0.000050495613361417 0.012066083920595 0.0003
          0.00011131843390441 0.012086989142678 0.0003 0.000069577205110887 0.012153607960951 0.0003
          0 0.012111111111109 0.0003 0.00022470825547396 0.012306913365418 0
          0.00017103954025546 0.012340304715306 0 0.00022470825547396 0.012306913365418 0.00015
          0.00017103954025546 0.012340304715306 0.00015 0.00022470825547396 0.012306913365418 0.0003
          0.00017103954025546 0.012340304715306 0.0003 0.00085640575367095 0.012657655614724 0
          0.001 0.012571428571438 0 0.001 0.012714285714292 0
          0.00089085524488654 0.012778191533234 0 0.00085640575367095 0.012657655614724 0.00015
          0.001 0.012571428571438 0.00015 0.001 0.012714285714292 0.00015
          0.00089085524488654 0.012778191533234 0.00015 0.00085640575367095 0.012657655614724 0.0003
          0.001 0.012571428571438 0.0003 0.001 0.012714285714292 0.0003
          0.00089085524488654 0.012778191533234 0.0003 0.00017101007138246 0.012530153689505 0
          0.000086824088695593 0.01250759612347 0 0.00010015626416536 0.012463076177022 0
          0.00018026894988108 0.012457509098897 0 0.00017101007138246 0.012530153689505 0.00015
          0.000086824088695593 0.01250759612347 0.00015 0.00010015626416536 0.012463076177022 0.00015
          0.00018026894988108 0.012457509098897 0.00015 0.00017101007138246 0.012530153689505 0.0003
          0.000086824088695593 0.01250759612347 0.0003 0.00010015626416536 0.012463076177022 0.0003
          0.00018026894988108 0.012457509098897 0.0003 0.00055555555555552 0.013 0
          0.00054972466987376 0.012958523613261 0 0.00059017772624368 0.012950117696029 0
          0.00061111111111072 0.013 0 0.00055555555555552 0.013 0.00015
          0.00054972466987376 0.012958523613261 0.00015 0.00059017772624368 0.012950117696029 0.00015
          0.00061111111111072 0.013 0.00015 0.00055555555555552 0.013 0.0003
          0.00054972466987376 0.012958523613261 0.0003 0.00059017772624368 0.012950117696029 0.0003
          0.00061111111111072 0.013 0.0003 0.00056012017374448 0.012193168747791 0
          0.00054338833040714 0.012250054231166 0 0.00056012017374448 0.012193168747791 0.00015
          0.00054338833040714 0.012250054231166 0.00015 0.00056012017374448 0.012193168747791 0.0003
          0.00054338833040714 0.012250054231166 0.0003 0.00020164702899907 0.012111009853496 0
          0.00020164702899907 0.012111009853496 0.00015 0.00020164702899907 0.012111009853496 0.0003
          0.00058698867508036 0.01276393301723 0 0.00061242021253103 0.012689969395149 0
          0.00058698867508036 0.01276393301723 0.00015 0.00061242021253103 0.012689969395149 0.00015
          0.00058698867508036 0.01276393301723 0.0003 0.00061242021253103 0.012689969395149 0.0003
          0.00054704952286259 0.01264760123259 0 0.00058547756026548 0.012574831423214 0
          0.00066845126455385 0.012625352450745 0 0.00054704952286259 0.01264760123259 0.00015
          0.00058547756026548 0.012574831423214 0.00015 0.00066845126455385 0.012625352450745 0.00015
          0.00054704952286259 0.01264760123259 0.0003 0.00058547756026548 0.012574831423214 0.0003
          0.00066845126455385 0.012625352450745 0.0003 0.00040316497174951 0.012375710115571 0
          0.00038996592658543 0.012448925709731 0 0.00030251984068288 0.012451026681152 0
          0.00030273327950676 0.012339921797294 0 0.00040316497174951 0.012375710115571 0.00015
          0.00038996592658543 0.012448925709731 0.00015 0.00030251984068288 0.012451026681152 0.00015
          0.00030273327950676 0.012339921797294 0.00015 0.00040316497174951 0.012375710115571 0.0003
          0.00038996592658543 0.012448925709731 0.0003 0.00030251984068288 0.012451026681152 0.0003
          0.00030273327950676 0.012339921797294 0.0003 0 0.012166666666663 0
          0.000060257043043922 0.012213388328671 0 0 0.012222222222217 0
          0 0.012166666666663 0.00015 0.000060257043043922 0.012213388328671 0.00015
          0 0.012222222222217 0.00015 0 0.012166666666663 0.0003
          0.000060257043043922 0.012213388328671 0.0003 0 0.012222222222217 0.0003
          0.00086766031505541 0.012218873949421 0 0.00070802748250363 0.01210226547145 0
          0.00086766031505541 0.012218873949421 0.00015 0.00070802748250363 0.01210226547145 0.00015
          0.00086766031505541 0.012218873949421 0.0003 0.00070802748250363 0.01210226547145 0.0003
          0.00045681564832724 0.012667985356076 0 0.00038302222240927 0.012678606196169 0
          0.00045681564832724 0.012667985356076 0.00015 0.00038302222240927 0.012678606196169 0.00015
          0.00045681564832724 0.012667985356076 0.0003 0.00038302222240927 0.012678606196169 0.0003
          0.00057343997443155 0.012462111372123 0 0.00067467937701806 0.012497336760124 0
          0.00057343997443155 0.012462111372123 0.00015 0.00067467937701806 0.012497336760124 0.00015
          0.00057343997443155 0.012462111372123 0.0003 0.00067467937701806 0.012497336760124 0.0003
          0 0.012388888888886 0 0.00004805763346656 0.012364070531781 0
          0.000052775834931525 0.012418323433379 0 0 0.012444444444443 0
          0 0.012388888888886 0.00015 0.00004805763346656 0.012364070531781 0.00015
          0.000052775834931525 0.012418323433379 0.00015 0 0.012444444444443 0.00015
          0 0.012388888888886 0.0003 0.00004805763346656 0.012364070531781 0.0003
          0.000052775834931525 0.012418323433379 0.0003 0 0.012444444444443 0.0003
          0.0004655657017567 0.012222981448331 0 0.0004403524252846 0.012306679111378 0
          0.00036518397892919 0.012268658791136 0 0.0004655657017567 0.012222981448331 0.00015
          0.0004403524252846 0.012306679111378 0.00015 0.00036518397892919 0.012268658791136 0.00015
          0.0004655657017567 0.012222981448331 0.0003 0.0004403524252846 0.012306679111378 0.0003
          0.00036518397892919 0.012268658791136 0.0003 0.00079059026611164 0.012574208252283 0
          0.00074033738884001 0.012629472897336 0 0.00079059026611164 0.012574208252283 0.00015
          0.00074033738884001 0.012629472897336 0.00015 0.00079059026611164 0.012574208252283 0.0003
          0.00074033738884001 0.012629472897336 0.0003 0.00049134001885305 0.012124425854677 0
          0.00060162315338905 0.012101782274206 0 0.00049134001885305 0.012124425854677 0.00015
          0.00060162315338905 0.012101782274206 0.00015 0.00049134001885305 0.012124425854677 0.0003
          0.00060162315338905 0.012101782274206 0.0003 0.00055165526617401 0.012365152711649 0
          0.00046621557592763 0.012427373679685 0 0.00055165526617401 0.012365152711649 0.00015
          0.00046621557592763 0.012427373679685 0.00015 0.00055165526617401 0.012365152711649 0.0003
          0.00046621557592763 0.012427373679685 0.0003 0.00065175768920993 0.012395993188634 0
          0.00078658012555766 0.01242031863996 0 0.00065175768920993 0.012395993188634 0.00015
          0.00078658012555766 0.01242031863996 0.00015 0.00065175768920993 0.012395993188634 0.0003
          0.00078658012555766 0.01242031863996 0.0003 0.00072222222222142 0.013 0
          0.00076767785213736 0.012949407633443 0 0.00077777777777722 0.013 0
          0.00072222222222142 0.013 0.00015 0.00076767785213736 0.012949407633443 0.00015
          0.00077777777777722 0.013 0.00015 0.00072222222222142 0.013 0.0003
          0.00076767785213736 0.012949407633443 0.0003 0.00077777777777722 0.013 0.0003
          0.001 0.01228571428572 0 0.001 0.012428571428581 0
          0.00085243404696798 0.012340254950119 0 0.001 0.01228571428572 0.00015
          0.001 0.012428571428581 0.00015 0.00085243404696798 0.012340254950119 0.00015
          0.001 0.01228571428572 0.0003 0.001 0.012428571428581 0.0003
          0.00085243404696798 0.012340254950119 0.0003 0.000047305708530005 0.012255757186949 0
          0.000035989657241992 0.012305788523607 0 0 0.012277777777773 0
          0.000047305708530005 0.012255757186949 0.00015 0.000035989657241992 0.012305788523607 0.00015
          0 0.012277777777773 0.00015 0.000047305708530005 0.012255757186949 0.0003
          0.000035989657241992 0.012305788523607 0.0003 0 0.012277777777773 0.0003
          0 0.01233333333333 0 0 0.01233333333333 0.00015
          0 0.01233333333333 0.0003 0.00088888888888861 0.013 0
          0.00086852226729803 0.012945143609779 0 0.00092105077811413 0.012923509600428 0
          0.0009444444444442 0.013 0 0.00088888888888861 0.013 0.00015
          0.00086852226729803 0.012945143609779 0.00015 0.00092105077811413 0.012923509600428 0.00015
          0.0009444444444442 0.013 0.00015 0.00088888888888861 0.013 0.0003
          0.00086852226729803 0.012945143609779 0.0003 0.00092105077811413 0.012923509600428 0.0003
          0.0009444444444442 0.013 0.0003 0.000088322519872331 0.012287262323421 0
          0.000098057359918883 0.01234321954228 0 0.000088322519872331 0.012287262323421 0.00015
          0.000098057359918883 0.01234321954228 0.00015 0.000088322519872331 0.012287262323421 0.0003
          0.000098057359918883 0.01234321954228 0.0003 0.00082037799021753 0.012949927278989 0
          0.00083333333333302 0.013 0 0.00082037799021753 0.012949927278989 0.00015
          0.00083333333333302 0.013 0.00015 0.00082037799021753 0.012949927278989 0.0003
          0.00083333333333302 0.013 0.0003 0.000055423585756317 0.01245648439217 0
          0.00011750487062481 0.01240389197138 0 0.000055423585756317 0.01245648439217 0.00015
          0.00011750487062481 0.01240389197138 0.00015 0.000055423585756317 0.01245648439217 0.0003
          0.00011750487062481 0.01240389197138 0.0003 0.00022703795328819 0.012397087263253 0
          0.00024412512388832 0.012487409031957 0 0.00022703795328819 0.012397087263253 0.00015
          0.00024412512388832 0.012487409031957 0.00015 0.00022703795328819 0.012397087263253 0.0003
          0.00024412512388832 0.012487409031957 0.0003 0.00086622784349606 0.012879340816766 0
          0.00086622784349606 0.012879340816766 0.00015 0.00086622784349606 0.012879340816766 0.0003
          0.001 0.01214285714286 0 0.001 0.01214285714286 0.00015
          0.001 0.01214285714286 0.0003 0.00032807036377433 0.012530514194312 0
          0.00032139380548758 0.012616977778981 0 0.00032807036377433 0.012530514194312 0.00015
          0.00032139380548758 0.012616977778981 0.00015 0.00032807036377433 0.012530514194312 0.0003
          0.00032139380548758 0.012616977778981 0.0003 0.00078653837511981 0.012300730611142 0
          0.00078653837511981 0.012300730611142 0.00015 0.00078653837511981 0.012300730611142 0.0003
          0.00050187285486533 0.012723776617989 0 0.00050187285486533 0.012723776617989 0.00015
          0.00050187285486533 0.012723776617989 0.0003 0.00066666666666612 0.013 0
          0.00066666666666612 0.013 0.00015 0.00066666666666612 0.013 0.0003
          0.00086640285866826 0.012499721374928 0 0.00086640285866826 0.012499721374928 0.00015
          0.00086640285866826 0.012499721374928 0.0003 0.001 0.012857142857146 0
          0.001 0.012857142857146 0.00015 0.001 0.012857142857146 0.0003
          0.00043301270230906 0.012750000000722 0 0.00043301270230906 0.012750000000722 0.00015
          0.00043301270230906 0.012750000000722 0.0003 0.00025000000019401 0.01256698729822 0
          0.00025000000019401 0.01256698729822 0.00015 0.00025000000019401 0.01256698729822 0.0003
          0 0.0125 0 0 0.0125 0.00015
          0 0.0125 0.0003 0 0.012055555555554 0
          0 0.012055555555554 0.00015 0 0.012055555555554 0.0003
          0.001 0.013 0 0.001 0.013 0.00015
          0.001 0.013 0.0003 0.0005 0.013 0
          0.0005 0.013 0.00015 0.0005 0.013 0.0003
          0.0014444444444451 0.0095172413793029 0 0.0014444444444451 0.0095172413793029 0.00015
          0.0014444444444451 0.0095172413793029 0.0003 0.0018888888888902 0.0095172413793029 0
          0.0018888888888902 0.0095172413793029 0.00015 0.0018888888888902 0.0095172413793029 0.0003
          0.0014444444444452 0.0099310344827529 0 0.0014444444444452 0.0099310344827529 0.00015
          0.0014444444444452 0.0099310344827529 0.0003 0.0018888888888903 0.0099310344827529 0
          0.0018888888888903 0.0099310344827529 0.00015 0.0018888888888903 0.0099310344827529 0.0003
          0.0014444444444452 0.010344827586203 0 0.0014444444444452 0.010344827586203 0.00015
          0.0014444444444452 0.010344827586203 0.0003 0.0014444444444453 0.010758620689653 0
          0.0014444444444453 0.010758620689653 0.00015 0.0014444444444453 0.010758620689653 0.0003
          0.0014444444444453 0.0111724137931 0 0.0014444444444453 0.0111724137931 0.00015
          0.0014444444444453 0.0111724137931 0.0003 0.0014444444444454 0.01158620689655 0
          0.0014444444444454 0.01158620689655 0.00015 0.0014444444444454 0.01158620689655 0.0003
          0.0014444444444455 0.012 0 0.0014444444444455 0.012 0.00015
          0.0014444444444455 0.012 0.0003 0.0011659770658264 0.012184916069452 0
          0.0011978981211319 0.012291694091132 0 0.0011659770658264 0.012184916069452 0.00015
          0.0011978981211319 0.012291694091132 0.00015 0.0011659770658264 0.012184916069452 0.0003
          0.0011978981211319 0.012291694091132 0.0003 0.0014134281085546 0.012468353283698 0
          0.001412897365997 0.01265802692797 0 0.0011710921098332 0.012660749606473 0
          0.0011928404820732 0.012464476127519 0 0.0014134281085546 0.012468353283698 0.00015
          0.001412897365997 0.01265802692797 0.00015 0.0011710921098332 0.012660749606473 0.00015
          0.0011928404820732 0.012464476127519 0.00015 0.0014134281085546 0.012468353283698 0.0003
          0.001412897365997 0.01265802692797 0.0003 0.0011710921098332 0.012660749606473 0.0003
          0.0011928404820732 0.012464476127519 0.0003 0.0011801499871676 0.012824831216028 0
          0.0011801499871676 0.012824831216028 0.00015 0.0011801499871676 0.012824831216028 0.0003
          0.0014335559245349 0.012265987585326 0 0.0014335559245349 0.012265987585326 0.00015
          0.0014335559245349 0.012265987585326 0.0003 0.0014444444444455 0.013 0
          0.0014444444444455 0.013 0.00015 0.0014444444444455 0.013 0.0003
          0.0023333333333355 0.0099310344827529 0 0.0023333333333353 0.0095172413793029 0
          0.0023333333333355 0.0099310344827529 0.00015 0.0023333333333353 0.0095172413793029 0.00015
          0.0023333333333355 0.0099310344827529 0.0003 0.0023333333333353 0.0095172413793029 0.0003
          0.0018888888888904 0.010344827586203 0 0.0018888888888904 0.010344827586203 0.00015
          0.0018888888888904 0.010344827586203 0.0003 0.0023333333333357 0.010344827586203 0
          0.0023333333333357 0.010344827586203 0.00015 0.0023333333333357 0.010344827586203 0.0003
          0.0018888888888905 0.010758620689653 0 0.0018888888888905 0.010758620689653 0.00015
          0.0018888888888905 0.010758620689653 0.0003 0.0018888888888907 0.0111724137931 0
          0.0018888888888907 0.0111724137931 0.00015 0.0018888888888907 0.0111724137931 0.0003
          0.0018888888888908 0.01158620689655 0 0.0018888888888908 0.01158620689655 0.00015
          0.0018888888888908 0.01158620689655 0.0003 0.0018888888888909 0.012 0
          0.0018888888888909 0.012 0.00015 0.0018888888888909 0.012 0.0003
          0.0017386847932316 0.012348636106575 0 0.0017386847932316 0.012348636106575 0.00015
          0.0017386847932316 0.012348636106575 0.0003 0.0018888888888909 0.013 0
          0.001702980389272 0.012655949584096 0 0.0020604062010233 0.012679406151259 0
          0.0018888888888909 0.013 0.00015 0.001702980389272 0.012655949584096 0.00015
          0.0020604062010233 0.012679406151259 0.00015 0.0018888888888909 0.013 0.0003
          0.001702980389272 0.012655949584096 0.0003 0.0020604062010233 0.012679406151259 0.0003
          <InformationKey name="L2_NORM_RANGE" location="vtkDataArray" length="2">
            <Value index="0">
              0.008275862069
            </Value>
            <Value index="1">
              0.013139935359
            </Value>
          </InformationKey>
        </DataArray>
      </Points>
      <Cells>
        <DataArray type="Int64" Name="connectivity" format="ascii" RangeMin="0" RangeMax="755">
          1 0 6 7 3 2
          8 9 3 2 8 9
          5 4 10 11 7 6
          12 13 9 8 14 15
          9 8 14 15 11 10
          16 17 13 12 18 19
          15 14 20 21 15 14
          20 21 17 16 22 23
          19 18 24 25 21 20
          26 27 21 20 26 27
          23 22 28 29 25 24
          30 31 27 26 32 33
          27 26 32 33 29 28
          34 35 31 30 36 37
          33 32 38 39 33 32
          38 39 35 34 40 41
          37 36 42 43 39 38
          44 45 39 38 44 45
          41 40 46 47 43 42
          48 49 45 44 50 51
          45 44 50 51 47 46
          52 53 49 48 54 55
          51 50 56 57 51 50
          56 57 53 52 58 59
          0 60 63 6 2 61
          64 8 2 61 64 8
          4 62 65 10 6 63
          66 12 8 64 67 14
          8 64 67 14 10 65
          68 16 12 66 69 18
          14 67 70 20 14 67
          70 20 16 68 71 22
          18 69 72 24 20 70
          73 26 20 70 73 26
          22 71 74 28 24 72
          75 30 26 73 76 32
          26 73 76 32 28 74
          77 34 30 75 78 36
          32 76 79 38 32 76
          79 38 34 77 80 40
          36 78 81 42 38 79
          82 44 38 79 82 44
          40 80 83 46 42 81
          84 48 44 82 85 50
          44 82 85 50 46 83
          86 52 48 84 87 54
          50 85 88 56 50 85
          88 56 52 86 89 58
          60 90 93 63 61 91
          94 64 61 91 94 64
          62 92 95 65 63 93
          96 66 64 94 97 67
          64 94 97 67 65 95
          98 68 66 96 99 69
          67 97 100 70 67 97
          100 70 68 98 101 71
          69 99 102 72 70 100
          103 73 70 100 103 73
          71 101 104 74 72 102
          105 75 73 103 106 76
          73 103 106 76 74 104
          107 77 75 105 108 78
          76 106 109 79 76 106
          109 79 77 107 110 80
          78 108 111 81 79 109
          112 82 79 109 112 82
          80 110 113 83 81 111
          114 84 82 112 115 85
          82 112 115 85 83 113
          116 86 84 114 117 87
          85 115 118 88 85 115
          118 88 86 116 119 89
          90 120 123 93 91 121
          124 94 91 121 124 94
          92 122 125 95 93 123
          126 96 94 124 127 97
          94 124 127 97 95 125
          128 98 96 126 129 99
          97 127 130 100 97 127
          130 100 98 128 131 101
          99 129 132 102 100 130
          133 103 100 130 133 103
          101 131 134 104 102 132
          135 105 103 133 136 106
          103 133 136 106 104 134
          137 107 105 135 138 108
          106 136 139 109 106 136
          139 109 107 137 140 110
          108 138 141 111 109 139
          142 112 109 139 142 112
          110 140 143 113 111 141
          144 114 112 142 145 115
          112 142 145 115 113 143
          146 116 114 144 147 117
          115 145 148 118 115 145
          148 118 116 146 149 119
          120 150 153 123 121 151
          154 124 121 151 154 124
          122 152 155 125 123 153
          156 126 124 154 157 127
          124 154 157 127 125 155
          158 128 126 156 159 129
          127 157 160 130 127 157
          160 130 128 158 161 131
          129 159 162 132 130 160
          163 133 130 160 163 133
          131 161 164 134 132 162
          165 135 133 163 166 136
          133 163 166 136 134 164
          167 137 135 165 168 138
          136 166 169 139 136 166
          169 139 137 167 170 140
          138 168 171 141 139 169
          172 142 139 169 172 142
          140 170 173 143 141 171
          174 144 142 172 175 145
          142 172 175 145 143 173
          176 146 144 174 177 147
          145 175 178 148 145 175
          178 148 146 176 179 149
          150 180 183 153 151 181
          184 154 151 181 184 154
          152 182 185 155 153 183
          186 156 154 184 187 157
          154 184 187 157 155 185
          188 158 156 186 189 159
          157 187 190 160 157 187
          190 160 158 188 191 161
          159 189 192 162 160 190
          193 163 160 190 193 163
          161 191 194 164 162 192
          195 165 163 193 196 166
          163 193 196 166 164 194
          197 167 165 195 198 168
          166 196 199 169 166 196
          199 169 167 197 200 170
          168 198 201 171 169 199
          202 172 169 199 202 172
          170 200 203 173 171 201
          204 174 172 202 205 175
          172 202 205 175 173 203
          206 176 174 204 207 177
          175 205 208 178 175 205
          208 178 176 206 209 179
          180 210 213 183 181 211
          214 184 181 211 214 184
          182 212 215 185 183 213
          216 186 184 214 217 187
          184 214 217 187 185 215
          218 188 186 216 219 189
          187 217 220 190 187 217
          220 190 188 218 221 191
          189 219 222 192 190 220
          223 193 190 220 223 193
          191 221 224 194 192 222
          225 195 193 223 226 196
          193 223 226 196 194 224
          227 197 195 225 228 198
          196 226 229 199 196 226
          229 199 197 227 230 200
          198 228 231 201 199 229
          232 202 199 229 232 202
          200 230 233 203 201 231
          234 204 202 232 235 205
          202 232 235 205 203 233
          236 206 204 234 237 207
          205 235 238 208 205 235
          238 208 206 236 239 209
          210 240 243 213 211 241
          244 214 211 241 244 214
          212 242 245 215 213 243
          246 216 214 244 247 217
          214 244 247 217 215 245
          248 218 216 246 249 219
          217 247 250 220 217 247
          250 220 218 248 251 221
          219 249 252 222 220 250
          253 223 220 250 253 223
          221 251 254 224 222 252
          255 225 223 253 256 226
          223 253 256 226 224 254
          257 227 225 255 258 228
          226 256 259 229 226 256
          259 229 227 257 260 230
          228 258 261 231 229 259
          262 232 229 259 262 232
          230 260 263 233 231 261
          264 234 232 262 265 235
          232 262 265 235 233 263
          266 236 234 264 267 237
          235 265 268 238 235 265
          268 238 236 266 269 239
          246 270 273 249 247 271
          274 250 247 271 274 250
          248 272 275 251 249 273
          276 252 250 274 277 253
          250 274 277 253 251 275
          278 254 252 276 279 255
          253 277 280 256 253 277
          280 256 254 278 281 257
          255 279 282 258 256 280
          283 259 256 280 283 259
          257 281 284 260 258 282
          285 261 259 283 286 262
          259 283 286 262 260 284
          287 263 261 285 288 264
          262 286 289 265 262 286
          289 265 263 287 290 266
          264 288 291 267 265 289
          292 268 265 289 292 268
          266 290 293 269 294 295
          296 297 298 299 300 301
          298 299 300 301 302 303
          304 305 306 294 297 307
          308 298 301 309 308 298
          301 309 310 302 305 311
          312 306 313 314 315 308
          316 317 315 308 316 317
          318 310 319 320 321 322
          323 324 325 326 327 328
          325 326 327 328 329 330
          331 332 333 334 335 336
          337 338 339 340 337 338
          339 340 341 342 343 344
          345 346 347 348 349 350
          351 352 349 350 351 352
          353 354 355 356 357 358
          359 360 361 362 363 364
          361 362 363 364 365 366
          367 368 267 369 370 237
          268 371 372 238 268 371
          372 238 269 373 374 239
          375 347 376 322 377 351
          378 326 377 351 378 326
          379 355 380 330 381 382
          383 384 385 386 387 388
          385 386 387 388 389 390
          391 392 393 394 395 396
          397 398 399 400 397 398
          399 400 401 402 403 404
          323 322 405 406 327 326
          407 408 327 326 407 408
          331 330 409 410 411 412
          413 414 415 416 417 418
          415 416 417 418 419 420
          421 422 423 424 425 426
          427 428 429 430 427 428
          429 430 431 432 433 434
          435 436 437 438 439 440
          441 442 439 440 441 442
          443 444 445 446 447 358
          357 448 449 362 361 450
          449 362 361 450 451 366
          365 452 54 87 453 394
          56 88 454 398 56 88
          454 398 58 89 455 402
          456 457 295 294 458 459
          299 298 458 459 299 298
          460 461 303 302 457 462
          463 464 459 465 466 467
          459 465 466 467 461 468
          469 470 456 294 312 381
          458 298 315 385 458 298
          315 385 460 302 318 389
          471 472 473 474 475 476
          477 478 475 476 477 478
          479 480 481 482 483 395
          484 485 486 399 487 488
          486 399 487 488 489 403
          490 491 370 492 359 493
          372 494 363 495 372 494
          363 495 374 496 367 497
          237 370 493 207 238 372
          495 208 238 372 495 208
          239 374 497 209 336 335
          498 499 340 339 500 501
          340 339 500 501 344 343
          502 503 463 334 504 505
          466 338 506 507 466 338
          506 507 469 342 508 509
          510 511 512 513 514 515
          516 517 514 515 516 517
          518 519 520 521 522 523
          524 346 525 526 527 350
          525 526 527 350 528 529
          530 354 531 532 464 505
          533 534 467 507 533 534
          467 507 535 536 470 509
          537 147 177 538 539 148
          178 540 539 148 178 540
          541 149 179 542 523 543
          544 471 526 545 546 475
          526 545 546 475 529 547
          548 479 549 360 550 505
          551 364 552 507 551 364
          552 507 553 368 554 509
          555 313 556 557 558 316
          559 560 558 316 559 560
          561 319 562 563 564 565
          566 492 567 568 569 494
          567 568 569 494 570 571
          572 496 573 574 575 485
          576 577 578 488 576 577
          578 488 579 580 581 491
          582 574 511 510 583 577
          515 514 583 577 515 514
          584 580 519 518 87 117
          348 453 88 118 352 454
          88 118 352 454 89 119
          356 455 504 334 544 543
          506 338 546 545 506 338
          546 545 508 342 548 547
          585 586 587 588 589 590
          591 592 589 590 591 592
          593 594 595 596 574 597
          598 511 577 599 600 515
          577 599 600 515 580 601
          602 519 375 322 321 453
          377 326 325 454 377 326
          325 454 379 330 329 455
          557 556 603 604 560 559
          605 606 560 559 605 606
          563 562 607 608 425 609
          512 610 429 611 516 612
          429 611 516 612 433 613
          520 614 207 493 538 177
          208 495 540 178 208 495
          540 178 209 497 542 179
          615 473 616 426 617 477
          618 430 617 477 618 430
          619 481 620 434 297 414
          621 307 301 418 622 309
          301 418 622 309 305 422
          623 311 492 369 624 564
          494 371 625 567 494 371
          625 567 496 373 626 570
          627 333 336 628 629 337
          340 630 629 337 340 630
          631 341 344 632 360 633
          566 550 364 634 569 552
          364 634 569 552 368 635
          572 554 457 456 636 462
          459 458 637 465 459 458
          637 465 461 460 638 468
          357 360 549 543 361 364
          551 545 361 364 551 545
          365 368 553 547 295 464
          532 296 299 467 534 300
          299 467 534 300 303 470
          536 304 639 314 313 555
          640 317 316 558 640 317
          316 558 641 320 319 561
          471 474 524 523 475 478
          527 526 475 478 527 526
          479 482 530 529 426 610
          406 615 430 612 408 617
          430 612 408 617 434 614
          410 619 504 543 549 505
          506 545 551 507 506 545
          551 507 508 547 553 509
          566 565 642 550 569 568
          643 552 569 568 643 552
          572 571 644 554 610 512
          511 598 612 516 515 600
          612 516 515 600 614 520
          519 602 621 414 645 587
          622 418 646 591 622 418
          646 591 623 422 647 595
          405 474 615 406 407 478
          617 408 407 478 617 408
          409 482 619 410 381 384
          636 456 385 388 637 458
          385 388 637 458 389 392
          638 460 648 499 498 636
          649 501 500 637 649 501
          500 637 650 503 502 638
          616 651 423 426 618 652
          427 430 618 652 427 430
          620 653 431 434 324 597
          573 484 328 599 576 487
          328 599 576 487 332 601
          579 490 642 412 411 531
          643 416 415 533 643 416
          415 533 644 420 419 535
          538 358 447 537 540 362
          449 539 540 362 449 539
          542 366 451 541 524 376
          347 346 527 378 351 350
          527 378 351 350 530 380
          355 354 627 651 616 473
          629 652 618 477 629 652
          618 477 631 653 620 481
          405 322 376 474 407 326
          378 478 407 326 378 478
          409 330 380 482 306 307
          556 313 308 309 559 316
          308 309 559 316 310 311
          562 319 345 117 147 537
          349 118 148 539 349 118
          148 539 353 119 149 541
          414 297 296 411 418 301
          300 415 418 301 300 415
          422 305 304 419 621 586
          603 307 622 590 605 309
          622 590 605 309 623 594
          607 311 544 334 333 472
          546 338 337 476 546 338
          337 476 548 342 341 480
          348 347 375 453 352 351
          377 454 352 351 377 454
          356 355 379 455 531 505
          550 642 533 507 552 643
          533 507 552 643 535 509
          554 644 321 324 484 395
          325 328 487 399 325 328
          487 399 329 332 490 403
          598 597 323 406 600 599
          327 408 600 599 327 408
          602 601 331 410 447 448
          522 537 449 450 525 539
          449 450 525 539 451 452
          528 541 513 512 609 654
          517 516 611 655 517 516
          611 655 521 520 613 656
          604 603 586 585 606 605
          590 589 606 605 590 589
          608 607 594 593 463 462
          335 334 466 465 339 338
          466 465 339 338 469 468
          343 342 438 437 314 639
          442 441 317 640 442 441
          317 640 446 445 320 641
          436 383 382 437 440 387
          386 441 440 387 386 441
          444 391 390 445 393 657
          55 54 397 658 57 56
          397 658 57 56 401 659
          59 58 312 314 437 382
          315 317 441 386 315 317
          441 386 318 320 445 390
          346 345 537 522 350 349
          539 525 350 349 539 525
          354 353 541 528 498 335
          462 636 500 339 465 637
          500 339 465 637 502 343
          468 638 369 267 291 624
          371 268 292 625 371 268
          292 625 373 269 293 626
          358 538 493 359 362 540
          495 363 362 540 495 363
          366 542 497 367 394 453
          321 395 398 454 325 399
          398 454 325 399 402 455
          329 403 587 645 660 588
          591 646 661 592 591 646
          661 592 595 647 662 596
          448 543 523 522 450 545
          526 525 450 545 526 525
          452 547 529 528 472 333
          627 473 476 337 629 477
          476 337 629 477 480 341
          631 481 436 435 663 383
          440 439 664 387 440 439
          664 387 444 443 665 391
          411 296 532 531 415 300
          534 533 415 300 534 533
          419 304 536 535 609 425
          424 654 611 429 428 655
          611 429 428 655 613 433
          432 656 492 566 633 359
          494 569 634 363 494 569
          634 363 496 572 635 367
          393 394 54 397 398 56
          397 398 56 401 402 58
          413 414 645 417 418 646
          417 418 646 421 422 647
          628 627 651 630 629 652
          630 629 652 632 631 653
          117 348 345 118 352 349
          118 352 349 119 356 353
          565 642 412 568 643 416
          568 643 416 571 644 420
          457 295 464 459 299 467
          459 299 467 461 303 470
          463 464 505 466 467 507
          466 467 507 469 470 509
          499 336 628 501 340 630
          501 340 630 503 344 632
          384 636 648 388 637 649
          388 637 649 392 638 650
          492 369 370 494 371 372
          494 371 372 496 373 374
          473 474 615 477 478 617
          477 478 617 481 482 619
          381 382 312 385 386 315
          385 386 315 389 390 318
          471 472 544 475 476 546
          475 476 546 479 480 548
          582 574 575 583 577 578
          583 577 578 584 580 581
          312 306 294 315 308 298
          315 308 298 318 310 302
          524 376 474 527 378 478
          527 378 478 530 380 482
          396 393 657 400 397 658
          400 397 658 404 401 659
          483 395 396 486 399 400
          486 399 400 489 403 404
          357 448 543 361 450 545
          361 450 545 365 452 547
          485 573 484 488 576 487
          488 576 487 491 579 490
          621 586 587 622 590 591
          622 590 591 623 594 595
          324 597 323 328 599 327
          328 599 327 332 601 331
          603 307 556 605 309 559
          605 309 559 607 311 562
          610 425 426 612 429 430
          612 429 430 614 433 434
          360 633 359 364 634 363
          364 634 363 368 635 367
          598 610 406 600 612 408
          600 612 408 602 614 410
          574 597 573 577 599 576
          577 599 576 580 601 579
          672 276 273 666 673 277
          274 667 673 277 274 667
          674 278 275 668 675 672
          666 669 676 673 667 670
          676 673 667 670 677 674
          668 671 720 675 669 721
          722 676 670 723 722 676
          670 723 724 677 671 725
          678 279 276 672 679 280
          277 673 679 280 277 673
          680 281 278 674 726 678
          672 675 727 679 673 676
          727 679 673 676 728 680
          674 677 729 726 675 720
          730 727 676 722 730 727
          676 722 731 728 677 724
          681 282 279 678 682 283
          280 679 682 283 280 679
          683 284 281 680 732 681
          678 726 733 682 679 727
          733 682 679 727 734 683
          680 728 684 285 282 681
          685 286 283 682 685 286
          283 682 686 287 284 683
          735 684 681 732 736 685
          682 733 736 685 682 733
          737 686 683 734 687 288
          285 684 688 289 286 685
          688 289 286 685 689 290
          287 686 738 687 684 735
          739 688 685 736 739 688
          685 736 740 689 686 737
          690 291 288 687 691 292
          289 688 691 292 289 688
          692 293 290 689 741 690
          687 738 742 691 688 739
          742 691 688 739 743 692
          689 740 693 694 564 624
          695 696 567 625 695 696
          567 625 697 698 570 626
          699 700 701 702 703 704
          705 706 703 704 705 706
          707 708 709 710 702 701
          412 565 706 705 416 568
          706 705 416 568 710 709
          420 571 413 701 711 645
          417 705 712 646 417 705
          712 646 421 709 713 647
          690 741 744 714 691 742
          745 715 691 742 745 715
          692 743 746 716 714 699
          702 694 715 703 706 696
          715 703 706 696 716 707
          710 698 694 702 565 564
          696 706 568 567 696 706
          568 567 698 710 571 570
          747 717 748 749 750 718
          751 752 750 718 751 752
          753 719 754 755 699 744
          748 700 703 745 751 704
          703 745 751 704 707 746
          754 708 711 701 700 717
          712 705 704 718 712 705
          704 718 713 709 708 719
          714 694 693 690 715 696
          695 691 715 696 695 691
          716 698 697 692 291 690
          693 624 292 691 695 625
          292 691 695 625 293 692
          697 626 711 717 660 645
          712 718 661 646 712 718
          661 646 713 719 662 647
          714 699 744 715 703 745
          715 703 745 716 707 746
          748 700 717 751 704 718
          751 704 718 754 708 719
          413 701 412 417 705 416
          417 705 416 421 709 420
        </DataArray>
        <DataArray type="Int64" Name="offsets" format="ascii" RangeMin="8" RangeMax="3624">
          8 16 24 32 40 48
          56 64 72 80 88 96
          104 112 120 128 136 144
          152 160 168 176 184 192
          200 208 216 224 232 240
          248 256 264 272 280 288
          296 304 312 320 328 336
          344 352 360 368 376 384
          392 400 408 416 424 432
          440 448 456 464 472 480
          488 496 504 512 520 528
          536 544 552 560 568 576
          584 592 600 608 616 624
          632 640 648 656 664 672
          680 688 696 704 712 720
          728 736 744 752 760 768
          776 784 792 800 808 816
          824 832 840 848 856 864
          872 880 888 896 904 912
          920 928 936 944 952 960
          968 976 984 992 1000 1008
          1016 1024 1032 1040 1048 1056
          1064 1072 1080 1088 1096 1104
          1112 1120 1128 1136 1144 1152
          1160 1168 1176 1184 1192 1200
          1208 1216 1224 1232 1240 1248
          1256 1264 1272 1280 1288 1296
          1304 1312 1320 1328 1336 1344
          1352 1360 1368 1376 1384 1392
          1400 1408 1416 1424 1432 1440
          1448 1456 1464 1472 1480 1488
          1496 1504 1512 1520 1528 1536
          1544 1552 1560 1568 1576 1584
          1592 1600 1608 1616 1624 1632
          1640 1648 1656 1664 1672 1680
          1688 1696 1704 1712 1720 1728
          1736 1744 1752 1760 1768 1776
          1784 1792 1800 1808 1816 1824
          1832 1840 1848 1856 1864 1872
          1880 1888 1896 1904 1912 1920
          1928 1936 1944 1952 1960 1968
          1976 1984 1992 2000 2008 2016
          2024 2032 2040 2048 2056 2064
          2072 2080 2088 2096 2104 2112
          2120 2128 2136 2144 2152 2160
          2168 2176 2184 2192 2200 2208
          2216 2224 2232 2240 2248 2256
          2264 2272 2280 2288 2296 2304
          2312 2320 2328 2336 2344 2352
          2360 2368 2376 2384 2392 2400
          2408 2416 2424 2432 2440 2448
          2456 2464 2472 2480 2488 2496
          2504 2512 2520 2528 2536 2544
          2552 2560 2568 2576 2584 2592
          2600 2608 2616 2624 2632 2640
          2648 2656 2664 2672 2680 2688
          2696 2704 2712 2720 2728 2736
          2744 2752 2760 2768 2776 2784
          2792 2800 2808 2816 2824 2832
          2838 2844 2850 2856 2862 2868
          2874 2880 2886 2892 2898 2904
          2910 2916 2922 2928 2934 2940
          2946 2952 2958 2964 2970 2976
          2982 2988 2994 3000 3006 3012
          3018 3024 3030 3036 3042 3048
          3054 3060 3066 3072 3078 3084
          3090 3096 3102 3108 3114 3120
          3126 3132 3138 3144 3150 3156
          3164 3172 3180 3188 3196 3204
          3212 3220 3228 3236 3244 3252
          3260 3268 3276 3284 3292 3300
          3308 3316 3324 3332 3340 3348
          3356 3364 3372 3380 3388 3396
          3404 3412 3420 3428 3436 3444
          3452 3460 3468 3476 3484 3492
          3500 3508 3516 3524 3532 3540
          3548 3556 3564 3572 3580 3588
          3594 3600 3606 3612 3618 3624
        </DataArray>
        <DataArray type="UInt8" Name="types" format="ascii" RangeMin="12" RangeMax="13">
          12 12 12 12 12 12
          12 12 12 12 12 12
          12 12 12 12 12 12
          12 12 12 12 12 12
          12 12 12 12 12 12
          12 12 12 12 12 12
          12 12 12 12 12 12
          12 12 12 12 12 12
          12 12 12 12 12 12
          12 12 12 12 12 12
          12 12 12 12 12 12
          12 12 12 12 12 12
          12 12 12 12 12 12
          12 12 12 12 12 12
          12 12 12 12 12 12
          12 12 12 12 12 12
          12 12 12 12 12 12
          12 12 12 12 12 12
          12 12 12 12 12 12
          12 12 12 12 12 12
          12 12 12 12 12 12
          12 12 12 12 12 12
          12 12 12 12 12 12
          12 12 12 12 12 12
          12 12 12 12 12 12
          12 12 12 12 12 12
          12 12 12 12 12 12
          12 12 12 12 12 12
          12 12 12 12 12 12
          12 12 12 12 12 12
          12 12 12 12 12 12
          12 12 12 12 12 12
          12 12 12 12 12 12
          12 12 12 12 12 12
          12 12 12 12 12 12
          12 12 12 12 12 12
          12 12 12 12 12 12
          12 12 12 12 12 12
          12 12 12 12 12 12
          12 12 12 12 12 12
          12 12 12 12 12 12
          12 12 12 12 12 12
          12 12 12 12 12 12
          12 12 12 12 12 12
          12 12 12 12 12 12
          12 12 12 12 12 12
          12 12 12 12 12 12
          12 12 12 12 12 12
          12 12 12 12 12 12
          12 12 12 12 12 12
          12 12 12 12 12 12
          12 12 12 12 12 12
          12 12 12 12 12 12
          12 12 12 12 12 12
          12 12 12 12 12 12
          12 12 12 12 12 12
          12 12 12 12 12 12
          12 12 12 12 12 12
          12 12 12 12 12 12
          13 13 13 13 13 13
          13 13 13 13 13 13
          13 13 13 13 13 13
          13 13 13 13 13 13
          13 13 13 13 13 13
          13 13 13 13 13 13
          13 13 13 13 13 13
          13 13 13 13 13 13
          13 13 13 13 13 13
          12 12 12 12 12 12
          12 12 12 12 12 12
          12 12 12 12 12 12
          12 12 12 12 12 12
          12 12 12 12 12 12
          12 12 12 12 12 12
          12 12 12 12 12 12
          12 12 12 12 12 12
          12 12 12 12 12 12
          13 13 13 13 13 13
        </DataArray>
      </Cells>
    </Piece>
  </UnstructuredGrid>
</VTKFile>
