<?xml version="1.0"?>
<VTKFile type="UnstructuredGrid" version="0.1" byte_order="LittleEndian" header_type="UInt32" compressor="vtkZLibDataCompressor">
  <UnstructuredGrid>
    <Piece NumberOfPoints="795" NumberOfCells="454">
      <PointData>
        <DataArray type="Int32" Name="libmesh_node_id" format="ascii" RangeMin="2220" RangeMax="4979">
          2220 2221 2222 2223 2224 2225
          2226 2227 2228 2229 2230 2231
          2388 2389 2390 2391 2392 2393
          2394 2395 2396 2397 2398 2399
          2402 2405 2408 2409 2410 2411
          2463 2464 2465 2466 2467 2468
          2469 2470 2471 2472 2473 2474
          2475 2476 2477 2478 2479 2480
          2499 2500 2501 2502 2503 2504
          2505 2506 2507 2508 2509 2510
          2511 2512 2513 2514 2515 2516
          2517 2518 2519 2520 2521 2522
          2613 2614 2616 2617 2618 2620
          2621 2622 2624 2652 2653 2654
          2655 2656 2657 2658 2659 2660
          2661 2662 2663 2697 2701 2705
          2721 2722 2723 2724 2725 2726
          2736 2737 2738 2739 2740 2741
          2742 2743 2744 2745 2746 2747
          2748 2749 2750 2751 2752 2753
          2754 2755 2756 2757 2758 2759
          2760 2761 2762 2763 2764 2765
          2778 2779 2780 2781 2782 2783
          2784 2785 2786 2862 2863 2864
          2865 2866 2867 2868 2869 2870
          2871 2872 2873 2922 2923 2924
          2925 2926 2927 2940 2941 2942
          2943 2944 2945 2946 2947 2948
          2958 2959 2960 2961 2962 2963
          2964 2965 2966 2967 2968 2969
          2992 2993 2996 2997 3000 3001
          3018 3019 3020 3021 3022 3023
          3036 3039 3040 3043 3044 3047
          3060 3061 3062 3063 3064 3065
          3066 3067 3068 3069 3070 3071
          3072 3073 3074 3075 3076 3077
          3180 3181 3182 3183 3184 3185
          3204 3205 3206 3207 3208 3209
          3240 3242 3244 3258 3260 3262
          3273 3274 3275 3276 3277 3278
          3279 3280 3281 3282 3283 3284
          3285 3286 3287 3288 3289 3290
          3291 3292 3293 3294 3295 3296
          3297 3298 3299 3348 3349 3350
          3351 3352 3353 3354 3355 3356
          3357 3358 3359 3360 3361 3362
          3363 3364 3365 3369 3370 3371
          3372 3373 3374 3399 3400 3401
          3402 3403 3404 3405 3406 3407
          3408 3409 3410 3411 3412 3413
          3414 3415 3416 3417 3418 3419
          3420 3421 3422 3462 3463 3464
          3486 3487 3488 3489 3490 3491
          3507 3508 3509 3510 3511 3512
          3527 3530 3533 3534 3535 3536
          3555 3556 3557 3558 3559 3560
          3561 3562 3563 3579 3580 3581
          3594 3595 3596 3597 3598 3599
          3603 3604 3605 3606 3607 3608
          3621 3622 3623 3624 3625 3626
          3627 3628 3629 3642 3643 3644
          3645 3646 3647 3648 3649 3650
          3651 3652 3653 3669 3670 3671
          3672 3673 3674 3675 3676 3677
          3678 3679 3680 3681 3682 3683
          3750 3751 3752 3753 3754 3755
          3756 3757 3758 3759 3760 3761
          3780 3781 3782 3783 3784 3785
          3909 3910 3911 3912 3913 3914
          3915 3916 3917 3918 3919 3920
          3951 3952 3953 3966 3967 3968
          3975 3976 3977 3978 3979 3980
          3981 3982 3983 3984 3985 3986
          3987 3988 3989 3990 3991 3992
          4008 4009 4010 4011 4012 4013
          4014 4015 4016 4017 4018 4019
          4020 4021 4022 4023 4024 4025
          4026 4027 4028 4029 4030 4031
          4041 4042 4043 4044 4045 4046
          4047 4048 4049 4050 4051 4052
          4068 4069 4070 4080 4081 4082
          4092 4093 4094 4095 4096 4097
          4098 4099 4100 4101 4102 4103
          4122 4123 4124 4125 4126 4127
          4146 4147 4148 4149 4150 4151
          4152 4153 4154 4155 4156 4157
          4158 4159 4160 4173 4174 4175
          4176 4177 4178 4179 4180 4181
          4182 4183 4184 4188 4189 4190
          4194 4195 4196 4197 4198 4199
          4200 4201 4202 4203 4204 4205
          4218 4219 4220 4221 4222 4223
          4230 4231 4232 4266 4267 4268
          4281 4282 4283 4299 4300 4301
          4305 4306 4307 4308 4309 4310
          4311 4312 4313 4335 4336 4337
          4341 4342 4343 4395 4396 4397
          4455 4456 4457 4473 4474 4475
          4476 4477 4478 4515 4516 4517
          4578 4579 4580 4581 4582 4583
          4614 4615 4616 4704 4705 4706
          4707 4708 4709 4710 4711 4712
          4713 4714 4715 4737 4738 4739
          4740 4741 4742 4821 4822 4823
          4842 4843 4844 4845 4846 4847
          4854 4855 4856 4857 4858 4859
          4860 4861 4862 4863 4864 4865
          4866 4867 4868 4875 4876 4877
          4878 4879 4880 4908 4909 4910
          4914 4915 4916 4932 4933 4934
          4941 4942 4943 4977 4978 4979
          2400 2401 2403 2404 2406 2407
          2615 2619 2623 2698 2699 2700
          2702 2703 2704 2706 2707 2708
          2991 2994 2995 2998 2999 3002
          2331 2330 2335 2334 2339 2338
          3241 3243 3245 3259 3186 3188
          3261 3189 3191 3263 3192 3194
          3448 3450 3452 3525 3526 3528
          3529 3531 3532 3537 3538 3539
          3540 3541 3542 3654 3657 3660
          2328 2332 2336 3852 3853 3854
          3993 3994 3995 4338 4339 4340
          3513 3514 3515 4458 4321 4459
          4324 4460 4327 4584 4585 4586
          4587 4588 4589 4791 4792 4793
          4794 4795 4796 4797 4798 4799
          4431 4432 4433 3495 3187 3499
          3190 3503 3193 3954 3957 3958
          3961 3962 3965 4899 4900 4901
          4968 4969 4970 4911 4912 4913
          3498 3502 3506 4902 4903 4904
          4434 4436 4438
        </DataArray>
        <DataArray type="Float64" Name="resid_x" format="ascii" RangeMin="-0.000006227570250039172" RangeMax="0.00005831928109978346">
          -1.979539911989292e-7 -0.0000016598882403018322 -0.000002846840354120417 -0.0000028487153556078226 0.0000011752581700053 -2.2034530100523142e-7
          0.0000027910730717728427 0.0000047820875159754195 0.000020078091734876402 0.000014559359780008663 0.000019447199392397252 0.000021915803024796787
          -4.9657777001499426e-8 0.0000049115140171585026 0.000004313036222836075 4.138686526822255e-8 0.0000026869684780495007 0.00001685734438461317
          0.000012337856957644888 0.00001516534423051663 0.00001871076674264671 0.000022228225847853444 0.000019841167539946802 0.00002428772892881792
          0.00002892732127190989 0.00004417912241860833 0.000027036511500710958 0.00002973990518850833 0.000037381460015861734 0.000023697615674556083
          0.000005003023977115384 0.000009992595143192007 0.0000010020972764090974 0.00001146654672524311 0.000014593427537998305 0.00001831882665356832
          -7.393548179246423e-8 -0.0000025134330453591147 -0.0000021429892012037044 -0.0000016857168628758856 0.0000016577551210095187 0.000001481349313325886
          0.000006025264894571336 0.000006315895954789319 0.000022325562962777212 0.000026425287232623162 0.000023493555749265482 0.000015822935906739666
          -6.951541020594476e-8 -0.0000010889891808307794 -9.85388293517353e-7 -0.0000017681344858244685 0.000003471903688767597 0.0000030446970176178922
          0.00000692430067750216 0.000005107594719611086 0.00001669398225068175 0.00001665111220283677 0.00001680544575044518 0.000015744001841400124
          -6.211605091399619e-8 -0.000001077742695865247 -0.0000014571309449040726 -0.0000014967371927410156 0.000002747954173099032 0.000005370236366819547
          0.000002565583704927654 0.000003286226917142976 0.000012616981870439137 0.000017620025263509476 0.000014149134077490189 0.000013816174317282659
          0.0000025557971766732024 0.000011126260135441157 -8.770979498251563e-8 0.000008348480435294015 0.000025897256713536265 0.000016989893424357305
          0.00002479927999987641 0.000026375773448550355 0.00003515000351383968 0.000006563439566509288 -0.0000011054473834093415 -9.701906846307229e-7
          -0.0000026608156820095985 0.000016843316315018342 0.000005787117781208551 0.0000041395732794519136 0.000006382665863835513 0.000026017286344659496
          0.000017097319537695554 0.000026591213931809188 0.00002882832775386035 0.00003801216459697887 0.00005831928109978346 0.00003433078282544244
          0.000006343828808846874 0.0000037128893437543553 0.000004719786583812224 0.000001953277245059226 0.00001685778677953942 0.000017975918799706392
          0.0000025621464859737486 0.000008504675416687313 -2.1960219209749e-7 0.000002770572887222933 0.0000036118321093958627 0.000003959935138131421
          0.00001500594427494839 0.000016438652912009744 0.00001943424422012896 -9.020538282999979e-8 -0.0000011554278587233568 -0.0000015285129371100936
          -0.0000025940821623202104 0.0000033022012087130515 0.000002559053675854628 0.000006604455283776289 0.000003510832045715284 0.000017216855144247534
          0.00002021604891755402 0.00002528936198209486 0.0000205568564650635 0.000002086679158352922 0.000007248238587276301 0.0000021213685863497034
          0.00000424514278396515 0.00000380890478268725 0.000009776435509700754 0.000017323173313044116 0.000012366627558657584 0.000020318649248785015
          0.000011709947929094966 0.000016762391785163366 0.000009812385947327584 0.000007540598961797151 0.000008669072999789584 0.000003737324802632891
          0.000008305644604522655 0.000011341099217521133 0.00001848098763357342 0.000009121847231563507 0.000005197829888725636 -3.5623528235259605e-7
          0.000011361255645631063 0.000005002659006603238 0.000006124844942889673 0.0000015712764184477174 0.000009390611052345621 0.00002752477655876273
          0.000016915138928541573 0.000014401515239660656 0.000030259081656880404 0.0000020877037123501196 0.0000027146169296887734 0.000002940145694352303
          0.000008936201325360216 0.000024559864562623268 0.000027311831916509988 0.000003361247108202292 0.0000031986466413336245 0.000014835102473353956
          0.0000037887767183608645 0.000007804018213319885 0.000009347751984023489 0.00002598523724040014 0.000025086189126555247 0.00002124047454210576
          0.000001669297019057936 -6.824828440166186e-7 0.000006244172696567851 0.000014008003099919009 0.0000014454736594338158 0.0000010561969783218217
          0.000008100893686746602 0.000010352926793300021 0.000014112185087178375 0.000015288361291387886 0.000019747231218558703 0.00002178857343571039
          0.000003767458746084529 0.00000339923699133049 0.000007616477933014565 0.000006966111370687589 0.000007590009559521604 0.000008966618149974792
          0.000006299894166450493 0.000009950410161163603 0.000001050625923704196 0.000006473851869692737 0.000016410506610164965 0.000013845940087797715
          0.000014606221150792464 0.000013356027971811457 0.000017687299640911647 0.00001686703199776929 0.000011004091372779357 0.000011711280876625096
          0.000007225753564044091 0.000006935601653212942 0.00000999648981059309 0.000008426182079357414 0.000014974761924357871 0.000014461588348613219
          0.000012538676414042271 0.000003437025834190921 0.000012939197369110644 0.000011002990468078622 0.000007733519338026795 0.00000779781156173831
          0.000005028937867690431 0.0000030367655113883174 0.000003156514523650067 0.000008262565534877808 0.000028602899209251298 0.000032483566073548964
          0.000010757589993345973 0.000024135163381400204 0.0000058205706848502015 0.00004611922425024062 0.000019013785993178545 0.000036234036069116016
          0.000010139051232260776 0.000023687122110760406 1.0736734334937381e-8 0.000046109054935739024 0.00001782548449685839 0.000035925993768337605
          0.000012551238793623298 0.0000148416236560589 0.000011086810059568464 0.0000125670125273869 0.0000226615519061113 0.00002463932268537139
          0.000023266742576799615 0.00001354761854921449 0.000018131210281713273 0.000009504731919851572 0.00001713041503959012 0.00002234799279543509
          0.000012054472821598772 0.0000034959450299076877 0.000020084479663617927 0.00001573276084809727 0.00001726750010044853 0.00001593814160050222
          0.0000088947843382009 0.000006174738661823831 0.00001097583716525019 0.000006493926955515594 0.0000027092994732136333 0.000007236486356032579
          0.000013397255207742154 0.000017440628121256907 0.00002398932017733113 0.000014892125412439838 0.000012539832674351992 0.000009733315525055353
          0.000005452313143861076 0.000016266398748188138 0.000020139331278978823 0.00001521282721517192 0.0000013264236715659905 0.00001686035259396146
          -7.277366043112465e-8 -7.76543404246155e-7 0.000005810502122116645 0.000005842338111516909 5.925442907450673e-7 -3.0633510217370485e-7
          0.000010013400631669889 0.000007221129373347068 0.000007050453597279294 0.000010283874988803454 0.000017234251815878565 0.000014004578785087318
          0.000020733073471057573 0.000007135175750572209 0.000024690511938207926 0.0000225630108736663 0.000004069814524276794 0.00001879434613272224
          0.00003916784096047454 0.00004119676383396165 0.000029826328846960237 0.000013509783413745424 0.000003275753197806708 0.000002782471442253076
          2.94259014710363e-7 0.000012320832667223058 0.000002883514221507788 0.000012842619933062238 0.000013789176767642353 0.000007092695451849096
          0.0000027102935477030243 0.00002005861702003564 0.000016933156903764512 0.000013216974598773135 0.000018765312222723818 0.000003309614704183339
          0.0000037971245360202133 0.000019996806236655118 0.000018572203925704134 0.000018448159536443853 0.000012169564658215393 0.000008965696895124609
          0.00000633340170752561 0.00001535083857584496 0.000017002119985232156 0.000017128103061314626 0.000007344303393275187 0.00002424594124930679
          0.000017050487397973768 0.000015561765442984044 0.000004703251218263205 0.0000016723670157869908 0.000016455850375241 0.000012975728172437417
          0.000017556489178130463 0.00001084210704127564 0.0000074552108819680996 0.000003534040071473399 0.000014322074273764862 0.00001064163089858905
          0.000026684376020158496 0.00004706573393520319 0.00003550398206930705 0.000019723201440946525 0.000004480658563510431 0.000026044793779878006
          0.000016656537269177374 0.000008413277890473303 0.000005757838918651892 0.000003242232205602491 0.000012162841060814333 0.000004678853198880617
          0.000017443524895743856 -3.0272994167024336e-7 0.00001886200650180747 0.000019265284727398857 0.000008136739130137904 0.000018897612552581933
          0.00003764525093274962 0.00003956120273151953 0.000004394430848320141 0.000005647919878448704 0.00002822080179143427 0.000022831700771330787
          0.00002629380930341263 0.000012036077115196164 0.0000061438068637009735 0.0000029309922222608975 0.000017928221901497565 0.000018165369286338162
          0.000020474543822923685 0.000017815400436882456 0.000015239740391082002 0.000006617688394383592 0.000008011981164068871 0.000004746687546575146
          0.000009485233260164705 0.000009732548028718035 0.000009569596092884325 0.000004780203319731946 -5.401935167514971e-7 0.000003884370699536177
          0.000013478388547927267 0.000004763367315918643 0.0000024431872712726843 0.0000036818149649064935 0.000015684902166190895 0.000020256967961929107
          0.000011552095873335055 0.000014749286342818912 0.000028371585151343304 -8.576191556919355e-8 2.165127224174057e-7 0.00000398923393540862
          -0.0000030390297484084172 0.000003069709945124899 -0.0000011628466054514064 0.000014992087952636624 0.000004011300248740746 0.00001915030968979714
          0.000019804711601234537 0.0000220506747554694 0.000020978747795052932 0.00003654571017719377 0.000012344296531852095 0.000027277696350358482
          0.000005313890807545629 0.000006314257573691862 0.000002138592888001334 0.000004936998117432978 0.000020238817855955382 0.000017564549130266727
          0.00000885117688032011 0.000015975131396062103 0.000012348251812066557 0.000033687422811734535 0.000026325004947369557 0.000024200260226647785
          0.000005618052074662927 0.000008776157434095544 0.0000021977986709997843 0.00000585516663513877 0.000018538415002322672 0.000020923872084951944
          0.000011499421298077905 0.000018298983427866844 0.000003312990752180056 0.000010708246323432036 0.000018880979274937815 0.000021019481169171073
          0.000010901868499502143 0.000008266002284595952 0.0000033537565987673545 0.000003212989941825395 0.000018258464025477927 0.000014168662301028423
          0.00003632546054133101 0.000014619387098235848 0.000025762801864726015 0.00002549318076017215 0.000007323569994444057 0.000027282791805527395
          0.000001570209647638876 0.000008201054084611137 0.000013212181565191994 0.000009851238768954218 1.504192481127653e-7 0.00000892443460798198
          0.000012190332485673139 0.000006551637855345405 0.000014745326168685846 0.00001033326125010614 0.00001844940675488349 0.00001878539260080636
          0.00003187519950909046 0.000010208716981097155 0.000051811721167194236 -0.0000017704320783851202 0.000036674537806535845 0.00001558422414527083
          0.000004668264530716115 0.00000954132790242923 -9.103382059283405e-8 4.892680346424427e-7 0.000009837864455297662 0.000020352337732010284
          -1.810172984839653e-7 0.0000012327384302235345 0.000007642571768662343 0.000014834781668415786 0.000004969072698202126 0.000003845345568964653
          0.00002546403236491912 0.000017006499764105065 0.000021912115810707178 0.00002535784945734143 0.00003010419235494055 0.00002908044878235927
          0.00001779120764366926 0.000014064723487416941 0.000017083796298722476 0.00002754960044937249 0.000014862871476895023 0.00002760393391232352
          0.000021473442327057946 0.00001933943838061669 0.000014477974090487677 0.000009169202507292029 0.00001726760725695442 0.000014337887013160522
          0.00003530892520364759 0.000026127661939767677 0.000010309467147306961 0.000010358507928298621 0.000026067112945282744 0.000019262264183472766
          0.000019889990505950195 0.0000045164790851703884 0.00001966129178354592 0.00004048325004690767 0.0000036937764418265573 0.000015956970145891702
          0.00001541483302797131 0.000010256240856487686 0.000004242608715010476 0.000008808996726727969 0.000010723648316113277 0.000009069102257175388
          0.000016218432999592913 0.000006052157106251066 0.000007963319409665104 0.00000432875531308774 0.00001032849520177237 0.000005635195890696387
          0.000005734912469024245 0.0000048458118994121335 0.000005235026413030752 0.000005883870738410124 0.000006814072694427686 0.0000071691947645113885
          0.0000052251122094615354 0.000011171364209694445 0.000004066445101313931 0.0000058114994073710236 0.000006971013604362142 0.000004695685672628791
          0.000008013365638381842 0.000013877758923031003 0.000006239464342416845 0.000024752924353999006 0.0000246823313256872 0.000015736717494885255
          0.000014680208291650843 0.000019738558619031288 0.000020513332870342182 0.000014023450383482405 0.000010526786337727856 0.000009339044357625781
          0.00000705283154212033 0.000013221236588312202 0.000012004649333985373 0.00001702439873529915 0.000007657634468527519 0.000004713238340947612
          0.000004844091237798942 0.000013979436827238345 0.000006585573152251278 0.000019775948980282898 0.000017045586675035196 0.00001606471863357939
          0.0000018450605163700118 -6.639915093309412e-7 0.0000029344260648045406 0.000003080991954895751 6.004154574634768e-7 0.00000146125974553879
          0.000008872743153087725 0.000006938181074778171 0.000005179662096344018 0.0000061098187292829564 0.000007533412783033988 0.000006456457561143658
          0.000005346599660449591 0.000003291200705080044 0.000009804187508510864 0.0000030862149563715136 0.000005867495464051409 0.000003981095166749604
          0.0000052382873388934215 -5.895426991031627e-8 0.0000030388722574992144 0.000007810442792521854 0.0000035164601412951413 0.000008576722768993683
          0.000014276055326001291 5.904499602582547e-7 0.000015952224748483346 0.000023275575640191448 0.00001688677519473547 0.000019470991965420126
          0.000023773281569661187 0.000006833199431843795 0.000017756521296541372 0.0000164846428601928 0.000012742118324360341 0.000004334406916051137
          0.000007082951476555799 0.000011677371686946714 0.00001149386051457757 0.00001842920607508791 0.000002992968403114915 0.000010343744219154516
          0.000025636545887275375 0.00001814574895742105 0.000017412349817336192 0.000029800131653434647 0.000038753906133504046 0.000025073498658434445
          0.0000296953343346118 0.000019224105330062358 0.000018768379617339903 0.00004410141614163976 0.00003279410578338471 0.00005468903784822121
          0.00004171874628788874 0.00003403974461801962 0.000027805135451974827 0.00003898206259433934 0.000011929372200625288 0.00002073608027919338
          0.00002027153082417854 0.000014178129928543726 0.000015907258719138895 0.000018164429299583063 0.000005788278222840226 0.000006203798871506905
          0.000018533949742050027 0.000001547205555008091 0.000006186204994818034 0.000023240266005641885 0.000023396883338189234 0.0000162298034108721
          0.00003146465580150526 0.000027273111808057138 0.00001730739247074453 -0.000003092925319081452 1.1982102043894827e-7 -0.000006227570250039172
          2.334760642597189e-7 -0.0000014951202333968183 0.0000013896292683224232 0.000012752155402862009 0.000007883839418187932 0.0000023327767958436496
          0.000005412291595008334 0.000012872585651080293 0.000007561228146379939 0.000011104030739561566 0.000001219377683936429 0.000006352359612549208
          0.000006573745344851112 0.00000300181638457353 0.000004426306066340757 0.00002965772543350731 0.000046924008406223905 0.000026473740140864344
          0.00000112870420565514 0.000004294237886059982 0.0000015628798868405624 0.000001699661959064791 0.000003215826011704337 0.0000041220794142482475
          0.0000032929803134851277 0.000005720452742274951 0.0000031160668775287448 0.0000062182114083375595 0.0000034854408785811586 0.000009149577409384158
          0.000007316093638909393 0.000007385053309216794 0.00001139186810439341 0.000007429869457786786 0.000010192687133203648 0.0000070920759912551645
          0.0000036687801880930238 0.000005472833295494528 0.0000045671115226353365 0.000009025711148802351 0.0000013394984328396475 0.000004102931342120364
          0.000016396314843070137 0.000006866689496676237 0.000010688419723070552 0.000011925709539784002 0.000005996127174001664 0.00000539774248287106
          0.00004065247788898052 0.00004817239440679799 0.000030778057465430386 0.00000956615657776716 -3.834980488726103e-8 0.000004180364598038722
          0.000028895723664268402 0.000007191176374266028 0.000040843934518530745 0.000010803446088725188 0.000028210529818273322 0.000011967128411338734
          0.00002212203674822888 0.00002824658971656291 0.00003554384994919335 0.000019281018714512044 0.000023295837411452247 0.0000091779770190481
          0.00003717383623236259 0.00001559294920960852 0.0000055411852025732955 0.000026456754902426383 0.00002220831234878151 0.000012225328605341979
          0.000007430869247704308 0.000006082187883116319 0.000006766233392241361 0.000011692772592386547 0.000010661841479020495 0.000008857878303070166
          0.000018119142738248772 4.260566315861247e-7 0.0000494749566795627 0.000010327108968255505 0.000039879218887928225 0.00002868506710390628
          0.000005895433566438513 0.000022133461115902975 0.000010711989724576654 0.000024474033341048695 0.00001804223524892734 0.00002394808807038018
          0.000021729369714229563 0.000013194949125328037 0.00004140596454593748 0.000017696558624713532 0.000023661648110628875 0.00002560764750891842
          0.00001696792428862448 0.000010158586265962555 0.00002075982655402875 0.00001878968881241505 0.000029539312785820115 0.000042305967642430886
          0.000048919234201694195 0.00003208381291930351 0.00003143322948484517 0.000027847923274593178 0.0000221921033440875 0.00003176627743539662
          0.000015626573463212168 0.000019571293484288432 0.000013105192506968066 0.000014774449873744544 0.00003236668058104186 0.000026965934316836027
          0.000011917287436213897 0.000028499497204625968 0.00002943545197187092 0.000007662028132404686 0.00001261806588637171 0.000011436698170497195
          0.00001807178695933942 0.000021008931275656728 0.000016562857123481045 0.000009259036026665335 0.000011398108501592397 0.00001625742171440514
          0.000014240833810408304 0.000008429547857957687 0.000016143422731262902 0.000025955170161018337 0.000022414740675325007 0.000049324927297034193
          0.000047271884733302016 0.00003470526128424023 0.00003409122378017493 0.000012613393649552052 0.000012001884944323749 0.000022453275014822083
          0.00002113793055125157 0.000013275910596188822 0.000011546790646521643 0.00001466418289020055 0.000012556302362076721 0.00001253992146610372
          0.00000466421048062049 3.9946058172368737e-7 0.000008107930566936261 0.0000019590493001153675 0.0000049413944166465384 0.0000021223619595112098
          0.000020135580773683603 0.000016161939099590406 0.000015135925087450541 0.00001721499906670587 0.00002876542349672384 0.00003666404508795296
          0.00003705963366318343 0.000024425845997821938 0.00002272944152204026 0.000024768124157192872 0.000029791098351439338 0.000053872602173488104
          0.000044203353996241646 0.00003305452881363635 0.000022806199911351577 0.000006384656004332356 0.000007755234959994084 0.000003563026180763984
          0.000029973799239468857 0.000041794863552713224 0.000024252882773745377 0.000021317439868440147 0.00002460542682314326 0.000019416935128635515
          0.000013184765597973325 0.00003039201945753689 0.000023486869908495578 0.000039490344864612226 0.00005391371315610627 0.0000331695308437574
          0.000026152549220448407 0.00005322952060593522 0.000038702677939816965
        </DataArray>
        <DataArray type="Float64" Name="resid_y" format="ascii" RangeMin="-0.000032450362614721076" RangeMax="0.000014953231351258738">
          -5.3631537740581395e-8 -8.977882420965148e-8 -3.5790325297359316e-7 -8.590197814054359e-7 6.350479309941582e-7 0.0000011583519671481534
          -0.0000025758701415311974 0.000001773085004328715 0.0000043124286836237775 0.0000016332508309698348 -5.93551862711466e-7 0.000003975071189753557
          4.0152063380313047e-8 -0.0000051820914839040624 -0.000005993683645360952 -0.000002277529326324707 4.556227115033555e-7 -0.00001120667056149667
          -0.000016473727290752284 -0.000014706880743933694 -0.000005363650643709899 -0.000009662117061066261 -0.000015471862893843592 -0.000015062745670936604
          -0.00001700986366581954 -0.000032450362614721076 -0.000021453478461346334 -0.000015633573882944344 -0.000022836482194150964 -0.000009731335668553952
          -0.00000390547294641338 -0.000003556261778520347 -0.000002279340084812738 0.00000291553290183088 3.7139047040632076e-8 0.0000031791373919941215
          -8.375722636505892e-8 1.5846486681848166e-7 -1.8967501992823987e-7 1.4851795430677675e-7 -8.074943591389327e-7 0.0000024807865462586967
          -0.0000031171483613253587 -8.082751791699608e-7 -0.0000014931255078098546 -1.4569409122737074e-7 -0.000002009959072721279 -0.0000016309691600381072
          -3.015011137237275e-9 -1.2939257341287608e-7 -7.863294486444876e-7 1.951418633946555e-7 -7.330733027999139e-7 0.0000017745710160104768
          -0.000001315305108002228 0.000002430493916331976 0.0000017314691601971158 0.0000026577235444136043 0.000001766161965529255 0.0000036120533203092735
          8.53888089516518e-9 -2.4941109603304626e-7 5.394231615255441e-7 -1.5530668274175725e-7 -0.000001695763389137836 -0.000002465273586321835
          0.0000023798324242246555 -0.000002471319503406246 -0.000004922854915201489 -0.000003884155603758616 -0.0000013095389872719797 -0.000005590290370745764
          -0.0000038539653630202675 -0.0000012498909763823955 -0.000004092701123495227 -0.000007227619764568066 -3.5828858629640596e-7 -0.0000074767836505902955
          -0.0000052346272148631745 -0.0000038059533254661574 -0.00000736456171452596 0.000007653082326964517 0.0000012117396288790702 3.994680482771859e-7
          -3.744693002735895e-7 0.00001401272942075718 0.000001976343945607993 0.0000020984442010888002 -0.000005168430512306199 0.0000028069958973061908
          -0.0000010392382418242599 -0.000003475383829002886 -0.000007038548969266322 -0.000008280377414949386 -0.000016345040480264614 -0.00001185501070400264
          0.000003714125663673354 0.0000025938122847372555 7.491889833798645e-7 2.932460001865353e-7 3.654668228587985e-7 4.4784852745814036e-7
          -0.0000016804000569352762 -0.0000016012015759199645 -0.0000014892629533187589 1.8464778512217086e-7 -0.0000017914935856887162 0.000002200044299554855
          0.000004721009369691178 0.000001988050948208836 0.0000056612124930484516 -5.587740454734459e-8 3.533176308047163e-7 -3.6654249438829514e-7
          -6.221709314662826e-8 7.626750251788373e-7 -0.0000015296655757560812 0.000002397539026282279 0.0000011584816782849502 8.324454737608337e-7
          -9.58735536218426e-7 0.0000011055338858785915 1.7911756234581695e-7 -0.0000014202515399655297 -0.0000018678375183787195 4.2836779761876685e-7
          3.335225473898376e-7 -8.212148259474747e-7 0.0000010206500566667127 0.0000033415072158537572 0.0000016672722662913904 0.0000027744506765734096
          0.0000017133715125436854 0.0000037999442491385912 0.0000056292362592275645 0.0000017128315176886478 0.0000025146002417885207 0.000001942266390885807
          0.0000024129030518923013 0.0000035148395131030037 0.0000057133128434763486 -0.000005143543982415416 0.0000039689619938334695 1.7031612871738094e-7
          -0.0000058964281436134705 -0.0000032042530008500117 0.000002183292756551317 3.7689467346718546e-7 -0.0000050368356873065024 7.869756093785646e-7
          0.000001934568621609744 -3.631179342434356e-7 -0.000002799614626191574 0.0000012989029701871747 -0.0000040527120308575006 8.667471332909731e-7
          -0.0000013713190483177241 -0.000001713584986376155 -4.2884117313875605e-7 -0.00000360367742295684 -0.00000381987338418828 -0.0000014190889695443049
          -0.0000035141039791917192 -0.0000028151645059936586 7.76247916383678e-8 -0.000002207074678291709 -4.971940857868493e-7 -0.0000010468148641607292
          0.0000010071269288796508 3.587996405922389e-7 0.0000047688711747044706 0.0000010852538564688936 -0.0000013445473243988218 -0.0000020612957566598644
          0.000004740358111916029 -2.471970385769552e-7 -0.0000028312244102430065 -0.0000035022417338255105 0.0000011295235285806171 -0.0000024665082636304153
          0.0000015671796027986237 -0.000004570975350351501 0.000002792789909255352 -0.000009267102022736428 0.000002513744891903362 -0.0000037391490054043686
          0.000004543891302848015 0.0000015504037059325178 0.0000026940438216926108 8.875034913609966e-7 0.0000044165273842432435 0.0000037098741948210934
          -0.000012728649719374267 -0.000004797614087731798 -0.000009847244599308583 -0.0000033729693699733644 -0.000006869987685616079 -0.000005804269971646046
          -4.689889722868726e-7 0.0000020876277460005893 -6.246326992717308e-7 -0.000002669273389732142 -0.000001066250025658251 0.0000023033955391642963
          0.000008278808185439163 -3.7719120876819265e-7 0.000002532772254522017 0.000006024815969835409 0.000007108211112705903 0.0000012351816559899847
          -0.000003962341801521697 0.000003227576642977144 -1.0880057951800914e-8 0.000002225240476684369 -4.6078532144923356e-7 -0.0000033013572591998044
          -0.000006606248878037466 0.0000023717465586431744 -0.0000045395214458018125 0.00001116488515565811 -0.000004575435764138521 0.000003228750201684713
          -0.000005384693338210834 0.000004320295576522824 -1.2599928629619672e-7 0.000014953231351258738 -0.000002284832082090696 0.000004233039336095767
          -0.000002388092285835093 -0.0000021391094579526447 -0.0000033025996230961335 -0.000003839435185670759 -0.000006609182836226496 -0.0000018459325169094959
          -0.0000021276135261333144 -0.000003470105670684597 -0.0000063254404348705995 -0.0000022430888177446887 -0.000006716229934638964 -0.00001009092071060176
          -0.000007010742621793922 -0.0000017332997040212222 -0.000007334780904729452 -0.0000065299694708119155 -0.0000018785200582328854 5.0479360961218356e-8
          -0.000002883877404828445 5.155789104547073e-7 -0.00000484600013112024 -0.0000016305311824717835 7.558277906145536e-7 -0.0000016568893975907849
          -9.876861096892817e-7 9.712909739933821e-7 -0.000001896404792962208 6.363049209275225e-7 0.000002738112088087035 -0.0000010324818932789018
          0.0000014941013881512345 -4.3662604393076036e-7 -0.0000020141867167868324 -0.0000015721169420931935 -0.0000019610649395181493 -0.0000010328532104057417
          8.241003833064486e-9 6.386221755431444e-7 0.0000015153274917698153 -0.0000013402775474057505 -0.0000010657600472362117 -0.000003975819225214929
          -0.0000018752290719613015 -0.0000020116635248082905 -0.000006003336615717508 -0.000009509396224532832 -0.000007357127905272356 -0.00000734289448644574
          0.0000013665276048127444 0.000003614039150172778 -0.000002348912250688725 -0.0000017230871015563518 0.0000023446748095611383 0.0000033992932314875525
          -0.000007078685130687198 -0.000010521218788367079 -0.000007219061305524174 0.0000013635773225128146 -0.0000014455108961528408 2.0660557170345054e-7
          -3.422426252232616e-7 0.000003973564873742397 0.0000011738494647277635 0.0000030298069826958235 4.441194563584855e-7 -7.798093906111886e-8
          -0.000002685253157552747 -7.265605870467734e-7 -0.0000011239297796235281 -0.000002682975222229305 9.223353459393742e-7 -0.0000010395537365019518
          0.000002758516573471339 -0.0000011204790365633086 -2.0455672143713903e-7 0.000008072803043596057 0.000004092850919235058 0.0000032383336470301685
          -5.032535054165337e-7 -4.3697544850401435e-7 -0.0000010351371695386732 5.122059996447354e-8 3.8227124734336356e-7 -2.699536538720241e-7
          -3.483503260908946e-7 3.0827433682417e-7 6.063243832418394e-7 -0.0000010308604679641967 -7.415794021645508e-7 -0.0000010844586079772692
          0.000002164090955033139 0.000001243564295343527 8.76643313153856e-7 -5.715470944705212e-8 -3.165588465577768e-7 -5.399922065031865e-7
          0.0000025937295974340704 0.000007877853011440013 -9.2734309572063e-8 -0.000003036569055603301 1.7530139629940182e-7 -0.0000010146003432204222
          -3.302968702549331e-7 0.000001125129883193434 0.000002038229965441651 9.478350153629012e-7 0.0000020431350755778597 4.132456001945846e-7
          -0.000004074632904012797 2.622306993749733e-7 -0.000002039078307798734 -0.000001963504362972185 -0.00000331288285598981 7.474689967448128e-7
          -0.00000272935584591516 -0.000005533129755030779 4.087401880648392e-7 -0.0000019728356085331467 5.764335651659361e-7 -0.00000197784139452286
          0.000002455037754128331 0.0000021017231204636944 3.030594973695965e-7 -0.0000013731860293553742 -0.000003601731623289507 -0.000004489564816639521
          0.000005794492368808423 0.0000026945067986873517 0.0000025602044914515253 0.000004578399606773543 0.0000034868623783471456 0.0000011626397638749876
          0.000003517280701342677 0.000002391776024840116 0.0000010534455818294545 -0.0000028767862185318654 -5.953333812216532e-7 -0.000003351560265062387
          -9.777817428033991e-8 3.4340372910904304e-7 8.610039401995163e-7 -0.000002823090884897803 -0.000005616101155419065 0.000001630162638978968
          0.000001555553896653676 -0.0000017071603164498829 -0.000005898028149815219 3.0718149867953876e-8 -0.0000012549173366020912 -2.940112441220284e-7
          0.0000010417008557890052 -5.898414488325447e-7 -0.000005122208847419809 -0.000002309839689159602 -0.0000013179654657848212 -0.000004382973939716459
          -0.000012884059114302545 -0.000008730365870541525 -0.000007061370143320554 -0.0000011111679280740444 0.000004657581160165923 0.0000029122993264298416
          -0.000002433673064975209 -0.0000058295309445376316 0.000002440979612757053 -9.789915778935822e-7 -5.815329523575254e-7 -9.652046761062655e-7
          -0.000009246398589458828 -0.00000453370164616915 -0.000017422922162118378 -0.000007759765220019055 -0.000008377134170490857 -0.000003887585406535041
          -0.000003347667028381321 -0.000006132385068468595 4.1356592872456195e-7 8.713610635971512e-7 -0.000002365795699347064 -8.982630959172757e-7
          -0.000007628860480025316 -0.000014254524345315867 -0.0000019999187872749187 -0.0000049998960837687074 -0.000004838044483395764 -0.0000026287612904731146
          -0.000004402625058714128 5.320669167746669e-8 -0.0000020259730508609235 -0.0000024128729701567504 -0.000008943482797708034 -0.000006805828008032825
          -9.416349418655406e-7 1.3849078910749268e-7 -7.94075845821085e-7 0.0000012561655610774237 0.000002985973844189425 -2.9483337853297925e-7
          -0.000002542927743366414 -0.0000028255886274883594 -0.000002701680090034012 0.000002395994922217183 -0.0000027783302193410135 -0.000005920290698222409
          -0.000005150384466300311 0.000004267200179091258 -0.000004051125355960237 -0.0000063132386139788145 -0.000008654495598689016 -8.582806644568015e-7
          -0.0000017454272104363427 -0.0000043448195310167095 0.000004244869060517596 0.0000030347283711254155 2.359159999186164e-7 8.533033938121215e-7
          -8.656094470080501e-7 -0.000002963847707550347 1.2345349657914145e-8 1.95113264519082e-7 -0.0000030174790542772194 -0.000006447705821716098
          2.527174997388323e-8 -0.00000541663900031748 -0.0000058221682952940956 -0.000007059440231485395 -0.00000483319845617238 -0.000008995649878674954
          -0.00001581837653375764 -0.000012928182161474431 0.000002576563305519211 -0.000023358992329161783 -0.000023544363831246723 0.000005571498296234358
          -0.00001592602174967702 -0.000014677080157886671 -6.018912432517558e-7 -0.0000029976554579147496 -3.578439179644649e-7 -0.00000694732239916963
          -0.000006020338747247077 -0.000007692065323198789 -0.0000015918816095475234 -0.000008967060991885286 -0.0000016480937270863492 -0.000005344320069357962
          0.0000013356961099135131 0.000006233909982006434 -7.474377248907829e-7 0.000003625034831137696 -9.372781399259213e-7 4.4016939077786907e-7
          -0.00000758229771125182 -0.0000015632220241850597 -0.000002717341458129737 -0.0000026295499160940844 2.762350743840125e-7 -9.61447817528563e-7
          -0.0000011049178342199036 1.8339146161307912e-8 -1.5001819925284515e-7 -1.8102185478938507e-7 -0.0000010928526546030194 -3.1822067412352537e-7
          -0.000003560954523040632 -0.0000029634325106184576 -9.904715588098792e-7 -0.000004075856330758552 -0.000004653474686368145 -0.000005545210384332489
          -0.000004253831931384257 -0.000003467506307890984 -9.347975910220654e-7 -0.000001416662853917142 -0.0000016101845701435179 -0.0000017644436952821266
          -2.2461232216279884e-7 7.23995835956448e-8 0.000001144645148790701 0.0000011895092364016616 9.127811753603947e-7 0.0000020769761958218082
          -8.754292248155083e-7 0.000001652903418560925 0.0000012891612507462294 -0.0000024020301201210597 -8.73372292473952e-7 -0.0000035034596376812928
          2.1578148923380967e-7 -0.0000013464693357288608 3.118016264511093e-7 -0.000010057925433759629 -0.000005624669807013645 -0.000008177752958266104
          -0.0000028404391303225385 -0.000007517254618134481 -0.000006344103420057273 0.0000012644436837234486 1.5787646898767724e-7 -0.0000015235778743969536
          -2.1396896881899962e-7 0.000002621448209797904 7.396552963232205e-7 -0.000005327109778588196 0.0000035168893232065054 -0.000004448590382184325
          7.575850438167162e-7 3.343181490616208e-7 2.7230155420212773e-8 -1.8001286815853964e-7 1.2443834019324525e-7 -6.872833919689377e-7
          0.0000029812428955181425 0.0000026854777978242467 0.0000019621663432457023 8.576443137822817e-7 0.0000036996280454387005 0.000003863575023997602
          2.000857636440755e-7 -0.0000012820265351310995 0.0000015090367167788841 -0.0000017368979730676606 0.0000022091788420017873 5.178659255417831e-7
          -0.000003283910222989404 2.1298053783373912e-8 -0.000002084302183141969 0.000003244048636082166 -1.0346123968869755e-7 0.0000012071581080455604
          -0.0000021871295223510265 -0.0000011401110809321647 -0.000002823278439583127 -0.000006751972224922683 -0.00001059152842801869 -0.000008606894352337392
          -0.000004487816550377186 0.0000010487210100836898 6.154543292041749e-7 0.0000017808653069001888 1.3128354833845737e-7 0.0000010665586765384958
          0.0000023752387241455846 -0.0000013168514313983797 0.000001277017217998994 -0.000005886299508230369 -0.0000035289426339164907 -0.0000016071196358596364
          -0.0000012214629517273354 0.0000012680071802629103 -5.360923032229903e-8 -0.000016227262787713633 -0.000015578598088030957 -0.00000899725321561835
          -0.000002229782913608369 -7.370107543095555e-8 -5.622505844940853e-7 -0.000003361796349172705 -2.3659156499038214e-7 -0.000008346144111919668
          0.0000018333277274225866 -0.000005530841730898208 0.0000017015615902051147 -0.000003732837038346944 0.000004564160146947033 4.508353480379317e-7
          1.7305245764978258e-7 0.000005359947496832648 0.0000020152759994769218 -0.0000012490026391970624 -9.309447725324577e-7 -6.837087497173558e-7
          -2.2524037358775256e-8 0.0000052129754651462565 0.0000020962383002749545 0.000002227988731231048 0.00000573830561207897 0.000003716398898125431
          0.000003167333504424698 1.9453781848616236e-7 0.0000028297777480684044 0.0000034702871451743837 0.000005125304568178216 0.000005704393219748902
          0.000014562913417963473 0.0000025167263385685425 0.000007916444041925039 0.000002104579298916866 0.0000037165568896471246 0.000001281200831495697
          1.5460048215329859e-7 0.000005287139950055158 0.0000012165977502130932 0.000003019431231396667 -1.2586860699830178e-7 0.0000018558236077210197
          -0.000007415406699898872 -0.0000032651618661102 -0.0000034218408928468836 -0.00001043351131493355 -0.00002308489136152933 -0.000010808289236905648
          0.000005374015466749456 0.0000019225779935961402 0.0000029006028619684788 7.688360524391426e-7 9.401106878653958e-7 0.000002326339368840082
          -8.847653223192651e-7 0.000002097945207095973 5.258842045402056e-7 -9.32060153619645e-7 5.094963374774027e-7 -4.95288355215073e-7
          0.0000010358043235853345 8.563135922139706e-7 0.0000017716588524562286 0.0000010074492064622554 0.0000015832229251568718 9.080563292205158e-7
          -0.0000013827596051831036 0.000001233892148170911 6.66379430617666e-7 0.0000011166060774515257 -0.0000014750435012609382 0.0000010296870703267323
          0.00000579614247178743 0.000004202165090972222 0.000004077558710530215 0.000003111543530126612 -2.0619076732020545e-7 7.667881401426325e-7
          -0.0000036684955122549996 -6.090808488024187e-7 -0.0000010007486879919439 -0.000013567980690677077 -0.0000073017981894242545 -0.000006853804383132988
          -0.000018318411987806307 -0.000010444371347594246 -0.000022563225010161295 -0.000021164739989508637 -0.000013957169915243973 -0.000012053035067008042
          -4.955036415682165e-7 -0.0000143267851551096 -0.000010899584562327341 0.0000033772854360469146 -0.000008969372339634983 -0.000004352158618475561
          0.0000039407302816468065 -0.0000028347953343714483 0.000003165384546888108 -0.0000071560820556031135 -0.00000517772645909631 6.569809076193735e-7
          0.000004521177250923526 -0.000004133782185816032 0.000001794453739511516 -0.000006426693231534157 0.00000961339573985441 7.62206445929e-7
          -0.000006346662932655775 -0.000004756252577071962 -0.00001110843146450921 -0.0000017957017277286241 -0.00000480739957953169 0.000003348761328063332
          -0.0000067276477479336246 -0.0000051429107100113905 -0.0000014821498049320467 -0.000004422583567407741 -0.0000010762068479821304 -0.000004655967919303412
          -0.000009073432309123245 -2.7450596867904103e-7 -6.936318798838811e-7 -0.0000021316767271565683 0.0000023339646077545455 0.000003044706683123701
          -0.0000060417692335588274 -0.000022291277379557495 -0.000015695941646279646 0.000002315476660983383 -0.00000794702954697371 0.0000037285658049928533
          -0.000005021119161145379 -0.000001930993298137132 -0.000004640292317240925 6.135811548051628e-7 -0.0000030192427137949642 -0.0000057057410138142476
          -0.000010663651017037753 -0.000007384102399859353 -0.000008020909590231986 0.0000034248856590557777 0.000006657917485529581 0.000001965408658588779
          -0.000014003877533897823 -0.000029542226376957133 -0.00001427219905470443 0.0000033661288256284227 0.000010460123042045633 0.000011724988103869842
          -0.000014461091412468208 -0.000020082103389517693 -0.000009814618339424284 -0.000007879638531425783 -0.000008852641043282858 -0.0000049330589494615655
          -0.000005472138766960397 -0.000007882135811747607 -0.000003832575435367596 -0.000003534725631508355 -0.0000010839934518995509 -0.000012395375557059524
          -0.00000897938511506928 -0.000006709826860192437 -0.000010655629859370429 -0.000002916202581932509 -0.0000018542436746875508 -0.000006794557741392204
          -0.000006091087765721509 1.2297757395578202e-7 -5.082425689282438e-7 0.000003845510808946941 0.000001814345478681409 0.000006706964010737976
          -0.0000016298982391292432 0.0000012935982474969812 0.000008754287548982595 0.0000016547973607956845 0.000011368761100777282 0.000004897071395326084
          -0.000004612218942694896 -0.000008466675609676219 -0.000006201182541727777 0.0000012693726612056366 0.000003852333174101091 0.000004937441980559787
          0.000005788750047633004 0.000008142136269914668 0.000005340610440271194 -0.0000069217722068895884 -0.00000563712086407717 -0.000014602350387022192
          -0.0000025288026342350223 -0.000009561573488941176 -0.000005318623636736686 0.000013322126107678193 0.000006640656007935938 0.000006549313272038743
          -0.000005486546522899061 -0.000006496320921293378 -0.000002666123601949332 0.0000035341825919636 0.0000015018793837369426 0.000005608026324875268
          0.0000011471769593880687 -2.26668880033698e-7 0.000009053653356384805 -0.0000022898069573420304 0.000006599330288551211 0.000001678528138479747
          0.0000010082915200973833 0.000001929800073281404 -0.0000019573400151448594
        </DataArray>
        <DataArray type="Float64" Name="resid_z" format="ascii" RangeMin="0" RangeMax="0">
          0 0 0 0 0 0
          0 0 0 0 0 0
          0 0 0 0 0 0
          0 0 0 0 0 0
          0 0 0 0 0 0
          0 0 0 0 0 0
          0 0 0 0 0 0
          0 0 0 0 0 0
          0 0 0 0 0 0
          0 0 0 0 0 0
          0 0 0 0 0 0
          0 0 0 0 0 0
          0 0 0 0 0 0
          0 0 0 0 0 0
          0 0 0 0 0 0
          0 0 0 0 0 0
          0 0 0 0 0 0
          0 0 0 0 0 0
          0 0 0 0 0 0
          0 0 0 0 0 0
          0 0 0 0 0 0
          0 0 0 0 0 0
          0 0 0 0 0 0
          0 0 0 0 0 0
          0 0 0 0 0 0
          0 0 0 0 0 0
          0 0 0 0 0 0
          0 0 0 0 0 0
          0 0 0 0 0 0
          0 0 0 0 0 0
          0 0 0 0 0 0
          0 0 0 0 0 0
          0 0 0 0 0 0
          0 0 0 0 0 0
          0 0 0 0 0 0
          0 0 0 0 0 0
          0 0 0 0 0 0
          0 0 0 0 0 0
          0 0 0 0 0 0
          0 0 0 0 0 0
          0 0 0 0 0 0
          0 0 0 0 0 0
          0 0 0 0 0 0
          0 0 0 0 0 0
          0 0 0 0 0 0
          0 0 0 0 0 0
          0 0 0 0 0 0
          0 0 0 0 0 0
          0 0 0 0 0 0
          0 0 0 0 0 0
          0 0 0 0 0 0
          0 0 0 0 0 0
          0 0 0 0 0 0
          0 0 0 0 0 0
          0 0 0 0 0 0
          0 0 0 0 0 0
          0 0 0 0 0 0
          0 0 0 0 0 0
          0 0 0 0 0 0
          0 0 0 0 0 0
          0 0 0 0 0 0
          0 0 0 0 0 0
          0 0 0 0 0 0
          0 0 0 0 0 0
          0 0 0 0 0 0
          0 0 0 0 0 0
          0 0 0 0 0 0
          0 0 0 0 0 0
          0 0 0 0 0 0
          0 0 0 0 0 0
          0 0 0 0 0 0
          0 0 0 0 0 0
          0 0 0 0 0 0
          0 0 0 0 0 0
          0 0 0 0 0 0
          0 0 0 0 0 0
          0 0 0 0 0 0
          0 0 0 0 0 0
          0 0 0 0 0 0
          0 0 0 0 0 0
          0 0 0 0 0 0
          0 0 0 0 0 0
          0 0 0 0 0 0
          0 0 0 0 0 0
          0 0 0 0 0 0
          0 0 0 0 0 0
          0 0 0 0 0 0
          0 0 0 0 0 0
          0 0 0 0 0 0
          0 0 0 0 0 0
          0 0 0 0 0 0
          0 0 0 0 0 0
          0 0 0 0 0 0
          0 0 0 0 0 0
          0 0 0 0 0 0
          0 0 0 0 0 0
          0 0 0 0 0 0
          0 0 0 0 0 0
          0 0 0 0 0 0
          0 0 0 0 0 0
          0 0 0 0 0 0
          0 0 0 0 0 0
          0 0 0 0 0 0
          0 0 0 0 0 0
          0 0 0 0 0 0
          0 0 0 0 0 0
          0 0 0 0 0 0
          0 0 0 0 0 0
          0 0 0 0 0 0
          0 0 0 0 0 0
          0 0 0 0 0 0
          0 0 0 0 0 0
          0 0 0 0 0 0
          0 0 0 0 0 0
          0 0 0 0 0 0
          0 0 0 0 0 0
          0 0 0 0 0 0
          0 0 0 0 0 0
          0 0 0 0 0 0
          0 0 0 0 0 0
          0 0 0 0 0 0
          0 0 0 0 0 0
          0 0 0 0 0 0
          0 0 0 0 0 0
          0 0 0 0 0 0
          0 0 0 0 0 0
          0 0 0 0 0 0
          0 0 0 0 0 0
          0 0 0 0 0 0
          0 0 0 0 0 0
          0 0 0 0 0 0
          0 0 0 0 0 0
          0 0 0
        </DataArray>
        <DataArray type="Float64" Name="stress_zz" format="ascii" RangeMin="-4783.642981357011" RangeMax="1722.3056623897883">
          -397.7268923883216 686.7646256041278 1081.8327851202066 262.6101359894447 -402.0443922207113 707.4591664583529
          1094.3121611124886 243.42708779116583 -406.3618920531011 728.153707312578 1106.7915371047707 224.24403959288685
          283.53932911887847 767.9888662283108 354.8450190067547 -370.06428326387623 273.8414143956925 769.3024760849526
          347.917539636853 -400.8951609837484 264.14349967250655 770.6160859415941 340.9900602669513 -431.72603870362053
          763.5604815208852 784.1942843800903 804.8280872392957 1201.6452291970547 1201.1689133793357 1200.692597561617
          784.4097242332741 -19.589920974332827 778.3377757314961 -38.95693065690252 772.265827229718 -58.3239403394722
          -630.8772865897943 -317.4205835641965 -863.4701256363966 -1293.8079255770588 -640.0561519293358 -307.030713804262
          -891.2239713190327 -1361.7778651825574 -649.2350172688773 -296.64084404432754 -918.9778170016691 -1429.7478047880559
          34.032376467180995 128.44290156625976 422.4617145052214 596.078368146769 29.44663252847677 133.51577553982295
          426.268080888551 635.8559106962225 24.860888589772514 138.5886495133861 430.07444727188056 675.633453245676
          -409.76296859928345 -241.27109371600324 250.75640863982755 361.21002454605 -440.8859132233659 -250.43603014735945
          247.53617878856122 355.25699534894625 -472.0088578474484 -259.60096657871566 244.31594893729488 349.30396615184236
          1434.5794211772634 1629.5474952241734 52.82864345403311 1444.8114083013754 1675.9265788069808 37.99164704161058
          1455.0433954254877 1722.3056623897883 23.15465062918804 -308.2257371188424 -305.91535927870217 -195.06519000992836
          -115.27316858667061 -315.694904325751 -331.7576665303386 -206.0949272258037 -91.65489361658436 -323.1640715326595
          -357.59997378197517 -217.12466444167913 -68.03661864649808 -251.42388783036415 -242.57604209032493 -233.72819635028574
          1086.5964890223556 1360.700015285302 1085.305251249805 1368.8392858209797 1084.0140134772541 1376.9785563566572
          -758.8610790692542 -959.324746926048 237.1149356513025 -770.2459533486385 -985.4228758634612 278.44443662992614
          -781.6308276280229 -1011.5210048008742 319.7739376085498 86.61300413663093 -191.37719474154466 -137.82482824679678
          -264.0280562735972 79.01035028718027 -196.213676973829 -126.80996806352385 -264.6286942061479 71.40769643772958
          -201.05015920611334 -115.79510788025087 -265.22933213869857 0.08802335572880793 164.4521600526967 -503.02672790687325
          3.515072556377646 205.07596998421133 -529.054241883654 6.942121757026513 245.69977991572597 -555.0817558604347
          497.18885753329255 -685.7562166820607 65.95683121024726 573.3412574655067 -701.0020894527661 51.93379121114178
          649.4936573977208 -716.2479622234714 37.9107512120363 -89.46414592679699 -778.8366958177905 -258.0867796748063
          6.517373152218397 -87.08067960201811 -781.825360140785 -248.73366492025107 11.971830245894875 -84.69721327723923
          -784.8140244637793 -239.38055016569584 17.426287339571346 -165.00563444095093 -37.75491376515055 -172.1431083109143
          -24.984491333050936 -179.28058218087767 -12.214068900951325 -197.47349814259724 -347.64501251761544 -893.9415782205516
          -194.8012815233973 -355.51834557851805 -910.9768434443262 -192.1290649041974 -363.39167863942066 -928.0121086681008
          -1122.365837652088 -545.3140290691255 -727.5588008648871 -1194.2839927918094 -1117.3072735034616 -549.5637793798805
          -712.4958552274983 -1211.9707784258806 -1112.248709354835 -553.8135296906355 -697.4329095901097 -1229.6575640599517
          1050.3498989717634 683.6886720389798 1120.1315992888349 721.9985507744362 1189.9132996059063 760.3084295098927
          14.162091424503165 -1041.1811186609568 -5.880218217518196 -1079.5511520711873 -25.922527859539667 -1117.921185481418
          -1263.0784339850482 -1276.3910723041804 -1248.9397482143518 -1258.0846820449947 -1234.8010624436554 -1239.7782917858085
          -2202.178210394164 -2716.9955279393976 -985.9072773591022 9.467016248877442 -2202.399407623728 -2700.5265074909785
          -990.6066624374043 -4.341517029432161 -2202.6206048532918 -2684.0574870425585 -995.3060475157065 -18.150050307741765
          469.01947568320077 12.047821382988062 466.787086635863 5.162913026107811 464.5546975885251 -1.721995330772451
          -324.6794101995653 -408.73059066193315 -337.0944842917062 -409.6181638579085 -349.5095583838472 -410.5057370538838
          -194.65396131488427 -239.34049365181932 -187.22132485004957 -229.8768778685805 -179.7886883852149 -220.41326208534167
          -194.32375677641338 -212.66344397461359 -231.00313117281382 -375.44635604140404 -381.1517788904028 -386.8572017394016
          -204.74887745496827 269.1362431526893 -86.62923614838665 -64.34234593108022 -220.59493874668613 259.83339321656763
          -103.8236889901888 -69.49341422359245 -236.44100003840396 250.530543280446 -121.01814183199096 -74.64448251610472
          -554.0832868699766 -298.2813903979761 -136.80720206220562 -554.556953366391 -306.59534211291873 -130.8993886880333
          -555.0306198628052 -314.90929382786146 -124.99157531386103 -124.66934551823904 -68.93970827812393 -151.33134333920674
          -93.43356975504513 -177.99334116017448 -117.92743123196635 -1070.9630114455922 -1068.745951822103 -1066.528892198614
          404.87448735857356 78.05314570022061 286.68031657361905 369.2792068539424 409.5506791028133 84.75611801521077
          291.9805910132772 372.620385832124 414.22687084705296 91.45909033020092 297.28086545293536 375.9615648103056
          57.51326032959835 56.28893027763934 55.06460022568031 -605.7326879297805 -611.6440895350675 -617.5554911403544
          -905.2238001154889 -942.6665414380565 -980.1092827606242 331.0251833617819 908.9451680540204 351.14644013563986
          992.6253534103492 371.2676969094976 1076.305538766678 -956.9047727768914 -1361.145305694161 -978.5359079667749
          -1378.7141137975455 -1000.1670431566574 -1396.2829219009304 189.308228966106 -18.594949214208192 181.65780384405508
          -27.53847190915972 174.00737872200423 -36.48199460411124 711.3549779246905 932.6841902318183 704.5761984022411
          931.2855045917153 697.7974188797916 929.8868189516122 173.39644846668915 187.12571912095015 200.8549897752111
          604.9513393719483 1228.7106481391374 601.5134341386607 1249.457716602981 598.0755289053732 1270.2047850668241
          431.18528868401535 1096.6462557935092 429.6158367736785 1110.781697056165 428.0463848633416 1124.917138318821
          -94.92398987304998 -99.97689503011544 -105.02980018718091 109.02382293223036 108.46809064941601 107.91235836660167
          432.99537512054025 825.173147511577 436.8806162323749 821.9288469846807 440.7658573442096 818.6845464577847
          42.78577297206202 43.8103586119005 44.83494425173898 -532.1510618072701 -529.0006449998996 -525.8502281925289
          197.05051378280072 565.8656614055291 200.7477904398918 558.9209116084036 204.44506709698288 551.9761618112781
          140.5625323191578 -189.62608632870482 149.52583558956837 -195.00164535832837 158.48913885997894 -200.3772043879519
          -755.229519383314 2.804725066539852 -211.33381080482894 -765.326645005394 0.2261993728526861 -236.2990561339847
          -775.423770627474 -2.3523263208344485 -261.26430146314044 -315.2442256760172 353.1235059757645 162.22386357605376
          -405.16419314359484 -323.33952934337805 362.085822557169 155.37157361384405 -414.6684322206912 -331.4348330107389
          371.04813913857345 148.51928365163437 -424.17267129778764 23.835440417705342 25.662210458493462 516.3397586861403
          579.6117810041402 11.745582009252985 32.98936463505778 539.3729343903558 586.3208606033601 -0.34427639919940134
          40.31651881162206 562.4061100945712 593.0299402025801 42.80281879436917 39.85216365178957 36.901508509209904
          -270.70434828584393 -48.560522606817514 -270.59268937491817 -39.9559820112586 -270.4810304639923 -31.351441415699696
          53.1599172000836 -1267.8630093477127 45.07070562215081 -1322.094100530803 36.98149404421806 -1376.3251917138932
          -630.9159511500303 -652.9615059591392 -635.5968143262812 -663.8857956120551 -640.2776775025321 -674.810085264971
          408.66785289565746 -312.2890362491734 414.25210034188814 -326.3339928183817 419.8363477881188 -340.37894938758996
          1060.6274388757474 953.9825918852819 1068.8468502239496 956.9655724942897 1077.0662615721517 959.9485531032976
          82.0837455443341 99.81505065600648 117.54635576767882 -96.23263003344186 -90.07596758966636 -83.91930514589087
          -312.9110242117371 -394.5995599706595 214.08248520102936 -133.80524405195254 -311.14698697635174 -422.6702117768789
          220.98782206856328 -128.30755546767057 -309.38294974096635 -450.74086358309825 227.89315893609722 -122.80986688338862
          39.92668646581354 121.6819391785634 53.83448127175532 108.28812409421369 67.7422760776971 94.89430900986395
          1665.991362365779 205.13082894198217 219.3037154275457 1062.820202892667 1681.823808759314 200.7103274413163
          218.08685995166803 1061.1448091403572 1697.656255152849 196.28982594065064 216.8700044757905 1059.4694153880475
          380.5995532561104 801.5627812986364 1466.3859445976796 389.2140043316098 800.7879344659054 1462.5693012169547
          397.82845540710906 800.0130876331745 1458.75265783623 78.92273768365685 77.54697266275029 76.17120764184378
          -346.21482491436984 97.20618934546602 -333.49817592262644 91.36978863233973 -320.78152693088305 85.53338791921347
          -10.400271649479482 54.1522816955676 -8.830202181069126 74.62931825197839 -7.260132712658788 95.10635480838917
          -470.6774865168104 -476.359264632242 -482.0410427476736 242.44680360140688 249.52656867012723 256.6063337388476
          936.097881503064 1200.032656309443 982.0266631879294 1238.8597881275177 1027.9554448727952 1277.6869199455923
          276.9820434553212 852.2483649145863 264.32040440451203 848.1332932952079 251.65876535370282 844.0182216758292
          725.2397462780827 658.6801153144766 728.7823782371336 659.3377112794516 732.3250101961844 659.9953072444266
          645.4062488398117 -95.65339743766745 300.7150115612525 649.1105209956389 -107.7142297687877 298.22297561490427
          652.8147931514661 -119.77506209990794 295.7309396685561 -81.45539463997633 -116.34364813791444 -74.95391560081775
          -93.20649390548694 -68.45243656165914 -70.06933967305952 -983.8083799241017 -1277.9772849951319 -1017.6858485975521
          -1311.8608697842574 -1051.5633172710022 -1345.7444545733824 -158.66939878252373 -20.871878991691883 -177.81158759857865
          -29.977667773996153 -196.95377641463358 -39.08345655630042 -505.0169639378552 -496.5881841614406 -488.159404385026
          -556.8122892276353 129.29482155729676 777.7338196363236 385.28059963644466 -587.3752600919697 104.75257119402671
          811.6648521753364 381.62340781961655 -617.9382309563042 80.21032083075673 845.5958847143493 377.9662160027884
          798.636520165261 -4.925577283544669 834.9514071606235 -50.29891574701729 871.2662941559861 -95.67225421049
          -1832.4530489085935 -1847.1624984849257 -1861.8719480612574 593.6576253271537 591.0482859727761 588.4389466183984
          -749.8506486274821 -763.9363337538352 -778.0220188801884 -164.57266041502487 -187.93294563030832 -211.29323084559175
          -491.76754704977077 -486.95770991248503 -482.1478727751993 -761.2213376836528 -577.154940555885 -761.2055707114058
          -573.6601970949661 -761.1898037391588 -570.1654536340473 -816.1758267815151 -812.1267282227028 -808.0776296638903
          -638.5255466112529 -629.9851100932486 -621.4446735752447 1345.5870239666963 1349.6224607494946 1353.6578975322927
          1393.0924204912028 1420.5935472846775 1448.0946740781517 -57.7030049161243 214.1837643922055 -36.4823807546677
          225.87111934298028 -15.26175659321112 237.55847429375504 891.3611103957476 871.9240441620204 852.4869779282932
          784.1058008787143 804.304593576529 824.5033862743439 -1079.3869428003711 -1068.3142703210065 -1057.241597841642
          772.2521406921406 801.6997073012129 831.1472739102851 -421.96448416227906 -412.37112773509796 -402.7777713079169
          -725.3652596207091 -719.7729913999126 -714.1807231791158 46.087841836185476 842.8216464693329 6.346249088783992
          871.3128417544988 -33.39534365861746 899.8040370396645 442.642823726018 1590.9339698485458 436.8350827725409
          1595.0358305302075 431.0273418190639 1599.1376912118694 -330.06853386236037 -319.04457047286223 -308.02060708336427
          765.7160448936459 773.3221467910269 780.9282486884078 -642.7304072542981 -650.0272724270822 -657.3241375998663
          -227.33863237271515 -143.74827449914565 -251.08988087930337 -179.52311929344762 -274.84112938589163 -215.29796408774962
          227.36902632119796 784.9949656420428 1073.9622990268313 181.955386161597 765.0069316286973 1049.0994246294165
          136.5417460019961 745.0188976153516 1024.236550232002 903.7069662508651 -101.07206559045464 892.4141617162331
          -144.95484466111225 881.1213571816012 -188.83762373176992 176.7898292886141 177.50710644957627 178.22438361053844
          1060.9085378228824 1082.5649044480667 1104.2212710732508 1127.3707024688408 1117.939688808718 1108.5086751485953
          -63.36856912921873 -50.2202516639848 -37.07193419875087 -1206.3368214369157 -1201.5073679583268 -1196.6779144797374
          379.20815729973754 170.3058798264379 410.51125653036274 171.230318164234 441.81435576098784 172.15475650203015
          55.181249717597254 49.65355303048759 44.12585634337788 -240.20486710799878 -186.15945392384094 -373.9395910456843
          -241.53601113938743 -175.55122330273235 -397.0567908830494 -242.8671551707761 -164.94299268162376 -420.1739907204146
          1199.254950738045 545.5048447519084 1233.4180150952602 521.5674521631397 1267.5810794524753 497.6300595743712
          -67.58459732314446 -706.3173852018335 -56.125240187335294 -742.0771653124887 -44.66588305152624 -777.8369454231436
          -884.5935087246635 -905.0023045200332 -925.4111003154031 755.2463403206896 -625.152608892606 -595.1993161651935
          772.4794258254531 -623.8691312972387 -591.0138890811706 789.7125113302166 -622.5856537018715 -586.8284619971479
          -505.3546504645665 -515.6579280562569 -525.9612056479472 115.21357212757586 121.41743359284483 116.10704727436489
          95.22216646689394 117.00052242115396 69.02689934094306 547.9388579971674 -297.89231440537276 575.3610246594895
          -299.4994560843876 602.7831913218117 -301.1065977634024 -282.9137833434529 -297.2214113201914 -311.5290392969299
          -1213.2548335342087 -1217.920211411259 -1222.5855892883094 -1331.5344877858554 -1312.1301938389101 -1292.7258998919647
          -371.7866812556302 -376.05859747787474 -380.3305137001193 -303.1002024243133 -310.1686154962987 -317.2370285682841
          1529.1262244535292 1592.3357512460996 1655.54527803867 56.321770166189665 -126.26622875438912 52.03157995719149
          -133.41916379121955 47.74138974819333 -140.57209882804995 -4216.932732006331 -4734.7188972887525 -4238.633635961708
          -4759.180939322882 -4260.334539917085 -4783.642981357011 -3830.905421491187 -3875.7653916877207 -3920.6253618842534
          824.6315688882257 -145.9325250423294 862.7319279653207 -173.09509443991294 900.8322870424156 -200.25766383749644
          -412.2210278174116 -394.7062010279082 -377.1913742384049 -1306.6909581801588 126.0653545684811 -1346.577324878967
          113.15880795410499 -1386.4636915777749 100.25226133972888 -352.92348931317144 -731.081649755993 -364.5061815662122
          -737.6546818097187 -376.08887381925297 -744.2277138634444 -199.29067072030892 -221.31392806796617 -243.33718541562342
          -573.5701995472386 -619.7864654528329 -666.0027313584272 -1249.0448255638953 -1237.08609898372 -1225.1273724035445
          119.97771073436152 131.3221733147031 142.66663589504466 302.1499353035967 286.06308212505786 269.97622894651903
          221.7713973957617 217.92254196888462 214.07368654200752
        </DataArray>
        <DataArray type="Float64" Name="peeq" format="ascii" RangeMin="0" RangeMax="0">
          0 0 0 0 0 0
          0 0 0 0 0 0
          0 0 0 0 0 0
          0 0 0 0 0 0
          0 0 0 0 0 0
          0 0 0 0 0 0
          0 0 0 0 0 0
          0 0 0 0 0 0
          0 0 0 0 0 0
          0 0 0 0 0 0
          0 0 0 0 0 0
          0 0 0 0 0 0
          0 0 0 0 0 0
          0 0 0 0 0 0
          0 0 0 0 0 0
          0 0 0 0 0 0
          0 0 0 0 0 0
          0 0 0 0 0 0
          0 0 0 0 0 0
          0 0 0 0 0 0
          0 0 0 0 0 0
          0 0 0 0 0 0
          0 0 0 0 0 0
          0 0 0 0 0 0
          0 0 0 0 0 0
          0 0 0 0 0 0
          0 0 0 0 0 0
          0 0 0 0 0 0
          0 0 0 0 0 0
          0 0 0 0 0 0
          0 0 0 0 0 0
          0 0 0 0 0 0
          0 0 0 0 0 0
          0 0 0 0 0 0
          0 0 0 0 0 0
          0 0 0 0 0 0
          0 0 0 0 0 0
          0 0 0 0 0 0
          0 0 0 0 0 0
          0 0 0 0 0 0
          0 0 0 0 0 0
          0 0 0 0 0 0
          0 0 0 0 0 0
          0 0 0 0 0 0
          0 0 0 0 0 0
          0 0 0 0 0 0
          0 0 0 0 0 0
          0 0 0 0 0 0
          0 0 0 0 0 0
          0 0 0 0 0 0
          0 0 0 0 0 0
          0 0 0 0 0 0
          0 0 0 0 0 0
          0 0 0 0 0 0
          0 0 0 0 0 0
          0 0 0 0 0 0
          0 0 0 0 0 0
          0 0 0 0 0 0
          0 0 0 0 0 0
          0 0 0 0 0 0
          0 0 0 0 0 0
          0 0 0 0 0 0
          0 0 0 0 0 0
          0 0 0 0 0 0
          0 0 0 0 0 0
          0 0 0 0 0 0
          0 0 0 0 0 0
          0 0 0 0 0 0
          0 0 0 0 0 0
          0 0 0 0 0 0
          0 0 0 0 0 0
          0 0 0 0 0 0
          0 0 0 0 0 0
          0 0 0 0 0 0
          0 0 0 0 0 0
          0 0 0 0 0 0
          0 0 0 0 0 0
          0 0 0 0 0 0
          0 0 0 0 0 0
          0 0 0 0 0 0
          0 0 0 0 0 0
          0 0 0 0 0 0
          0 0 0 0 0 0
          0 0 0 0 0 0
          0 0 0 0 0 0
          0 0 0 0 0 0
          0 0 0 0 0 0
          0 0 0 0 0 0
          0 0 0 0 0 0
          0 0 0 0 0 0
          0 0 0 0 0 0
          0 0 0 0 0 0
          0 0 0 0 0 0
          0 0 0 0 0 0
          0 0 0 0 0 0
          0 0 0 0 0 0
          0 0 0 0 0 0
          0 0 0 0 0 0
          0 0 0 0 0 0
          0 0 0 0 0 0
          0 0 0 0 0 0
          0 0 0 0 0 0
          0 0 0 0 0 0
          0 0 0 0 0 0
          0 0 0 0 0 0
          0 0 0 0 0 0
          0 0 0 0 0 0
          0 0 0 0 0 0
          0 0 0 0 0 0
          0 0 0 0 0 0
          0 0 0 0 0 0
          0 0 0 0 0 0
          0 0 0 0 0 0
          0 0 0 0 0 0
          0 0 0 0 0 0
          0 0 0 0 0 0
          0 0 0 0 0 0
          0 0 0 0 0 0
          0 0 0 0 0 0
          0 0 0 0 0 0
          0 0 0 0 0 0
          0 0 0 0 0 0
          0 0 0 0 0 0
          0 0 0 0 0 0
          0 0 0 0 0 0
          0 0 0 0 0 0
          0 0 0 0 0 0
          0 0 0 0 0 0
          0 0 0 0 0 0
          0 0 0 0 0 0
          0 0 0 0 0 0
          0 0 0 0 0 0
          0 0 0
        </DataArray>
        <DataArray type="Float64" Name="pe11" format="ascii" RangeMin="0" RangeMax="0">
          0 0 0 0 0 0
          0 0 0 0 0 0
          0 0 0 0 0 0
          0 0 0 0 0 0
          0 0 0 0 0 0
          0 0 0 0 0 0
          0 0 0 0 0 0
          0 0 0 0 0 0
          0 0 0 0 0 0
          0 0 0 0 0 0
          0 0 0 0 0 0
          0 0 0 0 0 0
          0 0 0 0 0 0
          0 0 0 0 0 0
          0 0 0 0 0 0
          0 0 0 0 0 0
          0 0 0 0 0 0
          0 0 0 0 0 0
          0 0 0 0 0 0
          0 0 0 0 0 0
          0 0 0 0 0 0
          0 0 0 0 0 0
          0 0 0 0 0 0
          0 0 0 0 0 0
          0 0 0 0 0 0
          0 0 0 0 0 0
          0 0 0 0 0 0
          0 0 0 0 0 0
          0 0 0 0 0 0
          0 0 0 0 0 0
          0 0 0 0 0 0
          0 0 0 0 0 0
          0 0 0 0 0 0
          0 0 0 0 0 0
          0 0 0 0 0 0
          0 0 0 0 0 0
          0 0 0 0 0 0
          0 0 0 0 0 0
          0 0 0 0 0 0
          0 0 0 0 0 0
          0 0 0 0 0 0
          0 0 0 0 0 0
          0 0 0 0 0 0
          0 0 0 0 0 0
          0 0 0 0 0 0
          0 0 0 0 0 0
          0 0 0 0 0 0
          0 0 0 0 0 0
          0 0 0 0 0 0
          0 0 0 0 0 0
          0 0 0 0 0 0
          0 0 0 0 0 0
          0 0 0 0 0 0
          0 0 0 0 0 0
          0 0 0 0 0 0
          0 0 0 0 0 0
          0 0 0 0 0 0
          0 0 0 0 0 0
          0 0 0 0 0 0
          0 0 0 0 0 0
          0 0 0 0 0 0
          0 0 0 0 0 0
          0 0 0 0 0 0
          0 0 0 0 0 0
          0 0 0 0 0 0
          0 0 0 0 0 0
          0 0 0 0 0 0
          0 0 0 0 0 0
          0 0 0 0 0 0
          0 0 0 0 0 0
          0 0 0 0 0 0
          0 0 0 0 0 0
          0 0 0 0 0 0
          0 0 0 0 0 0
          0 0 0 0 0 0
          0 0 0 0 0 0
          0 0 0 0 0 0
          0 0 0 0 0 0
          0 0 0 0 0 0
          0 0 0 0 0 0
          0 0 0 0 0 0
          0 0 0 0 0 0
          0 0 0 0 0 0
          0 0 0 0 0 0
          0 0 0 0 0 0
          0 0 0 0 0 0
          0 0 0 0 0 0
          0 0 0 0 0 0
          0 0 0 0 0 0
          0 0 0 0 0 0
          0 0 0 0 0 0
          0 0 0 0 0 0
          0 0 0 0 0 0
          0 0 0 0 0 0
          0 0 0 0 0 0
          0 0 0 0 0 0
          0 0 0 0 0 0
          0 0 0 0 0 0
          0 0 0 0 0 0
          0 0 0 0 0 0
          0 0 0 0 0 0
          0 0 0 0 0 0
          0 0 0 0 0 0
          0 0 0 0 0 0
          0 0 0 0 0 0
          0 0 0 0 0 0
          0 0 0 0 0 0
          0 0 0 0 0 0
          0 0 0 0 0 0
          0 0 0 0 0 0
          0 0 0 0 0 0
          0 0 0 0 0 0
          0 0 0 0 0 0
          0 0 0 0 0 0
          0 0 0 0 0 0
          0 0 0 0 0 0
          0 0 0 0 0 0
          0 0 0 0 0 0
          0 0 0 0 0 0
          0 0 0 0 0 0
          0 0 0 0 0 0
          0 0 0 0 0 0
          0 0 0 0 0 0
          0 0 0 0 0 0
          0 0 0 0 0 0
          0 0 0 0 0 0
          0 0 0 0 0 0
          0 0 0 0 0 0
          0 0 0 0 0 0
          0 0 0 0 0 0
          0 0 0 0 0 0
          0 0 0 0 0 0
          0 0 0
        </DataArray>
        <DataArray type="Float64" Name="pe22" format="ascii" RangeMin="0" RangeMax="0">
          0 0 0 0 0 0
          0 0 0 0 0 0
          0 0 0 0 0 0
          0 0 0 0 0 0
          0 0 0 0 0 0
          0 0 0 0 0 0
          0 0 0 0 0 0
          0 0 0 0 0 0
          0 0 0 0 0 0
          0 0 0 0 0 0
          0 0 0 0 0 0
          0 0 0 0 0 0
          0 0 0 0 0 0
          0 0 0 0 0 0
          0 0 0 0 0 0
          0 0 0 0 0 0
          0 0 0 0 0 0
          0 0 0 0 0 0
          0 0 0 0 0 0
          0 0 0 0 0 0
          0 0 0 0 0 0
          0 0 0 0 0 0
          0 0 0 0 0 0
          0 0 0 0 0 0
          0 0 0 0 0 0
          0 0 0 0 0 0
          0 0 0 0 0 0
          0 0 0 0 0 0
          0 0 0 0 0 0
          0 0 0 0 0 0
          0 0 0 0 0 0
          0 0 0 0 0 0
          0 0 0 0 0 0
          0 0 0 0 0 0
          0 0 0 0 0 0
          0 0 0 0 0 0
          0 0 0 0 0 0
          0 0 0 0 0 0
          0 0 0 0 0 0
          0 0 0 0 0 0
          0 0 0 0 0 0
          0 0 0 0 0 0
          0 0 0 0 0 0
          0 0 0 0 0 0
          0 0 0 0 0 0
          0 0 0 0 0 0
          0 0 0 0 0 0
          0 0 0 0 0 0
          0 0 0 0 0 0
          0 0 0 0 0 0
          0 0 0 0 0 0
          0 0 0 0 0 0
          0 0 0 0 0 0
          0 0 0 0 0 0
          0 0 0 0 0 0
          0 0 0 0 0 0
          0 0 0 0 0 0
          0 0 0 0 0 0
          0 0 0 0 0 0
          0 0 0 0 0 0
          0 0 0 0 0 0
          0 0 0 0 0 0
          0 0 0 0 0 0
          0 0 0 0 0 0
          0 0 0 0 0 0
          0 0 0 0 0 0
          0 0 0 0 0 0
          0 0 0 0 0 0
          0 0 0 0 0 0
          0 0 0 0 0 0
          0 0 0 0 0 0
          0 0 0 0 0 0
          0 0 0 0 0 0
          0 0 0 0 0 0
          0 0 0 0 0 0
          0 0 0 0 0 0
          0 0 0 0 0 0
          0 0 0 0 0 0
          0 0 0 0 0 0
          0 0 0 0 0 0
          0 0 0 0 0 0
          0 0 0 0 0 0
          0 0 0 0 0 0
          0 0 0 0 0 0
          0 0 0 0 0 0
          0 0 0 0 0 0
          0 0 0 0 0 0
          0 0 0 0 0 0
          0 0 0 0 0 0
          0 0 0 0 0 0
          0 0 0 0 0 0
          0 0 0 0 0 0
          0 0 0 0 0 0
          0 0 0 0 0 0
          0 0 0 0 0 0
          0 0 0 0 0 0
          0 0 0 0 0 0
          0 0 0 0 0 0
          0 0 0 0 0 0
          0 0 0 0 0 0
          0 0 0 0 0 0
          0 0 0 0 0 0
          0 0 0 0 0 0
          0 0 0 0 0 0
          0 0 0 0 0 0
          0 0 0 0 0 0
          0 0 0 0 0 0
          0 0 0 0 0 0
          0 0 0 0 0 0
          0 0 0 0 0 0
          0 0 0 0 0 0
          0 0 0 0 0 0
          0 0 0 0 0 0
          0 0 0 0 0 0
          0 0 0 0 0 0
          0 0 0 0 0 0
          0 0 0 0 0 0
          0 0 0 0 0 0
          0 0 0 0 0 0
          0 0 0 0 0 0
          0 0 0 0 0 0
          0 0 0 0 0 0
          0 0 0 0 0 0
          0 0 0 0 0 0
          0 0 0 0 0 0
          0 0 0 0 0 0
          0 0 0 0 0 0
          0 0 0 0 0 0
          0 0 0 0 0 0
          0 0 0 0 0 0
          0 0 0 0 0 0
          0 0 0 0 0 0
          0 0 0
        </DataArray>
        <DataArray type="Float64" Name="pe33" format="ascii" RangeMin="0" RangeMax="0">
          0 0 0 0 0 0
          0 0 0 0 0 0
          0 0 0 0 0 0
          0 0 0 0 0 0
          0 0 0 0 0 0
          0 0 0 0 0 0
          0 0 0 0 0 0
          0 0 0 0 0 0
          0 0 0 0 0 0
          0 0 0 0 0 0
          0 0 0 0 0 0
          0 0 0 0 0 0
          0 0 0 0 0 0
          0 0 0 0 0 0
          0 0 0 0 0 0
          0 0 0 0 0 0
          0 0 0 0 0 0
          0 0 0 0 0 0
          0 0 0 0 0 0
          0 0 0 0 0 0
          0 0 0 0 0 0
          0 0 0 0 0 0
          0 0 0 0 0 0
          0 0 0 0 0 0
          0 0 0 0 0 0
          0 0 0 0 0 0
          0 0 0 0 0 0
          0 0 0 0 0 0
          0 0 0 0 0 0
          0 0 0 0 0 0
          0 0 0 0 0 0
          0 0 0 0 0 0
          0 0 0 0 0 0
          0 0 0 0 0 0
          0 0 0 0 0 0
          0 0 0 0 0 0
          0 0 0 0 0 0
          0 0 0 0 0 0
          0 0 0 0 0 0
          0 0 0 0 0 0
          0 0 0 0 0 0
          0 0 0 0 0 0
          0 0 0 0 0 0
          0 0 0 0 0 0
          0 0 0 0 0 0
          0 0 0 0 0 0
          0 0 0 0 0 0
          0 0 0 0 0 0
          0 0 0 0 0 0
          0 0 0 0 0 0
          0 0 0 0 0 0
          0 0 0 0 0 0
          0 0 0 0 0 0
          0 0 0 0 0 0
          0 0 0 0 0 0
          0 0 0 0 0 0
          0 0 0 0 0 0
          0 0 0 0 0 0
          0 0 0 0 0 0
          0 0 0 0 0 0
          0 0 0 0 0 0
          0 0 0 0 0 0
          0 0 0 0 0 0
          0 0 0 0 0 0
          0 0 0 0 0 0
          0 0 0 0 0 0
          0 0 0 0 0 0
          0 0 0 0 0 0
          0 0 0 0 0 0
          0 0 0 0 0 0
          0 0 0 0 0 0
          0 0 0 0 0 0
          0 0 0 0 0 0
          0 0 0 0 0 0
          0 0 0 0 0 0
          0 0 0 0 0 0
          0 0 0 0 0 0
          0 0 0 0 0 0
          0 0 0 0 0 0
          0 0 0 0 0 0
          0 0 0 0 0 0
          0 0 0 0 0 0
          0 0 0 0 0 0
          0 0 0 0 0 0
          0 0 0 0 0 0
          0 0 0 0 0 0
          0 0 0 0 0 0
          0 0 0 0 0 0
          0 0 0 0 0 0
          0 0 0 0 0 0
          0 0 0 0 0 0
          0 0 0 0 0 0
          0 0 0 0 0 0
          0 0 0 0 0 0
          0 0 0 0 0 0
          0 0 0 0 0 0
          0 0 0 0 0 0
          0 0 0 0 0 0
          0 0 0 0 0 0
          0 0 0 0 0 0
          0 0 0 0 0 0
          0 0 0 0 0 0
          0 0 0 0 0 0
          0 0 0 0 0 0
          0 0 0 0 0 0
          0 0 0 0 0 0
          0 0 0 0 0 0
          0 0 0 0 0 0
          0 0 0 0 0 0
          0 0 0 0 0 0
          0 0 0 0 0 0
          0 0 0 0 0 0
          0 0 0 0 0 0
          0 0 0 0 0 0
          0 0 0 0 0 0
          0 0 0 0 0 0
          0 0 0 0 0 0
          0 0 0 0 0 0
          0 0 0 0 0 0
          0 0 0 0 0 0
          0 0 0 0 0 0
          0 0 0 0 0 0
          0 0 0 0 0 0
          0 0 0 0 0 0
          0 0 0 0 0 0
          0 0 0 0 0 0
          0 0 0 0 0 0
          0 0 0 0 0 0
          0 0 0 0 0 0
          0 0 0 0 0 0
          0 0 0 0 0 0
          0 0 0 0 0 0
          0 0 0
        </DataArray>
        <DataArray type="Float64" Name="disp_x" format="ascii" RangeMin="0.0000019740183041671005" RangeMax="0.00000387667937333283">
          0.0000032160167648211248 0.0000031793785964404443 0.000003272324861877223 0.0000033318832242821725 0.0000032160176285965045 0.000003179379485285401
          0.0000032723259577101956 0.00000333188432185729 0.0000032160203637421157 0.0000031793818627519345 0.0000032723293189917454 0.0000033318875072977074
          0.00000219428368155601 0.0000020975540883526956 0.0000020867655167106856 0.000002183666221354989 0.000002194284366502694 0.000002097554827965139
          0.000002086766135244872 0.0000021836669208025593 0.000002194286430986876 0.000002097556873015661 0.000002086767960580897 0.000002183668892235569
          0.000001994021561953767 0.0000019940220557673466 0.000001994023715799077 0.0000020089689631610865 0.000002008969453537613 0.0000020089712805639217
          0.000003368147647488339 0.000003430107346642271 0.000003368148886188649 0.000003430108576252724 0.0000033681525943075458 0.000003430112450112821
          0.0000030408075999857616 0.0000030055528902587445 0.0000031020309112888235 0.000003109246726222604 0.0000030408086001300653 0.0000030055539688094717
          0.0000031020319997483903 0.0000031092478401829415 0.000003040811680260967 0.0000030055569998187285 0.0000031020352584667714 0.0000031092510963539536
          0.0000027737423391982393 0.000002761144152331762 0.00000284382569259468 0.000002864288307967953 0.0000027737429312680315 0.0000027611448206389585
          0.000002843826314870853 0.000002864288969582182 0.000002773744515256783 0.000002761146803028304 0.00000284382788027949 0.0000028642905421221617
          0.000002489593706243732 0.0000025806236054112683 0.000002586612396670988 0.000002489400862597565 0.000002489594340889409 0.0000025806241892840333
          0.0000025866129212304642 0.0000024894014311841048 0.000002489596245490322 0.0000025806256355563882 0.0000025866143821223965 0.0000024894030412813583
          0.0000029474037665366274 0.0000029152679230755906 0.0000030594275589522875 0.000002947404637605252 0.000002915268713217233 0.00000305942867205636
          0.0000029474071679192965 0.0000029152711513700085 0.0000030594319208610052 0.0000025200856419168104 0.000002607140552026115 0.0000026401270013387598
          0.0000025250977595961873 0.0000025200862831794424 0.0000026071412557429875 0.0000026401277646322646 0.0000025250984794229298 0.0000025200881938630305
          0.000002607143289858164 0.000002640129843552904 0.0000025251005716364235 0.0000024139967730479943 0.0000024139972608307787 0.0000024139987880963097
          0.000003217097464684334 0.000003306613818011315 0.0000032170984082397046 0.000003306614926646911 0.000003217101335960531 0.0000033066181056555016
          0.000003063512106574102 0.0000030892330954794925 0.000003166641416952112 0.0000030635127288240965 0.000003089233845702365 0.0000031666421679484817
          0.0000030635140661666342 0.0000030892361220517244 0.0000031666444025779833 0.000003077632676363382 0.0000029985586502131322 0.0000029209495960793634
          0.000003007218437690971 0.0000030776336233257147 0.000002998559542144065 0.000002920950521538621 0.000003007219406101949 0.000003077636276867612
          0.0000029985621724024457 0.0000029209531943212465 0.0000030072221575920506 0.00000291762152847382 0.0000029200051026587465 0.000002831670990942704
          0.0000029176222457276237 0.0000029200057801962404 0.0000028316716477348257 0.0000029176241190003326 0.000002920007845016564 0.0000028316735323516153
          0.0000029189761790472373 0.000002974508438032273 0.0000029060515663806997 0.000002918976712172197 0.0000029745090341121836 0.00000290605210021466
          0.000002918979171886801 0.0000029745114429473715 0.0000029060538193439935 0.0000029139569191496564 0.0000028059401979688085 0.0000027472355982270386
          0.000002828822790838115 0.0000029139576480475178 0.0000028059408728717957 0.000002747236405419226 0.000002828823541450721 0.0000029139599226341626
          0.000002805942912725667 0.000002747238633403739 0.000002828825878362463 0.0000026242704890803407 0.0000025287675678548426 0.0000026242712391949704
          0.000002528768290683502 0.0000026242735772727478 0.0000025287703890109236 0.000003092893524396662 0.0000031992655647297422 0.000003198827349664902
          0.0000030928945506332884 0.0000031992666991340608 0.0000031988283519072386 0.0000030928975309608083 0.0000031992700293477066 0.0000031988315085934204
          0.0000032761755528221326 0.0000032210001037628715 0.000003134272896029215 0.0000031775486580385694 0.0000032761767253185808 0.000003221001208996802
          0.0000031342739538006885 0.000003177549640584939 0.0000032761803117394165 0.000003221004433916112 0.0000031342771590123947 0.0000031775525496225967
          0.0000036932761273517293 0.0000035821101733730845 0.0000036932775158433303 0.000003582111444541346 0.000003693281722527854 0.0000035821151591733567
          0.0000032846995506733157 0.0000033017137651301364 0.0000032847003234457173 0.0000033017145691079534 0.0000032847028186695896 0.000003301717168787888
          0.0000020549314653867316 0.0000020928852380065704 0.0000020549322511666827 0.0000020928859506891887 0.0000020549345326833607 0.0000020928883748896996
          0.0000035617114201812147 0.0000036111373874419134 0.000003525121059909931 0.000003463373134329515 0.000003561713029974886 0.0000036111389992527175
          0.000003525122449310018 0.0000034633745605798324 0.000003561717613519524 0.0000036111437855611127 0.0000035251265557326354 0.0000034633791751872685
          0.000002958944388747471 0.0000030702822734976996 0.0000029589452621986096 0.000003070283276337024 0.0000029589478518927526 0.000003070286152695666
          0.0000026557203833457417 0.0000025752221272279063 0.000002655721001866921 0.000002575222715289497 0.000002655722851774421 0.000002575224559606662
          0.000002711464631814749 0.000002615040344408803 0.000002711465273680208 0.000002615040982798078 0.000002711467288146092 0.000002615042903314384
          0.0000035013142760246744 0.000003501315456332841 0.000003501319237415643 0.000003420687049296437 0.000003420688287216743 0.000003420691784549793
          0.000003180952608141789 0.0000032938807328036355 0.000003304510216919464 0.0000031914970394393744 0.000003180953523949299 0.0000032938817802329945
          0.000003304511282331472 0.0000031914980590508543 0.000003180956588714546 0.000003293884772606263 0.0000033045147498956424 0.000003191501120367067
          0.0000030231841002613216 0.0000029560588006304348 0.000002926669747569267 0.0000030231849967354244 0.000002956059658968929 0.000002926670679601688
          0.0000030231876521290952 0.00000295606243624578 0.000002926673503967794 0.0000027147396241185967 0.000002717022002462583 0.000002714740200816961
          0.000002717022682261787 0.0000027147424191047414 0.0000027170249157956547 0.000003305368379476927 0.000003305369496001551 0.000003305373101768807
          0.0000022993523467732836 0.0000023079220553261323 0.000002402170663342008 0.0000023957083226028203 0.0000022993529629640287 0.0000023079226314670286
          0.0000024021713209426378 0.0000023957088688474605 0.000002299354682629071 0.0000023079240761471652 0.0000024021734983962482 0.000002395710577287376
          0.0000030815790673472177 0.0000030815798835120507 0.000003081582673319334 0.000003311810439243959 0.000003311811487656354 0.0000033118148625871934
          0.000003177084721445381 0.0000031770855368576595 0.0000031770883555710737 0.00000340494510589206 0.0000034992602418894818 0.0000034049459894579925
          0.0000034992613011835074 0.0000034049484529450497 0.0000034992646850823488 0.000003380351843482083 0.0000034148029274302576 0.0000033803530745296303
          0.0000034148041442175546 0.0000033803568645076587 0.000003414807848193189 0.000002779316506462417 0.000002807226542191142 0.0000027793172800396727
          0.000002807227212013344 0.0000027793195100131617 0.000002807229345606061 0.0000031511812933351775 0.00000323413852102913 0.0000031511820876810453
          0.000003234139507295936 0.000003151184752790266 0.000003234142480521148 0.000002862373783679651 0.0000028623745734808584 0.000002862377100710864
          0.0000033162529881105603 0.0000033990454389700296 0.0000033162540092221605 0.000003399046681446275 0.000003316257171446474 0.0000033990507093709293
          0.000003075175377325817 0.0000031367875202567397 0.0000030751761135529747 0.0000031367882987287383 0.000003075178568518717 0.000003136790783521
          0.0000026395757157837903 0.000002639576303581761 0.0000026395779978481076 0.0000029693547254005787 0.000002969355553240203 0.0000029693581657778177
          0.0000030238323943697377 0.0000030835837050060348 0.0000030238331161746146 0.0000030835844429933068 0.000003023835588255862 0.0000030835870283260094
          0.000002739742067085389 0.0000027397426575207764 0.0000027397446741667324 0.000003423987800106265 0.0000034239889819460912 0.0000034239927596953165
          0.0000028303358510603477 0.0000028482185303316576 0.0000028303365711741407 0.0000028482191067931178 0.0000028303388678342282 0.000002848221339344943
          0.0000028274712273239566 0.0000027236319855206935 0.0000028274718324465925 0.000002723632685682447 0.0000028274740938917474 0.0000027236347097239405
          0.000002998742567570405 0.000003005433175565249 0.000003090768068435495 0.000002998743198678265 0.0000030054338772533175 0.0000030907687481697143
          0.0000029987457859006045 0.000003005436476512009 0.00000309077103317378 0.000002599583990174965 0.0000025075415117295466 0.000002525185669339195
          0.0000026193119119829167 0.0000025995847333528257 0.0000025075422854233578 0.000002525186407081408 0.0000026193126128291674 0.0000025995869443628237
          0.0000025075445306245073 0.0000025251886317946773 0.0000026193149003150894 0.0000023503775843253136 0.0000022980781483303018 0.000002200506561341933
          0.0000022512315051718685 0.000002350378326078534 0.0000022980787988449993 0.0000022005073251336336 0.000002251232304461254 0.000002350380448540223
          0.000002298080775428307 0.0000022005094610801537 0.000002251234698312511 0.000002729157074154021 0.0000027291575520126863 0.000002729159590249654
          0.000002559723526117111 0.0000024698996351446587 0.000002559724188525867 0.000002469900287003733 0.000002559726140205629 0.000002469902380471958
          0.0000027646959854177703 0.000002726107386095903 0.000002764696626371575 0.000002726108005835368 0.00000276469837428626 0.000002726109848186944
          0.00000251813476721093 0.000002425394540967743 0.0000025181354334345035 0.0000024253951878275416 0.000002518137274382715 0.0000024253971576570484
          0.0000022878561488284947 0.000002387657087688442 0.0000022878568495976095 0.0000023876577147909756 0.000002287859175351237 0.000002387659803430906
          0.0000021887411586862546 0.0000021612478659964966 0.0000021887417883274967 0.0000021612485401874916 0.000002188743760701351 0.0000021612505595516635
          0.0000029040320991467092 0.0000029040327594579547 0.0000029040352140267426 0.0000029842571648601713 0.00000298425796181445 0.0000029842606618810467
          0.0000025521576344896835 0.0000024844403855530606 0.0000024169480837315664 0.0000024480232030774587 0.000002552158279400262 0.0000024844409599425502
          0.000002416948683375026 0.000002448023822150269 0.0000025521600775763426 0.000002484442945989881 0.000002416950731013771 0.0000024480256552705814
          0.0000026524070012170417 0.000002749868163785857 0.0000026524076324002167 0.0000027498687789389383 0.000002652409451218463 0.0000027498709387665055
          0.000001986819304790054 0.0000020226599667964896 0.000002115005221740727 0.000002085905313314317 0.0000019868202574945523 0.0000020226609289698212
          0.000002115006056121099 0.0000020859061873590923 0.0000019868232641690333 0.0000020226636773961103 0.000002115008450482043 0.0000020859089505067826
          0.000002115483037472489 0.0000020383610067217746 0.0000020803263266484755 0.0000021154835843369443 0.0000020383617052309043 0.000002080326917656336
          0.0000021154855080038975 0.0000020383637486207435 0.0000020803291047592875 0.000002317449203813949 0.0000023174497588672824 0.000002317451634333195
          0.0000030777245883523306 0.000003154163681366725 0.0000030777253921185837 0.0000031541645236835572 0.0000030777281838522723 0.000003154167445704902
          0.000002733295505172458 0.0000026584976779796842 0.000002733296095306573 0.000002658498239044888 0.000002733298172115416 0.000002658500307560176
          0.0000024836482881656543 0.000002483648833182841 0.000002483650890529785 0.000002876713335303643 0.0000028767139633625397 0.0000028767164176653877
          0.000002403825319152604 0.0000024503946674594918 0.00000240382586280056 0.0000024503952261431864 0.000002403827662950721 0.000002450397440763481
          0.000002208286267072378 0.0000021850531981121835 0.000002208286799407262 0.0000021850538757327357 0.000002208288732667588 0.0000021850558644129155
          0.0000023834925349386607 0.00000248277151230032 0.000002383493026233287 0.000002482771942221814 0.0000023834945684774393 0.000002482773314196239
          0.0000025820841580543843 0.000002683152272147218 0.000002681428787356867 0.000002582084548615764 0.0000026831527332393626 0.000002681429222519435
          0.000002582085809795973 0.0000026831543085494426 0.0000026814304919141193 0.0000026762091242350973 0.000002668591946956332 0.000002676209533780084
          0.000002668592441909893 0.0000026762112653483804 0.0000026685943278747733 0.0000022159295950359973 0.000002197996760049523 0.0000022159301624586905
          0.0000021979974217169865 0.0000022159319778903363 0.000002197999503426535 0.0000027852679500358746 0.000002780804406792057 0.000002785268290249668
          0.000002780804752329434 0.0000027852696770589817 0.00000278080574794902 0.0000021427976178806654 0.0000021427982351403073 0.000002142800394966961
          0.0000034359480508211176 0.000003541032480781457 0.000003577084385508297 0.000003477379752881435 0.0000034359489900714053 0.00000354103347489987
          0.000003577085368252697 0.0000034773806151472516 0.000003435951464940252 0.0000035410364382710314 0.000003577088009793848 0.000003477383378926751
          0.0000036768591232934 0.000003640229677314446 0.0000036768602213829727 0.0000036402307805343242 0.0000036768634204583454 0.0000036402342042299155
          0.0000021451047799537304 0.0000021451054382992564 0.000002145107991565908 0.000002880211817401672 0.0000028802120870429123 0.000002880212931954827
          0.000002578681933193499 0.000002578682521064874 0.0000025786846020898984 0.0000022789807869237484 0.000002278981193926222 0.0000022789825274768244
          0.0000026113144849270826 0.000002611315015466352 0.0000026113169474092627 0.00000267029034755336 0.0000027523476307468506 0.000002670290922100923
          0.00000275234818790465 0.0000026702927186341318 0.0000027523502377333437 0.000002694440712869572 0.0000026944412415629055 0.000002694443285525565
          0.0000035063221757933297 0.0000035063235346039597 0.0000035063276663395636 0.000002097865652448048 0.00000209786620129271 0.00000209786819094793
          0.000002844262289000166 0.0000028442626637435033 0.000002844264132125965 0.000002426218870050024 0.000002435003451065902 0.000002426219272804859
          0.000002435003979340674 0.0000024262208434348994 0.0000024350057342607437 0.000002846877584285957 0.000002846878029911728 0.0000028468799071068865
          0.0000024443367772991046 0.0000024443372969848764 0.0000024443393896838674 0.000002748687590420032 0.0000027486879625034004 0.00000274868998357032
          0.000002366250204994088 0.0000023662505627456136 0.000002366251846499818 0.000003538209274544043 0.000003538210717549866 0.000003538215171184633
          0.0000035287878334176633 0.0000035287890209832388 0.0000035287926915473085 0.000003740702023282085 0.0000037767168114683265 0.00000374070333499487
          0.0000037767181137054875 0.000003740707224196798 0.0000037767219415291005 0.0000030222924002163646 0.000002979638064065822 0.0000030222928681858316
          0.0000029796385286955778 0.000003022294463810814 0.000002979639934366319 0.00000341467706036582 0.000003414677861404673 0.0000034146804112920983
          0.000002284251207945522 0.000002284251667755004 0.000002284253369123042 0.0000026570346827654628 0.0000026570352564717797 0.0000026570372954624648
          0.0000037117590928255145 0.000003611759214869309 0.0000037117604344696175 0.00000361176041236708 0.000003711764603368715 0.0000036117638473696966
          0.0000031786073158236535 0.0000031901262116605634 0.0000032781641076913323 0.0000031786079592512415 0.0000031901268359525595 0.000003278164763330506
          0.0000031786098820029405 0.0000031901289234192234 0.000003278166121288341 0.0000033777338592263484 0.0000033738438769162403 0.0000033777344804578145
          0.0000033738444709272317 0.0000033777365735596887 0.000003373846778797302 0.000003515180627440501 0.0000035151816366248894 0.0000035151852480352125
          0.0000031298250672061065 0.000003129825523573976 0.0000031298271356784725 0.000003079104274016926 0.000003079104703603981 0.00000307910655531227
          0.0000026564017060646283 0.0000026564021407941097 0.0000026564039936900084 0.000002133599333164078 0.0000021335999829600813 0.0000021336024671085006
          0.0000019740183041671005 0.0000020700838954763226 0.0000019740185764109263 0.0000020700844461401403 0.000001974019635969669 0.000002070086140233946
          0.0000030447818598800287 0.0000030447826995833305 0.0000030447853095742536 0.0000023204046052355505 0.0000023101590723436426 0.000002400908618596142
          0.000002320405121713062 0.0000023101594271165088 0.0000024009090807127995 0.000002320406517206001 0.000002310160866948623 0.000002400910783946216
          0.0000037831919388359197 0.00000368339795045337 0.0000037831934834181817 0.000003683399361374363 0.0000037831982139112264 0.0000036834036072086024
          0.000002852919970180697 0.0000029411854125490556 0.000002852920662845287 0.0000029411862032704635 0.0000028529226236599757 0.000002941188486623758
          0.0000035952650540123715 0.000003595266499629374 0.0000035952705727356275 0.0000034115012899507667 0.0000035372225023945004 0.0000035396862934574765
          0.0000034115024113040584 0.0000035372237541532666 0.000003539687618907124 0.000003411505987261364 0.0000035372278414275702 0.0000035396915846272797
          0.0000031924680030370446 0.00000319246891334279 0.0000031924717459536153 0.0000025253506376135385 0.00000254537709819777 0.00000252535123955428
          0.000002545377647115489 0.000002525353087606542 0.0000025453793126015 0.000003288799148472993 0.0000033011689908651376 0.0000032887999470576674
          0.0000033011699197755646 0.0000032888021283624524 0.000003301172782067298 0.000002494789939814603 0.0000024947905223352658 0.0000024947920757919326
          0.000002769655216330364 0.000002769655924162755 0.000002769657769801795 0.0000036809039705706376 0.0000036809055246463453 0.000003680910390829973
          0.0000021663801686700723 0.0000021663806360069056 0.000002166382187277818 0.0000022578434505365434 0.0000022578439433926727 0.000002257845508639538
          0.0000033974554149554527 0.0000033974565004165685 0.0000033974599247804447 0.0000023460824614373363 0.00000233260546146134 0.0000023460830142714786
          0.0000023326059829023296 0.000002346084569482768 0.0000023326074765582565 0.0000036639665485736024 0.0000036728920138994136 0.0000036639683135647873
          0.0000036728936984600204 0.0000036639737902408818 0.0000036728992871467367 0.0000037457744312690743 0.000003745775974933534 0.0000037457806570294317
          0.000003876673239611231 0.000003840023379096578 0.0000038766747970843675 0.000003840024956117518 0.00000387667937333283 0.00000384002964029538
          0.0000026643274115628975 0.0000026643278591604454 0.0000026643295247178033 0.0000036618706406626252 0.0000036693764984476205 0.0000036618721632458377
          0.0000036693778516689606 0.0000036618770456670805 0.000003669382056009194 0.000002566745922790931 0.000002572549780174018 0.0000025667465105884857
          0.000002572550168427205 0.00000256674808774362 0.000002572551146076723 0.000003808092679183086 0.0000038080942803466385 0.0000038080989842773797
          0.0000024691582965406733 0.000002469158671718389 0.0000024691600998330567 0.000003652559011270829 0.000003652560543570778 0.000003652565423571529
          0.0000036509964180656503 0.0000036509979174640515 0.0000036510022157621593 0.0000025584012092151192 0.0000025584016275007617 0.000002558403196893318
          0.0000025653912832407834 0.0000025653919023104834 0.000002565393472838901
        </DataArray>
        <DataArray type="Float64" Name="disp_y" format="ascii" RangeMin="-7.648789932008276e-7" RangeMax="-2.1428502331239932e-7">
          -6.681465675967703e-7 -6.353364024065714e-7 -6.18493651945415e-7 -6.428254197855318e-7 -6.681481216297566e-7 -6.353377253637449e-7
          -6.184950591768541e-7 -6.428269321231851e-7 -6.68152635487484e-7 -6.353416758762052e-7 -6.184993871130109e-7 -6.428313301209736e-7
          -5.60438074206586e-7 -5.580619332655343e-7 -5.287566425788607e-7 -5.282587795531663e-7 -5.604393008254077e-7 -5.580632329652797e-7
          -5.287578733957482e-7 -5.282600147632691e-7 -5.604431269550915e-7 -5.580670831537329e-7 -5.287615435941822e-7 -5.282635601470414e-7
          -5.31082236764248e-7 -5.310835464362639e-7 -5.310873412555195e-7 -5.593224239195494e-7 -5.593236790617137e-7 -5.593276508834141e-7
          -5.969471031175678e-7 -6.20791171986829e-7 -5.9694846316565e-7 -6.207926908079224e-7 -5.96952585630848e-7 -6.207972695277848e-7
          -4.84818705201436e-7 -4.525048393137635e-7 -4.4360282660253674e-7 -4.6613058867972056e-7 -4.84819695697033e-7 -4.525057322408143e-7
          -4.436037034360453e-7 -4.66131527156515e-7 -4.848226867957665e-7 -4.525084687708825e-7 -4.4360605221520165e-7 -4.6613435403485575e-7
          -7.008008795235531e-7 -6.751062172518969e-7 -6.713381365053213e-7 -6.952097707478864e-7 -7.008021079005184e-7 -6.751074401257922e-7
          -6.713394643732133e-7 -6.952110020266242e-7 -7.008056528108181e-7 -6.751111924376674e-7 -6.713436499207078e-7 -6.952145886687894e-7
          -7.082486765513982e-7 -7.06109464642443e-7 -7.332227640424916e-7 -7.342402440505544e-7 -7.082497517398468e-7 -7.061106092436805e-7
          -7.332239539193751e-7 -7.342414331426874e-7 -7.082531259658988e-7 -7.061139156389073e-7 -7.332275596980565e-7 -7.342449441864962e-7
          -3.111797902072277e-7 -2.8119540835447516e-7 -3.04444205144119e-7 -3.1118033203568925e-7 -2.811959920765006e-7 -3.0444477304913876e-7
          -3.111817272859696e-7 -2.8119798626474857e-7 -3.044465195946638e-7 -4.206459105908861e-7 -4.2649746247268707e-7 -4.523345966588539e-7
          -4.555552745349777e-7 -4.20646850414063e-7 -4.2649838383608407e-7 -4.5233551193697224e-7 -4.5555628400901603e-7 -4.2064972069367603e-7
          -4.2650111722552e-7 -4.5233835649734244e-7 -4.5555923880710453e-7 -4.2834146751550643e-7 -4.2834244843387566e-7 -4.2834548468960126e-7
          -5.952136227839367e-7 -5.73462308357868e-7 -5.952149888358442e-7 -5.734635900263633e-7 -5.952190130476192e-7 -5.734672755778763e-7
          -6.980837814768294e-7 -6.704126468235742e-7 -7.030465736045583e-7 -6.980853187958059e-7 -6.704140507829864e-7 -7.03048187349222e-7
          -6.980900372623959e-7 -6.704185179340399e-7 -7.030532779627618e-7 -5.589272186124685e-7 -5.814250816121881e-7 -5.617596307285471e-7
          -5.418162703132625e-7 -5.589284222663907e-7 -5.814263425896368e-7 -5.617607727243374e-7 -5.418174069626999e-7 -5.589319624370195e-7
          -5.814301075186048e-7 -5.617641731484771e-7 -5.418208867006802e-7 -6.433819307519181e-7 -6.684626492160535e-7 -6.47074036964911e-7
          -6.433832413941068e-7 -6.684639128147267e-7 -6.470753343184645e-7 -6.433871705964835e-7 -6.684680296295825e-7 -6.470791590662394e-7
          -6.862958136363132e-7 -6.932888749448258e-7 -7.203526589998743e-7 -6.862971221490347e-7 -6.932902549112568e-7 -7.203541241486857e-7
          -6.86300847225441e-7 -6.932940810204319e-7 -7.203584088888074e-7 -6.103420406992694e-7 -6.242080522261309e-7 -6.043504206329714e-7
          -5.829131600344964e-7 -6.103432756775018e-7 -6.242092351342717e-7 -6.043515288170284e-7 -5.829143183789555e-7 -6.103470727694067e-7
          -6.242126258808377e-7 -6.043548203438936e-7 -5.829178394849712e-7 -4.877243832949673e-7 -4.86072529469718e-7 -4.877253676542891e-7
          -4.860734935409569e-7 -4.877282507698401e-7 -4.860764447555042e-7 -4.1064418083410024e-7 -4.105813639825405e-7 -4.4364401264691227e-7
          -4.106449408081946e-7 -4.1058210988881056e-7 -4.4364485682057196e-7 -4.1064731704146565e-7 -4.105843872338588e-7 -4.436474136684207e-7
          -4.832932152363699e-7 -5.115427637493989e-7 -4.98572823928517e-7 -4.7292779352781246e-7 -4.832942426057754e-7 -5.115439305854341e-7
          -4.9857389622732e-7 -4.7292877799772836e-7 -4.832971657359555e-7 -5.115472661136111e-7 -4.98577117531352e-7 -4.729318720574826e-7
          -6.687388030075132e-7 -6.585996299415424e-7 -6.687407734639618e-7 -6.586015921242681e-7 -6.687466128757199e-7 -6.586077195032313e-7
          -7.141745329756095e-7 -6.834658095714306e-7 -7.141763987480293e-7 -6.834674678595742e-7 -7.141818371761637e-7 -6.834726256216869e-7
          -7.12334286708233e-7 -6.911322203657115e-7 -7.123351754532772e-7 -6.911331813772062e-7 -7.123380673816688e-7 -6.911361454369986e-7
          -5.543508952810983e-7 -5.797008511324909e-7 -5.986156669056806e-7 -5.742125427784223e-7 -5.543521832568101e-7 -5.797023828689869e-7
          -5.986171596355878e-7 -5.74213828059178e-7 -5.54355917290047e-7 -5.797072874648518e-7 -5.986217309092451e-7 -5.742176661096616e-7
          -3.451947029052591e-7 -3.4044147203502856e-7 -3.451952910707903e-7 -3.4044214150123294e-7 -3.451971616244511e-7 -3.4044412453643663e-7
          -4.0741832743847216e-7 -3.9306547633325666e-7 -4.0741917635216947e-7 -3.9306625898712186e-7 -4.074217606650067e-7 -3.93068639811325e-7
          -3.784418982182371e-7 -3.6643633415734064e-7 -3.7844261235276566e-7 -3.664370524679419e-7 -3.784447910174842e-7 -3.66439265908336e-7
          -6.411970602567277e-7 -6.41198887616649e-7 -6.412045935713249e-7 -3.8129189428821396e-7 -3.8129254496346166e-7 -3.812945767067031e-7
          -3.3785463920476277e-7 -3.400627289698755e-7 -3.7714823316543486e-7 -3.736004710486753e-7 -3.3785531512352624e-7 -3.400632983592618e-7
          -3.7714887559140413e-7 -3.736011497164383e-7 -3.378573769361099e-7 -3.400649812984634e-7 -3.7715090498020665e-7 -3.7360314664801206e-7
          -5.107440773534468e-7 -5.217820439050053e-7 -4.963267771740379e-7 -5.107451124740537e-7 -5.217831052697426e-7 -4.963277138116354e-7
          -5.10748174555826e-7 -5.217863289647992e-7 -4.963305436908805e-7 -4.651471477932423e-7 -4.880253235142234e-7 -4.651480917313935e-7
          -4.880263074392226e-7 -4.6515068685044777e-7 -4.880293014377947e-7 -4.509713245916016e-7 -4.5097220792139236e-7 -4.5097495266000774e-7
          -7.362635552487035e-7 -7.088548199021763e-7 -7.083822024700212e-7 -7.351520045198454e-7 -7.362646010694556e-7 -7.088558516514777e-7
          -7.083832545211401e-7 -7.351530417245219e-7 -7.362675583011282e-7 -7.088588252056214e-7 -7.083862612130221e-7 -7.351561151284043e-7
          -3.74951498605586e-7 -3.7495221257139205e-7 -3.7495434463427663e-7 -4.1518117251877333e-7 -4.151819290865518e-7 -4.151841871518658e-7
          -3.0322541922195593e-7 -3.032259700047877e-7 -3.0322778281902246e-7 -6.69595789820077e-7 -6.753769263216722e-7 -6.695975578285158e-7
          -6.753787417110606e-7 -6.696029764794788e-7 -6.753841064332527e-7 -4.960755263146906e-7 -4.596175911328931e-7 -4.960767052282418e-7
          -4.596184859928769e-7 -4.960802385279273e-7 -4.5962103379366794e-7 -4.5206938844607376e-7 -4.803347360150013e-7 -4.5207025588787775e-7
          -4.803356852794878e-7 -4.5207276527979385e-7 -4.803386441442659e-7 -5.759751331630996e-7 -5.533367727516432e-7 -5.759764634209417e-7
          -5.533380845847139e-7 -5.759804146614523e-7 -5.533419135782833e-7 -5.368532908114256e-7 -5.36854347649831e-7 -5.368575166648034e-7
          -5.273694214690809e-7 -5.484778990498011e-7 -5.273707371422689e-7 -5.484791836322592e-7 -5.273750004763514e-7 -5.484829749908061e-7
          -5.972047414961895e-7 -6.135461606264293e-7 -5.972060672877254e-7 -6.135475152589733e-7 -5.972100427017265e-7 -6.13551669545296e-7
          -3.374772327342878e-7 -3.3747794267977674e-7 -3.3748009158197737e-7 -3.8215186196343094e-7 -3.821525789756965e-7 -3.821547070194847e-7
          -6.193828981562059e-7 -6.255686658230922e-7 -6.193842034731757e-7 -6.25569962054382e-7 -6.193882259119095e-7 -6.25573680044212e-7
          -3.4552338401094275e-7 -3.455240605093662e-7 -3.4552615224293944e-7 -4.2070695806112813e-7 -4.207077314249054e-7 -4.207100503004596e-7
          -3.9408307262743e-7 -3.491210816222696e-7 -3.9408387965497345e-7 -3.491217560609924e-7 -3.940862923463433e-7 -3.491238536149541e-7
          -5.095872414402343e-7 -5.178898243355169e-7 -5.095883058450055e-7 -5.178908860931345e-7 -5.095914417495026e-7 -5.178940300666668e-7
          -6.694107838590557e-7 -6.440206966486925e-7 -6.439786260771086e-7 -6.694121439662354e-7 -6.440219982519515e-7 -6.439799602860552e-7
          -6.694159181260893e-7 -6.440259187773374e-7 -6.439836642017746e-7 -5.475990778607354e-7 -5.39491461725424e-7 -5.144812163983633e-7
          -5.183185760381377e-7 -5.476001375169894e-7 -5.394924823685496e-7 -5.144822366737194e-7 -5.183196319658792e-7 -5.476033793072542e-7
          -5.394955218878279e-7 -5.144853759373884e-7 -5.183227035478184e-7 -6.418714460769409e-7 -6.746883486739687e-7 -6.526644403906848e-7
          -6.283236833701661e-7 -6.418725826827159e-7 -6.746894239053184e-7 -6.526655369644043e-7 -6.28324828329475e-7 -6.418759943636474e-7
          -6.746926896864502e-7 -6.526687902396539e-7 -6.283281899785036e-7 -4.270322275601394e-7 -4.2703307998913514e-7 -4.2703575879734283e-7
          -5.748985029695226e-7 -5.620206952870013e-7 -5.748996063827667e-7 -5.620216676572354e-7 -5.749030887662371e-7 -5.620245043515602e-7
          -2.7860844678113e-7 -2.535364638181264e-7 -2.786090839228982e-7 -2.5353698455034806e-7 -2.786110734601376e-7 -2.5353853489843843e-7
          -6.009447768992715e-7 -5.86489944657328e-7 -6.009459095982104e-7 -5.864909934115415e-7 -6.009493738539171e-7 -5.864942636527248e-7
          -6.005966157696746e-7 -6.138379398178081e-7 -6.005977349833767e-7 -6.13838994004119e-7 -6.006011902108739e-7 -6.138423320827978e-7
          -5.904156786455549e-7 -6.161201221274523e-7 -5.904168825911066e-7 -6.1612126666057e-7 -5.904205220161411e-7 -6.16124630412416e-7
          -4.6613843732233305e-7 -4.66139358514782e-7 -4.661420843102179e-7 -4.190206659513446e-7 -4.190215185367416e-7 -4.1902413478203425e-7
          -6.738790136464767e-7 -6.885613738021988e-7 -6.817499880045752e-7 -6.552894127771804e-7 -6.738801381234341e-7 -6.885624700744601e-7
          -6.817510724009983e-7 -6.552905625971208e-7 -6.738835539249296e-7 -6.885654633756309e-7 -6.817544071629753e-7 -6.552940200208535e-7
          -3.074522205263698e-7 -3.1318341343868815e-7 -3.0745285268663417e-7 -3.131840267083219e-7 -3.0745468342217007e-7 -3.131859769506267e-7
          -7.648739314080657e-7 -7.378969962143397e-7 -7.386582923929347e-7 -7.641374645229021e-7 -7.648751641382144e-7 -7.378981010071617e-7
          -7.386593399015523e-7 -7.641385922306842e-7 -7.648789932008276e-7 -7.379014915462969e-7 -7.386623400205287e-7 -7.641419103629128e-7
          -6.381556938473089e-7 -6.254354541227938e-7 -6.065544917669519e-7 -6.381567695342508e-7 -6.25436556285873e-7 -6.065556540598232e-7
          -6.381601907633784e-7 -6.254398259715942e-7 -6.065591364034193e-7 -5.642340091544371e-7 -5.642351289684398e-7 -5.642385340727642e-7
          -5.212821923140515e-7 -5.366471656799964e-7 -5.212832528310487e-7 -5.366483510476879e-7 -5.212865182262553e-7 -5.366520191701809e-7
          -5.551245477472994e-7 -5.880204279154443e-7 -5.55125689588424e-7 -5.880215959023492e-7 -5.551291231705925e-7 -5.880250696407178e-7
          -6.278668786864568e-7 -6.278679743599212e-7 -6.278714004791433e-7 -4.3342606298063486e-7 -4.334269350645154e-7 -4.3342963645700777e-7
          -5.439587021414267e-7 -5.328166521676043e-7 -5.439597261335514e-7 -5.328176713124349e-7 -5.439625881886567e-7 -5.328209059222455e-7
          -7.377235595472272e-7 -7.633456721580778e-7 -7.377245739690664e-7 -7.633467366630778e-7 -7.377277652368043e-7 -7.633500384118971e-7
          -7.615625457462005e-7 -7.605652545763989e-7 -7.615635916917107e-7 -7.605663883290671e-7 -7.615669861906662e-7 -7.605699703843234e-7
          -7.594872839807805e-7 -7.314863999252617e-7 -7.583236261247816e-7 -7.594885349724781e-7 -7.314876526049224e-7 -7.583249782979736e-7
          -7.594923949093531e-7 -7.314914439932796e-7 -7.583290818140119e-7 -7.038551162017348e-7 -6.760038507157804e-7 -7.03856284461678e-7
          -6.760050561578715e-7 -7.038597076439408e-7 -6.760087397765608e-7 -7.125636778420487e-7 -6.900583023772397e-7 -7.125646077876521e-7
          -6.900592391795706e-7 -7.125676595673501e-7 -6.900619176310184e-7 -7.286713000860686e-7 -7.570703799478369e-7 -7.286726723180393e-7
          -7.570718575259467e-7 -7.28676695779475e-7 -7.570765843616976e-7 -6.724448652798771e-7 -6.724458216288472e-7 -6.724486621860652e-7
          -7.22278852533054e-7 -7.193752072823237e-7 -7.426689494325587e-7 -7.449752731457933e-7 -7.222810065157831e-7 -7.193774313780208e-7
          -7.426715049829838e-7 -7.449775760523733e-7 -7.222869663423795e-7 -7.193845073348159e-7 -7.426793090290206e-7 -7.44984840091695e-7
          -7.401779932058724e-7 -7.164736717420529e-7 -7.401808068981474e-7 -7.164760893309814e-7 -7.401893035339138e-7 -7.164835972600079e-7
          -6.985177944126373e-7 -6.985186725078052e-7 -6.985216807118756e-7 -7.557102505997118e-7 -7.557119934636932e-7 -7.55717253926939e-7
          -6.405311282678139e-7 -6.405322646359051e-7 -6.405357149937262e-7 -5.260071144704003e-7 -5.260082060585591e-7 -5.2601144823847e-7
          -6.1366268218393e-7 -6.136637299911075e-7 -6.136667879110316e-7 -6.487706797456814e-7 -6.506429836579719e-7 -6.487719051403378e-7
          -6.506442095581556e-7 -6.487756385550557e-7 -6.506479112671955e-7 -6.251293767917926e-7 -6.251304815727264e-7 -6.251338334492444e-7
          -5.146874788823603e-7 -5.14688625715206e-7 -5.146921431371423e-7 -5.845406151298197e-7 -5.845417400311159e-7 -5.845454012512829e-7
          -2.9231427705528113e-7 -2.9231485840373936e-7 -2.9231617651878016e-7 -4.5738759894824377e-7 -4.869021560134625e-7 -4.573885925979056e-7
          -4.869031867606168e-7 -4.573915001312475e-7 -4.86906316445845e-7 -3.15176333734007e-7 -3.1517684511818384e-7 -3.151785654389417e-7
          -5.139227268301518e-7 -5.139237884197731e-7 -5.139270723580343e-7 -6.330518175012223e-7 -6.330529736273715e-7 -6.330565147082303e-7
          -5.190386687291144e-7 -5.1903971847293e-7 -5.190430833526292e-7 -4.2383939597743864e-7 -4.2384014060175645e-7 -4.2384230711505923e-7
          -4.65244541649794e-7 -4.652455653581033e-7 -4.6524864225049354e-7 -7.135090929376259e-7 -7.374955115512018e-7 -7.135116778907207e-7
          -7.374984719445061e-7 -7.135195266529291e-7 -7.375078774247851e-7 -7.261035777400708e-7 -7.542491558046845e-7 -7.261052965223891e-7
          -7.542511109766533e-7 -7.261105509078231e-7 -7.542572326246069e-7 -7.008250405155604e-7 -7.008269153931999e-7 -7.008323642636441e-7
          -7.624887701190216e-7 -7.62489712477985e-7 -7.62493002270523e-7 -2.4988012032336655e-7 -2.4988066068433033e-7 -2.49882272867246e-7
          -6.88448399822866e-7 -6.915036822603533e-7 -6.884505209462412e-7 -6.915057002267974e-7 -6.884563793085667e-7 -6.91511392621135e-7
          -7.509619838677128e-7 -7.325196887699804e-7 -7.491120857467404e-7 -7.509636629398771e-7 -7.325214917772603e-7 -7.491141151425505e-7
          -7.509695496361959e-7 -7.325266311995409e-7 -7.491199283963626e-7 -7.471400590493807e-7 -7.291209026021782e-7 -7.471424970646678e-7
          -7.291231571721319e-7 -7.47151541726549e-7 -7.291298855848895e-7 -6.951747004131247e-7 -6.951766276590948e-7 -6.951819421917024e-7
          -7.286136568784077e-7 -7.28615406375186e-7 -7.286201324613787e-7 -7.526541203174354e-7 -7.526559791545536e-7 -7.526617056203238e-7
          -2.7762844647052527e-7 -2.7762903913951177e-7 -2.7763100151572015e-7 -7.150831816206232e-7 -7.150840751314792e-7 -7.150869277962284e-7
          -5.020407130359211e-7 -4.981591016142828e-7 -5.02041886032839e-7 -4.981603552068807e-7 -5.020455850995723e-7 -4.98164074393907e-7
          -2.634506357428538e-7 -2.6345118009988523e-7 -2.6345270442368224e-7 -4.3187277867457956e-7 -4.0353768836306125e-7 -4.0092747236305253e-7
          -4.3187379835932115e-7 -4.035385764129711e-7 -4.0092830555398673e-7 -4.3187676283391175e-7 -4.0354138678217375e-7 -4.0093099440104076e-7
          -6.541726011328123e-7 -6.362728446543736e-7 -6.541746133799657e-7 -6.36274844056698e-7 -6.54180724394772e-7 -6.36281167056788e-7
          -2.562091982935587e-7 -2.3518475301982425e-7 -2.5620984218272915e-7 -2.3518519781805354e-7 -2.562120057478001e-7 -2.3518669625792096e-7
          -6.193692608253296e-7 -6.193710078410027e-7 -6.19375984124436e-7 -3.4223107243656855e-7 -3.422144072615212e-7 -3.8337482296737626e-7
          -3.422314641250004e-7 -3.42214946911315e-7 -3.8337542827063785e-7 -3.4223237562050357e-7 -3.4221661738962135e-7 -3.833774174124602e-7
          -2.702624264562002e-7 -2.702628103634159e-7 -2.7026376152109596e-7 -3.5635256760381943e-7 -3.2959142578918643e-7 -3.5635332170678125e-7
          -3.295920897118857e-7 -3.5635565170460695e-7 -3.295942167161776e-7 -3.064758333732345e-7 -2.7736323708955063e-7 -3.064764217681846e-7
          -2.773637647516682e-7 -3.0647803945418575e-7 -2.773652297212842e-7 -3.8119603877342295e-7 -3.811968169306188e-7 -3.811989811758802e-7
          -2.312165854672062e-7 -2.3121702691146893e-7 -2.3121810315867254e-7 -5.976558159079002e-7 -5.976575914082148e-7 -5.976629015934339e-7
          -4.965613928841957e-7 -4.965624755741388e-7 -4.965657946419231e-7 -4.940612496323076e-7 -4.940622925154304e-7 -4.940654285190116e-7
          -3.066912847561533e-7 -3.0669188485952897e-7 -3.0669363767118045e-7 -4.899270478156543e-7 -4.603893970271943e-7 -4.89928168883778e-7
          -4.603904488525394e-7 -4.899314741785822e-7 -4.6039353053973035e-7 -5.432357044159793e-7 -5.661377432694432e-7 -5.432367803273092e-7
          -5.66139213426504e-7 -5.432400266978824e-7 -5.661431472992272e-7 -5.722829383268397e-7 -5.722847273303591e-7 -5.722905729316442e-7
          -7.346095176954161e-7 -7.104291365048609e-7 -7.346125907436639e-7 -7.104318872642815e-7 -7.346219951336816e-7 -7.104403867697926e-7
          -2.238706058542296e-7 -2.238709970906254e-7 -2.23872089904064e-7 -4.253706668151827e-7 -3.836268231551988e-7 -4.253715029392747e-7
          -3.8362719438576764e-7 -4.253741346103988e-7 -3.836279210704461e-7 -2.4372745446957045e-7 -2.1428502331239932e-7 -2.437280073456402e-7
          -2.1428540746631145e-7 -2.4372962444679107e-7 -2.1428667545372744e-7 -6.858018895036093e-7 -6.858041699344795e-7 -6.858105825734145e-7
          -3.996050380752629e-7 -3.9960585002626734e-7 -3.9960842371977256e-7 -5.070642605613807e-7 -5.070652162368202e-7 -5.070680029753177e-7
          -4.6657010127240185e-7 -4.6657119245516423e-7 -4.665745175596955e-7 -3.0126797087795795e-7 -3.012685615467031e-7 -3.012703852231213e-7
          -2.7269880218637064e-7 -2.7269942986188736e-7 -2.7270131635479993e-7
        </DataArray>
        <DataArray type="Float64" Name="disp_z" format="ascii" RangeMin="-1.775053344762039e-8" RangeMax="0">
          0 0 0 0 -8.765180220037553e-9 -8.772854605063616e-9
          -8.784089454598261e-9 -8.779913789848574e-9 -1.753033395018168e-8 -1.7545552939079746e-8 -1.756832635531416e-8 -1.7559701267339226e-8
          0 0 0 0 -8.750435544786404e-9 -8.746936546325736e-9
          -8.755005926256132e-9 -8.758942318235786e-9 -1.7500847544444813e-8 -1.749385334993692e-8 -1.751007461175218e-8 -1.7517862733790403e-8
          0 -8.750997865065851e-9 -1.750213313385481e-8 0 -8.742965133753475e-9 -1.748584999125276e-8
          0 0 -8.79782919612728e-9 -8.79479386543791e-9 -1.7595702204615663e-8 -1.758955773431948e-8
          0 0 0 0 -8.807130877968494e-9 -8.811499729487985e-9
          -8.819830095761488e-9 -8.816640572982863e-9 -1.761418575697864e-8 -1.762297266648146e-8 -1.7639583102960257e-8 -1.7633622033370034e-8
          0 0 0 0 -8.73668841447619e-9 -8.743498565527366e-9
          -8.747308494220404e-9 -8.740303142100153e-9 -1.7473334676730628e-8 -1.748703600567809e-8 -1.749473797130885e-8 -1.7480540636117477e-8
          0 0 0 0 -8.725549104782758e-9 -8.728662964975391e-9
          -8.721868067754099e-9 -8.718718185334096e-9 -1.7451035194126614e-8 -1.7457288594527417e-8 -1.7443752058677305e-8 -1.7437419528579225e-8
          0 0 0 -8.831870157718087e-9 -8.833075473732878e-9 -8.839895624632274e-9
          -1.7663838958798114e-8 -1.7666090929117064e-8 -1.767984937801619e-8 0 0 0
          0 -8.795341823231785e-9 -8.79816979800227e-9 -8.793537972526772e-9 -8.787863703614973e-9 -1.7590591102180083e-8
          -1.7596609847242627e-8 -1.758697771835983e-8 -1.7575747604351434e-8 0 -8.789756263989923e-9 -1.7579487520922766e-8
          0 0 -8.787908366438071e-9 -8.800114899892863e-9 -1.7575767365467843e-8 -1.7600334371760894e-8
          0 0 0 -8.748161523922035e-9 -8.758964733721663e-9 -8.748227361921423e-9
          -1.749624057502878e-8 -1.7518074279412316e-8 -1.749621151428583e-8 0 0 0
          0 -8.790950937488965e-9 -8.780751260336118e-9 -8.781541660233029e-9 -8.791469411514867e-9 -1.7581896349171517e-8
          -1.7561555678195417e-8 -1.756303205609041e-8 -1.758285943032477e-8 0 0 0
          -8.75824502202174e-9 -8.750442193700193e-9 -8.754586569243906e-9 -1.7516492869534918e-8 -1.750098736804525e-8 -1.750916277955911e-8
          0 0 0 -8.744717083323115e-9 -8.746552919814303e-9 -8.735155711526016e-9
          -1.7489213566762024e-8 -1.7493177608412255e-8 -1.747025283253548e-8 0 0 0
          0 -8.767812904067721e-9 -8.759603808412352e-9 -8.76203510103122e-9 -8.771285905179138e-9 -1.753560916964036e-8
          -1.751922035672985e-8 -1.7524138774386925e-8 -1.75425665935553e-8 0 0 -8.785214075136644e-9
          -8.78140477751436e-9 -1.757041468033988e-8 -1.7562839035278123e-8 0 0 0
          -8.825203466979046e-9 -8.832464242149347e-9 -8.826223847685023e-9 -1.765043339892027e-8 -1.766495134038967e-8 -1.765242829022479e-8
          0 0 0 0 -8.82289544759991e-9 -8.812696731822922e-9
          -8.809688949102312e-9 -8.818822073670769e-9 -1.7645719067439262e-8 -1.762538895081327e-8 -1.7619309942607963e-8 -1.7637595623844135e-8
          0 0 -8.793777592359911e-9 -8.790143716831072e-9 -1.7587251573525824e-8 -1.758038583892153e-8
          0 0 -8.75069853376998e-9 -8.765461509216161e-9 -1.7501088719768263e-8 -1.753145265273747e-8
          0 0 -8.70547744820969e-9 -8.712142323111841e-9 -1.7410829087947826e-8 -1.7424321776070867e-8
          0 0 0 0 -8.828633067818626e-9 -8.824713719645623e-9
          -8.810086549255778e-9 -8.812937577443456e-9 -1.7657499031784416e-8 -1.7649312324698925e-8 -1.7620077057434002e-8 -1.762593261453093e-8
          0 0 -8.828142183670444e-9 -8.835228871304049e-9 -1.7656276667753413e-8 -1.767046272018161e-8
          0 0 -8.803545388378658e-9 -8.802801815553001e-9 -1.760703034336003e-8 -1.7605506429443597e-8
          0 0 -8.811212206239567e-9 -8.809035993576644e-9 -1.7622491788979094e-8 -1.7618025091972837e-8
          0 -8.792975878039407e-9 -1.7586102351342608e-8 0 -8.853833839440305e-9 -1.7707660144184244e-8
          0 0 0 0 -8.84266926868716e-9 -8.850131913559835e-9
          -8.845304612329147e-9 -8.837868001109443e-9 -1.7685319916498035e-8 -1.7700338448704803e-8 -1.7690563444324294e-8 -1.767577485378214e-8
          0 0 0 -8.800206010682823e-9 -8.794032164434335e-9 -8.797833702244525e-9
          -1.760040708269957e-8 -1.758812831491411e-8 -1.7595702766390013e-8 0 0 -8.794521764571264e-9
          -8.789772139335275e-9 -1.7589204162752995e-8 -1.757954563475874e-8 0 -8.832379252327736e-9 -1.766476460219195e-8
          0 0 0 0 -8.711537059078522e-9 -8.717400254524255e-9
          -8.72106861583269e-9 -8.715247117782052e-9 -1.7423132985925806e-8 -1.7434761014210295e-8 -1.744211202504834e-8 -1.74305309900434e-8
          0 -8.830740360890517e-9 -1.766146330263268e-8 0 -8.839725003726249e-9 -1.767946263827705e-8
          0 -8.847951657454609e-9 -1.7695809306469957e-8 0 0 -8.774129072227786e-9
          -8.776376896272641e-9 -1.754825009962602e-8 -1.7552409331659994e-8 0 0 -8.82877883109396e-9
          -8.839443368369179e-9 -1.7657643982541437e-8 -1.7678816429322444e-8 0 0 -8.799846883138072e-9
          -8.795323580502856e-9 -1.7599708993280066e-8 -1.759059102085402e-8 0 0 -8.78993978199554e-9
          -8.801453498805461e-9 -1.7579856780521544e-8 -1.7602993667280634e-8 0 -8.784706028243416e-9 -1.7569400659386614e-8
          0 0 -8.814240432656099e-9 -8.81304306695757e-9 -1.7628521433485054e-8 -1.7625942840414185e-8
          0 0 -8.779721946246712e-9 -8.778061331692516e-9 -1.7559378692170833e-8 -1.755627273722979e-8
          0 -8.814689410276076e-9 -1.762932392858804e-8 0 -8.823148450980003e-9 -1.7646294266066392e-8
          0 0 -8.770252392207493e-9 -8.771690763085212e-9 -1.754049893492335e-8 -1.7543413087208424e-8
          0 -8.81737644853227e-9 -1.7634710067851944e-8 0 -8.84718549097797e-9 -1.7694398389756673e-8
          0 0 -8.813690359013451e-9 -8.82184302496107e-9 -1.7627423077259353e-8 -1.764360316679903e-8
          0 0 -8.789191472782646e-9 -8.783070725881404e-9 -1.757837017876805e-8 -1.756612709231042e-8
          0 0 0 -8.754308711547504e-9 -8.761965583672664e-9 -8.767243174877203e-9
          -1.750852826665354e-8 -1.752391564573545e-8 -1.7534543649470342e-8 0 0 0
          0 -8.770373196229266e-9 -8.767790403266504e-9 -8.774598816088938e-9 -8.778204791931047e-9 -1.7540738425385737e-8
          -1.753557741753615e-8 -1.7549195380912258e-8 -1.7556385437579784e-8 0 0 0
          0 -8.736510390848896e-9 -8.725320315907833e-9 -8.725707830869379e-9 -8.734604912067667e-9 -1.747315986664567e-8
          -1.7450656587678988e-8 -1.7451275137223864e-8 -1.746922942352432e-8 0 -8.802199073716917e-9 -1.760435178197075e-8
          0 0 -8.761660428645786e-9 -8.761135152603345e-9 -1.7523307737606355e-8 -1.7522250665568136e-8
          0 0 -8.82866324198539e-9 -8.831694640673827e-9 -1.765731417736654e-8 -1.7663846990027067e-8
          0 0 -8.753216159763232e-9 -8.753828174856171e-9 -1.7506384424152107e-8 -1.750774355700959e-8
          0 0 -8.743136912510691e-9 -8.74488385390461e-9 -1.7486167763577344e-8 -1.7489737510216978e-8
          0 0 -8.741587072496516e-9 -8.733929096928292e-9 -1.748321156094446e-8 -1.7467949746467652e-8
          0 -8.803016415233626e-9 -1.7606095107855557e-8 0 -8.817364495191777e-9 -1.763476737545988e-8
          0 0 0 0 -8.735780755049486e-9 -8.73020992262556e-9
          -8.72824577349504e-9 -8.73616260730781e-9 -1.7471528787735292e-8 -1.746068213236582e-8 -1.745647067420232e-8 -1.7472189323969982e-8
          0 0 -8.819705958950123e-9 -8.823261120132479e-9 -1.7639439052833787e-8 -1.7646542960133335e-8
          0 0 0 0 -8.688087031044132e-9 -8.698142605701048e-9
          -8.70322576307394e-9 -8.695439343889842e-9 -1.737607189348721e-8 -1.7396175142129808e-8 -1.740644499974391e-8 -1.7390821948570915e-8
          0 0 0 -8.726374443778785e-9 -8.725812531817656e-9 -8.732635509993873e-9
          -1.745280827897256e-8 -1.7451549607055842e-8 -1.7465277396581723e-8 0 -8.754529367121233e-9 -1.7509073446714345e-8
          0 0 -8.800748069480364e-9 -8.801388605952653e-9 -1.7601505174382374e-8 -1.7602755222516905e-8
          0 0 -8.774296187788051e-9 -8.761943373239264e-9 -1.754861630764174e-8 -1.752386581686197e-8
          0 -8.744875079355474e-9 -1.7489738801272746e-8 0 -8.808250235437943e-9 -1.761646781346146e-8
          0 0 -8.761711552082021e-9 -8.766712261395837e-9 -1.752326231867146e-8 -1.7533656635336633e-8
          0 0 -8.707755753376856e-9 -8.70040208849286e-9 -1.7415488798952552e-8 -1.740068151067397e-8
          0 0 -8.708177678997091e-9 -8.711354198371251e-9 -1.7416252722910896e-8 -1.7422663534715692e-8
          0 0 0 -8.71416801736754e-9 -8.725166917646367e-9 -8.716834751611286e-9
          -1.742831224377517e-8 -1.7450271279081624e-8 -1.743359324846328e-8 0 0 -8.732297460046102e-9
          -8.739272267465032e-9 -1.7464603892460254e-8 -1.7478516019055345e-8 0 0 -8.714058384622836e-9
          -8.718381167209803e-9 -1.7428066678514138e-8 -1.7436908814799727e-8 0 0 -8.729412377221429e-9
          -8.719496105776018e-9 -1.7458920382529587e-8 -1.7438856050008913e-8 0 -8.718880923405701e-9 -1.7437778095815886e-8
          0 0 0 0 -8.754122595478324e-9 -8.761279697633355e-9
          -8.749434647270888e-9 -8.744064695114092e-9 -1.7508031591171823e-8 -1.7522595669836858e-8 -1.749875813598838e-8 -1.748811060544723e-8
          0 0 -8.755688968990831e-9 -8.768469304580738e-9 -1.7511311001650884e-8 -1.7536769713460268e-8
          0 -8.713519655208484e-9 -1.742698487217348e-8 0 -8.721195182884042e-9 -1.7442238745214837e-8
          0 -8.746241330412164e-9 -1.7492594079544774e-8 0 -8.763103100183146e-9 -1.7526293145828986e-8
          0 -8.75379326852677e-9 -1.7507572450969685e-8 0 0 -8.74732424940208e-9
          -8.750112793244679e-9 -1.7494615416721528e-8 -1.750017249703164e-8 0 -8.754556776239856e-9 -1.7509057100106582e-8
          0 -8.833218786305577e-9 -1.7666472564143444e-8 0 -8.739449714713092e-9 -1.7478949571102096e-8
          0 -8.8291272517733e-9 -1.7658255996526616e-8 0 0 -8.783733658348888e-9
          -8.777383762955806e-9 -1.756746726800442e-8 -1.7554741905846727e-8 0 -8.82731546890036e-9 -1.765477468220055e-8
          0 -8.771027974740606e-9 -1.754211563914832e-8 0 -8.754799153110504e-9 -1.750951039005418e-8
          0 -8.766541446517633e-9 -1.753304758115697e-8 0 -8.856852832185411e-9 -1.7713830013038482e-8
          0 -8.847298446395994e-9 -1.769454930859245e-8 0 0 -8.777531970573439e-9
          -8.763590423801305e-9 -1.7555185234109064e-8 -1.7526949834854852e-8 0 0 -8.737164930348513e-9
          -8.723279800111393e-9 -1.7474430564940558e-8 -1.7446412095101774e-8 0 -8.761430728366154e-9 -1.752258980990574e-8
          0 -8.704602220095673e-9 -1.7409100183855274e-8 0 -8.828231613967273e-9 -1.7656351462414012e-8
          0 0 -8.787555670344982e-9 -8.779050459865618e-9 -1.757506522078736e-8 -1.7558143499669973e-8
          0 0 0 -8.731556744138322e-9 -8.740030376832298e-9 -8.735190029254633e-9
          -1.7462649597158767e-8 -1.7480812588651634e-8 -1.7470486358750088e-8 0 0 -8.737258836697609e-9
          -8.749580255679808e-9 -1.7473399588650234e-8 -1.7500157643358497e-8 0 -8.771134766543497e-9 -1.7542532945306918e-8
          0 -8.738592012284877e-9 -1.7477156615997318e-8 0 -8.72692700702204e-9 -1.745365144929822e-8
          0 -8.82383205527884e-9 -1.76474845949076e-8 0 -8.709081636653098e-9 -1.741807387316494e-8
          0 0 -8.758026638147093e-9 -8.762459613894371e-9 -1.751593251614015e-8 -1.752496646650155e-8
          0 -8.8437983033426e-9 -1.768759648843827e-8 0 0 0
          -8.78621086069979e-9 -8.791959653331061e-9 -8.795605202449009e-9 -1.757245800371008e-8 -1.7583924931339105e-8 -1.759112281515146e-8
          0 0 -8.808934447045883e-9 -8.809123381021915e-9 -1.761796994639115e-8 -1.761823289953611e-8
          0 0 -8.834960250223106e-9 -8.84282295763225e-9 -1.7669865169193417e-8 -1.7685774012404167e-8
          0 -8.808987196864078e-9 -1.761794550716805e-8 0 0 0
          -8.857852230622231e-9 -8.869125464717577e-9 -8.862417233438729e-9 -1.7715798978836405e-8 -1.7738274329181992e-8 -1.772468257181317e-8
          0 -8.852409839004792e-9 -1.770483267404821e-8 0 0 -8.80730036563601e-9
          -8.81292344338409e-9 -1.761467942434763e-8 -1.7625929599899778e-8 0 0 -8.85363560064904e-9
          -8.858428911294498e-9 -1.7707350525110727e-8 -1.771687049352537e-8 0 -8.802132064321391e-9 -1.7604291772456593e-8
          0 -8.834524534571757e-9 -1.766884222408471e-8 0 -8.824629628788932e-9 -1.7649185327021316e-8
          0 -8.766260068095911e-9 -1.753243026187657e-8 0 -8.769891845342873e-9 -1.7539766815006015e-8
          0 -8.85855447308915e-9 -1.7716916792196046e-8 0 0 -8.77364681972948e-9
          -8.780223552471969e-9 -1.7547324779703118e-8 -1.7560427858871427e-8 0 0 -8.841082196814752e-9
          -8.836713439655635e-9 -1.768176462079241e-8 -1.767337379110593e-8 0 -8.842710272451653e-9 -1.768529775383644e-8
          0 0 -8.772832594467e-9 -8.786664511738317e-9 -1.7545681545267065e-8 -1.757314582232409e-8
          0 -8.830714709159008e-9 -1.7661379630132976e-8 0 0 -8.86960091491567e-9
          -8.875228946016787e-9 -1.7738972218664512e-8 -1.775053344762039e-8 0 0 -8.825684575757167e-9
          -8.829026240442165e-9 -1.7651422816469586e-8 -1.7657950501984043e-8 0 -8.797733688791713e-9 -1.7595675008121977e-8
          0 -8.798465767603054e-9 -1.7597203850165256e-8 0 -8.848557578395343e-9 -1.76971347589527e-8
          0 -8.856956238407399e-9 -1.771390359913852e-8 0 -8.817392549937069e-9 -1.7634848675963864e-8
          0 -8.821663787659354e-9 -1.7643405119711925e-8
        </DataArray>
      </PointData>
      <CellData>
        <DataArray type="Int32" Name="libmesh_elem_id" format="ascii" RangeMin="1380" RangeMax="3259">
          1380 1381 1412 1413 1414 1415
          1416 1417 1428 1429 1430 1431
          1438 1439 1440 1441 1464 1465
          1472 1473 1480 1481 1484 1485
          1488 1489 1490 1491 1492 1493
          1496 1497 1516 1517 1534 1535
          1538 1539 1544 1545 1548 1549
          1556 1557 1562 1563 1568 1569
          1574 1575 1576 1577 1604 1605
          1610 1611 1620 1621 1626 1627
          1632 1633 1640 1641 1642 1643
          1644 1645 1646 1647 1660 1661
          1664 1665 1666 1667 1668 1669
          1670 1671 1674 1675 1676 1677
          1688 1689 1690 1691 1692 1693
          1694 1695 1706 1707 1716 1717
          1720 1721 1724 1725 1732 1733
          1736 1737 1738 1739 1742 1743
          1744 1745 1756 1757 1758 1759
          1768 1769 1776 1777 1780 1781
          1784 1785 1786 1787 1788 1789
          1792 1793 1796 1797 1800 1801
          1806 1807 1808 1809 1812 1813
          1820 1821 1822 1823 1826 1827
          1842 1843 1844 1845 1860 1861
          1870 1871 1886 1887 1898 1899
          1912 1913 1934 1935 1938 1939
          1940 1941 1954 1955 1958 1959
          1962 1963 1964 1965 1966 1967
          1974 1975 1976 1977 1978 1979
          1980 1981 1984 1985 1990 1991
          1992 1993 1994 1995 2002 2003
          2012 2013 2016 2017 2022 2023
          2032 2033 2034 2035 2036 2037
          2042 2043 2056 2057 2066 2067
          2072 2073 2076 2077 2080 2081
          2086 2087 2090 2091 2094 2095
          2098 2099 2104 2105 2108 2109
          2114 2115 2118 2119 2122 2123
          2142 2143 2152 2153 2156 2157
          2168 2169 2172 2173 2174 2175
          2182 2183 2188 2189 2190 2191
          2192 2193 2194 2195 2198 2199
          2210 2211 2240 2241 2272 2273
          2280 2281 2300 2301 2322 2323
          2326 2327 2338 2339 2376 2377
          2378 2379 2380 2381 2384 2385
          2386 2387 2388 2389 2394 2395
          2428 2429 2438 2439 2446 2447
          2454 2455 2492 2493 2508 2509
          2514 2515 2516 2517 2528 2529
          2536 2537 2538 2539 2544 2545
          2548 2549 2552 2553 2576 2577
          2604 2605 2606 2607 2614 2615
          2618 2619 2626 2627 2630 2631
          2632 2633 2652 2653 2654 2655
          2674 2675 2676 2677 2686 2687
          2692 2693 2698 2699 2706 2707
          2712 2713 2718 2719 2728 2729
          2730 2731 2732 2733 2744 2745
          2752 2753 2758 2759 2770 2771
          2784 2785 2786 2787 2792 2793
          2812 2813 2816 2817 2818 2819
          2820 2821 2842 2843 2856 2857
          2866 2867 2882 2883 2894 2895
          2900 2901 2906 2907 2914 2915
          2942 2943 2970 2971 2976 2977
          2992 2993 3010 3011 3012 3013
          3016 3017 3046 3047 3056 3057
          3058 3059 3070 3071 3078 3079
          3084 3085 3094 3095 3098 3099
          3118 3119 3122 3123 3128 3129
          3134 3135 3152 3153 3180 3181
          3192 3193 3196 3197 3200 3201
          3202 3203 3214 3215 3244 3245
          3248 3249 3258 3259
        </DataArray>
        <DataArray type="Int32" Name="subdomain_id" format="ascii" RangeMin="107" RangeMax="107">
          107 107 107 107 107 107
          107 107 107 107 107 107
          107 107 107 107 107 107
          107 107 107 107 107 107
          107 107 107 107 107 107
          107 107 107 107 107 107
          107 107 107 107 107 107
          107 107 107 107 107 107
          107 107 107 107 107 107
          107 107 107 107 107 107
          107 107 107 107 107 107
          107 107 107 107 107 107
          107 107 107 107 107 107
          107 107 107 107 107 107
          107 107 107 107 107 107
          107 107 107 107 107 107
          107 107 107 107 107 107
          107 107 107 107 107 107
          107 107 107 107 107 107
          107 107 107 107 107 107
          107 107 107 107 107 107
          107 107 107 107 107 107
          107 107 107 107 107 107
          107 107 107 107 107 107
          107 107 107 107 107 107
          107 107 107 107 107 107
          107 107 107 107 107 107
          107 107 107 107 107 107
          107 107 107 107 107 107
          107 107 107 107 107 107
          107 107 107 107 107 107
          107 107 107 107 107 107
          107 107 107 107 107 107
          107 107 107 107 107 107
          107 107 107 107 107 107
          107 107 107 107 107 107
          107 107 107 107 107 107
          107 107 107 107 107 107
          107 107 107 107 107 107
          107 107 107 107 107 107
          107 107 107 107 107 107
          107 107 107 107 107 107
          107 107 107 107 107 107
          107 107 107 107 107 107
          107 107 107 107 107 107
          107 107 107 107 107 107
          107 107 107 107 107 107
          107 107 107 107 107 107
          107 107 107 107 107 107
          107 107 107 107 107 107
          107 107 107 107 107 107
          107 107 107 107 107 107
          107 107 107 107 107 107
          107 107 107 107 107 107
          107 107 107 107 107 107
          107 107 107 107 107 107
          107 107 107 107 107 107
          107 107 107 107 107 107
          107 107 107 107 107 107
          107 107 107 107 107 107
          107 107 107 107 107 107
          107 107 107 107 107 107
          107 107 107 107 107 107
          107 107 107 107 107 107
          107 107 107 107 107 107
          107 107 107 107 107 107
          107 107 107 107 107 107
          107 107 107 107 107 107
          107 107 107 107 107 107
          107 107 107 107 107 107
          107 107 107 107 107 107
          107 107 107 107 107 107
          107 107 107 107 107 107
          107 107 107 107 107 107
          107 107 107 107 107 107
          107 107 107 107
        </DataArray>
        <DataArray type="Int32" Name="processor_id" format="ascii" RangeMin="3" RangeMax="3">
          3 3 3 3 3 3
          3 3 3 3 3 3
          3 3 3 3 3 3
          3 3 3 3 3 3
          3 3 3 3 3 3
          3 3 3 3 3 3
          3 3 3 3 3 3
          3 3 3 3 3 3
          3 3 3 3 3 3
          3 3 3 3 3 3
          3 3 3 3 3 3
          3 3 3 3 3 3
          3 3 3 3 3 3
          3 3 3 3 3 3
          3 3 3 3 3 3
          3 3 3 3 3 3
          3 3 3 3 3 3
          3 3 3 3 3 3
          3 3 3 3 3 3
          3 3 3 3 3 3
          3 3 3 3 3 3
          3 3 3 3 3 3
          3 3 3 3 3 3
          3 3 3 3 3 3
          3 3 3 3 3 3
          3 3 3 3 3 3
          3 3 3 3 3 3
          3 3 3 3 3 3
          3 3 3 3 3 3
          3 3 3 3 3 3
          3 3 3 3 3 3
          3 3 3 3 3 3
          3 3 3 3 3 3
          3 3 3 3 3 3
          3 3 3 3 3 3
          3 3 3 3 3 3
          3 3 3 3 3 3
          3 3 3 3 3 3
          3 3 3 3 3 3
          3 3 3 3 3 3
          3 3 3 3 3 3
          3 3 3 3 3 3
          3 3 3 3 3 3
          3 3 3 3 3 3
          3 3 3 3 3 3
          3 3 3 3 3 3
          3 3 3 3 3 3
          3 3 3 3 3 3
          3 3 3 3 3 3
          3 3 3 3 3 3
          3 3 3 3 3 3
          3 3 3 3 3 3
          3 3 3 3 3 3
          3 3 3 3 3 3
          3 3 3 3 3 3
          3 3 3 3 3 3
          3 3 3 3 3 3
          3 3 3 3 3 3
          3 3 3 3 3 3
          3 3 3 3 3 3
          3 3 3 3 3 3
          3 3 3 3 3 3
          3 3 3 3 3 3
          3 3 3 3 3 3
          3 3 3 3 3 3
          3 3 3 3 3 3
          3 3 3 3 3 3
          3 3 3 3 3 3
          3 3 3 3 3 3
          3 3 3 3 3 3
          3 3 3 3 3 3
          3 3 3 3 3 3
          3 3 3 3 3 3
          3 3 3 3 3 3
          3 3 3 3 3 3
          3 3 3 3
        </DataArray>
      </CellData>
      <Points>
        <DataArray type="Float64" Name="Points" NumberOfComponents="3" format="ascii" RangeMin="0.013166738443807365" RangeMax="0.02374822585851783">
          0.016451229180203 0.011589607556601 0 0.016255198485848 0.011015934042219 0
          0.016728572005863 0.010757201031786 0 0.017039955631379 0.011194422572054 0
          0.016451229180203 0.011589607556601 0.00015 0.016255198485848 0.011015934042219 0.00015
          0.016728572005863 0.010757201031786 0.00015 0.017039955631379 0.011194422572054 0.00015
          0.016451229180203 0.011589607556601 0.0003 0.016255198485848 0.011015934042219 0.0003
          0.016728572005863 0.010757201031786 0.0003 0.017039955631379 0.011194422572054 0.0003
          0.011186406523754 0.0095188731742926 0 0.010689703280164 0.0094649590365737 0
          0.010634679710187 0.008964429555675 0 0.011131650337527 0.0089687060727404 0
          0.011186406523754 0.0095188731742926 0.00015 0.010689703280164 0.0094649590365737 0.00015
          0.010634679710187 0.008964429555675 0.00015 0.011131650337527 0.0089687060727404 0.00015
          0.011186406523754 0.0095188731742926 0.0003 0.010689703280164 0.0094649590365737 0.0003
          0.010634679710187 0.008964429555675 0.0003 0.011131650337527 0.0089687060727404 0.0003
          0.010158980545183 0.0089928081418126 0 0.010158980545183 0.0089928081418126 0.00015
          0.010158980545183 0.0089928081418126 0.0003 0.010234809282542 0.0094751596931164 0
          0.010234809282542 0.0094751596931164 0.00015 0.010234809282542 0.0094751596931164 0.0003
          0.017215305681839 0.010421173498473 0 0.017538322616078 0.010852535251392 0
          0.017215305681839 0.010421173498473 0.00015 0.017538322616078 0.010852535251392 0.00015
          0.017215305681839 0.010421173498473 0.0003 0.017538322616078 0.010852535251392 0.0003
          0.015522227276376 0.0083950727535023 0 0.015339273065407 0.0078314073000753 0
          0.015832583415208 0.0077039482324782 0 0.015871156677641 0.0080932538621961 0
          0.015522227276376 0.0083950727535023 0.00015 0.015339273065407 0.0078314073000753 0.00015
          0.015832583415208 0.0077039482324782 0.00015 0.015871156677641 0.0080932538621961 0.00015
          0.015522227276376 0.0083950727535023 0.0003 0.015339273065407 0.0078314073000753 0.0003
          0.015832583415208 0.0077039482324782 0.0003 0.015871156677641 0.0080932538621961 0.0003
          0.014182404182597 0.012030933394166 0 0.014112697634716 0.011586899500601 0
          0.01453762000082 0.011541498939039 0 0.014647727851392 0.011956202120878 0
          0.014182404182597 0.012030933394166 0.00015 0.014112697634716 0.011586899500601 0.00015
          0.01453762000082 0.011541498939039 0.00015 0.014647727851392 0.011956202120878 0.00015
          0.014182404182597 0.012030933394166 0.0003 0.014112697634716 0.011586899500601 0.0003
          0.01453762000082 0.011541498939039 0.0003 0.014647727851392 0.011956202120878 0.0003
          0.012718807262617 0.012100913225318 0 0.01318790653826 0.012081424726463 0
          0.013223560157694 0.012548837560718 0 0.012721969255655 0.012547975923311 0
          0.012718807262617 0.012100913225318 0.00015 0.01318790653826 0.012081424726463 0.00015
          0.013223560157694 0.012548837560718 0.00015 0.012721969255655 0.012547975923311 0.00015
          0.012718807262617 0.012100913225318 0.0003 0.01318790653826 0.012081424726463 0.0003
          0.013223560157694 0.012548837560718 0.0003 0.012721969255655 0.012547975923311 0.0003
          0.015037276113604 0.0053883886132418 0 0.014872829902632 0.0048660088618751 0
          0.015610482342583 0.0052949834846695 0 0.015037276113604 0.0053883886132418 0.00015
          0.014872829902632 0.0048660088618751 0.00015 0.015610482342583 0.0052949834846695 0.00015
          0.015037276113604 0.0053883886132418 0.0003 0.014872829902632 0.0048660088618751 0.0003
          0.015610482342583 0.0052949834846695 0.0003 0.012853333735139 0.0071862564407273 0
          0.013298874998351 0.0073010052974168 0 0.013468505581478 0.0077481198485017 0
          0.012879769579272 0.0077824950988095 0 0.012853333735139 0.0071862564407273 0.00015
          0.013298874998351 0.0073010052974168 0.00015 0.013468505581478 0.0077481198485017 0.00015
          0.012879769579272 0.0077824950988095 0.00015 0.012853333735139 0.0071862564407273 0.0003
          0.013298874998351 0.0073010052974168 0.0003 0.013468505581478 0.0077481198485017 0.0003
          0.012879769579272 0.0077824950988095 0.0003 0.012310751390795 0.0073009210446318 0
          0.012310751390795 0.0073009210446318 0.00015 0.012310751390795 0.0073009210446318 0.0003
          0.016440539131042 0.010340248821358 0 0.016895401758078 0.0099970418145034 0
          0.016440539131042 0.010340248821358 0.00015 0.016895401758078 0.0099970418145034 0.00015
          0.016440539131042 0.010340248821358 0.0003 0.016895401758078 0.0099970418145034 0.0003
          0.015674284513358 0.012057735082989 0 0.015799992883172 0.011590312491375 0
          0.01620648935985 0.012173309797103 0 0.015674284513358 0.012057735082989 0.00015
          0.015799992883172 0.011590312491375 0.00015 0.01620648935985 0.012173309797103 0.00015
          0.015674284513358 0.012057735082989 0.0003 0.015799992883172 0.011590312491375 0.0003
          0.01620648935985 0.012173309797103 0.0003 0.015719396244314 0.0096761034796614 0
          0.015317179218416 0.010039615829248 0 0.014916285335657 0.0096823062625427 0
          0.015356151892906 0.0093633130446295 0 0.015719396244314 0.0096761034796614 0.00015
          0.015317179218416 0.010039615829248 0.00015 0.014916285335657 0.0096823062625427 0.00015
          0.015356151892906 0.0093633130446295 0.00015 0.015719396244314 0.0096761034796614 0.0003
          0.015317179218416 0.010039615829248 0.0003 0.014916285335657 0.0096823062625427 0.0003
          0.015356151892906 0.0093633130446295 0.0003 0.014911939516014 0.011080222539295 0
          0.01492908374418 0.011511002202991 0 0.014470673144967 0.011122308960465 0
          0.014911939516014 0.011080222539295 0.00015 0.01492908374418 0.011511002202991 0.00015
          0.014470673144967 0.011122308960465 0.00015 0.014911939516014 0.011080222539295 0.0003
          0.01492908374418 0.011511002202991 0.0003 0.014470673144967 0.011122308960465 0.0003
          0.014927498433442 0.011816834084778 0 0.015214955739546 0.01195124117686 0
          0.014868481741766 0.012398226678167 0 0.014927498433442 0.011816834084778 0.00015
          0.015214955739546 0.01195124117686 0.00015 0.014868481741766 0.012398226678167 0.00015
          0.014927498433442 0.011816834084778 0.0003 0.015214955739546 0.01195124117686 0.0003
          0.014868481741766 0.012398226678167 0.0003 0.014887382940214 0.010512753679506 0
          0.01433465747601 0.010724165901292 0 0.014030150330029 0.010370439204794 0
          0.01444626395613 0.010022024912649 0 0.014887382940214 0.010512753679506 0.00015
          0.01433465747601 0.010724165901292 0.00015 0.014030150330029 0.010370439204794 0.00015
          0.01444626395613 0.010022024912649 0.00015 0.014887382940214 0.010512753679506 0.0003
          0.01433465747601 0.010724165901292 0.0003 0.014030150330029 0.010370439204794 0.0003
          0.01444626395613 0.010022024912649 0.0003 0.013388886812482 0.0083497293814167 0
          0.012899574253998 0.0083038014764745 0 0.013388886812482 0.0083497293814167 0.00015
          0.012899574253998 0.0083038014764745 0.00015 0.013388886812482 0.0083497293814167 0.0003
          0.012899574253998 0.0083038014764745 0.0003 0.015784016264429 0.0071345425111119 0
          0.016328429431772 0.0071626451349231 0 0.016328043288569 0.0077322573762078 0
          0.015784016264429 0.0071345425111119 0.00015 0.016328429431772 0.0071626451349231 0.00015
          0.016328043288569 0.0077322573762078 0.00015 0.015784016264429 0.0071345425111119 0.0003
          0.016328429431772 0.0071626451349231 0.0003 0.016328043288569 0.0077322573762078 0.0003
          0.016727166785252 0.0084386331054829 0 0.01644772366367 0.0089064975551763 0
          0.016002189190704 0.0086574712541786 0 0.016221340977963 0.0082297464535469 0
          0.016727166785252 0.0084386331054829 0.00015 0.01644772366367 0.0089064975551763 0.00015
          0.016002189190704 0.0086574712541786 0.00015 0.016221340977963 0.0082297464535469 0.00015
          0.016727166785252 0.0084386331054829 0.0003 0.01644772366367 0.0089064975551763 0.0003
          0.016002189190704 0.0086574712541786 0.0003 0.016221340977963 0.0082297464535469 0.0003
          0.018901908985383 0.011783468628847 0 0.018328257152057 0.011560564570719 0
          0.018901908985383 0.011783468628847 0.00015 0.018328257152057 0.011560564570719 0.00015
          0.018901908985383 0.011783468628847 0.0003 0.018328257152057 0.011560564570719 0.0003
          0.016817438697449 0.012401495631919 0 0.016895899239308 0.011880939878953 0
          0.016817438697449 0.012401495631919 0.00015 0.016895899239308 0.011880939878953 0.00015
          0.016817438697449 0.012401495631919 0.0003 0.016895899239308 0.011880939878953 0.0003
          0.010475172867508 0.012102844227475 0 0.010669582432454 0.011743114144408 0
          0.010475172867508 0.012102844227475 0.00015 0.010669582432454 0.011743114144408 0.00015
          0.010475172867508 0.012102844227475 0.0003 0.010669582432454 0.011743114144408 0.0003
          0.018198082784875 0.0097658337520035 0 0.018455934862008 0.010221918525687 0
          0.018019877493881 0.01050989807829 0 0.017698489924893 0.010066971919266 0
          0.018198082784875 0.0097658337520035 0.00015 0.018455934862008 0.010221918525687 0.00015
          0.018019877493881 0.01050989807829 0.00015 0.017698489924893 0.010066971919266 0.00015
          0.018198082784875 0.0097658337520035 0.0003 0.018455934862008 0.010221918525687 0.0003
          0.018019877493881 0.01050989807829 0.0003 0.017698489924893 0.010066971919266 0.0003
          0.015096658749896 0.0059763609132825 0 0.015666288430535 0.0059190759170471 0
          0.015096658749896 0.0059763609132825 0.00015 0.015666288430535 0.0059190759170471 0.00015
          0.015096658749896 0.0059763609132825 0.0003 0.015666288430535 0.0059190759170471 0.0003
          0.013546901289865 0.0069836782833127 0 0.013134929749538 0.0067248500217048 0
          0.013546901289865 0.0069836782833127 0.00015 0.013134929749538 0.0067248500217048 0.00015
          0.013546901289865 0.0069836782833127 0.0003 0.013134929749538 0.0067248500217048 0.0003
          0.013831418153218 0.0064982603089606 0 0.013338214474932 0.0062766362868091 0
          0.013831418153218 0.0064982603089606 0.00015 0.013338214474932 0.0062766362868091 0.00015
          0.013831418153218 0.0064982603089606 0.0003 0.013338214474932 0.0062766362868091 0.0003
          0.017908784385217 0.011229685010797 0 0.017908784385217 0.011229685010797 0.00015
          0.017908784385217 0.011229685010797 0.0003 0.017460830811305 0.0067242961174433 0
          0.017460830811305 0.0067242961174433 0.00015 0.017460830811305 0.0067242961174433 0.0003
          0.016232724398465 0.0059010997942707 0 0.016810957053741 0.0059693958220605 0
          0.016865945400018 0.0066157033945985 0 0.016287343165999 0.0065221003589061 0
          0.016232724398465 0.0059010997942707 0.00015 0.016810957053741 0.0059693958220605 0.00015
          0.016865945400018 0.0066157033945985 0.00015 0.016287343165999 0.0065221003589061 0.00015
          0.016232724398465 0.0059010997942707 0.0003 0.016810957053741 0.0059693958220605 0.0003
          0.016865945400018 0.0066157033945985 0.0003 0.016287343165999 0.0065221003589061 0.0003
          0.015434451036398 0.0088351663483508 0 0.015091649000167 0.0090065479673052 0
          0.0149386527618 0.008562942865766 0 0.015434451036398 0.0088351663483508 0.00015
          0.015091649000167 0.0090065479673052 0.00015 0.0149386527618 0.008562942865766 0.00015
          0.015434451036398 0.0088351663483508 0.0003 0.015091649000167 0.0090065479673052 0.0003
          0.0149386527618 0.008562942865766 0.0003 0.013851103268646 0.0079817773379183 0
          0.013864053371773 0.0083733293390323 0 0.013851103268646 0.0079817773379183 0.00015
          0.013864053371773 0.0083733293390323 0.00015 0.013851103268646 0.0079817773379183 0.0003
          0.013864053371773 0.0083733293390323 0.0003 0.016873832756735 0.0078915607150548 0
          0.016873832756735 0.0078915607150548 0.00015 0.016873832756735 0.0078915607150548 0.0003
          0.011740832768399 0.012550565772382 0 0.011781425344485 0.012080160842703 0
          0.012267797740114 0.012087686226532 0 0.012238354096222 0.012547223275944 0
          0.011740832768399 0.012550565772382 0.00015 0.011781425344485 0.012080160842703 0.00015
          0.012267797740114 0.012087686226532 0.00015 0.012238354096222 0.012547223275944 0.00015
          0.011740832768399 0.012550565772382 0.0003 0.011781425344485 0.012080160842703 0.0003
          0.012267797740114 0.012087686226532 0.0003 0.012238354096222 0.012547223275944 0.0003
          0.015724816214821 0.0065169349202822 0 0.015724816214821 0.0065169349202822 0.00015
          0.015724816214821 0.0065169349202822 0.0003 0.016904663245172 0.0072759580116152 0
          0.016904663245172 0.0072759580116152 0.00015 0.016904663245172 0.0072759580116152 0.0003
          0.016212759806586 0.0053000490100875 0 0.016212759806586 0.0053000490100875 0.00015
          0.016212759806586 0.0053000490100875 0.0003 0.017422284858474 0.011679101640391 0
          0.017908527792884 0.011814582379248 0 0.017422284858474 0.011679101640391 0.00015
          0.017908527792884 0.011814582379248 0.00015 0.017422284858474 0.011679101640391 0.0003
          0.017908527792884 0.011814582379248 0.0003 0.017261702763099 0.0086939606584207 0
          0.017434489396122 0.0080779876667089 0 0.017261702763099 0.0086939606584207 0.00015
          0.017434489396122 0.0080779876667089 0.00015 0.017261702763099 0.0086939606584207 0.0003
          0.017434489396122 0.0080779876667089 0.0003 0.014181033506022 0.0077713348891544 0
          0.014325604474543 0.0082610969383043 0 0.014181033506022 0.0077713348891544 0.00015
          0.014325604474543 0.0082610969383043 0.00015 0.014181033506022 0.0077713348891544 0.0003
          0.014325604474543 0.0082610969383043 0.0003 0.016099115219063 0.0099899847281115 0
          0.016520689982407 0.0096278486407962 0 0.016099115219063 0.0099899847281115 0.00015
          0.016520689982407 0.0096278486407962 0.00015 0.016099115219063 0.0099899847281115 0.0003
          0.016520689982407 0.0096278486407962 0.0003 0.014613026918956 0.0092413149543641 0
          0.014613026918956 0.0092413149543641 0.00015 0.014613026918956 0.0092413149543641 0.0003
          0.016937453954769 0.0092095292918499 0 0.017364558514239 0.0096012653805297 0
          0.016937453954769 0.0092095292918499 0.00015 0.017364558514239 0.0096012653805297 0.00015
          0.016937453954769 0.0092095292918499 0.0003 0.017364558514239 0.0096012653805297 0.0003
          0.015712843676617 0.010331364913168 0 0.016032046384524 0.010629553115583 0
          0.015712843676617 0.010331364913168 0.00015 0.016032046384524 0.010629553115583 0.00015
          0.015712843676617 0.010331364913168 0.0003 0.016032046384524 0.010629553115583 0.0003
          0.01346343572409 0.0057857389411653 0 0.01346343572409 0.0057857389411653 0.00015
          0.01346343572409 0.0057857389411653 0.0003 0.015150761096164 0.0066142159223768 0
          0.015150761096164 0.0066142159223768 0.00015 0.015150761096164 0.0066142159223768 0.0003
          0.015453261139866 0.010697023165802 0 0.015761290368715 0.010819971207646 0
          0.015453261139866 0.010697023165802 0.00015 0.015761290368715 0.010819971207646 0.00015
          0.015453261139866 0.010697023165802 0.0003 0.015761290368715 0.010819971207646 0.0003
          0.013975551316416 0.0059398855735222 0 0.013975551316416 0.0059398855735222 0.00015
          0.013975551316416 0.0059398855735222 0.0003 0.017479032913359 0.0074088673936633 0
          0.017479032913359 0.0074088673936633 0.00015 0.017479032913359 0.0074088673936633 0.0003
          0.014439802315681 0.0067889662935499 0 0.014530319307898 0.006021518089632 0
          0.014439802315681 0.0067889662935499 0.00015 0.014530319307898 0.006021518089632 0.00015
          0.014439802315681 0.0067889662935499 0.0003 0.014530319307898 0.006021518089632 0.0003
          0.014431521900925 0.0087663339265048 0 0.013899975831329 0.0088854517032459 0
          0.014431521900925 0.0087663339265048 0.00015 0.013899975831329 0.0088854517032459 0.00015
          0.014431521900925 0.0087663339265048 0.0003 0.013899975831329 0.0088854517032459 0.0003
          0.015334349753872 0.011547922560075 0 0.015363465895193 0.011114260619116 0
          0.015801980011793 0.011137474992711 0 0.015334349753872 0.011547922560075 0.00015
          0.015363465895193 0.011114260619116 0.00015 0.015801980011793 0.011137474992711 0.00015
          0.015334349753872 0.011547922560075 0.0003 0.015363465895193 0.011114260619116 0.0003
          0.015801980011793 0.011137474992711 0.0003 0.01326617738197 0.0093680808515997 0
          0.012793423392144 0.00921210926252 0 0.012882512800283 0.0087881474090036 0
          0.013365259810227 0.0088714473068585 0 0.01326617738197 0.0093680808515997 0.00015
          0.012793423392144 0.00921210926252 0.00015 0.012882512800283 0.0087881474090036 0.00015
          0.013365259810227 0.0088714473068585 0.00015 0.01326617738197 0.0093680808515997 0.0003
          0.012793423392144 0.00921210926252 0.0003 0.012882512800283 0.0087881474090036 0.0003
          0.013365259810227 0.0088714473068585 0.0003 0.011993243876189 0.010936510200926 0
          0.011726815341297 0.011491075647124 0 0.011222013645511 0.011097826594996 0
          0.011481744371717 0.010688234667639 0 0.011993243876189 0.010936510200926 0.00015
          0.011726815341297 0.011491075647124 0.00015 0.011222013645511 0.011097826594996 0.00015
          0.011481744371717 0.010688234667639 0.00015 0.011993243876189 0.010936510200926 0.0003
          0.011726815341297 0.011491075647124 0.0003 0.011222013645511 0.011097826594996 0.0003
          0.011481744371717 0.010688234667639 0.0003 0.013923252507151 0.0073329122207352 0
          0.013923252507151 0.0073329122207352 0.00015 0.013923252507151 0.0073329122207352 0.0003
          0.013063793506476 0.0098271989985527 0 0.012601634550352 0.009590277262082 0
          0.013063793506476 0.0098271989985527 0.00015 0.012601634550352 0.009590277262082 0.00015
          0.013063793506476 0.0098271989985527 0.0003 0.012601634550352 0.009590277262082 0.0003
          0.014102855237989 0.0047969187863067 0 0.013905759673286 0.0043612537888552 0
          0.014102855237989 0.0047969187863067 0.00015 0.013905759673286 0.0043612537888552 0.00015
          0.014102855237989 0.0047969187863067 0.0003 0.013905759673286 0.0043612537888552 0.0003
          0.012852488428802 0.010265076045094 0 0.012374691983482 0.010000797580735 0
          0.012852488428802 0.010265076045094 0.00015 0.012374691983482 0.010000797580735 0.00015
          0.012852488428802 0.010265076045094 0.0003 0.012374691983482 0.010000797580735 0.0003
          0.011668611956603 0.010219239111219 0 0.012182731119778 0.010462377133106 0
          0.011668611956603 0.010219239111219 0.00015 0.012182731119778 0.010462377133106 0.00015
          0.011668611956603 0.010219239111219 0.0003 0.012182731119778 0.010462377133106 0.0003
          0.011158560753842 0.010029990414111 0 0.011017968815575 0.010465683342369 0
          0.011158560753842 0.010029990414111 0.00015 0.011017968815575 0.010465683342369 0.00015
          0.011158560753842 0.010029990414111 0.0003 0.011017968815575 0.010465683342369 0.0003
          0.014820390261339 0.0080402105998384 0 0.014820390261339 0.0080402105998384 0.00015
          0.014820390261339 0.0080402105998384 0.0003 0.015228397699353 0.0072512250897894 0
          0.015228397699353 0.0072512250897894 0.00015 0.015228397699353 0.0072512250897894 0.0003
          0.0130361735465 0.011522072885309 0 0.012689359184487 0.011761634268536 0
          0.012340499111532 0.011632501505239 0 0.012497431968462 0.011183651982421 0
          0.0130361735465 0.011522072885309 0.00015 0.012689359184487 0.011761634268536 0.00015
          0.012340499111532 0.011632501505239 0.00015 0.012497431968462 0.011183651982421 0.00015
          0.0130361735465 0.011522072885309 0.0003 0.012689359184487 0.011761634268536 0.0003
          0.012340499111532 0.011632501505239 0.0003 0.012497431968462 0.011183651982421 0.0003
          0.013528941600065 0.0052742966774397 0 0.014027103455945 0.0053875982273864 0
          0.013528941600065 0.0052742966774397 0.00015 0.014027103455945 0.0053875982273864 0.00015
          0.013528941600065 0.0052742966774397 0.0003 0.014027103455945 0.0053875982273864 0.0003
          0.010128205128219 0.013 0 0.010310686327751 0.012539165738252 0
          0.010788384596096 0.012564579045747 0 0.01064102564104 0.013 0
          0.010128205128219 0.013 0.00015 0.010310686327751 0.012539165738252 0.00015
          0.010788384596096 0.012564579045747 0.00015 0.01064102564104 0.013 0.00015
          0.010128205128219 0.013 0.0003 0.010310686327751 0.012539165738252 0.0003
          0.010788384596096 0.012564579045747 0.0003 0.01064102564104 0.013 0.0003
          0.010783127360108 0.010836567412064 0 0.010385522435479 0.010608007769118 0
          0.010601303654319 0.010290632654442 0 0.010783127360108 0.010836567412064 0.00015
          0.010385522435479 0.010608007769118 0.00015 0.010601303654319 0.010290632654442 0.00015
          0.010783127360108 0.010836567412064 0.0003 0.010385522435479 0.010608007769118 0.0003
          0.010601303654319 0.010290632654442 0.0003 0.011818930007254 0.009602160287834 0
          0.011818930007254 0.009602160287834 0.00015 0.011818930007254 0.009602160287834 0.0003
          0.015715008716269 0.0090308288850156 0 0.01610853428864 0.0093166480881369 0
          0.015715008716269 0.0090308288850156 0.00015 0.01610853428864 0.0093166480881369 0.00015
          0.015715008716269 0.0090308288850156 0.0003 0.01610853428864 0.0093166480881369 0.0003
          0.013952831965685 0.0095243725467762 0 0.013572358856734 0.010071658883703 0
          0.013952831965685 0.0095243725467762 0.00015 0.013572358856734 0.010071658883703 0.00015
          0.013952831965685 0.0095243725467762 0.0003 0.013572358856734 0.010071658883703 0.0003
          0.012677817340078 0.010719835797972 0 0.012677817340078 0.010719835797972 0.00015
          0.012677817340078 0.010719835797972 0.0003 0.014678664229456 0.0074733115324236 0
          0.014678664229456 0.0074733115324236 0.00015 0.014678664229456 0.0074733115324236 0.0003
          0.012261506677236 0.0092701804285872 0 0.012499922412859 0.0090879994978671 0
          0.012261506677236 0.0092701804285872 0.00015 0.012499922412859 0.0090879994978671 0.00015
          0.012261506677236 0.0092701804285872 0.0003 0.012499922412859 0.0090879994978671 0.0003
          0.011270478587413 0.012561768236337 0 0.011153846153863 0.013 0
          0.011270478587413 0.012561768236337 0.00015 0.011153846153863 0.013 0.00015
          0.011270478587413 0.012561768236337 0.0003 0.011153846153863 0.013 0.0003
          0.012179487179506 0.013 0 0.012692307692328 0.013 0
          0.012179487179506 0.013 0.00015 0.012692307692328 0.013 0.00015
          0.012179487179506 0.013 0.0003 0.012692307692328 0.013 0.0003
          0.013205128205151 0.013 0 0.013721380024409 0.012538570920528 0
          0.013717948717973 0.013 0 0.013205128205151 0.013 0.00015
          0.013721380024409 0.012538570920528 0.00015 0.013717948717973 0.013 0.00015
          0.013205128205151 0.013 0.0003 0.013721380024409 0.012538570920528 0.0003
          0.013717948717973 0.013 0.0003 0.013680323008888 0.01206206640945 0
          0.0136362676363 0.011582155921186 0 0.013680323008888 0.01206206640945 0.00015
          0.0136362676363 0.011582155921186 0.00015 0.013680323008888 0.01206206640945 0.0003
          0.0136362676363 0.011582155921186 0.0003 0.011306940297591 0.012129646322267 0
          0.011212076662234 0.01173976422044 0 0.011306940297591 0.012129646322267 0.00015
          0.011212076662234 0.01173976422044 0.00015 0.011306940297591 0.012129646322267 0.0003
          0.011212076662234 0.01173976422044 0.0003 0.014247558447628 0.012512499343239 0
          0.014230769230793 0.013 0 0.014247558447628 0.012512499343239 0.00015
          0.014230769230793 0.013 0.00015 0.014247558447628 0.012512499343239 0.0003
          0.014230769230793 0.013 0.0003 0.010925822172272 0.011428925131881 0
          0.010925822172272 0.011428925131881 0.00015 0.010925822172272 0.011428925131881 0.0003
          0.017598702187272 0.012594388856786 0 0.018138509806267 0.012585421267124 0
          0.018333333333352 0.013 0 0.017820512820533 0.013 0
          0.017598702187272 0.012594388856786 0.00015 0.018138509806267 0.012585421267124 0.00015
          0.018333333333352 0.013 0.00015 0.017820512820533 0.013 0.00015
          0.017598702187272 0.012594388856786 0.0003 0.018138509806267 0.012585421267124 0.0003
          0.018333333333352 0.013 0.0003 0.017820512820533 0.013 0.0003
          0.01884615384617 0.013 0 0.018647619061649 0.012577247456601 0
          0.01884615384617 0.013 0.00015 0.018647619061649 0.012577247456601 0.00015
          0.01884615384617 0.013 0.0003 0.018647619061649 0.012577247456601 0.0003
          0.010939820280367 0.01187760398484 0 0.010939820280367 0.01187760398484 0.00015
          0.010939820280367 0.01187760398484 0.0003 0.014743589743616 0.013 0
          0.014743589743616 0.013 0.00015 0.014743589743616 0.013 0.0003
          0.013168261777023 0.010955167755454 0 0.013168261777023 0.010955167755454 0.00015
          0.013168261777023 0.010955167755454 0.0003 0.011620435633551 0.0089440866322713 0
          0.011620435633551 0.0089440866322713 0.00015 0.011620435633551 0.0089440866322713 0.0003
          0.01333281098878 0.010501143990949 0 0.01333281098878 0.010501143990949 0.00015
          0.01333281098878 0.010501143990949 0.0003 0.013640766026071 0.011115210745046 0
          0.014063261910082 0.011165191959691 0 0.013640766026071 0.011115210745046 0.00015
          0.014063261910082 0.011165191959691 0.00015 0.013640766026071 0.011115210745046 0.0003
          0.014063261910082 0.011165191959691 0.0003 0.013761635093034 0.010714997264381 0
          0.013761635093034 0.010714997264381 0.00015 0.013761635093034 0.010714997264381 0.0003
          0.01790845301636 0.0090613468730877 0 0.01790845301636 0.0090613468730877 0.00015
          0.01790845301636 0.0090613468730877 0.0003 0.010691300612525 0.0099168298135774 0
          0.010691300612525 0.0099168298135774 0.00015 0.010691300612525 0.0099168298135774 0.0003
          0.014509683505008 0.0050450954358061 0 0.014509683505008 0.0050450954358061 0.00015
          0.014509683505008 0.0050450954358061 0.0003 0.012373637985884 0.0077974643404521 0
          0.012419274731686 0.0083019280664676 0 0.012373637985884 0.0077974643404521 0.00015
          0.012419274731686 0.0083019280664676 0.00015 0.012373637985884 0.0077974643404521 0.0003
          0.012419274731686 0.0083019280664676 0.0003 0.014523119140279 0.0054383897453177 0
          0.014523119140279 0.0054383897453177 0.00015 0.014523119140279 0.0054383897453177 0.0003
          0.012468015808598 0.0087643938641043 0 0.012468015808598 0.0087643938641043 0.00015
          0.012468015808598 0.0087643938641043 0.0003 0.014041697947841 0.010862771985015 0
          0.014041697947841 0.010862771985015 0.00015 0.014041697947841 0.010862771985015 0.0003
          0.012067821946234 0.0088387705315247 0 0.012067821946234 0.0088387705315247 0.00015
          0.012067821946234 0.0088387705315247 0.0003 0.018063704813091 0.0075049932447581 0
          0.018063704813091 0.0075049932447581 0.00015 0.018063704813091 0.0075049932447581 0.0003
          0.01801805728244 0.008218173104411 0 0.01801805728244 0.008218173104411 0.00015
          0.01801805728244 0.008218173104411 0.0003 0.019162849649621 0.012571706415164 0
          0.019358974358988 0.013 0 0.019162849649621 0.012571706415164 0.00015
          0.019358974358988 0.013 0.00015 0.019162849649621 0.012571706415164 0.0003
          0.019358974358988 0.013 0.0003 0.015469042768348 0.012527612124711 0
          0.015256410256436 0.013 0 0.015469042768348 0.012527612124711 0.00015
          0.015256410256436 0.013 0.00015 0.015469042768348 0.012527612124711 0.0003
          0.015256410256436 0.013 0.0003 0.017482035345823 0.012218317378284 0
          0.017482035345823 0.012218317378284 0.00015 0.017482035345823 0.012218317378284 0.0003
          0.011666666666685 0.013 0 0.011666666666685 0.013 0.00015
          0.011666666666685 0.013 0.0003 0.013552812333296 0.0042895499786344 0
          0.013552812333296 0.0042895499786344 0.00015 0.013552812333296 0.0042895499786344 0.0003
          0.019003973493589 0.012129001566083 0 0.018491681451249 0.012137078785851 0
          0.019003973493589 0.012129001566083 0.00015 0.018491681451249 0.012137078785851 0.00015
          0.019003973493589 0.012129001566083 0.0003 0.018491681451249 0.012137078785851 0.0003
          0.016282051282076 0.013 0 0.016335894010033 0.012686725241599 0
          0.016794871794894 0.013 0 0.016282051282076 0.013 0.00015
          0.016335894010033 0.012686725241599 0.00015 0.016794871794894 0.013 0.00015
          0.016282051282076 0.013 0.0003 0.016335894010033 0.012686725241599 0.0003
          0.016794871794894 0.013 0.0003 0.017307692307713 0.013 0
          0.017281329535555 0.012689387511733 0 0.017307692307713 0.013 0.00015
          0.017281329535555 0.012689387511733 0.00015 0.017307692307713 0.013 0.0003
          0.017281329535555 0.012689387511733 0.0003 0.017996855365792 0.012159940978259 0
          0.017996855365792 0.012159940978259 0.00015 0.017996855365792 0.012159940978259 0.0003
          0.016023960213719 0.012601258532672 0 0.016023960213719 0.012601258532672 0.00015
          0.016023960213719 0.012601258532672 0.0003 0.015769230769256 0.013 0
          0.015769230769256 0.013 0.00015 0.015769230769256 0.013 0.0003
          0.013549428097692 0.0047645614477775 0 0.013549428097692 0.0047645614477775 0.00015
          0.013549428097692 0.0047645614477775 0.0003 0.010881954871342 0.01216105032025 0
          0.010881954871342 0.01216105032025 0.00015 0.010881954871342 0.01216105032025 0.0003
          0.010057653370411 0.0084974472595183 0 0.01054988842507 0.0084422245958245 0
          0.010057653370411 0.0084974472595183 0.00015 0.01054988842507 0.0084422245958245 0.00015
          0.010057653370411 0.0084974472595183 0.0003 0.01054988842507 0.0084422245958245 0.0003
          0.015535554193674 0.0045828394817383 0 0.015535554193674 0.0045828394817383 0.00015
          0.015535554193674 0.0045828394817383 0.0003 0.011832021157187 0.0073476785459853 0
          0.011779780861271 0.0068646395959748 0 0.012243708910156 0.0068324173193727 0
          0.011832021157187 0.0073476785459853 0.00015 0.011779780861271 0.0068646395959748 0.00015
          0.012243708910156 0.0068324173193727 0.00015 0.011832021157187 0.0073476785459853 0.0003
          0.011779780861271 0.0068646395959748 0.0003 0.012243708910156 0.0068324173193727 0.0003
          0.019357361519954 0.01157618305141 0 0.01884046117173 0.011223113854601 0
          0.019357361519954 0.01157618305141 0.00015 0.01884046117173 0.011223113854601 0.00015
          0.019357361519954 0.01157618305141 0.0003 0.01884046117173 0.011223113854601 0.0003
          0.014554004584986 0.0044253882271801 0 0.015005639561329 0.0040763460944633 0
          0.014554004584986 0.0044253882271801 0.00015 0.015005639561329 0.0040763460944633 0.00015
          0.014554004584986 0.0044253882271801 0.0003 0.015005639561329 0.0040763460944633 0.0003
          0.018384253973557 0.010894663204421 0 0.018384253973557 0.010894663204421 0.00015
          0.018384253973557 0.010894663204421 0.0003 0.017413401850906 0.0060417176080878 0
          0.018057579772584 0.0060827128421873 0 0.018070157245618 0.0068021820766994 0
          0.017413401850906 0.0060417176080878 0.00015 0.018057579772584 0.0060827128421873 0.00015
          0.018070157245618 0.0068021820766994 0.00015 0.017413401850906 0.0060417176080878 0.0003
          0.018057579772584 0.0060827128421873 0.0003 0.018070157245618 0.0068021820766994 0.0003
          0.016291762387835 0.0047307906783276 0 0.016291762387835 0.0047307906783276 0.00015
          0.016291762387835 0.0047307906783276 0.0003 0.012879713087233 0.0060908484912964 0
          0.012982043505355 0.0056371881930815 0 0.012879713087233 0.0060908484912964 0.00015
          0.012982043505355 0.0056371881930815 0.00015 0.012879713087233 0.0060908484912964 0.0003
          0.012982043505355 0.0056371881930815 0.0003 0.01678493258985 0.0053840721103251 0
          0.016848637368385 0.0048798435935376 0 0.01678493258985 0.0053840721103251 0.00015
          0.016848637368385 0.0048798435935376 0.00015 0.01678493258985 0.0053840721103251 0.0003
          0.016848637368385 0.0048798435935376 0.0003 0.012723582323863 0.006509831652106 0
          0.012723582323863 0.006509831652106 0.00015 0.012723582323863 0.006509831652106 0.0003
          0.014128459199836 0.0039835282877348 0 0.014128459199836 0.0039835282877348 0.00015
          0.014128459199836 0.0039835282877348 0.0003 0.018817000838468 0.010560792840001 0
          0.018817000838468 0.010560792840001 0.00015 0.018817000838468 0.010560792840001 0.0003
          0.011043213382792 0.0084269911709333 0 0.011043213382792 0.0084269911709333 0.00015
          0.011043213382792 0.0084269911709333 0.0003 0.011511795106494 0.0083968566041475 0
          0.011511795106494 0.0083968566041475 0.00015 0.011511795106494 0.0083968566041475 0.0003
          0.017341722495578 0.0054175123203669 0 0.017341722495578 0.0054175123203669 0.00015
          0.017341722495578 0.0054175123203669 0.0003 0.01196380743939 0.0083394019710021 0
          0.011894488312007 0.0078344841271679 0 0.01196380743939 0.0083394019710021 0.00015
          0.011894488312007 0.0078344841271679 0.00015 0.01196380743939 0.0083394019710021 0.0003
          0.011894488312007 0.0078344841271679 0.0003 0.018719100515555 0.0096191331103102 0
          0.018769006148643 0.010016813571171 0 0.018719100515555 0.0096191331103102 0.00015
          0.018769006148643 0.010016813571171 0.00015 0.018719100515555 0.0096191331103102 0.0003
          0.018769006148643 0.010016813571171 0.0003 0.019142781766586 0.010156284019367 0
          0.019142781766586 0.010156284019367 0.00015 0.019142781766586 0.010156284019367 0.0003
          0.019871794871807 0.013 0 0.019671681078705 0.012567114388191 0
          0.019871794871807 0.013 0.00015 0.019671681078705 0.012567114388191 0.00015
          0.019871794871807 0.013 0.0003 0.019671681078705 0.012567114388191 0.0003
          0.013590285783394 0.0038446716816234 0 0.013590285783394 0.0038446716816234 0.00015
          0.013590285783394 0.0038446716816234 0.0003 0.018696511924608 0.0075816988835645 0
          0.018734278863615 0.0068564365277259 0 0.018696511924608 0.0075816988835645 0.00015
          0.018734278863615 0.0068564365277259 0.00015 0.018696511924608 0.0075816988835645 0.0003
          0.018734278863615 0.0068564365277259 0.0003 0.013091675611077 0.0041736873632184 0
          0.013121586466294 0.0036708577033715 0 0.013091675611077 0.0041736873632184 0.00015
          0.013121586466294 0.0036708577033715 0.00015 0.013091675611077 0.0041736873632184 0.0003
          0.013121586466294 0.0036708577033715 0.0003 0.019497075330812 0.012129782091497 0
          0.019497075330812 0.012129782091497 0.00015 0.019497075330812 0.012129782091497 0.0003
          0.012592651705639 0.0068198098450163 0 0.012592651705639 0.0068198098450163 0.00015
          0.012592651705639 0.0068198098450163 0.0003 0.018655444813331 0.0089912542068827 0
          0.018655444813331 0.0089912542068827 0.00015 0.018655444813331 0.0089912542068827 0.0003
          0.018643245907353 0.0082916041839039 0 0.018643245907353 0.0082916041839039 0.00015
          0.018643245907353 0.0082916041839039 0.0003 0.013048655853798 0.0051555709380823 0
          0.013048655853798 0.0051555709380823 0.00015 0.013048655853798 0.0051555709380823 0.0003
          0.013084530633285 0.0046685927017207 0 0.013084530633285 0.0046685927017207 0.00015
          0.013084530633285 0.0046685927017207 0.0003
          <InformationKey name="L2_NORM_RANGE" location="vtkDataArray" length="2">
            <Value index="0">
              0.013166738444
            </Value>
            <Value index="1">
              0.023748225859
            </Value>
          </InformationKey>
        </DataArray>
      </Points>
      <Cells>
        <DataArray type="Int64" Name="connectivity" format="ascii" RangeMin="0" RangeMax="794">
          0 1 2 3 4 5
          6 7 4 5 6 7
          8 9 10 11 12 13
          14 15 16 17 18 19
          16 17 18 19 20 21
          22 23 666 667 14 24
          668 669 18 25 668 669
          18 25 670 671 22 26
          24 14 13 27 25 18
          17 28 25 18 17 28
          26 22 21 29 30 31
          3 2 32 33 7 6
          32 33 7 6 34 35
          11 10 36 37 38 39
          40 41 42 43 40 41
          42 43 44 45 46 47
          48 49 50 51 52 53
          54 55 52 53 54 55
          56 57 58 59 60 61
          62 63 64 65 66 67
          64 65 66 67 68 69
          70 71 72 73 672 74
          75 76 673 77 75 76
          673 77 78 79 674 80
          81 82 83 84 85 86
          87 88 85 86 87 88
          89 90 91 92 93 675
          676 677 94 678 679 680
          94 678 679 680 95 681
          682 683 2 96 97 30
          6 98 99 32 6 98
          99 32 10 100 101 34
          102 103 0 104 105 106
          4 107 105 106 4 107
          108 109 8 110 111 112
          113 114 115 116 117 118
          115 116 117 118 119 120
          121 122 123 124 50 125
          126 127 54 128 126 127
          54 128 129 130 58 131
          132 133 134 51 135 136
          137 55 135 136 137 55
          138 139 140 59 141 142
          143 144 145 146 147 148
          145 146 147 148 149 150
          151 152 112 141 144 113
          116 145 148 117 116 145
          148 117 120 149 152 121
          84 83 153 154 88 87
          155 156 88 87 155 156
          92 91 157 158 159 160
          161 38 162 163 164 42
          162 163 164 42 165 166
          167 46 168 169 170 171
          172 173 174 175 172 173
          174 175 176 177 178 179
          684 180 181 685 686 182
          183 687 686 182 183 687
          688 184 185 689 186 104
          0 187 188 107 4 189
          188 107 4 189 190 110
          8 191 690 691 672 73
          692 693 673 76 692 693
          673 76 694 695 674 79
          198 199 200 201 202 203
          204 205 202 203 204 205
          206 207 208 209 210 72
          74 211 212 75 77 213
          212 75 77 213 214 78
          80 215 216 82 81 217
          218 86 85 219 218 86
          85 219 220 90 89 221
          222 216 217 223 224 218
          219 225 224 218 219 225
          226 220 221 227 171 39
          38 161 175 43 42 164
          175 43 42 164 179 47
          46 167 228 696 685 181
          229 697 687 183 229 697
          687 183 230 698 689 185
          231 699 700 701 232 702
          703 704 232 702 703 704
          233 705 706 707 31 30
          201 200 33 32 205 204
          33 32 205 204 35 34
          209 208 234 235 236 237
          238 239 240 241 238 239
          240 241 242 243 244 245
          36 246 247 248 40 249
          250 251 40 249 250 251
          44 252 253 254 83 255
          256 153 87 257 258 155
          87 257 258 155 91 259
          260 157 235 699 231 236
          239 702 232 240 239 702
          232 240 243 705 233 244
          168 171 161 261 172 175
          164 262 172 175 164 262
          176 179 167 263 171 170
          36 39 175 174 40 43
          175 174 40 43 179 178
          44 47 264 265 266 267
          268 269 270 271 268 269
          270 271 272 273 274 275
          237 276 211 234 241 277
          213 238 241 277 213 238
          245 278 215 242 279 160
          237 236 280 163 241 240
          280 163 241 240 281 166
          245 244 234 211 74 282
          238 213 77 283 238 213
          77 283 242 215 80 284
          285 228 181 286 287 229
          183 288 287 229 183 288
          289 230 185 290 291 168
          261 292 293 172 262 294
          293 172 262 294 295 176
          263 296 297 298 256 255
          299 300 258 257 299 300
          258 257 301 302 260 259
          303 304 97 96 305 306
          99 98 305 306 99 98
          307 308 101 100 309 247
          114 113 310 250 118 117
          310 250 118 117 311 253
          122 121 304 312 313 97
          306 314 315 99 306 314
          315 99 308 316 317 101
          282 74 672 708 283 77
          673 709 283 77 673 709
          284 80 674 710 318 303
          96 319 320 305 98 321
          320 305 98 321 322 307
          100 323 285 187 0 3
          287 189 4 7 287 189
          4 7 289 191 8 11
          223 711 712 324 225 713
          714 325 225 713 714 325
          227 715 716 326 327 210
          211 276 328 212 213 277
          328 212 213 277 329 214
          215 278 717 282 708 718
          719 283 709 720 719 283
          709 720 721 284 710 722
          276 237 160 159 277 241
          163 162 277 241 163 162
          278 245 166 165 330 318
          319 331 332 320 321 333
          332 320 321 333 334 322
          323 335 324 336 222 223
          325 337 224 225 325 337
          224 225 326 338 226 227
          292 261 279 339 294 262
          280 340 294 262 280 340
          296 263 281 341 342 343
          210 327 344 345 212 328
          344 345 212 328 346 347
          214 329 696 228 31 200
          697 229 33 204 697 229
          33 204 698 230 35 208
          298 348 349 256 300 350
          351 258 300 350 351 258
          302 352 353 260 336 343
          342 222 337 345 344 224
          337 345 344 224 338 347
          346 226 96 2 1 319
          98 6 5 321 98 6
          5 321 100 10 9 323
          103 354 355 356 106 357
          358 359 106 357 358 359
          109 360 361 362 339 279
          236 231 340 280 240 232
          340 280 240 232 341 281
          244 233 363 364 365 366
          367 368 369 370 367 368
          369 370 371 372 373 374
          375 376 377 378 379 380
          381 382 379 380 381 382
          383 384 385 386 169 168
          291 312 173 172 293 314
          173 172 293 314 177 176
          295 316 216 222 342 387
          218 224 344 388 218 224
          344 388 220 226 346 389
          223 217 723 711 225 219
          724 713 225 219 724 713
          227 221 725 715 160 279
          261 161 163 280 262 164
          163 280 262 164 166 281
          263 167 356 355 330 331
          359 358 332 333 359 358
          332 333 362 361 334 335
          363 390 391 364 367 392
          393 368 367 392 393 368
          371 394 395 372 396 397
          726 690 398 399 727 692
          398 399 727 692 400 401
          728 694 390 402 403 391
          392 404 405 393 392 404
          405 393 394 406 407 395
          235 234 282 717 239 238
          283 719 239 238 283 719
          243 242 284 721 313 201
          30 97 315 205 32 99
          315 205 32 99 317 209
          34 101 248 247 309 348
          251 250 310 350 251 250
          310 350 254 253 311 352
          200 199 729 696 204 203
          730 697 204 203 730 697
          208 207 731 698 408 409
          375 378 410 411 379 382
          410 411 379 382 412 413
          383 386 153 256 349 366
          155 258 351 370 155 258
          351 370 157 260 353 374
          414 408 378 415 416 410
          382 417 416 410 382 417
          418 412 386 419 420 248
          348 298 421 251 350 300
          421 251 350 300 422 254
          352 302 423 327 276 159
          424 328 277 162 424 328
          277 162 425 329 278 165
          426 427 428 429 430 431
          432 433 430 431 432 433
          434 435 436 437 336 324
          438 439 337 325 440 441
          337 325 440 441 338 326
          442 443 667 732 15 14
          669 733 19 18 669 733
          19 18 671 734 23 22
          444 445 446 447 448 449
          450 451 448 449 450 451
          452 453 454 455 415 456
          457 458 417 459 460 461
          417 459 460 461 419 462
          463 464 12 465 408 414
          16 466 410 416 16 466
          410 416 20 467 412 418
          465 403 409 408 466 405
          411 410 466 405 411 410
          467 407 413 412 376 375
          429 428 380 379 433 432
          380 379 433 432 384 383
          437 436 114 468 469 111
          118 470 471 115 118 470
          471 115 122 472 473 119
          37 423 159 38 41 424
          162 42 41 424 162 42
          45 425 165 46 474 475
          390 363 476 477 392 367
          476 477 392 367 478 479
          394 371 429 375 409 480
          433 379 411 481 433 379
          411 481 437 383 413 482
          342 483 297 387 344 484
          299 388 344 484 299 388
          346 485 301 389 348 309
          474 349 350 310 476 351
          350 310 476 351 352 311
          478 353 480 409 403 402
          481 411 405 404 481 411
          405 404 482 413 407 406
          266 265 376 428 270 269
          380 432 270 269 380 432
          274 273 384 436 486 487
          364 391 488 489 368 393
          488 489 368 393 490 491
          372 395 447 446 492 493
          451 450 494 495 451 450
          494 495 455 454 496 497
          483 420 298 297 484 421
          300 299 484 421 300 299
          485 422 302 301 498 267
          63 499 500 271 67 501
          500 271 67 501 502 275
          71 503 378 377 456 415
          382 381 459 417 382 381
          459 417 386 385 462 419
          504 62 505 506 507 66
          508 509 507 66 508 509
          510 70 511 512 513 61
          426 514 515 65 430 516
          515 65 430 516 517 69
          434 518 499 63 62 504
          501 67 66 507 501 67
          66 507 503 71 70 510
          474 363 366 349 476 367
          370 351 476 367 370 351
          478 371 374 353 519 520
          376 265 521 522 380 269
          521 522 380 269 523 524
          384 273 506 505 525 526
          509 508 527 528 509 508
          527 528 512 511 529 530
          531 377 376 520 532 381
          380 522 532 381 380 522
          533 385 384 524 534 535
          536 537 538 539 540 541
          538 539 540 541 542 543
          544 545 546 536 535 547
          548 540 539 549 548 540
          539 549 550 544 543 551
          141 330 355 123 145 332
          358 126 145 332 358 126
          149 334 361 129 327 423
          483 342 328 424 484 344
          328 424 484 344 329 425
          485 346 193 531 520 552
          195 532 522 553 195 532
          522 553 197 533 524 554
          134 555 526 525 137 556
          528 527 137 556 528 527
          140 557 530 529 480 558
          426 429 481 559 430 433
          481 559 430 433 482 560
          434 437 391 403 465 486
          393 405 466 488 393 405
          466 488 395 407 467 490
          465 12 15 561 466 16
          19 562 466 16 19 562
          467 20 23 563 402 390
          475 564 404 392 477 565
          404 392 477 565 406 394
          479 566 567 568 49 514
          569 570 53 516 569 570
          53 516 571 572 57 518
          558 567 514 426 559 569
          516 430 559 569 516 430
          560 571 518 434 564 475
          143 573 565 477 147 574
          565 477 147 574 566 479
          151 575 561 15 732 735
          562 19 733 736 562 19
          733 736 563 23 734 737
          228 285 3 31 229 287
          7 33 229 287 7 33
          230 289 11 35 576 198
          201 313 577 202 205 315
          577 202 205 315 578 206
          209 317 356 331 319 1
          359 333 321 5 359 333
          321 5 362 335 323 9
          1 0 103 356 5 4
          106 359 5 4 106 359
          9 8 109 362 558 480
          402 564 559 481 404 565
          559 481 404 565 560 482
          406 566 699 235 717 738
          702 239 719 739 702 239
          719 739 705 243 721 740
          73 582 396 690 76 583
          398 692 76 583 398 692
          79 584 400 694 741 742
          585 586 743 744 587 588
          743 744 587 588 745 746
          589 590 72 210 343 591
          75 212 345 592 75 212
          345 592 78 214 347 593
          439 591 343 336 441 592
          345 337 441 592 345 337
          443 593 347 338 576 313
          312 291 577 315 314 293
          577 315 314 293 578 317
          316 295 469 169 312 304
          471 173 314 306 471 173
          314 306 473 177 316 308
          594 365 364 487 595 369
          368 489 595 369 368 489
          596 373 372 491 591 439
          396 582 592 441 398 583
          592 441 398 583 593 443
          400 584 564 573 567 558
          565 574 569 559 565 574
          569 559 566 575 571 560
          573 597 568 567 574 598
          570 569 574 598 570 569
          575 599 572 571 747 748
          199 198 749 750 203 202
          749 750 203 202 751 752
          207 206 420 483 423 37
          421 484 424 41 421 484
          424 41 422 485 425 45
          600 486 465 561 601 488
          466 562 601 488 466 562
          602 490 467 563 561 735
          741 600 562 736 743 601
          562 736 743 601 563 737
          745 602 37 36 248 420
          41 40 251 421 41 40
          251 421 45 44 254 422
          594 487 486 600 595 489
          488 601 595 489 488 601
          596 491 490 602 468 170
          169 469 470 174 173 471
          470 174 173 471 472 178
          177 473 264 492 519 265
          268 494 521 269 268 494
          521 269 272 496 523 273
          414 579 13 12 416 580
          17 16 416 580 17 16
          418 581 21 20 154 153
          366 365 156 155 370 369
          156 155 370 369 158 157
          374 373 339 231 701 603
          340 232 704 604 340 232
          704 604 341 233 707 605
          591 582 73 72 592 583
          76 75 592 583 76 75
          593 584 79 78 606 292
          339 603 607 294 340 604
          607 294 340 604 608 296
          341 605 547 609 610 546
          549 611 612 548 549 611
          612 548 551 613 614 550
          60 427 426 61 64 431
          430 65 64 431 430 65
          68 435 434 69 576 291
          292 606 577 293 294 607
          577 293 294 607 578 295
          296 608 615 616 555 134
          617 618 556 137 617 618
          556 137 619 620 557 140
          586 594 600 741 588 595
          601 743 588 595 601 743
          590 596 602 745 83 387
          297 255 87 388 299 257
          87 388 299 257 91 389
          301 259 144 143 475 474
          148 147 477 476 148 147
          477 476 152 151 479 478
          111 469 304 303 115 471
          306 305 115 471 306 305
          119 473 308 307 753 729
          199 748 754 730 203 750
          754 730 203 750 755 731
          207 752 505 62 61 513
          508 66 65 515 508 66
          65 515 511 70 69 517
          756 610 609 757 758 612
          611 759 758 612 611 759
          760 614 613 761 216 387
          83 82 218 388 87 86
          218 388 87 86 220 389
          91 90 285 621 186 187
          287 622 188 189 287 622
          188 189 289 623 190 191
          264 624 493 492 268 625
          495 494 268 625 495 494
          272 626 497 496 726 397
          627 762 727 399 628 763
          727 399 628 763 728 401
          629 764 630 631 181 180
          632 633 183 182 632 633
          183 182 634 635 185 184
          586 154 365 594 588 156
          369 595 588 156 369 595
          590 158 373 596 765 603
          701 766 767 604 704 768
          767 604 704 768 769 605
          707 770 636 637 186 638
          639 640 188 641 639 640
          188 641 642 643 190 644
          125 50 49 568 128 54
          53 570 128 54 53 570
          131 58 57 572 645 638
          186 646 647 641 188 648
          647 641 188 648 649 644
          190 650 534 646 186 621
          538 648 188 622 538 648
          188 622 542 650 190 623
          93 585 742 675 94 587
          744 678 94 587 744 678
          95 589 746 681 48 51
          134 525 52 55 137 527
          52 55 137 527 56 59
          140 529 627 771 772 762
          628 773 774 763 628 773
          774 763 629 775 776 764
          630 180 684 777 632 182
          686 778 632 182 686 778
          634 184 688 779 154 586
          585 84 156 588 587 88
          156 588 587 88 158 590
          589 92 651 286 181 631
          652 288 183 633 652 288
          183 633 653 290 185 635
          186 637 654 104 188 640
          655 107 188 640 655 107
          190 643 656 110 474 309
          113 144 476 310 117 148
          476 310 117 148 478 311
          121 152 63 267 266 60
          67 271 270 64 67 271
          270 64 71 275 274 68
          616 615 654 657 618 617
          655 658 618 617 655 658
          620 619 656 659 627 397
          396 660 628 399 398 661
          628 399 398 661 629 401
          400 662 579 414 415 458
          580 416 417 461 580 416
          417 461 581 418 419 464
          651 631 547 535 652 633
          549 539 652 633 549 539
          653 635 551 543 723 217
          81 780 724 219 85 781
          724 219 85 781 725 221
          89 782 663 446 445 192
          664 450 449 194 664 450
          449 194 665 454 453 196
          142 597 573 143 146 598
          574 147 146 598 574 147
          150 599 575 151 783 747
          198 576 784 749 202 577
          784 749 202 577 785 751
          206 578 48 513 514 49
          52 515 516 53 52 515
          516 53 56 517 518 57
          318 330 141 112 320 332
          145 116 320 332 145 116
          322 334 149 120 651 621
          285 286 652 622 287 288
          652 622 287 288 653 623
          289 290 60 266 428 427
          64 270 432 431 64 270
          432 431 68 274 436 435
          354 124 123 355 357 127
          126 358 357 127 126 358
          360 130 129 361 303 318
          112 111 305 320 116 115
          305 320 116 115 307 322
          120 119 630 777 757 609
          632 778 759 611 632 778
          759 611 634 779 761 613
          468 246 36 170 470 249
          40 174 470 249 40 174
          472 252 44 178 615 102
          104 654 617 105 107 655
          617 105 107 655 619 108
          110 656 786 783 576 606
          787 784 577 607 787 784
          577 607 788 785 578 608
          519 492 446 663 521 494
          450 664 521 494 450 664
          523 496 454 665 637 636
          657 654 640 639 658 655
          640 639 658 655 643 642
          659 656 663 192 193 552
          664 194 195 553 664 194
          195 553 665 196 197 554
          789 438 324 712 790 440
          325 714 790 440 325 714
          791 442 326 716 102 133
          354 103 105 136 357 106
          105 136 357 106 108 139
          360 109 646 534 537 645
          648 538 541 647 648 538
          541 647 650 542 545 649
          525 505 513 48 527 508
          515 52 527 508 515 52
          529 511 517 56 660 396
          439 438 661 398 441 440
          661 398 441 440 662 400
          443 442 765 786 606 603
          767 787 607 604 767 787
          607 604 769 788 608 605
          624 264 267 498 625 268
          271 500 625 268 271 500
          626 272 275 502 468 114
          247 246 470 118 250 249
          470 118 250 249 472 122
          253 252 535 534 621 651
          539 538 622 652 539 538
          622 652 543 542 623 653
          93 81 84 585 94 85
          88 587 94 85 88 587
          95 89 92 589 438 789
          792 660 440 790 793 661
          440 790 793 661 442 791
          794 662 124 132 51 50
          127 135 55 54 127 135
          55 54 130 138 59 58
          663 552 520 519 664 553
          522 521 664 553 522 521
          665 554 524 523 609 547
          631 630 611 549 633 632
          611 549 633 632 613 551
          635 634 125 142 141 123
          128 146 145 126 128 146
          145 126 131 150 149 129
          102 615 134 133 105 617
          137 136 105 617 137 136
          108 619 140 139 142 125
          568 597 146 128 570 598
          146 128 570 598 150 131
          572 599 124 354 133 132
          127 357 136 135 127 357
          136 135 130 360 139 138
          660 792 771 627 661 793
          773 628 661 793 773 628
          662 794 775 629 81 93
          677 780 85 94 680 781
          85 94 680 781 89 95
          683 782
        </DataArray>
        <DataArray type="Int64" Name="offsets" format="ascii" RangeMin="8" RangeMax="3632">
          8 16 24 32 40 48
          56 64 72 80 88 96
          104 112 120 128 136 144
          152 160 168 176 184 192
          200 208 216 224 232 240
          248 256 264 272 280 288
          296 304 312 320 328 336
          344 352 360 368 376 384
          392 400 408 416 424 432
          440 448 456 464 472 480
          488 496 504 512 520 528
          536 544 552 560 568 576
          584 592 600 608 616 624
          632 640 648 656 664 672
          680 688 696 704 712 720
          728 736 744 752 760 768
          776 784 792 800 808 816
          824 832 840 848 856 864
          872 880 888 896 904 912
          920 928 936 944 952 960
          968 976 984 992 1000 1008
          1016 1024 1032 1040 1048 1056
          1064 1072 1080 1088 1096 1104
          1112 1120 1128 1136 1144 1152
          1160 1168 1176 1184 1192 1200
          1208 1216 1224 1232 1240 1248
          1256 1264 1272 1280 1288 1296
          1304 1312 1320 1328 1336 1344
          1352 1360 1368 1376 1384 1392
          1400 1408 1416 1424 1432 1440
          1448 1456 1464 1472 1480 1488
          1496 1504 1512 1520 1528 1536
          1544 1552 1560 1568 1576 1584
          1592 1600 1608 1616 1624 1632
          1640 1648 1656 1664 1672 1680
          1688 1696 1704 1712 1720 1728
          1736 1744 1752 1760 1768 1776
          1784 1792 1800 1808 1816 1824
          1832 1840 1848 1856 1864 1872
          1880 1888 1896 1904 1912 1920
          1928 1936 1944 1952 1960 1968
          1976 1984 1992 2000 2008 2016
          2024 2032 2040 2048 2056 2064
          2072 2080 2088 2096 2104 2112
          2120 2128 2136 2144 2152 2160
          2168 2176 2184 2192 2200 2208
          2216 2224 2232 2240 2248 2256
          2264 2272 2280 2288 2296 2304
          2312 2320 2328 2336 2344 2352
          2360 2368 2376 2384 2392 2400
          2408 2416 2424 2432 2440 2448
          2456 2464 2472 2480 2488 2496
          2504 2512 2520 2528 2536 2544
          2552 2560 2568 2576 2584 2592
          2600 2608 2616 2624 2632 2640
          2648 2656 2664 2672 2680 2688
          2696 2704 2712 2720 2728 2736
          2744 2752 2760 2768 2776 2784
          2792 2800 2808 2816 2824 2832
          2840 2848 2856 2864 2872 2880
          2888 2896 2904 2912 2920 2928
          2936 2944 2952 2960 2968 2976
          2984 2992 3000 3008 3016 3024
          3032 3040 3048 3056 3064 3072
          3080 3088 3096 3104 3112 3120
          3128 3136 3144 3152 3160 3168
          3176 3184 3192 3200 3208 3216
          3224 3232 3240 3248 3256 3264
          3272 3280 3288 3296 3304 3312
          3320 3328 3336 3344 3352 3360
          3368 3376 3384 3392 3400 3408
          3416 3424 3432 3440 3448 3456
          3464 3472 3480 3488 3496 3504
          3512 3520 3528 3536 3544 3552
          3560 3568 3576 3584 3592 3600
          3608 3616 3624 3632
        </DataArray>
        <DataArray type="UInt8" Name="types" format="ascii" RangeMin="12" RangeMax="12">
          12 12 12 12 12 12
          12 12 12 12 12 12
          12 12 12 12 12 12
          12 12 12 12 12 12
          12 12 12 12 12 12
          12 12 12 12 12 12
          12 12 12 12 12 12
          12 12 12 12 12 12
          12 12 12 12 12 12
          12 12 12 12 12 12
          12 12 12 12 12 12
          12 12 12 12 12 12
          12 12 12 12 12 12
          12 12 12 12 12 12
          12 12 12 12 12 12
          12 12 12 12 12 12
          12 12 12 12 12 12
          12 12 12 12 12 12
          12 12 12 12 12 12
          12 12 12 12 12 12
          12 12 12 12 12 12
          12 12 12 12 12 12
          12 12 12 12 12 12
          12 12 12 12 12 12
          12 12 12 12 12 12
          12 12 12 12 12 12
          12 12 12 12 12 12
          12 12 12 12 12 12
          12 12 12 12 12 12
          12 12 12 12 12 12
          12 12 12 12 12 12
          12 12 12 12 12 12
          12 12 12 12 12 12
          12 12 12 12 12 12
          12 12 12 12 12 12
          12 12 12 12 12 12
          12 12 12 12 12 12
          12 12 12 12 12 12
          12 12 12 12 12 12
          12 12 12 12 12 12
          12 12 12 12 12 12
          12 12 12 12 12 12
          12 12 12 12 12 12
          12 12 12 12 12 12
          12 12 12 12 12 12
          12 12 12 12 12 12
          12 12 12 12 12 12
          12 12 12 12 12 12
          12 12 12 12 12 12
          12 12 12 12 12 12
          12 12 12 12 12 12
          12 12 12 12 12 12
          12 12 12 12 12 12
          12 12 12 12 12 12
          12 12 12 12 12 12
          12 12 12 12 12 12
          12 12 12 12 12 12
          12 12 12 12 12 12
          12 12 12 12 12 12
          12 12 12 12 12 12
          12 12 12 12 12 12
          12 12 12 12 12 12
          12 12 12 12 12 12
          12 12 12 12 12 12
          12 12 12 12 12 12
          12 12 12 12 12 12
          12 12 12 12 12 12
          12 12 12 12 12 12
          12 12 12 12 12 12
          12 12 12 12 12 12
          12 12 12 12 12 12
          12 12 12 12 12 12
          12 12 12 12 12 12
          12 12 12 12 12 12
          12 12 12 12 12 12
          12 12 12 12
        </DataArray>
      </Cells>
    </Piece>
  </UnstructuredGrid>
</VTKFile>
