<?xml version="1.0"?>
<VTKFile type="UnstructuredGrid" version="0.1" byte_order="LittleEndian" header_type="UInt32" compressor="vtkZLibDataCompressor">
  <UnstructuredGrid>
    <Piece NumberOfPoints="780" NumberOfCells="454">
      <PointData>
        <DataArray type="Int32" Name="libmesh_node_id" format="ascii" RangeMin="1278" RangeMax="5063">
          1278 1279 1280 1281 1282 1283
          1284 1285 1286 1287 1288 1289
          1290 1291 1292 1293 1294 1295
          1296 1297 1298 1299 1300 1301
          1302 1303 1304 1305 1306 1307
          1308 1309 1310 1311 1312 1313
          1314 1315 1316 1317 1318 1319
          1320 1321 1322 1323 1324 1325
          1329 1330 1331 1332 1333 1334
          1335 1336 1337 1338 1339 1340
          1341 1342 1343 1344 1345 1346
          1347 1348 1349 1350 1351 1352
          1356 1357 1358 1359 1360 1361
          1362 1363 1364 1365 1366 1367
          1368 1369 1370 1371 1372 1373
          1374 1375 1376 1377 1378 1379
          1383 1384 1385 1386 1387 1388
          1389 1390 1391 1392 1393 1394
          1395 1396 1397 1398 1399 1400
          1401 1402 1403 1404 1405 1406
          1410 1411 1412 1413 1414 1415
          1416 1417 1418 1419 1420 1421
          1422 1423 1424 1425 1426 1427
          1428 1429 1430 1431 1432 1433
          1437 1438 1439 1440 1441 1442
          1443 1444 1445 1446 1447 1448
          1449 1450 1451 1452 1453 1454
          1455 1456 1457 1458 1459 1460
          1461 1462 1463 1464 1465 1466
          1467 1468 1469 1470 1471 1472
          1473 1474 1475 1476 1477 1478
          1479 1480 1481 1482 1483 1484
          1485 1486 1487 1488 1489 1490
          1491 1492 1493 1494 1495 1496
          1497 1498 1499 1500 1501 1502
          1503 1504 1505 1506 1507 1508
          1509 1510 1511 1512 1513 1514
          1515 1516 1517 1518 1519 1520
          1521 1522 1523 1524 1525 1526
          1527 1528 1529 1530 1531 1532
          1533 1534 1535 1536 1537 1538
          1539 1540 1541 1542 1543 1544
          1545 1546 1547 1548 1549 1550
          1551 1552 1553 1554 1555 1556
          1557 1558 1559 1560 1561 1562
          1563 1564 1565 1566 1567 1568
          1569 1570 1571 1572 1573 1574
          1575 1576 1577 1578 1579 1580
          1581 1582 1583 1584 1585 1586
          1587 1588 1589 1590 1591 1592
          1593 1594 1595 1596 1597 1598
          1599 1600 1601 1602 1603 1604
          1605 1606 1607 1608 1609 1610
          1611 1612 1613 1614 1615 1616
          1617 1618 1619 1620 1621 1622
          1623 1624 1625 1626 1627 1628
          1629 1630 1631 1632 1633 1634
          1635 1636 1637 1638 1639 1640
          1641 1642 1643 1644 1645 1646
          1647 1648 1649 1650 1651 1652
          1653 1654 1655 1656 1657 1658
          1659 1660 1661 1662 1663 1664
          1665 1666 1667 1668 1669 1670
          1671 1672 1673 1674 1675 1676
          1680 1681 1682 1683 1684 1685
          1686 1687 1688 1689 1690 1691
          1692 1693 1694 1695 1696 1697
          1698 1699 1700 1701 1702 1703
          1707 1708 1709 1710 1711 1712
          1713 1714 1715 1716 1717 1718
          1719 1720 1721 1722 1723 1724
          1725 1726 1727 1728 1729 1730
          1734 1735 1736 1737 1738 1739
          1740 1741 1742 1743 1744 1745
          1746 1747 1748 1749 1750 1751
          1752 1753 1754 1755 1756 1757
          1761 1762 1763 1764 1765 1766
          1767 1768 1769 1770 1771 1772
          1773 1774 1775 1776 1777 1778
          1779 1780 1781 1782 1783 1784
          1791 1792 1793 1794 1795 1796
          1797 1798 1799 1800 1801 1802
          1803 1804 1805 1806 1807 1808
          1809 1810 1811 1818 1819 1820
          1821 1822 1823 1824 1825 1826
          1827 1828 1829 1830 1831 1832
          1833 1834 1835 1836 1837 1838
          1845 1846 1847 1848 1849 1850
          1851 1852 1853 1854 1855 1856
          1857 1858 1859 1860 1861 1862
          1872 1873 1874 1875 1876 1877
          1878 1879 1880 1881 1882 1883
          1884 1885 1886 2184 2185 2186
          2187 2188 2189 2190 2191 2192
          2193 2194 2195 2196 2197 2198
          2199 2200 2201 2202 2203 2204
          2205 2206 2207 2208 2210 2211
          2212 2214 2215 2216 2218 2219
          2244 2246 2248 2262 2263 2264
          2265 2266 2267 2268 2269 2270
          2271 2272 2273 2592 2593 2594
          2595 2596 2597 2913 2914 2915
          2916 2917 2918 2919 2920 2921
          3336 3337 3338 3339 3340 3341
          3582 3583 3584 3585 3586 3587
          3688 3690 3692 3699 3700 3701
          3702 3703 3704 4161 4162 4163
          4164 4165 4166 4527 4528 4529
          4530 4531 4532 4536 4537 4538
          4539 4540 4541 4671 4672 4673
          4698 4699 4700 4701 4702 4703
          4725 4726 4727 4770 4771 4772
          4884 4885 4886 4905 4906 4907
          4983 4984 4985 5034 5035 5036
          5061 5062 5063 1863 1864 1865
          1887 1888 1889 1890 1891 1892
          1902 1899 1903 1900 1904 1901
          1905 1906 1907 1908 1909 1910
          1911 1912 1913 1914 1915 1916
          2209 2213 2217 2245 2247 2249
          2526 2525 2530 2529 2534 2533
          3234 3235 3236 3237 3238 3239
          3300 3301 3302 3303 3304 3305
          3366 3367 3368 3663 3665 3667
          3687 3386 3689 3389 3691 3392
          3705 3706 3707 3939 3940 3941
          3942 3943 3944 4467 4468 4469
          3455 3458 3461 3210 3120 3212
          3124 3214 3128 4441 4443 4445
          3119 3123 3127 3231 3232 3233
        </DataArray>
        <DataArray type="Float64" Name="resid_x" format="ascii" RangeMin="-5.159937414422987" RangeMax="1.3231752483410089">
          -2.0142373112954317 -2.5968323040552095 -4.050955214144736 -5.159937414422987 -1.7964267996124477 -1.56789125799048
          0.027480622566527835 0.00042244802719082486 0.06652619757119371 0.009618719131495368 0.07187826262806318 0.0031789015924825748
          -0.05238020517173858 -0.0006674703452320685 -0.12233046168601103 -0.007451578180525331 -0.08086716789457338 0.0022683315686657934
          0.000602609956268374 0.0003236309277490079 0.002730251721630772 0.00020085666744940056 0.007732285805833072 0.0009094145358394812
          0.010427529980900907 0.0023134764198191604 0.010429839473473201 0.002425780273745737 -0.003110602301135579 0.0013676280888770265
          -0.010164335668954472 -0.0008024617472344175 -0.014336827646117989 -0.0018661174228009614 -0.0008313932455212836 0.0009617808270334649
          0.0022864513274942766 0.0009753948037269922 0.0007296291415128664 -0.00018101389237212828 0.00024149243018989353 -0.00010619935519340373
          0.005249959523387915 0.0025001052988455896 0.00480426122762001 0.003432313216389815 0.0011713884051136603 0.002229317318663604
          -0.20245001897155568 -0.3638219498555664 -0.08268924164758396 0.3415191373719977 0.6392541449533522 0.22826829234880996
          -0.2291456078900298 -0.456014986732848 -0.2097470729784594 -0.1250582560734559 -0.2449572366119268 -0.10335318711794139
          -0.092302636906056 -0.18687416674451818 -0.10555729991746698 -0.0001514146179353304 -0.0030056935513047556 0.0005486762583046811
          0.003783824492181509 0.0023061788921090454 0.0009318401355646877 0.004092536973888894 0.005385936046006012 0.000399838046675427
          0.07490980006783943 0.16096090270008645 0.10615834199266239 0.5135897944624648 0.9960886028035452 0.454923443379454
          0.0013556466939181888 -0.009448209206053715 -0.010164772274972922 -0.4040869153448452 -0.812000864613494 -0.404878074729659
          -0.16472235672582336 -0.3114214140985059 -0.1393822885469227 0.0021110261537695685 -0.0008086760363417156 0.00021492311349380344
          0.005795570428828611 0.006072266572956231 0.0003483884870858489 0.004314543222761369 0.005025452175021261 -0.0017904208110430808
          0.0020106686605334545 0.0027175235526470942 0.0032525103159990465 0.6509766719735874 1.2827502433512554 0.6288542487056827
          0.045878030854048735 0.07072608548868287 0.02084796005534706 -0.6266180264078476 -1.2175603454008597 -0.5842075348507154
          -0.05251097438009378 -0.1017982442673695 -0.044288832548817325 0.0029240970096156005 0.0007404629293974452 -0.0006536119394002782
          0.007413383169963872 0.009208733077436193 -0.0005152268854518027 -0.00019620031906875113 -0.0012374075070429313 -0.002473282200273985
          0.0022781786118954983 0.004838254517913754 0.0032147775362396658 0.6755518163564105 1.3231752483410089 0.6423029928937929
          -0.12476389818750588 -0.2768517583219099 -0.15720682733725466 -0.5281008371259133 -1.0090802597763142 -0.470501332575473
          0.004372754632064879 0.0062862315692400195 0.006483170354827372 0.005130330307905773 0.007019004433967524 -0.003092393357994716
          0.0002334977936171434 0.00004323608993228589 -0.0029137041949827136 -0.0014724493383719839 -0.0038955601198984446 -0.0047840492280117886
          0.2527069602496539 0.5005318293749035 0.24843162872430824 0.36561315429825614 0.6982663825578315 0.3251919087479189
          -0.44763881346607626 -0.8973781057906427 -0.44668402138348373 -0.158291433503579 -0.2989785801776339 -0.13389653603752993
          0.0015775394601962311 0.0011393157578134527 0.0016361272006868433 0.004158444914035719 0.004052602618930923 -0.0048439229735857126
          -0.00024135768074318165 -0.0016923541774058748 -0.004466860684729568 -0.0008073523645171221 -0.0032642996578782224 -0.003776652839055483
          0.23848442926026614 0.4747487160965598 0.2380469533957701 0.40579030802796723 0.7872051077359039 0.37627941957644895
          -0.27593807952079574 -0.5731145328171721 -0.30294859508594696 -0.36521535391230664 -0.7059267120472077 -0.3330467261787149
          -0.0008708271625903485 -0.006132782453694308 -0.002948599814972752 0.0026536487878869863 0.0025147832826748484 -0.002975639783714179
          0.001047280915237092 -0.0015581311751939886 -0.004854558277863852 0.002166602481773694 0.0002833631546597104 -0.0035693378698820055
          0.0007749989787968481 -0.00212188271995295 -0.004092013974378972 0.6043951376531123 1.195640742829566 0.5905378248191706
          0.044505815919695824 0.05471739856800717 0.0012214868948854374 -0.5817860382806264 -1.1392271474086417 -0.5559528808662035
          -0.055050066925242724 -0.1046592944436977 -0.04607190955295959 0.001433593771466235 0.0000669123876329003 -0.0028895377085138563
          0.002121291180348539 0.0015707208149531304 -0.003953151292356072 0.0013015872825428154 0.00020658970334697102 -0.004524375186682583
          0.001276055934178899 -0.00027515185586768354 -0.004490173087616345 0.0011839905477235568 -0.00021938297235202242 -0.00395345397687219
          0.6258382958224491 1.2222493800660086 0.5894777213630169 -0.2047500619985505 -0.4366740409475307 -0.23793428331236965
          -0.4012878174695178 -0.7586133291962458 -0.3514051163921801 0.002315488724062398 0.002185069921968097 -0.0037320193109833255
          0.0014218054744206121 0.001446961066741359 -0.004223609085873825 0.0009769667924297565 0.00031114635436724214 -0.005280665444282295
          0.0007636633084375788 0.00030728612137842504 -0.0050200156000177465 0.001304667370745527 0.0012224733396557497 -0.0034044555339312055
          0.0011592307024481663 0.0009387394213971056 -0.0036111453420493156 0.39788086868081507 0.755390516279931 0.34711770203640846
          -0.4202671070340793 -0.8217389351498596 -0.3977214526426409 -0.06868436819949375 -0.12207013586510307 -0.05526845391501034
          0.0017224173354168926 0.0023339613156454497 -0.004109317786106459 0.0000769494011274574 -0.000049386498869541384 -0.006287112825615004
          9.396750844103963e-7 4.57429627509498e-7 -0.0063007951594702405 0.000511882464432567 0.0005549274939022908 -0.005476662605798488
          0.0005421371674225739 0.0004084225543294906 -0.004075454357699737 0.0008753965936381114 0.0009157064625600064 -0.0036866386841998278
          -0.17481406961716672 -0.379674466925195 -0.2107020680955678 -0.2295164148433213 -0.41407802170399144 -0.17929977582300083
          0.000307927589616952 -0.0005218908392383703 -0.004586357009647379 -0.0008181339132469212 -0.0015777323275614208 -0.006718455189215433
          -0.0005588783609784542 -0.0005447110030760705 -0.007490574414063644 -0.000295444153315394 0.00015150944869013472 -0.0069437534378975485
          -0.0007659783396354314 -0.0005278099536045744 -0.006057673023497578 -0.0003614238574387585 -0.0002699437581901165 -0.004697108263738592
          -0.000008579611558090505 -0.00023126699695197317 -0.0036401485618346996 -0.4054064856980908 -0.7763481769879128 -0.36491417307740015
          -0.01601578083199673 -0.026119360582569584 -0.014486570566258017 -0.0016612160650768537 -0.003494254484800674 -0.007794351814393252
          -0.0018859089888647596 -0.0028151119371853106 -0.00867606792676412 -0.001502619872297828 -0.002638021804468149 -0.009313083422326063
          -0.0020385679620424924 -0.0021120649023091964 -0.00828906788800099 -0.0017081254259379008 -0.001778475198438656 -0.006421733294860843
          -0.0007688608711440281 -0.000934216680378519 -0.0042097073622588965 0.00011262310322113223 0.0006476472507301878 -0.0012141816133617311
          -0.19331135888864104 -0.3418284504449858 -0.1458807487278655 -0.0009005023667278955 -0.0022526833573359717 -0.0062788721705056005
          0.0006133342082104143 -0.001069960373180301 -0.008259876551990786 -0.0026516500906610396 -0.002513535523431809 -0.009914289132111342
          -0.0013550257968129031 -0.0022549654461294644 -0.009769334310416156 -0.0023321405424825414 -0.002323296436157918 -0.0080801353135862
          -0.0009032717474868335 -0.00037551643757716135 -0.005133569700992879 -0.00017571151306672306 0.00017174697274402462 -0.002743342260842496
          0.0001340451125191322 0.0011404249549631373 -0.0006800031209044377 -0.01150715007531744 -0.017626641769615148 -0.010086581357223068
          -0.0018779332810430205 -0.0014430439461747824 -0.008091385236506987 -0.0008054487478950101 -0.002808992368962482 -0.010132854711891515
          -0.0030372119133268427 -0.0028209696886642988 -0.009842464094552916 -0.0026461434074862566 -0.002759965196446945 -0.009816285460193086
          -0.0017980509434147862 -0.00124467384551874 -0.007099020761235586 -0.0007499251144507113 0.00010992668741671707 -0.004168965694799631
          -0.0001617701537224292 0.000979569695116922 -0.0016758562177185965 0.000006482393559714694 0.0014023988543092614 0.00021092570495007124
          -0.0012403418850617243 0.0013142955651623822 -0.008617530327146739 -0.005806889737348442 -0.0027028405580642456 -0.009539552527272122
          -0.0006049078392771357 -0.007335687941866453 -0.012994429556799414 -0.0013440120255339139 -0.0028636330324829373 -0.009969231432393144
          -0.0011926338684942195 -0.0007914778830713232 -0.0068652978169359 -0.0016114652058893952 -0.0009751389330636684 -0.0034977154293791557
          -0.0008439893302583101 0.00048284351012295446 -0.0011415228896929364 -0.000922595565270079 -0.0001606151948809753 -0.00029135099414689947
          -0.0018321408350310264 -0.00419817573176573 -0.01382343951890519 -0.007929319133472834 -0.0015306757021078532 -0.007299581656071474
          0.008437157831499675 0.0005776446041938499 -0.014430120370416688 0.0001702359026074518 -0.00041209899813043904 -0.007577257685222882
          -0.0021433283870679887 0.0006453992607102776 -0.005009667314916477 -0.0012278629851376621 -0.001179044663910389 -0.0023902311548207322
          -0.001433421481513264 -0.0008327104351710801 -0.0008796221446312202 -0.0007071555519013728 0.0008934428058484656 0.0010791129274236866
          -0.0007335568436079853 -0.005628605250496577 -0.015268670672540452 -0.0064077399838882165 -0.0014871954910522511 -0.008194051497418808
          0.006491491166785046 -0.0023263234071952965 -0.014512133136709515 -0.0021570541949049726 0.001600811275126901 -0.004774999308792438
          -0.0017321551071347585 0.0017301916934542305 -0.002458158345632455 -0.0011515785588329663 -0.00014148243580702768 -0.0007419583743928371
          -0.0016531172442864062 -0.0006848749505365959 -0.0000948996559566595 -0.002014018425271935 -0.0005524567257051416 0.001314990334608801
          -0.0019162610233030009 -0.0036656675185522403 -0.009589941048256279 -0.0021020126409085904 -0.0005226386440959629 -0.009072973332597378
          -0.003347184453294183 -0.004534011283211292 -0.010641413581740089 -0.002580142227807336 -0.0012282181149680937 -0.0047392933652616875
          -0.0010421407603979915 0.0015343249666885939 -0.001078421178974942 -0.0007118761282773889 0.0018226767516962283 0.00095635081451384
          -0.0012690570729727568 0.0009253639762638599 0.0015105098885141999 -0.001253256639074607 0.0013351667599952322 0.002670755251696022
          0.00009800457639741467 0.003542028077312409 -0.0051515536340591694 0.001098623562271861 0.005108772714566001 -0.002731980478870355
          -0.0008518667501729027 0.0020746654603964743 -0.001446391100917488 -0.0007097478897648557 0.0027153550068081955 0.00033528340071509177
          -0.0002732324878671477 0.0027683966430167573 0.0021154645997718546 -0.0014922467767304326 0.0012515755712882992 0.0026849856665140948
          -0.001111383686712486 0.0015681825884126255 0.0040875651668028645 -0.0041288613030960875 -0.005029344462990082 -0.005071132482878937
          0.00018190018750630088 0.0030105106569218165 -0.000411473975915122 0.0010640578573113402 0.0071826363681726235 0.0031646844633188564
          0.0014196043512111345 0.006989452918952033 0.0036100965960033093 -0.0011200915589864024 0.0021021786945354393 0.003425095970685632
          -0.003403806599846959 -0.0019848886343210026 0.002533343349782058 -0.003945877108523899 -0.003672530220082404 0.003427598771720941
          0.00019020356157106733 0.0015082971490443242 -0.0005555109146051507 0.005627201354853284 0.013976244842957009 0.007930238414618707
          0.002468303875297728 0.0095040303139724 0.006349020801083682 -0.0015516119679901408 0.0022294148441499573 0.003954492835196
          -0.0036777298587669094 -0.002828590724473834 0.0029052897478738515 -0.006102342938536509 -0.007481736604050937 0.0018483649337195374
          -0.004187092994644814 -0.008731868852439817 -0.0032196560290174148 -0.00821296372384861 -0.011883216007213093 -0.000770374448599398
          -0.007828047904293811 -0.012395466049702542 -0.0009513890599039954 -0.004184912540554642 -0.0022435715175008752 0.0037959700713390276
          -0.0022423168114906744 -0.0032689253858046996 0.004429293923347011 0.00016431046854492593 -0.0018155451085859475 -0.0006976564739056279
          0.00022805478781595667 0.0008504909711319897 -0.0019555052577908683 -0.00021392869518166435 0.000011980062349259413 0.00591704773772328
          0.0004115941990150418 0.0007186992109300405 0.0031199654788460762 0.0006058151694849911 0.0027010860841087947 0.0007017671524502944
          0.00023539708354380906 0.004290056102711048 0.006395150929585647 0.0008697627888283321 0.003995217677123186 -0.0013464185701730358
          0.00046924861058483813 -0.004453329489125579 -0.004485856698510204 -0.001245189102793809 -0.005495119109493629 -0.0026190398109928736
          -0.002827250717394314 -0.00887851863133271 -0.0038136951598986 0.005898562794927287 0.003953881181737451 0.003947076470062427
          -0.0025098052108418756 -0.0043087113648763165 0.00010030199699873066 0.00015838860989525472 0.0005432022465114983 -0.0004987463243097956
          -0.0007615822418571838 0.0007092795725158751 0.0008622363892580864 -0.0010170751070366357 -0.0011295603577989866 0.00004943731651430028
          -0.0015694272161015377 -0.0008902421434160424 0.001326021944876743 -0.001507698846263228 -0.0021205081463389064 0.00009296362722110985
          -0.004206523133116313 -0.005213699660229665 -0.007556675218966191 -0.0008231129526636849 -0.001629049155712714 -0.004314266621126883
          0.00018227550057137165 -0.0027702529449502578 -0.006972577973122895 0.003264630252055589 0.0020232852029451465 0.0013925856085990063
          0.0015488315499276872 0.0045298054836782065 0.0007560931266090698 0.009231055530795285 -0.004235430014445374 -0.0032695178338602027
          -0.001794768024894533 -0.004356437543771352 -0.0001989909350964547 -0.005271362500692378 0.006683152945048287 0.005134126505700776
          0.001504492320351325 0.002794331638900971 0.00036865302128408217 0.00004543183971161824 0.00046093471137087505 0.0025170386891666396
          0.0030367312939727498 0.005593993101667749 0.007106648621268086 -0.0023951601084251095 -0.0022251971392570624 0.0005303594820853519
          -0.0003852102722654571 0.002721120651687059 0.0033271252493012327 -7.238784961449696e-7 0.00010980797546500387 -0.0008917469063358663
          -0.00007479267993915073 -0.0017289057332831037 -0.0012965155069291079 0.0013025296005841902 0.0013618840877228644 0.0010312110094501392
          0.002226877896557733 -0.0027157288066437246 -0.0008102313871801714 0.003909946993271518 0.0020050908401856304 -0.00685372013696961
          0.0025590283990393203 0.0014264959123986287 0.004080270650756557 -0.005606662989085631 0.0011255800462928178 -0.007859793960376615
          0.0015512627831419934 0.0016121619781985785 -0.0005992225934621231 0.004097437813864069 0.006160569216504985 0.0022275315923718786
          -0.0029223292956350733 -0.0019093371616452082 0.0013998314771193066 0.0034126308860478183 0.00044949626623091987 -0.0013889864688771958
          0.005926746042171693 0.01090421101484651 -0.0017135724493657634 -0.004442431233146138 -0.007889325163696448 -0.009521751438903436
          0.006704664566748786 0.010669843574053317 0.0023265466650714828 -0.003600079573614856 -0.007735609383722419 0.002262135356675188
          -0.001287806511027334 -0.005124508479529055 0.0016974569913577042 -0.0005448162013310665 -0.0020649107530825717 0.0030178804353351296
          -0.002985817563465165 0.0010619768922950357 -0.006581313473730699 0.0020050550105299436 0.0022536983615228934 0.006639022249218307
          -0.0029788467491931314 -0.004770035944880124 0.003306834715165241 -0.001239131619127587 -0.0003665032879327512 0.005289491168003924
          -0.002998258624883565 -0.003182514973632422 0.0041344373761260655 -0.0009424783108840096 -0.004347551406632455 0.0007246921761865366
          -0.008021935227498389 -0.012093249057517852 0.001640192441422883 -0.006601714032239414 -0.009683421156026384 -0.0006992226513826694
          0.0007700999675055442 -0.002828378935530118 0.0009051859309820998 -0.0063466313017706 0.0019843688724723307 0.0028831336467023405
          -0.003524257506266615 -0.0027601896833928663 -0.006554890166716731 -0.0047983725043554415 0.0004712911394300079 -0.00043354566208542167
          0.001493311356906446 0.0036222205165401533 0.003192342614806165 0.00855459324781549 -0.000314227610392237 0.0024678455395790166
          0.0016284590991944015 0.0032508051331809895 -0.004089217685985247 -0.005668396759348937 -0.008501992658237256 0.0009628220128732323
          0.0019116883789020989 0.001050743286937994 0.001841068857292072 0.0017288278230065401 0.000010480138320723142 0.00010370631658407348
          -0.0011384734776465066 -0.00020224359420595306 0.004816945551713303 -0.006124873735130265 -0.006070300490935487 -0.011151332223358068
          -0.010947487750819107 -0.0018062219203649477 -0.0011770490876692463 -0.004088555679535144 -0.004175623728691846 0.004632557046190922
          0.0018455831823711577 0.0031265679795922097 -0.005180879168138475 0.0020841137759486372 0.014617850638025232 0.015205944040236119
          0.0286669253847478 -0.008044429534542097 -0.012440837802900617 0.0040521608045001045 0.010258337402198947 -0.0019929692148501488
          -0.0024354703725872895 -0.006261514642286414 -0.01424824167334826 -0.006239096427202995 -0.007325545869848682 -0.001195713415450328
        </DataArray>
        <DataArray type="Float64" Name="resid_y" format="ascii" RangeMin="-2.054461822421464" RangeMax="1.765669344450503">
          0.8715568588557356 -1.0692687187884007 1.765669344450503 -2.054461822421464 0.010364824557037883 -1.8911539164322113
          -0.063996405595561 -0.15534165424218016 -0.12511657316678906 -0.21994644178288178 -0.06744401976177217 -0.05745170726921783
          -0.045325132232094785 0.12494616186015924 -0.09404454840091617 0.29508862894996785 -0.061509949724842194 0.1794952114556315
          0.0004896123262701085 0.14710010481823343 -0.00014085766181552717 0.2942122021017626 -0.0028799232195061003 0.13633786053276326
          -0.0008931274405309386 0.13039435512327652 -0.002980183234248736 0.24768206886994623 -0.010814241057396423 0.109501485083342
          0.005082910356772635 0.08749617081062389 0.007773476005752164 0.12422513585185516 0.001686967763340888 -0.010876616820484741
          -0.0015625806591698932 0.04856867142846147 -0.0033176600835483627 0.01620282129849482 -0.0029681238951495825 -0.12008259392868399
          -0.0001390352192250921 0.10791944217141985 -0.0013110325753108304 0.1090419268333121 -0.002037475077839912 -0.01912006177939829
          0.14873851736058918 0.24101210325163414 0.04821805049039497 -0.19181927805064458 -0.3894308767437065 -0.22897739647878132
          -0.19507851353084377 -0.3798221809059776 -0.16343490225398 -0.16455587514892994 -0.32010309476032167 -0.15203696865083044
          -0.03800412057332089 -0.0700353724779139 -0.02234452513120503 0.002760670707828261 0.00479307803150357 0.002228152453682103
          -0.0007481489293964805 -0.0020767276070500496 -0.0009277201904564214 -0.0024720553760046726 -0.0042425589726114155 -0.001248830076437002
          0.01929508614061659 0.06031880601966272 0.08363750848201641 0.04195158870003024 0.09667256948308667 0.06388212250699904
          -0.08914812097656222 -0.17519170585126573 -0.08471169416571331 -0.036724119752436175 -0.06920236888649724 -0.031213031302927033
          0.03387415669131788 0.06699291572521728 0.030758577478495697 0.003366969121445934 0.006361599594902706 0.0029368410935479983
          -0.0004074106566255009 -0.001007076470149748 -0.00026813540600850727 -0.0005327735029631298 -0.003123580610005533 -0.0005995299360351258
          -0.002052559659614584 -0.001492274314474764 -0.0007980486701816246 -0.011737875552187735 -0.02055373921964937 -0.009902715501137124
          -0.020725368454246412 -0.037490269504719925 -0.01684690316474352 0.05335647371556447 0.09395129324186426 0.04168697721769288
          0.028382444382619082 0.05030216910903107 0.024670653725415354 0.0031405663241777515 0.0070604078852441465 0.0039059120307525785
          -0.0007642031948934258 -0.0008613045683513731 -0.0002835785451857087 0.00009921780064867797 -0.0006088815862849636 -0.0004434606398511509
          -0.0015703323106596306 -0.0009685457912755671 -0.0014691717987439512 -0.002863304022092228 -0.0019329279184141929 0.00026337231943632244
          0.07329758140983256 0.1493324293573309 0.07263461692558149 0.09006584193874992 0.18319369587788747 0.08391177944155587
          0.0023138153337042555 0.007702021859103764 0.0046311773699507786 0.00297579381816937 0.006446510129276217 0.002794292287252087
          0.0016107913935346774 0.0028010917927426826 0.0011045806928778323 0.0008586265486386635 0.0008414705723152338 0.00035646402982475456
          -0.13837218880317642 -0.2698856482633085 -0.13281848494640025 -0.11869331852299186 -0.23071318557071946 -0.11322720867441402
          0.15129677675098804 0.2899470395083737 0.13264273213266925 0.08323493240843005 0.15649134846667725 0.0696255252294995
          0.00026622914411761345 0.0010868690184284713 -0.0016706679979823225 0.0016325690454122577 0.003775814559450197 0.0006127171944311782
          0.0011931576517684728 0.0014371440211065623 -0.00013232317465006194 -0.001344755927069563 -0.001643841129342627 -0.00008201465915302908
          -0.12949715156339184 -0.2590325530267203 -0.12980317261470803 -0.18271649546635518 -0.35753454869109536 -0.1762158249601208
          0.057412476025823445 0.11793783747965768 0.05748199607381543 0.10891528535699235 0.21154998931372587 0.097514007532437
          -0.0016321078024851 -0.002976985562660295 -0.002912410595400927 -0.001402697767072414 -0.00307728517198258 -0.0030629775653168156
          0.0009265750870370293 0.0017500976039730443 0.00022987164970372786 0.0007865407466571273 0.0021924330133397674 0.000923943924640791
          0.00037485911899970414 0.0019669755189065663 0.0017300550596586195 -0.03802156274566004 -0.07104197457426698 -0.03292516793510794
          -0.007355005731833564 -0.0048998736377263985 0.0013318426191019639 0.10201750694927186 0.1970431969459563 0.08972499367931103
          0.037080889779300796 0.07036742759326059 0.029076698796526357 -0.002230576124185313 -0.0023129537462038274 -0.002823662076823774
          -0.000739709246360909 -0.0004313808592479318 -0.0012295889757411027 -0.000054847433641203036 0.0005781238565105151 -0.00030084355904286264
          -0.00020414095271797938 -0.0002913729563870371 -0.0003141678371584855 0.0001577484040681254 -0.00038731983324674646 -0.000387467120360363
          0.006218767775787837 0.019668228014251152 0.0117845947910655 0.10751271776813881 0.2188796382538507 0.10552941136728566
          0.10081622150551733 0.19866653691825087 0.09076096596796318 -0.0017843265144791842 -0.00018252248767164359 -0.0024602183952636136
          -0.002043568183766442 -0.0015622351639733578 -0.0023539419337476053 -0.0011381002313283206 -0.00042986987090409823 -0.0008969501955807813
          -0.0006681669178250638 -0.00020016162936659088 -0.0006180303022214617 -0.00028151858084601855 0.000003952236260262865 -0.0002994280129010596
          -0.00006477104746815954 -0.00015109948078639857 0.000397907097902217 -0.04717410744400684 -0.08585223463556829 -0.03996878019471373
          0.12439198021055875 0.2364382974744557 0.10815850566509616 0.041350966856532445 0.07354014232328232 0.026414349759917743
          -0.003569632896121 -0.0037552437773567537 -0.004145231972954244 -0.0021872151759880776 -0.0016213324331089685 -0.002410212236453102
          -0.0012936565076525075 -0.0006163518812900559 -0.0013162357937097635 -0.0010839230754831064 -0.0009444109865170414 -0.000945769994982637
          -0.0006682749335926441 -0.0006139759682503299 -0.0006304838918965161 0.00015649991454325107 0.00048495461253833527 0.0005134806704716333
          0.04754484910597283 0.09645907780852227 0.045047427310703436 0.08341066159042224 0.1616199785107346 0.07015428058880907
          -0.007161973330994498 -0.010414306362250658 -0.007764936487412832 -0.004495763804027386 -0.0050645129913941545 -0.004549729504919442
          -0.0022097632331029016 -0.0014456379783222006 -0.0023297280645198093 -0.0011606309715066487 -0.0006241995837944492 -0.0013140962483241259
          -0.0008946371174791135 -0.0006658600574542817 -0.0008344430834510974 -0.0004239931069965619 -0.0001540664599050945 -0.00040559695676117835
          0.00006572314520942452 0.00023788061337979421 0.0002791580080226119 0.0594084714984186 0.11702923172972338 0.05178494650839596
          0.00605954545146814 0.009008037982802253 -0.0018421514578729759 -0.006436177735752002 -0.00851392700535436 -0.00731279327568185
          -0.004123024031573941 -0.004390091424785636 -0.004531770963740578 -0.0020620506898193502 -0.0010541111373473244 -0.002085940709228018
          -0.0009686854944647161 -0.000015153321843874856 -0.0008328887222139314 -0.0002518429654253529 0.00040769368801724104 -0.00028625771231499675
          -0.0006098365721244337 -0.0005066432435739399 -0.0004811210148412681 -0.000949307029193585 -0.0018618123691823661 -0.0009921037816725126
          0.07358446035917644 0.13716587778293154 0.05523589745962626 -0.006482539582599867 -0.008946703471191697 -0.006824271357832146
          -0.005412418988057666 -0.005858183844246523 -0.005380944603883275 -0.0030587314256280695 -0.0024004449074271905 -0.003247868062170145
          -0.0018632937260450455 -0.001008281834015079 -0.0018364360349111264 -0.000546419368383233 0.0003011197243518726 -0.0006836946197445459
          -0.0006597091226301643 -0.00024117307148416312 -0.0004916433239861295 -0.0003356684880073679 -0.00003376682755509841 -0.00017418312599678382
          -0.00042263274584890265 -0.0007711440112285473 -0.00041411109465960827 -0.003173264474542359 -0.008818629854333349 -0.007650626369338942
          -0.0077495056607459305 -0.009754327042333283 -0.006571954030402227 -0.0053485440446945365 -0.005138679022950843 -0.00443292082560498
          -0.002484462741965676 -0.0012651067560748297 -0.0023066736152451695 -0.0021386753334457498 -0.0008646995972023674 -0.001472050220897303
          -0.0006673213626917085 0.0003045142681445401 -0.0006220182907868965 -0.0004693380069580311 0.00007073439626309463 -0.0005423747569276716
          -0.0002520954211488258 -0.0002509310294329407 -0.00038777267339610427 -0.0003756954673485649 -0.0007897433126359335 -0.0002097005042253526
          -0.0036600431930016164 -0.0033149033291309804 -0.00379690309974956 -0.0012641718060513174 -0.0020153548543792033 -0.004222332785323801
          -0.003524125707471071 -0.0034803045000237898 -0.003732748302663902 -0.0013621252284480856 0.00037292675988265245 -0.0004624096101144004
          -0.00017295337757133877 0.0011043280547445022 -0.00037058391289063186 -0.00048567996998562235 -0.0002432836800424082 -0.0007055739035064165
          -0.0005684343008109105 -0.0006902108744783614 -0.0004846492071192421 -0.00023704942967331388 -0.00017625493853823393 -0.00005552497181185445
          -0.004313640422390463 -0.006587069744308227 -0.005771275530567277 -0.001106853470619562 -0.0002019009398807059 -0.002964969595183109
          -0.0053243760568317255 -0.0026585550318677376 -0.0016753982265161893 -0.0009302496327638909 0.0015837225456918347 -0.00006432982462173387
          -0.00024580155653701474 0.0010478041393472692 -0.00034642408429821914 -0.0008316173041992489 -0.0005676253454934832 -0.0007235148111163769
          -0.0002696746678508555 -0.000011292657427636188 -0.00016774953428724815 0.00030080315904956745 0.0009195532851328792 0.0003593267233425457
          -0.007743978265658702 -0.012321557676625572 -0.005475145019323502 -0.004575139950843798 -0.0032756379618219533 -0.0010869730128579835
          -0.004932305175937068 -0.0030739424873038046 -0.0011594479143197112 0.0011427133934632516 0.0029121961692677167 -0.0006763181613868297
          -0.0008814929962360947 0.0001802453188181983 -0.0007423775185392348 -0.0004885831884998693 0.0005048658884441171 -0.00019603868998802065
          0.00028993849862157806 0.001113993681276182 0.0002998453470437479 -0.00047003355230176846 -0.00039335322036770926 -0.00007181820592294663
          -0.010283837040851562 -0.016721430469302856 -0.009154618734765307 -0.000759934150513869 0.001213309936107132 -0.002571358886242714
          -0.0010260653075365722 0.0013240854046067674 -0.0007691503900681962 -0.0003483962770603616 0.0008711217827813006 -0.0007963936857852544
          -0.0009490382097744193 0.00009705016859501425 -0.0009641141892667016 0.0001520772701521511 0.0013945128557978914 -0.0000709587614395879
          0.0005512751048394327 0.0018800577776241223 0.0006578759105219656 0.0001971168275935603 0.001234817309088268 0.000757583979167642
          0.000015187074639044784 0.003105173896889357 0.0006915520890737326 0.000046507120402577984 0.0023225944426961687 -0.0010672422355246097
          -0.001271977499104425 0.0005479916058599849 -0.001163832849027338 -0.0002887063524644462 0.0016210551651973937 -0.0001594769249773087
          -0.0000070743102136838765 0.0013980936266767552 -0.00003237153547469562 -0.00012644875776901543 0.0009213585825310067 0.00013445635033559888
          -0.00007921744101252459 0.0008549984962721857 0.0003060223497250991 0.00008365010655003724 0.0013890397918623343 -0.0007963231489943601
          -0.0004928801761221579 0.002019071574129311 -0.0005485196561431649 -0.0016173434422085686 0.0004960986429084768 -0.000296811167655453
          -0.00019261138111087428 0.002053646933572628 0.00022962119756553268 -0.0007600866818411878 0.00020832290257349895 -0.000991238116937243
          -0.0017089881756538472 -0.00192871579569176 -0.0013488902805184333 -0.0026706118678659907 -0.003977915214749772 -0.0020460195118433555
          0.004133710469615137 0.006644375888257836 -0.0004951551121338826 -0.002796280680912505 -0.000918324938087578 -0.0008085243271730713
          -0.002311598666472403 -0.001220848750412118 -0.002364651492739067 -0.0005686450548901822 0.0006109968231532426 -0.0016299344029220286
          -0.000817250631310662 -0.00031858687137586994 -0.0011971341815689707 -0.0022576879621039048 -0.0027914957250174677 -0.0014365875579002152
          -0.009306364704789738 -0.013390788127993158 -0.004976478372694049 -0.0018499360719983482 0.00006722257336605475 -0.00045210586830018995
          -0.002681990719444971 -0.002800946388837655 -0.0038225874417134875 -0.0030412292702234334 -0.003627600637894801 -0.003393321910327929
          -0.0021014359901995183 -0.0029598487105674254 -0.0018765105241514979 0.0019088901519602741 0.0003679003541282866 0.00029919136401852786
          0.00064214056130249 0.0038031260693113106 0.0005417074849402292 0.00036566117813020826 0.0014118569106092438 0.0016457208501203524
          0.00044370890613507075 0.0006649610529115418 0.0010121947105237727 0.004113857293759571 0.0019389058241109907 0.0012452399325421845
          0.0005016242143168204 0.006975852725646492 0.004415328506659013 0.0017366661096882563 0.0003802620935348111 0.0030302300647391256
          0.002589108851736032 0.0009751440146747378 0.0007793514927724732 -0.00030749273088648277 -0.00057268472382066 -0.00011848873048700415
          -0.001069918608701509 -0.0010935665412790674 -0.00007352702414178958 -0.0012273901355988326 -0.0012470382613800624 -0.00019782331756815208
          -0.0003401646256367963 -0.0010278910075741665 -0.000722835497530383 -0.0016274019382306881 -0.0011512860020898574 0.0015722729816689124
          0.00042854285991739127 -0.0035411483527230947 -0.0019898848486541026 0.0028298651116862306 0.0001137930068222659 -0.0013097305840543694
          -0.0006844507488118767 0.0012816766679901864 0.000593597138951657 0.0010715685481449966 0.00027331006554753845 0.0023887980950776377
          0.0011796607570997986 0.002061971038026522 0.002337428161260202 0.0009641494361272152 0.00023843502847098463 -0.0008291795862228613
          0.001234775446805808 0.00032997015720315215 -0.0008418228668641836 0.0007723886982996947 0.00022124347023644297 -0.000632867702935247
          -0.0003694057392650274 -0.0013152941753201142 -0.0009064269226515265 -0.001126365731080492 0.001338684795619105 0.0009686447604119186
          -0.00017278698863953945 -0.0010750178569282343 0.0003834103330856431 -0.0017289807250614186 0.00023882822808085624 -0.0005966517222887324
          0.0017241961948977619 0.002224514830850774 0.0013552413285094211 0.0011750143820407066 0.0035288503351532524 0.0017325728939335955
          0.005484363071092513 0.001254841367277354 0.0030873939657410643 0.001173391488187181 0.0011632232010111154 0.002355070934569048
          0.002281461386001979 0.0014048120343321258 0.0013346731932810454 0.00031253974175713545 0.0017418741209754935 0.00046683196501638713
          0.0027401663241548198 0.0006757195795828105 0.0019177801800348698 0.000919756342207867 0.0016148614508377512 0.0015342693781327243
          0.0023914686470988544 0.0013596780674494102 0.0014929824009638076 0.0005693022414338111 -0.0014610155465510366 -0.0008248360219088591
          -0.002898233751865653 0.003017771904154448 -0.004765837606460155 0.004461066208298781 -0.001519504354125345 0.002699455551568808
          0.0014426752519694774 0.0010530034880689154 0.0007499359053344257 -0.0020212113067203386 -0.006277981784319708 -0.0014986540774796775
          0.00021418221331040432 0.001406976600498669 0.0006836420537591203 0.00023222777252468463 -0.0007962217241511693 -0.0012291180719675165
          -0.0004114797858231489 -0.0035754093093703365 -0.0004279245305555124 0.005057409986840011 0.008140234678072095 0.004160278182289923
          -0.00922174670423273 -0.012400287422586753 -0.003653784465232221 -0.0010787081152573985 -0.002910324311685364 -0.0016814142895169304
          -0.0017926843746558507 -0.004214643053892075 -0.0018554492641562614 -0.0011949852993538013 -0.0025866121195685654 -0.001411761040738646
          0.002619706054708182 0.0004058338414750784 0.002294597307715085 -0.002220709261099185 -0.00020256980374522282 -0.002318907706971962
          -0.0050357003310796955 -0.010923073890563018 -0.005997948187134616 -0.004004005375696118 -0.008266236390333415 -0.004437814614114299
          -0.0014549238303797063 -0.003547402531081989 -0.002746306594840542 -0.0009868488150260313 -0.0017598213738623247 -0.0008101242931123909
          -0.00270939073655152 -0.005076209614263 -0.0017610593040580658 -0.001250155943855663 -0.002518944582571292 -0.0005569663873632724
          0.0023409241420408004 0.002478679362163172 0.0033118329958955264 0.0059748804205375095 0.0018392935758125284 0.003379502409175783
          -0.00011526666806757624 0.00015767652384968134 -0.0023125736371918393 -0.0014967360235743632 -0.00005624056756131646 -0.0003851489806310504
          0.0013558634601724961 -0.0022423354565510034 -0.00012012961016505397 -0.0024542535290645873 0.002198200526874805 0.0019514448075157453
          0.002177149974715936 0.004096294693837765 0.0017537893014888395 -0.0013410276479219607 -0.0015009352137858867 0.00007191186286156781
          0.002833329632763948 0.0029683101943124707 0.00527316550227841 0.004503701651651648 0.0038464688650398093 0.004710906520211056
          0.006492599057259657 0.010273265468764226 0.005726830239149966 0.007617937760009255 0.005749536257154575 0.011310558858200065
          0.008975283862603156 0.0039044473326758575 0.004087241585919998 -0.0009999883015778255 -0.003419134365596155 -0.001975061261412836
          0.004498429164511264 0.00814390942865284 0.0040303535252489975 -0.6069230939188235 0.013740909886545971 -1.2600920758052792
          0.019199954227717697 -0.6930623801767682 0.0053790744925700795 0.0026682628172011447 0.0032750379847976685 0.003445536467523491
          0.01134083592720217 0.020774908293395122 0.006186325742255555 -0.000934351805168987 -0.001705855670071199 -0.00015355404560590813
        </DataArray>
        <DataArray type="Float64" Name="resid_z" format="ascii" RangeMin="0" RangeMax="0">
          0 0 0 0 0 0
          0 0 0 0 0 0
          0 0 0 0 0 0
          0 0 0 0 0 0
          0 0 0 0 0 0
          0 0 0 0 0 0
          0 0 0 0 0 0
          0 0 0 0 0 0
          0 0 0 0 0 0
          0 0 0 0 0 0
          0 0 0 0 0 0
          0 0 0 0 0 0
          0 0 0 0 0 0
          0 0 0 0 0 0
          0 0 0 0 0 0
          0 0 0 0 0 0
          0 0 0 0 0 0
          0 0 0 0 0 0
          0 0 0 0 0 0
          0 0 0 0 0 0
          0 0 0 0 0 0
          0 0 0 0 0 0
          0 0 0 0 0 0
          0 0 0 0 0 0
          0 0 0 0 0 0
          0 0 0 0 0 0
          0 0 0 0 0 0
          0 0 0 0 0 0
          0 0 0 0 0 0
          0 0 0 0 0 0
          0 0 0 0 0 0
          0 0 0 0 0 0
          0 0 0 0 0 0
          0 0 0 0 0 0
          0 0 0 0 0 0
          0 0 0 0 0 0
          0 0 0 0 0 0
          0 0 0 0 0 0
          0 0 0 0 0 0
          0 0 0 0 0 0
          0 0 0 0 0 0
          0 0 0 0 0 0
          0 0 0 0 0 0
          0 0 0 0 0 0
          0 0 0 0 0 0
          0 0 0 0 0 0
          0 0 0 0 0 0
          0 0 0 0 0 0
          0 0 0 0 0 0
          0 0 0 0 0 0
          0 0 0 0 0 0
          0 0 0 0 0 0
          0 0 0 0 0 0
          0 0 0 0 0 0
          0 0 0 0 0 0
          0 0 0 0 0 0
          0 0 0 0 0 0
          0 0 0 0 0 0
          0 0 0 0 0 0
          0 0 0 0 0 0
          0 0 0 0 0 0
          0 0 0 0 0 0
          0 0 0 0 0 0
          0 0 0 0 0 0
          0 0 0 0 0 0
          0 0 0 0 0 0
          0 0 0 0 0 0
          0 0 0 0 0 0
          0 0 0 0 0 0
          0 0 0 0 0 0
          0 0 0 0 0 0
          0 0 0 0 0 0
          0 0 0 0 0 0
          0 0 0 0 0 0
          0 0 0 0 0 0
          0 0 0 0 0 0
          0 0 0 0 0 0
          0 0 0 0 0 0
          0 0 0 0 0 0
          0 0 0 0 0 0
          0 0 0 0 0 0
          0 0 0 0 0 0
          0 0 0 0 0 0
          0 0 0 0 0 0
          0 0 0 0 0 0
          0 0 0 0 0 0
          0 0 0 0 0 0
          0 0 0 0 0 0
          0 0 0 0 0 0
          0 0 0 0 0 0
          0 0 0 0 0 0
          0 0 0 0 0 0
          0 0 0 0 0 0
          0 0 0 0 0 0
          0 0 0 0 0 0
          0 0 0 0 0 0
          0 0 0 0 0 0
          0 0 0 0 0 0
          0 0 0 0 0 0
          0 0 0 0 0 0
          0 0 0 0 0 0
          0 0 0 0 0 0
          0 0 0 0 0 0
          0 0 0 0 0 0
          0 0 0 0 0 0
          0 0 0 0 0 0
          0 0 0 0 0 0
          0 0 0 0 0 0
          0 0 0 0 0 0
          0 0 0 0 0 0
          0 0 0 0 0 0
          0 0 0 0 0 0
          0 0 0 0 0 0
          0 0 0 0 0 0
          0 0 0 0 0 0
          0 0 0 0 0 0
          0 0 0 0 0 0
          0 0 0 0 0 0
          0 0 0 0 0 0
          0 0 0 0 0 0
          0 0 0 0 0 0
          0 0 0 0 0 0
          0 0 0 0 0 0
          0 0 0 0 0 0
          0 0 0 0 0 0
          0 0 0 0 0 0
          0 0 0 0 0 0
          0 0 0 0 0 0
          0 0 0 0 0 0
          0 0 0 0 0 0
        </DataArray>
        <DataArray type="Float64" Name="stress_zz" format="ascii" RangeMin="-6197403.180971573" RangeMax="44148963.2095094">
          26043390.60017635 44148963.2095094 22687581.504724607 37169916.77097359 19331772.40927287 30190870.332437783
          4793064.338604158 7037535.598743258 3593782.001788145 4476190.235514727 2394499.6649721325 1914844.8722861963
          -979269.2187719599 -2920866.923251731 -411267.033020188 -1845369.2251002223 156735.15273158386 -769871.5269487139
          784056.5634984467 291574.18785869435 677109.8469752709 193111.21697092903 570163.1304520953 94648.24608316376
          -1014243.4012360575 -637831.4010308956 -1011037.1523883822 -705735.2741564992 -1007830.9035407067 -773639.1472821027
          -2616572.301132744 -2654411.8234155374 -2591080.3490473866 -2656915.9168967884 -2565588.396962029 -2659420.0103780404
          -774506.3735456532 -1712869.302449601 -1048913.3931802316 -1979491.401356419 -1323320.4128148097 -2246113.500263237
          -2347536.5948820496 -3248923.1668338017 -1636032.5942426939 -2900307.7073652265 -924528.5936033379 -2551692.2478966517
          5867610.335448494 6067805.476365563 6268000.617282633 3842602.6745029194 4043080.7195321876 4243558.764561456
          3751381.0882397294 3799490.604779712 3847600.1213196935 2898843.750448143 2733495.7173768426 2568147.6843055426
          -938451.5073371503 -874488.8873762108 -810526.2674152711 -2296268.9373765006 -2282679.27191257 -2269089.606448639
          -63570.96900623146 -316730.9813657505 -569890.9937252695 -15428.25927793316 508939.23112290015 1033306.7215237336
          2417011.5657765297 2445706.5233307625 2474401.4808849953 5355493.1268146485 5389300.671914985 5423108.217015324
          7495924.1237238785 7466392.219563261 7436860.315402644 4751767.805890562 4558984.5014120145 4366201.196933467
          -642481.5793717781 -620765.3080277827 -599049.0366837871 -1842946.8800215102 -1897525.7964380127 -1952104.712854515
          42728.13915097137 -176473.8512095593 -395675.8415700899 1905614.9010914804 1883997.9108472113 1862380.9206029417
          1115379.0578013163 1110276.3975202658 1105173.7372392155 5718340.542055287 5531221.453530577 5344102.365005866
          8187531.81423232 8066471.383749802 7945410.9532672865 4159128.790716552 4005521.61376012 3851914.436803687
          -1341429.7539545454 -1315185.08967402 -1288940.4253934948 -1357161.188719879 -1467415.4470889736 -1577669.7054580685
          870823.116442415 683828.4497898269 496833.78313723893 2126384.2463696115 2314806.5858021905 2503228.9252347695
          1577374.4233564837 1554741.7349576838 1532109.046558884 5798771.164286447 5573967.547614687 5349163.930942926
          6588795.70743442 6434900.3435398955 6281004.979645371 2065614.1415572315 1928102.270789577 1790590.4000219223
          -1900917.7913287214 -1835246.3560050062 -1769574.9206812913 -885595.7039387476 -1035171.6984098497 -1184747.6928809516
          1343830.9761120789 1187787.3778817235 1031743.7796513678 2006489.737163362 2371096.6928613028 2735703.6485592434
          3533476.981494949 3414484.2346732244 3295491.4878514996 6214352.536437877 6023981.966322419 5833611.396206958
          3728362.4174690894 3601977.479658404 3475592.54184772 -600302.3275803531 -678041.0128755552 -755779.6981707574
          -1870447.3491006366 -1793313.0292739838 -1716178.7094473308 -669518.5041938659 -829196.9908471082 -988875.4775003507
          1284947.3523221612 1153869.448107736 1022791.5438933106 2174150.4881339837 2516225.1378615205 2858299.787589058
          3218683.3348346245 3131883.9555635913 3045084.5762925576 6658928.100256197 6570154.871018461 6481381.641780724
          5951676.795499193 5805841.823354263 5660006.851209335 901067.8575887535 781871.495920063 662675.1342513727
          -1993443.345525815 -2000248.0598418799 -2007052.7741579448 -1681298.5626090951 -1593732.4185040032 -1506166.2743989113
          -408054.78759196366 -562460.6329660085 -716866.4783400539 1348897.9499668456 1260450.8118124893 1172003.673658133
          2045059.3085216493 2403566.3661466725 2762073.4237716952 5345658.575730706 5206863.535935574 5068068.496140443
          7751954.7732271515 7655495.486657187 7559036.200087224 3890071.3913590196 3730486.5220730123 3570901.6527870046
          -1226099.056830345 -1314091.0478126225 -1402083.0387949 -1876394.8932883604 -1859097.8976021984 -1841800.901916036
          -1292205.5730100994 -1213962.3049865207 -1135719.036962942 91152.63661506408 -56213.08460057981 -203578.80581622358
          1699713.2079847017 1642465.7842325072 1585218.3604803125 2120597.998975871 2475735.4159387266 2830872.832901581
          5331759.81194968 5103446.278978458 4875132.746007235 5201693.606726787 5043924.620603144 4886155.634479501
          859866.6150445599 726298.8281024818 592731.0411604033 -2074801.9850570285 -2093715.3231050821 -2112628.661153136
          -1570434.6487037123 -1543420.0678327251 -1516405.4869617382 -737938.2052270048 -685160.3881378447 -632382.5710486845
          695638.8281043913 532301.0324670211 368963.2368296511 2336354.5052411202 2265992.572838391 2195630.6404356617
          2847216.008864997 3166703.402519541 3486190.7961740852 4475629.804917657 4225853.191539615 3976076.5781615735
          1577428.2989921183 1441702.4821507197 1305976.6653093211 -1844283.8230118447 -1872787.0052221334 -1901290.1874324223
          -2077662.1186876418 -2073443.7972326367 -2069225.475777632 -1107746.072014365 -1090697.6122122682 -1073649.1524101715
          22593.352090152504 42090.431427248 61587.5107643435 1375099.0918691524 1231499.1159333212 1087899.1399974904
          2835891.7814502167 2787055.4232525714 2738219.065054926 3561474.3025758495 3764078.370942073 3966682.4393082974
          2780999.7111992226 2657333.981149256 2533668.2510992894 -1160872.1496290849 -1251690.3633237197 -1342508.5770183543
          -2811258.3263559053 -2773371.092238019 -2735483.8581201327 -1873294.825147179 -1854725.3655969196 -1836155.9060466597
          -480774.97026509757 -480055.49540856323 -479336.0205520291 861855.6638424877 858162.2745316026 854468.8852207174
          2032205.2798910486 1954081.067119469 1875956.8543478898 2566382.4392591026 2555184.895409631 2543987.35156016
          3578582.765345704 3713869.132515279 3849155.499684854 381798.9440370586 303223.38555871067 224647.8270803627
          -2818200.7374841496 -2837020.2709065736 -2855839.8043289967 -2604328.008895224 -2577768.677168383 -2551209.345441542
          -1302251.8721655996 -1293043.9645137123 -1283836.056861825 279968.86736805376 266262.4333686753 252555.99936929677
          1546327.9099228655 1536240.4949722453 1526153.0800216245 2374995.9575931276 2316039.650743152 2257083.343893177
          2726334.1135849208 2673150.018229244 2619965.922873567 3698689.5904877284 3824770.313568949 3950851.0366501682
          -2114825.678803965 -2208870.7751614964 -2302915.8715190277 -3428398.051089761 -3354669.3306555497 -3280940.6102213385
          -2124261.6118566766 -2110556.297186488 -2096850.982516299 -421426.93047551654 -434444.87999756174 -447462.829519607
          1124569.0914164062 1103209.186323083 1081849.281229759 2180103.917195216 2163904.995340784 2147706.0734863523
          2732663.5031318082 2686569.31010135 2640475.1170708905 3177704.3882282744 3126603.7410504096 3075503.093872543
          2586252.0629872396 2634940.010878231 2683627.958769222 -4173301.6859805756 -4208213.888459204 -4243126.090937831
          -3464348.791148425 -3331962.4148426023 -3199576.0385367796 -1320649.4678724096 -1344845.3373642482 -1369041.2068560864
          597057.1631834445 565223.2141189044 533389.2650543647 1986414.3235011483 1959567.5725281965 1932720.8215552445
          2866646.8510202174 2845730.69847424 2824814.5459282626 3279193.974092876 3256487.998712898 3233782.02333292
          3033604.8141307104 2998252.0915263533 2962899.3689219956 2513572.468889517 2535492.526262317 2557412.583635117
          -2930681.301338004 -2748239.053561722 -2565796.8057854394 -145614.10526695475 -219234.22748377628 -292854.3497005978
          1671176.7886901791 1632043.1663371136 1592909.5439840478 2775188.947106977 2750623.3450242477 2726057.742941519
          3414409.9008315294 3383792.526997836 3353175.153164142 3678838.2877247324 3659583.4381728475 3640328.5886209616
          3265771.948232753 3258127.5236196723 3250483.0990065904 1457657.1892231673 1578185.685135006 1698714.1810468445
          -1883506.4133742568 -1655436.2476107706 -1427366.0818472845 1260343.330807213 1140257.3742742094 1020171.4177412055
          2774288.0240611904 2736471.3170559863 2698654.6100507826 3514608.299496726 3496146.0651115463 3477683.8307263656
          3736196.6903597955 3691594.8333681705 3646992.9763765456 3542533.5219647265 3522187.280959133 3501841.0399535396
          2977692.090087575 3013338.510465134 3048984.930842692 1619060.1708932724 1793154.9738987312 1967249.77690419
          -523163.61200218345 -227423.4223899867 68316.76722220995 2710039.5015798807 2538794.386989448 2367549.2723990153
          3833530.972175791 3790586.9469692283 3747642.921762666 4197164.337977856 4177847.4489885876 4158530.5599993193
          3958900.0415080218 3906086.0915428298 3853272.1415776378 2904816.839240323 2943278.4158374555 2981739.992434588
          1060480.6848171267 1171748.102542847 1283015.5202685674 487885.9742832348 385665.26484057406 283444.55539791344
          861673.7779004194 1274447.590556968 1687221.4032135166 4033690.982855309 3816454.8827615287 3599218.7826677486
          4709613.500485943 4658748.889090486 4607884.27769503 4622137.799205145 4601402.820704257 4580667.842203369
          3911004.407965486 3852667.6584581034 3794330.908950721 2129109.189728381 2266729.6240154533 2404350.0583025264
          -1136007.7629910763 -905023.3684018138 -674038.973812551 -2869840.070994113 -3281678.32750342 -3693516.584012727
          5114359.639116487 4873693.005632598 4633026.372148711 5285725.794713818 5227399.605117645 5169073.415521473
          4605379.1397542395 4590757.423430651 4576135.707107062 3365017.568183571 3297662.017268666 3230306.466353761
          1161594.6492823055 1340516.1219931291 1519437.5947039523 -1963123.9093905042 -1810072.6209790574 -1657021.3325676105
          -2680918.149747481 -3299619.7264068215 -3918321.303066163 5878313.575814605 5630263.385028206 5382213.194241807
          5478144.487239039 5401103.871685014 5324063.256130991 4163094.142702451 4148733.953379326 4134373.764056201
          2528348.0590355597 2446160.9538061866 2363973.8485768125 335632.1820758935 537087.7404614623 738543.2988470311
          -1811113.8638551368 -1810089.257087857 -1809064.650320576 -1920629.9564819154 -2527658.6705907 -3134687.384699485
          6219945.899312612 5974950.774563514 5729955.649814418 5220714.26086983 5117803.973953258 5014893.687036686
          3431236.0068730554 3410245.7263747733 3389255.4458764913 1646076.0421649893 1562721.4445190383 1479366.8468730869
          -362353.59049867716 -139891.2789899977 82571.03251868187 -2198284.414795714 -2255984.2830433734 -2313684.1512910333
          6051166.910095431 5819134.827824725 5587102.745554019 4462202.971120309 4336313.3346154345 4210423.698110561
          2332913.3494961504 2309581.2607363164 2286249.171976483 483546.98359696526 414377.53772964404 345208.0918623228
          -1464825.3220982223 -1258638.2118546695 -1052451.101611117 2458704.1722994307 1163368.4003027724 2157871.440427386
          2064082.3259053421 2257571.9417260573 1145734.7830550992 2210788.0194558725 1923825.177437591 2056439.7111526844
          1128101.165807426 2263704.5984843588 1783568.0289698401 -140852.2976857212 -506633.9162759045 1754112.4411493407
          989947.4085553475 -482775.28734515276 -860588.318535836 1644671.7996400546 904038.6166536887 -824698.2770045844
          -1214542.7207957674 1535231.1581307687 818129.82475203 1617422.192779164 -1556236.7908514237 -2628739.2043332127
          1964273.6166921644 -1470381.5442259405 -3164470.0752162393 2311125.040605165 -1384526.2976004574 -3700200.946099267
          4571335.154041629 5182472.285681213 5793609.417320798 1983805.46201996 3903557.3852215027 2141671.6285902234
          2962844.4409400835 2017353.6376337484 4045223.1819476024 1996210.314332115 2780249.9240873517 2050901.813247536
          4186888.9786737026 1850749.0000740062 2597655.407234621 491215.71198128705 1396115.4297451396 212622.65874671872
          1347719.0160239846 -65970.39448784961 1299322.6023028297 4326669.988219112 4294610.724477556 879537.0673333439
          4417325.54592279 4567678.192453792 1064210.7268596925 4507981.103626466 4840745.66043003 1248884.386386041
          1379582.5767376127 -854605.2478828974 1349142.190828422 -1092621.2711768437 1318701.8049192317 -1330637.29447079
          76928.75203034542 -455976.7764857739 -177172.16581750903 -394704.8446555439 -431273.0836653636 -333432.912825314
          275413.0834628403 195055.28654367116 114697.48962450202 3305072.355739305 4032338.6574950055 3152584.06813872
          4140277.14859256 3000095.7805381357 4248215.639690115 -1331410.7028217232 -1772968.7519536428 -1465804.2247054067
          -2331887.2932169735 -1600197.7465890904 -2890805.8344803043 4042361.016908104 1246426.648423006 4227694.595548871
          1241699.4006494125 4413028.174189638 1236972.152875819 2810581.4138880856 1712165.3606537962 2660297.606913336
          1646296.7950856981 2510013.7999385856 1580428.2295176 524652.3860723106 657656.2239667026 790660.0618610943
          94241.37579026923 -219451.73493832175 403086.31018300296 307321.9573689457 711931.2445757366 834095.649676213
          802316.9227361255 444971.8824057896 87626.8420754538 -2834076.645519889 -2322359.0478134193 -1810641.4501069505
          -2211388.71093816 -3030354.5971991364 -3849320.483460113 -6197403.180971573 -5063039.504703571 -3928675.8284355686
          -2328097.172719779 -2501333.052875002 -2674568.9330302253 -3637382.7177474517 -3179037.9966465845 -2720693.275545717
          -3192950.8609376973 -2606408.3834375627 -2019865.9059374284 -3035548.103734734 -3486858.0225657155 -3938167.9413966974
          -3310890.326830496 -3387376.1664382657 -3463862.0060460363 -4192590.379333468 -4580721.298006918 -4968852.216680367
          3092229.145759763 5190141.594476076 2947461.6450754255 4985990.056321831 2802694.144391087 4781838.518167588
          682679.1088613425 649731.6769048187 616784.2449482951 -1178027.8445182708 -1238186.9376966541 -1298346.0308750372
          -2823359.3990221093 -2644434.7244763514 -2465510.0499305935 -4022538.4185233563 -4077687.504146279 -4132836.5897692014
          -518557.54428686696 -90617.9168198634 337321.7106471399 468538.9827906174 685792.8819531386 903046.7811156595
          1192695.804840976 3798008.2353712106 946196.0802773524 3727571.5252433256 699696.3557137288 3657134.8151154416
          -1090689.9892635653 -3471787.898396193 -1142112.8249838084 -3521592.9025325673 -1193535.6607040511 -3571397.906668941
          -278175.16491392115 -571858.2552371003 -194140.59477868938 -554468.119359513 -110106.02464345755 -537077.9834819258
          -901448.2743351412 -867073.2467808552 -832698.2192265694 -3765501.2006199765 -3767289.4672564934 -3769077.73389301
          546497.9860920496 365076.6449491093 403769.2072320988 254534.32682142095 261040.42837214802 143992.00869373258
          2284073.708565358 2345238.1102064177 2406402.5118474774 1946037.6536256555 3931994.195875139 1989789.3013224122
          4116074.7336581154 2033540.9490191692 4300155.271441092 -1937326.3882128042 -1532591.3996706626 -1127856.411128521
          -2364614.457054393 -2326828.9781075455 -2289043.4991606986 -3527632.7346358225 -3954484.41202707 -3445635.0726382653
          -4260784.664811413 -3363637.4106407077 -4567084.917595756 -3311768.512248939 -3406859.4354360644 -3501950.3586231894
          -5357756.126756722 -5597188.293489495 -5836620.460222267 -1392070.9391633742 -1102650.1525868124 -813229.3660102511
        </DataArray>
        <DataArray type="Float64" Name="peeq" format="ascii" RangeMin="0" RangeMax="0.007255275934589482">
          0.00011997960843658785 0.00022298916554026727 0.0001275502515539965 0.00024330120918783087 0.00013512089467140515 0.0002636132528353945
          0.000014019061936439002 0.000019610658925977045 0.000013260750756689934 0.000019236861404570256 0.000012502439576940867 0.000018863063883163467
          0.0000034051292375014044 0.000006810258475002809 0.0000017025646187507022 0.0000034051292375014044 0 0
          0 0 0 0 0 0
          0.000004911618822563666 0 0.000005525861744126141 0 0.000006140104665688615 0
          0.00008650191977562414 0.000058173037738494974 0.00008839754236436151 0.00005966736807660465 0.00009029316495309887 0.00006116169841471433
          0.00032588546921850806 0.000279285733806302 0.00033158915565276387 0.000285688665121408 0.0003372928420870197 0.00029209159643651397
          0.0007230708419701715 0.0007039635466056173 0.000736570055988538 0.0007170611539388094 0.0007500692700069045 0.0007301587612720017
          0.000008485025666454206 0.000005899646960081057 0.000003314268253707908 0.000004213732473450481 0.000003642320054404807 0.0000030709076353591326
          0 0 0 0 0 0
          0.0000288982584012029 0.000030216014843397727 0.000031533771285592554 0.00017337910993828898 0.00017565635151613627 0.00017793359309398353
          0.0004681821508445852 0.0004728156888064716 0.00047744922676835823 0.0008709000711407407 0.000883811650031578 0.0008967232289224149
          0 0 0 0 0 0
          0 0 0 1.7456469698027346e-7 3.749528995014415e-7 5.753411020226095e-7
          0.0000774924140073635 0.00007899101231884483 0.00008048961063032616 0.00031451160994583116 0.00031652342252676225 0.0003185352351076934
          0.0006866933201337767 0.0006905380251715226 0.0006943827302092684 0.0011265191216660413 0.001137582493830343 0.0011486458659946451
          0 0 0 0 0 0
          0 0 0 0.00001084207243856333 0.000011959176380807568 0.000013076280323051802
          0.00015764743295478207 0.00015986654821423151 0.00016208566347368096 0.0005003448177754242 0.0005017897797404534 0.0005032347417054826
          0.000947302215097044 0.0009504890915105874 0.0009536759679241306 0.0014145298387970638 0.0014244131095939726 0.0014342963803908814
          0 0 0 0 0 0
          0 3.892768587084365e-8 7.78553717416873e-8 0.00005392923750626112 0.00005590538860305028 0.00005788153969983943
          0.0002940997196198674 0.0002969753686896675 0.0002998510177594676 0.0007293521495693769 0.0007303065170945968 0.0007312608846198164
          0.0012477530287913763 0.001250742954703343 0.0012537328806153099 0.0017786362357968763 0.0017875749763348915 0.0017965137168729065
          0 0 0 0 0 0
          0.000012885080945000453 0.00001395616271952169 0.000015027244494042926 0.0001495718012757939 0.000152664760561113 0.00015575771984643213
          0.0004989283241813895 0.0005017552173465004 0.0005045821105116111 0.0010103759973772257 0.0010110529617813643 0.0010117299261855031
          0.001599910173122812 0.0016028073339088371 0.001605704494694862 0.0022039289686579385 0.0022112598918793782 0.002218590815100818
          0 0 0 0 0 0
          4.251983937633932e-7 6.8906286713934e-7 9.529273405152867e-7 0.00006901244148442723 0.00007132937837171187 0.00007364631525899654
          0.000322165197785847 0.00032613563598696233 0.0003301060741880777 0.0007716207823241101 0.0007741407117460129 0.0007766606411679157
          0.0013547827647812972 0.0013550688819712448 0.0013553549991611924 0.002002721783327049 0.0020051299338276047 0.0020075380843281605
          0.002654134031439425 0.0026595759299087593 0.0026650178283780935 0 0 0
          0 0 0 0.000020450494731935055 0.00002182599071186497 0.000023201486691794884
          0.00018766010848290612 0.00019101195563650807 0.00019436380279011002 0.000570493892045184 0.0005741499528721107 0.0005778060136990375
          0.0011129787334727237 0.0011148725622747173 0.001116766391076711 0.0017655522504358959 0.0017650647819687192 0.0017645773135015422
          0.0024504896349221276 0.0024519606284079745 0.002453431621893822 0.0031078498295476205 0.003111553401641029 0.0031152569737344362
          0 0 0 6.384435023126844e-7 9.985912881901583e-7 0.0000013587390740676323
          0.00008336140037511051 0.0000860143641414114 0.00008866732790771232 0.00037721665917819764 0.0003813621548868302 0.00038550765059546275
          0.000879763590268726 0.0008828996628871598 0.0008860357355055935 0.0015182996194447714 0.001519252753098044 0.0015202058867513173
          0.0022324915675724483 0.0022309608765008968 0.002229430185429346 0.0029318954117755415 0.0029320462768371858 0.0029321971418988296
          0.0035507118587819126 0.0035526884891079044 0.0035546651194338966 0 0 0
          0.000025011144826382706 0.000026829718523339968 0.00002864829222029723 0.00021107271254217587 0.0002152880304481122 0.00021950334835404848
          0.0006416600919702386 0.0006457293986213945 0.0006497987052725505 0.0012545705776974268 0.001256926304010267 0.0012592820303231075
          0.001978760077699316 0.001978460513975289 0.0019781609502512614 0.002732780178939076 0.002730084600559425 0.002727389022179774
          0.0034226387919526315 0.003421251568387959 0.003419864344823286 0.003984774890950768 0.003984718418753646 0.0039846619465565255
          0.000002482685195244344 0.000003294639587899769 0.000004106593980555194 0.00010077601619953375 0.00010446525294551436 0.00010815448969149495
          0.00042558047805392723 0.000430803681700496 0.00043602688534706503 0.000981371899222394 0.0009850050305727199 0.000988638161923046
          0.0016962483675462573 0.0016974650497460905 0.001698681731945924 0.0024851190674706467 0.0024834268788739788 0.002481734690277311
          0.0032518021918749277 0.0032479354953984523 0.0032440687989219764 0.003913814483186666 0.003910758880296688 0.003907703277406711
          0.004510995914760807 0.004508667669189623 0.004506339423618437 0.00003302980630717346 0.00003545598864009305 0.00003788217097301264
          0.00024639720136698074 0.00025164814145804844 0.0002568990815491161 0.0007218417988841725 0.0007266776731567004 0.0007315135474292281
          0.0013987348210381828 0.0014013520914573506 0.001403969361876518 0.0022011577610647594 0.002200897297005058 0.0022006368329453574
          0.0030283538091039133 0.0030253333363075953 0.003022312863511277 0.003783746075075752 0.0037788760796924415 0.00377400608430913
          0.0043940805279525045 0.004389592538625164 0.004385104549297823 0.00482197891687195 0.004818934503098767 0.004815890089325582
          0.0001142831974411165 0.0001185561370849648 0.00012282907672881305 0.0004742011782112971 0.0004802889031888432 0.00048637662816638935
          0.0010941133969685761 0.0010982171480661603 0.001102320899163744 0.0018908292441654324 0.001891857980624724 0.0018928867170840157
          0.002760993651069823 0.002758982416215467 0.0027569711813611114 0.003595308129452253 0.0035909485345990604 0.003586588939745867
          0.004303938896813732 0.00429823988955652 0.004292540882299309 0.004821887666571311 0.004816469871482722 0.004811052076394134
          0.005116236573665143 0.005111875986233957 0.0051075153988027686 0.00026560241621562954 0.00027138871981598753 0.0002771750234163455
          0.0007851141779808199 0.000791079168439118 0.0007970441588974161 0.0015499107713820026 0.001552734988986517 0.0015555592065910314
          0.0024512783723579542 0.0024502856153241505 0.0024492928582903473 0.0033599673822981395 0.003356091351059968 0.003352215319821797
          0.004164149495749258 0.004158458540394525 0.0041527675850397934 0.004782070765037961 0.00477571275472204 0.004769354744406118
          0.005167621691574081 0.0051617828238560365 0.005155943956137992 0.005313938728899775 0.005308670126261732 0.005303401523623686
          0.0011878004245624444 0.0011930366043199107 0.0011982727840773773 0.0020925930507943863 0.0020934551166398117 0.0020943171824852366
          0.0030683003024807934 0.0030650004426653727 0.0030617005828499516 0.003973762804378852 0.003968163354607824 0.003962563904836798
          0.00470623691002321 0.004699479750345698 0.004692722590668186 0.005197955525543126 0.005191164811553489 0.005184374097563852
          0.005419737943800908 0.005413958382036738 0.0054081788202725665 0.005399265396078365 0.005393912363727531 0.005388559331376698
          0.001694131823586058 0.001697871186800972 0.0017016105500158858 0.0027167971209026897 0.0027152374036342954 0.002713677686365902
          0.0037235996953299128 0.0037179232753369877 0.0037122468553440627 0.004575054930494349 0.004567969259194582 0.004560883587894816
          0.00518958074159118 0.005182282003335338 0.005174983265079496 0.0055270842396417654 0.005520676413863757 0.00551426858808575
          0.005585603956386895 0.0055801886564325965 0.005574773356478297 0.005408263108549983 0.005402362906702976 0.005396462704855966
          0.002309645313984776 0.0023112829708422994 0.002312920627699823 0.003407676307122044 0.003403742179257494 0.0033998080513929435
          0.00439330582974267 0.004385487322267935 0.004377668814793201 0.005138901508957037 0.005130550541203912 0.005122199573450786
          0.0055898142609533685 0.005582497693990121 0.005575181127026875 0.005744537160669131 0.005739549390689317 0.005734561620709502
          0.005654632571917072 0.005649879756398909 0.005645126940880747 0.005396244391012375 0.005388221270423308 0.0053801981498342415
          0.003030286427832394 0.003029598688542228 0.003028910949252063 0.004143003263842946 0.004137186566703125 0.004131369869563301
          0.005048883127784257 0.005039414634793722 0.005029946141803186 0.0056407617717486 0.005631602674120043 0.005622443576491488
          0.0058948874347414665 0.005888032761918418 0.005881178089095369 0.0058472422931278335 0.005843898051099374 0.0058405538090709145
          0.0055989212845424146 0.00559461028212225 0.005590299279702083 0.005271541315195039 0.005260552167327319 0.005249563019459598
          0.00489491017542244 0.004888032609943981 0.004881155044465521 0.00565912136103566 0.005648663486387277 0.005638205611738893
          0.0060531650218815704 0.006043902706032602 0.006034640390183632 0.006087728258321321 0.0060818426169165045 0.006075956975511686
          0.00582921432592703 0.005827165546881268 0.005825116767835506 0.005394669070536712 0.005390091543695197 0.005385514016853681
          0.004880728797704571 0.004869469181591334 0.004858209565478097 0.005630655294991245 0.005623701936986754 0.005616748578982261
          0.006189410360029862 0.006178742135006133 0.006168073909982405 0.006341819895591616 0.006333095832010995 0.0063243717684303745
          0.00613067229838006 0.006126026387477927 0.006121380476575795 0.0056424010160116694 0.005641259616200377 0.005640118216389086
          0.004991820429774552 0.004987218146003729 0.004982615862232904 0.0042556921750221645 0.004248127028038735 0.004240561881055305
          0.0063094137962535855 0.006303173674212373 0.006296933552171161 0.006596392599554899 0.006586309356704815 0.006576226113854732
          0.00646038857650446 0.006452739723764252 0.006445090871024045 0.005972027664925524 0.005968824565019648 0.005965621465113773
          0.0052366271554156905 0.005236676619687229 0.005236726083958768 0.004384394756482725 0.0043813941009405565 0.004378393445398388
          0.006875622549142918 0.006870626163555275 0.006865629777967633 0.0068237108518514646 0.006815014269844495 0.006806317687837525
          0.006355044099632627 0.006349181390264457 0.006343318680896284 0.005572531170961673 0.005571368655958515 0.005570206140955355
          0.004612856464969993 0.004614984856293292 0.004617113247616589 0.004760906992476649 0.005216061044888363 0.005248952137216262
          0.005028167295587563 0.004756574623556652 0.005209026911295494 0.005242542817011127 0.00502123909261531 0.004752242254636655
          0.005201992777702624 0.005236133496805992 0.005014310889643056 0.004239680028765478 0.004507831721435223 0.004075761468618403
          0.003714246279523846 0.004231592194334061 0.004499013967732781 0.004072053540282767 0.0037116981058595523 0.004223504359902643
          0.00449019621403034 0.004068345611947133 0.0037091499321952586 0.0038155807449603216 0.003484919105317258 0.004329939918830517
          0.003819867475907313 0.003487214277498 0.004323175536467776 0.0038241542068543047 0.003489509449678743 0.004316411154105034
          0.0034927020342050996 0.0035005743714759175 0.0035084467087467355 0.005211797640352468 0.005077763038587989 0.005171309821928008
          0.005142610870729475 0.005206009884483973 0.005072802541739803 0.005162500490433425 0.005134569174584256 0.005200222128615477
          0.005067842044891618 0.005153691158938844 0.005126527478439037 0.003825490554823873 0.0032720142144997324 0.003819221328082511
          0.003271988208629407 0.00381295210134115 0.003271962202759081 0.004477174803478565 0.003867092272727344 0.003895914753761251
          0.004476205793227163 0.003869500591045075 0.0038989500192108603 0.004475236782975762 0.003871908909362806 0.00390198528466047
          0.0027882851691713667 0.003352545540556344 0.002791942342332374 0.003349089310610407 0.0027955995154933817 0.003345633080664471
          0.004766218882226599 0.003998890326039265 0.0047599906667947405 0.004001200320225674 0.00475376245136288 0.0040035103144120815
          0.00487779139191003 0.0048690133180020224 0.004860235244094015 0.004646226074033535 0.003987208062239487 0.004643793384797917
          0.00398995325966853 0.0046413606955622985 0.003992698457097573 0.005088178131611341 0.00476705116433272 0.005080998142084784
          0.004761902649511697 0.005073818152558227 0.004756754134690676 0.0049388838773213985 0.005034614154897641 0.004934433123762943
          0.005027017424588344 0.004929982370204486 0.005019420694279044 0.004399940878105137 0.00474103238187259 0.004395100781930132
          0.004734927441521349 0.0043902606857551246 0.004728822501170107 0.002307712314386802 0.0023159072954784367 0.0023241022765700704
          0.001595645727155273 0.0018682754937909443 0.0016094864540851265 0.0018804855244762056 0.00162332718101498 0.0018926955551614667
          0.004629384427869121 0.004620208112512142 0.004611031797155164 0.0014369407069362483 0.0014510197051049267 0.0014650987032736055
          0.00492469897929677 0.00491212638188799 0.004899553784479211 0.0012200780225730525 0.0012350322773595896 0.001249986532146127
          0.0028766668947575185 0.002876883574897884 0.0028771002550382493 0.002400303511037247 0.002404782723431407 0.0024092619358255674
          0.002043620990542461 0.002051621441685183 0.002059621892827905 0.0035246618016471633 0.003521753202598972 0.0035188446035507802
          0.003637974737183107 0.0036379207943094205 0.0036378668514357336 0.0027819719010205583 0.002782729152592977 0.0027834864041653955
          0.006804270724266032 0.007255275934589482 0.006797945008522599 0.007251914152622407 0.006791619292779164 0.007248552370655332
          0.005978927106470362 0.005975911014365469 0.005972894922260575 0.004927216894816662 0.004928950294677921 0.0049306836945391804
          0.0038232033338601165 0.0038278621777339218 0.003832521021607727 0.0028414385983694564 0.002844130950742987 0.0028468233031165185
          0.0027104386645629684 0.002719918194739599 0.00272939772491623 0.002764452153380755 0.002771520585270797 0.002778589017160839
          0.005128046700482997 0.004838486324709836 0.005120058264903172 0.004835501785391241 0.005112069829323346 0.0048325172460726455
          0.002976253398237684 0.0029761353590839644 0.002980149548861827 0.0029803280950186557 0.0029840456994859703 0.002984520830953347
          0.004657070719556426 0.00492437129699926 0.004651933218694547 0.004918152989111284 0.004646795717832667 0.0049119346812233075
          0.004326086697771049 0.0043211516533507984 0.004316216608930548 0.0029300222653263165 0.002935127162723159 0.0029402320601200015
          0.005111818374429749 0.005155964718162601 0.005103177643450462 0.005150709816810355 0.005094536912471174 0.00514545491545811
          0.0031197862962469344 0.0031242308547111764 0.003128675413175419 0.003447844757922953 0.004179514013901051 0.003450855782096791
          0.004183377410546328 0.0034538668062706296 0.004187240807191605 0.002740834755509636 0.002747936213428153 0.0027550376713466693
          0.003956337907185816 0.00395139730524679 0.003946456703307765 0.001818410765966438 0.0024187178856957016 0.0018258867348399266
          0.0024211343906680185 0.0018333627037134155 0.0024235508956403353 0.003580818373965824 0.0035757628933572438 0.003570707412748663
          0.0031461930707880024 0.00314244905176979 0.0031387050327515782 0.002112005943428213 0.002122607125399064 0.002133208307369915
        </DataArray>
        <DataArray type="Float64" Name="pe11" format="ascii" RangeMin="0" RangeMax="0.007248971204836189">
          0.00011921815964031192 0.00022149174912315181 0.0001264060746685584 0.000241029625665112 0.00013359398969680484 0.00026056750220707217
          0.000013956197767355638 0.000019494938030868546 0.000013148741976387669 0.000019021429465938004 0.000012341286185419698 0.000018547920901007463
          0.0000034008760517221764 0.000006801752103444353 0.0000017004380258610882 0.0000034008760517221764 0 0
          0 0 0 0 0 0
          0.0000049108525348012075 0 0.0000055250847964994625 0 0.0000061393170581977175 0
          0.00008647469460442659 0.000058163943549113216 0.00008837120063846056 0.00005965797525424348 0.00009026770667249454 0.00006115200695937374
          0.00032570882029930555 0.00027914249376336994 0.00033142052442915214 0.0002855532598539006 0.0003371322285589987 0.00029196402594443125
          0.0007224847880673167 0.0007033891394197286 0.000735951154482265 0.0007164207786321825 0.0007494175208972131 0.0007294524178446363
          0.000008472285078736016 0.000005891261836002383 0.0000033102385932687494 0.000004208728751921365 0.000003638027243418666 0.000003067325734915967
          0 0 0 0 0 0
          0.00002888730537168762 0.000030206033078512743 0.00003152476078533786 0.00017327606567222803 0.00017555913509838573 0.0001778422045245434
          0.00046780287938609223 0.0004724520663294232 0.0004771012532727542 0.0008701857560264163 0.0008830953714702636 0.0008960049869141108
          0 0 0 0 0 0
          0 0 0 1.7455399966462283e-7 3.749243185929358e-7 5.752946375212488e-7
          0.00007745113695473801 0.00007895281546510747 0.00008045449397547692 0.0003142461173038255 0.0003162709030819407 0.000318295688860056
          0.0006858929381470282 0.0006897628159689931 0.0006936326937909583 0.0011252491654726731 0.0011363132111869997 0.0011473772569013262
          0 0 0 0 0 0
          0 0 0 0.000010838859518151089 0.000011955581319661755 0.000013072303121172419
          0.00015753007939192976 0.0001597545757732196 0.00016197907215450945 0.0004997765088993769 0.0005012409351891386 0.0005027053614789003
          0.0009458800737720288 0.0009490975056014476 0.0009523149374308666 0.0014124325624705158 0.0014223385654149405 0.0014322445683593655
          0 0 0 0 0 0
          0 3.8918906150180956e-8 7.783781230036191e-8 0.000053896201482944885 0.0000558714403480578 0.00005784667921317072
          0.0002937867862556865 0.0002966700244298225 0.0002995532626039585 0.0007282634589265286 0.0007292423140197294 0.0007302211691129301
          0.0012455483812504112 0.0012485726768916787 0.0012515969725329463 0.0017757425968826703 0.0017847092718492933 0.0017936759468159158
          0 0 0 0 0 0
          0.000012877037640347823 0.00001394736358652336 0.000015017689532698899 0.0001494236676805424 0.00015251489496823545 0.00015560612225592847
          0.0004982082083699537 0.0005010452235178635 0.0005038822386657734 0.001008558412956292 0.0010092609898273174 0.0010099635666983423
          0.0015969026994550532 0.0015998262972392674 0.0016027498950234816 0.0022002585401685497 0.0022075865163277883 0.002214914492487027
          0 0 0 0 0 0
          4.2511114482208163e-7 6.888188699429548e-7 9.525265950638279e-7 0.00006894849930940096 0.00007126342028498654 0.00007357834126057212
          0.0003217165969186467 0.0003256855560502404 0.0003296545151818341 0.0007702169862495772 0.0007727510086847052 0.0007752850311198332
          0.0013521019700048348 0.001352410670674513 0.001352719371344191 0.0019990339843555527 0.002001446569283481 0.002003859154211409
          0.0026499525539889364 0.0026553511498760103 0.002660749745763084 0 0 0
          0 0 0 0.000020435946338621273 0.000021809577342383486 0.000023183208346145703
          0.00018741902013985048 0.00019076661409343957 0.00019411420804702867 0.0005694586828224922 0.0005731156916733547 0.000576772700524217
          0.0011106008902645105 0.001112514560664936 0.0011144282310653615 0.0017619567037817712 0.0017614894658765693 0.001761022227971368
          0.0024463682485930853 0.0024478196025886955 0.0024492709565843065 0.0031036557459476278 0.0031072745594100566 0.0031108933728724846
          0 0 0 6.380469161976715e-7 9.978628816259291e-7 0.0000013576788470541866
          0.00008326616450401036 0.00008591408961264156 0.00008856201472127275 0.0003765550760654293 0.00038069413116898615 0.000384833186272543
          0.0008777864619466174 0.0008809272588639948 0.0008840680557813723 0.0015147330379151468 0.0015157097856928385 0.0015166865334705303
          0.0022280292390677464 0.002226514155279865 0.002224999071491984 0.0029275615129714877 0.0029276757722537347 0.0029277900315359813
          0.0035468170662803894 0.0035486794094533223 0.0035505417526262542 0 0 0
          0.00002498517605466234 0.000026800908384472024 0.000028616640714281708 0.00021071747601959285 0.00021492338663514193 0.00021912929725069103
          0.0006401790795537601 0.0006442424030830814 0.0006483057266124028 0.0012512757743695045 0.001253640217671565 0.0012560046609736255
          0.0019739573304445586 0.0019736762667846366 0.0019733952031247147 0.0027276555319441335 0.00272496120037875 0.0027222668688133664
          0.003418257380573121 0.003416822823584699 0.0034153882665962764 0.003981212649440727 0.00398102778784261 0.003980842926244494
          0.0000024812386515039268 0.0000032921673606059976 0.0000041030960697080685 0.00010061962603082959 0.00010430161205266283 0.00010798359807449608
          0.0004245870119665773 0.00042979911810406615 0.000435011224241555 0.0009785318514556848 0.0009821641516560634 0.0009857964518564417
          0.0016913354274766717 0.0016925628471048941 0.0016937902667331166 0.002479225786067117 0.0024775424933058125 0.002475859200544508
          0.0032465018863193336 0.0032426251048098234 0.003238748323300314 0.003910044978082409 0.003906941430972101 0.003903837883861792
          0.004508657025086236 0.0045062129603000885 0.00450376889551394 0.00003298984556791527 0.000035410687959845926 0.00003783153035177657
          0.00024585080731291296 0.0002510877155580881 0.0002563246238032633 0.0007196185182205841 0.0007244465205864588 0.0007292745229523333
          0.0013939692640902736 0.0013965942834276658 0.0013992193027650584 0.0021945566958043255 0.002194304915675063 0.0021940531355458003
          0.0030217965195764346 0.0030187720809135322 0.00301574764225063 0.003778863603736326 0.003773971715800152 0.0037690798278639764
          0.004391299049472441 0.0043867614995500275 0.004382223949627614 0.00482047784494598 0.0048173433598170685 0.0048142088746881565
          0.00011406087550757162 0.00011831958215527427 0.00012257828880297693 0.00047273210542340656 0.00047879822497869963 0.0004848643445339927
          0.0010898978635442789 0.0010939989956272422 0.0010981001277102055 0.001883758515196628 0.0018847994092088497 0.0018858403032210713
          0.0027530026431183863 0.002750990906459279 0.002748979169800172 0.003588739843854787 0.0035843566327264146 0.003579973421598041
          0.0042999058492029524 0.0042941640484377075 0.004288422247672464 0.004819986699777825 0.004814508856180942 0.004809031012584057
          0.005115409819294992 0.005110973783486396 0.0051065377476778 0.0002648204011243144 0.0002705757788014587 0.000276331156478603
          0.000781853500786046 0.0007877911108920984 0.0007937287209981508 0.0015429185200280932 0.001545743851873961 0.001548569183719829
          0.0024419026868317904 0.0024409147351299844 0.002439926783428178 0.003351228096406743 0.003347332039533264 0.0033434359826597843
          0.004158226328865453 0.004152489621267923 0.004146752913670393 0.004779174293131039 0.004772756445251617 0.0047663385973721936
          0.00516658232872479 0.005160678676952264 0.005154775025179739 0.005313386923348612 0.0053080536518912026 0.005302720380433793
          0.0011816294622009214 0.0011868246989548143 0.001192019935708707 0.0020823616088558785 0.0020832176359016526 0.002084073662947427
          0.0030571736858666307 0.0030538572759377398 0.003050540866008849 0.003965180676753434 0.003959529984299491 0.003953879291845546
          0.004701505651384907 0.004694678137456586 0.004687850623528264 0.005196203225008941 0.005189343796379538 0.005182484367750134
          0.005419082330542524 0.0054132527918582755 0.005407423253174027 0.005398225525721177 0.005392826005767119 0.00538742648581306
          0.0016838131734000367 0.0016874838738271027 0.0016911545742541686 0.002703448844297414 0.0027018567804908307 0.0027002647166842466
          0.0037118274677894417 0.0037061043569404126 0.0037003812460913842 0.004567674718872164 0.004560504481816115 0.004553334244760066
          0.005186406556600564 0.005179014705302687 0.005171622854004811 0.005526076042382422 0.005519592495167778 0.005513108947953132
          0.005584255511951883 0.005578794118785289 0.005573332725618693 0.005404698958069207 0.005398805523433378 0.005392912088797548
          0.00229426482965924 0.002295779309447696 0.0022972937892361527 0.0033921213936392697 0.003388103613526166 0.0033840858334130614
          0.0043823153580845806 0.0043744186101341166 0.004366521862183651 0.005133561670713987 0.005125107763503089 0.005116653856292192
          0.005588070941422756 0.005580662084771366 0.005573253228119978 0.005743224034262624 0.005738175804025805 0.005733127573788986
          0.005651215244193104 0.005646393851029753 0.005641572457866403 0.005389655789885096 0.005381596807153965 0.005373537824422833
          0.0030099247627721633 0.00300902491102884 0.0030081250592855174 0.004126989255136001 0.00412101641291612 0.004115043570696238
          0.005040083282748263 0.005030508082888549 0.005020932883028836 0.005637646189106277 0.0056283842652026725 0.005619122341299068
          0.005893442949789168 0.005886524886310551 0.005879606822831933 0.0058434167817586445 0.005840053837001472 0.0058366908922443
          0.005590771250509435 0.005586411140587342 0.005582051030665249 0.005260770920625061 0.005249723742681065 0.005238676564737067
          0.004880624271630852 0.004873516309249531 0.004866408346868209 0.005653366357970945 0.005642782889913675 0.005632199421856402
          0.006051335602826464 0.006041984147308711 0.006032632691790958 0.006084223743447393 0.006078313020195413 0.006072402296943433
          0.005820115816926895 0.005818091702769394 0.005816067588611896 0.005380240416147776 0.005375667815491391 0.005371095214835006
          0.004865309172396758 0.004854042055966082 0.004842774939535405 0.005619987424728273 0.0056127545738893815 0.005605521723050488
          0.0061862881317784205 0.006175493712357679 0.006164699292936935 0.006338844658284002 0.0063300589968666955 0.0063212733354493875
          0.006122002779072625 0.006117374829484479 0.006112746879896333 0.005626358960964732 0.0056252768686848136 0.005624194776404894
          0.004972287452352221 0.004967698957016263 0.004963110461680305 0.004237979375209752 0.004230336246791424 0.004222693118373094
          0.0063029944124306896 0.006296477063372304 0.006289959714313919 0.006593570066467297 0.006583386271964698 0.0065732024774621005
          0.006452479977718943 0.0064448122406816875 0.006437144503644431 0.005955315777952758 0.005952176223850791 0.005949036669748822
          0.005213516564867258 0.005213642982277393 0.005213769399687529 0.004361501055960846 0.00435847140706336 0.004355441758165873
          0.0068717486247662175 0.006866544990910561 0.006861341357054904 0.006816654841990768 0.006807917481871422 0.0067991801217520765
          0.006337785487450531 0.006331958354409681 0.00632613122136883 0.005546065847575679 0.005544996315431513 0.005543926783287349
          0.004584103902232616 0.00458629082682575 0.0045884777514188825 0.004753574429055326 0.005213585801390815 0.0052477600139724506
          0.005025223231586031 0.004749177850894677 0.0052064774622816905 0.005241299579958121 0.005018265524949265 0.004744781272734028
          0.005199369123172566 0.005234839145943792 0.005011307818312497 0.004235995070593258 0.004504952832643765 0.004072231747192041
          0.003710060420921261 0.004227804891510502 0.004496063040799099 0.004068400863803709 0.003707406064420077 0.004219614712427747
          0.004487173248954432 0.004064569980415378 0.003704751707918892 0.0037994832890423822 0.0034693301101116386 0.004312927911253856
          0.003803843715401872 0.0034715086653553237 0.004306150985554231 0.003808204141761363 0.0034736872205990087 0.004299374059854607
          0.0034792979732015867 0.003487260596040395 0.0034952232188792034 0.0052112670951459964 0.005076922683514236 0.0051707502333986485
          0.0051417022529012205 0.00520541146462537 0.005071867636097928 0.005161862717525972 0.005133592812261335 0.005199555834104746
          0.0050668125886816195 0.005152975201653297 0.005125483371621449 0.0038210591101631598 0.003267540245499691 0.003814666669574426
          0.00326742860705869 0.003808274228985692 0.003267316968617689 0.004468171028512376 0.003855071290702547 0.003883270210537343
          0.0044672376794110185 0.003857506746328937 0.00388620923490783 0.004466304330309662 0.003859942201955327 0.003889148259278317
          0.0027841405521153266 0.0033477298752640746 0.002787735513112329 0.0033441358679677526 0.002791330474109332 0.00334054186067143
          0.0047534152957662435 0.003985539310841141 0.004747279767929925 0.003987832427498947 0.004741144240093606 0.0039901255441567515
          0.00487634145436832 0.004867484114911722 0.004858626775455123 0.004640140247795336 0.003977031611668123 0.004637701590329038
          0.003979854337749426 0.0046352629328627395 0.003982677063830729 0.005080854413503585 0.004756442398033866 0.005073704460523342
          0.004751241971707636 0.005066554507543098 0.004746041545381406 0.004937727996313704 0.0050338551634598995 0.004933161420138651
          0.005026162600587164 0.004928594843963596 0.005018470037714429 0.004397104711757482 0.004739303196253314 0.004392126495223598
          0.0047330779926993815 0.004387148278689712 0.00472685278914545 0.002304234890376851 0.002312386698830519 0.0023205385072841873
          0.0015938472683212088 0.0018656122720699354 0.0016075547622410838 0.0018777356872641154 0.0016212622561609584 0.0018898591024582953
          0.004627091269237777 0.004617842215581486 0.004608593161925195 0.0014349359715908586 0.001448894318384878 0.001462852665178897
          0.00491040595553758 0.004897840097667752 0.004885274239797921 0.0012180174789491929 0.0012328475530314588 0.0012476776271137244
          0.0028719319172523005 0.0028719769780816183 0.002872022038910937 0.0023949053947024705 0.00239914610211107 0.0024033868095196687
          0.002038842791368107 0.002046582480181837 0.0020543221689955666 0.0035066018968552166 0.003503490406001824 0.003500378915148431
          0.0036145616442935947 0.003614413229152215 0.003614264814010836 0.002766374558857506 0.0027668424540950344 0.002767310349332563
          0.00678671858872352 0.007248971204836189 0.006780434974605155 0.007245534797678184 0.00677415136048679 0.007242098390520178
          0.0059487732359413195 0.005945830473885954 0.005942887711830588 0.004891953088491851 0.004893752324499073 0.004895551560506295
          0.003792834129491199 0.003797477120669953 0.003802120111848708 0.002821697099603511 0.002824235810681413 0.0028267745217593157
          0.0026978992464487877 0.002707371202461332 0.0027168431584738773 0.002752251368626491 0.0027593268616875463 0.0027664023547486014
          0.005127049459143844 0.004835364677706069 0.005118969320824894 0.004832323496201213 0.005110889182505942 0.004829282314696358
          0.0029628835510594623 0.0029632638779095036 0.0029668511705307887 0.002967383610156313 0.002970818790002114 0.0029715033424031227
          0.0046545664003198916 0.004922818187952845 0.0046493144375865415 0.004916522790981115 0.0046440624748531915 0.004910227394009384
          0.004322553329218531 0.004317474591800436 0.004312395854382341 0.0029176940299188163 0.0029226882129269366 0.0029276823959350573
          0.005111073246378163 0.005154895994332287 0.005102333396631942 0.005149552335443254 0.00509359354688572 0.005144208676554221
          0.0031077907034451633 0.0031124079719231216 0.00311702524040108 0.003437138384009373 0.0041715755833231245 0.003440270855618685
          0.004175521333336585 0.0034434033272279963 0.004179467083350045 0.002727060612091826 0.002733974856404053 0.0027408891007162798
          0.003951820079119846 0.003946730325538015 0.003941640571956183 0.0018152156407450222 0.0024133544577017722 0.00182253736232929
          0.002415621444914404 0.001829859083913558 0.002417888432127036 0.0035756733449337583 0.003570473684848971 0.003565274024764184
          0.00313944929181184 0.0031355822138294546 0.0031317151358470695 0.0021020713593062255 0.0021126321439032874 0.002123192928500349
        </DataArray>
        <DataArray type="Float64" Name="pe22" format="ascii" RangeMin="-0.0037583316720786277" RangeMax="0">
          -0.00005579856755537004 -0.00010369961945165898 -0.000056881568677306207 -0.00010820535743667887 -0.00005796456979924237 -0.00011271109542169878
          -0.000006681954486409145 -0.000009356926420249386 -0.00000613665949704773 -0.000008773576938742661 -0.0000055913645076863165 -0.000008190227457235938
          -0.0000015829011972004213 -0.0000031658023944008425 -7.914505986002106e-7 -0.0000015829011972004213 0 0
          0 0 0 0 0 0
          -0.0000024764686024807303 0 -0.0000027786163008804893 0 -0.000003080763999280248 0
          -0.000043563226163774845 -0.000029300465464664073 -0.000044313809701760394 -0.000029885989566451984 -0.00004506439323974594 -0.000030471513668239895
          -0.000166510130665271 -0.00014376211958334252 -0.0001682101892855515 -0.00014589795731697756 -0.00016991024790583204 -0.0001480337950506126
          -0.0003661071036182163 -0.00035071626224051136 -0.0003701413300374227 -0.0003547835786705764 -0.000374175556456629 -0.00035885089510064147
          -0.000003948757829540552 -0.000002778889958966767 -0.000001609022088392982 -0.000002003491276284453 -0.0000017498710276764003 -0.0000014962507790683476
          0 0 0 0 0 0
          -0.000014513533687890494 -0.00001513485511166887 -0.000015756176535447247 -0.00008693542358272421 -0.0000877563412118365 -0.00008857725884094879
          -0.00023754393469411144 -0.00023862321717776967 -0.00023970249966142788 -0.0004455743177470575 -0.00044887340966408875 -0.00045217250158112
          0 0 0 0 0 0
          0 0 0 -8.680954460000482e-8 -1.8516124736916107e-7 -2.8351295013831734e-7
          -0.0000386230592416615 -0.00003925192744548342 -0.000039880795649305356 -0.00015659373442929725 -0.00015707907388774287 -0.0001575644133461885
          -0.00034604823888003674 -0.0003466736717552019 -0.0003472991046303671 -0.0005691623816891922 -0.0005714150286669687 -0.0005736676756447453
          0 0 0 0 0 0
          0 0 0 -0.0000053447073946089195 -0.000005866008488730691 -0.0000063873095828524625
          -0.00007773780904294648 -0.00007857339377539241 -0.00007940897850783836 -0.00024674099323628647 -0.0002466881881321327 -0.00024663538302797895
          -0.00047273471296482524 -0.0004727891639297419 -0.0004728436148946585 -0.0007085776655606764 -0.0007103125676388277 -0.000712047469716979
          0 0 0 0 0 0
          0 -1.8797212225821916e-8 -3.759442445164383e-8 -0.00002637587669431098 -0.00002719901979828016 -0.000028022162902249345
          -0.00014339448641489228 -0.0001442799471095024 -0.00014516540780411255 -0.00035577374710138606 -0.0003551791760405578 -0.0003545846049797295
          -0.0006175294924055295 -0.0006171709209832385 -0.0006168123495609475 -0.0008881029213311534 -0.0008894935096257631 -0.0008908840979203728
          0 0 0 0 0 0
          -0.000006229634950454801 -0.000006712359860139571 -0.00000719508476982434 -0.00007236715880563468 -0.00007348717618433831 -0.00007460719356304195
          -0.00024055852932220492 -0.00024104423595230524 -0.0002415299425824055 -0.00048808988902607024 -0.00048707872794615057 -0.0004860675668662309
          -0.0007867967631537526 -0.000786261814806929 -0.0007857268664601053 -0.00109603197614456 -0.0010971455172484787 -0.0010982590583523974
          0 0 0 0 0 0
          -2.0584344651583814e-7 -3.301083537136537e-7 -4.5437326091146916e-7 -0.000033213707869088156 -0.000034150980334412874 -0.0000350882527997376
          -0.0001542996913265951 -0.00015545702139403171 -0.00015661435146146834 -0.0003682759062471014 -0.0003682558770306305 -0.00036823584781415966
          -0.000649625692409232 -0.0006483040928247758 -0.0006469824932403196 -0.0009799332420593746 -0.000979293699325321 -0.000978654156591267
          -0.001315284324078837 -0.0013162870704392158 -0.0013172898167995942 0 0 0
          0 0 0 -0.000009796057993665147 -0.000010395805496515348 -0.00001099555299936555
          -0.00008948787117572015 -0.00009061906843810588 -0.00009175026570049166 -0.0002706088975993599 -0.000271150071136345 -0.00027169124467333
          -0.0005270047769901785 -0.0005264742588484558 -0.000525943740706733 -0.0008425461038804305 -0.000841069075832136 -0.0008395920477838412
          -0.0011947281025626712 -0.0011941297164490118 -0.001193531330335352 -0.0015363102449355986 -0.0015373561769692233 -0.001538402109002848
          0 0 0 -3.018176690199133e-7 -4.689336522599587e-7 -6.360496355000042e-7
          -0.00003961183721661803 -0.000040637177734955237 -0.00004166251825329244 -0.0001780530578236475 -0.0001791023348956977 -0.00018015161196774783
          -0.00041355039702967763 -0.0004134340423565116 -0.00041331768768334545 -0.0007151460090138927 -0.0007142136637324537 -0.0007132813184510145
          -0.001063194535846029 -0.001061803224834394 -0.001060411913822759 -0.001426870314396114 -0.0014265177443691297 -0.0014261651743421456
          -0.001752556272358292 -0.0017537314679826209 -0.0017549066636069499 0 0 0
          -0.0000118647715881018 -0.000012647456700949278 -0.000013430141813796754 -0.00009934308172501169 -0.0001007420135415042 -0.00010214094535799671
          -0.00029994825755340717 -0.00030041429659804434 -0.00030088033564268146 -0.0005856062411484377 -0.0005848882108500809 -0.000584170180551724
          -0.0009296825587459679 -0.0009284571635866725 -0.0009272317684273774 -0.0013026454060737869 -0.0013013924827860646 -0.0013001395594983418
          -0.0016665717130209736 -0.0016664543463537772 -0.001666336979686581 -0.0019669483777537376 -0.0019681400296073393 -0.00196933168146094
          -0.0000011759344293033982 -0.0000015484264125375288 -0.0000019209183957716593 -0.000047415324192064327 -0.00004884184545370128 -0.00005026836671533823
          -0.00019826641745970396 -0.0001995807155092826 -0.00020089501355886132 -0.00045468119797593997 -0.0004544818366678209 -0.000454282475359702
          -0.0007883675713451882 -0.0007871867114140154 -0.0007860058514828426 -0.0011682848509548208 -0.0011669422706600391 -0.0011655996903652574
          -0.0015555221323860706 -0.0015545281104564989 -0.0015535340885269272 -0.0019140387735943998 -0.001914162798261881 -0.0019142868229293619
          -0.002248357832245826 -0.002249653212692835 -0.0022509485931398445 -0.00001554427163420451 -0.000016564204969095766 -0.000017584138303987023
          -0.00011454283406365961 -0.00011623365179617103 -0.00011792446952868247 -0.0003325214297444255 -0.0003330144798593125 -0.00033350752997419965
          -0.0006435987083385947 -0.0006427103073632846 -0.0006418219063879745 -0.0010220660323287084 -0.0010206309451551566 -0.001019195857981605
          -0.0014290787827011288 -0.0014279627995849383 -0.0014268468164687484 -0.0018211135455838835 -0.0018207931049480167 -0.0018204726643121496
          -0.002161826059772015 -0.0021626324862743904 -0.0021634389127767654 -0.002413633342415853 -0.002415568050005383 -0.0024175027575949128
          -0.000052996449346656054 -0.00005458669253567907 -0.0000561769357247021 -0.00021724827187053698 -0.00021864333611668082 -0.00022003840036282464
          -0.0004985701221003082 -0.0004981871673121267 -0.0004978042125239452 -0.0008667793466933659 -0.0008653189269392955 -0.0008638585071852251
          -0.0012854688554858685 -0.0012840635889682082 -0.0012826583224505475 -0.0017081031130749226 -0.0017075198844448678 -0.0017069366558148133
          -0.0020887304613531592 -0.0020892637129344117 -0.002089796964515664 -0.0023875724203644786 -0.002389277086392709 -0.0023909817524209397
          -0.0025725803981272058 -0.002575154166981152 -0.0025777279358350984 -0.00012077598638778465 -0.0001225056544916581 -0.00012423532259553158
          -0.00035398883290453523 -0.00035455614514345955 -0.00035512345738238386 -0.0007004328611730858 -0.0006992263821789206 -0.0006980199031847555
          -0.0011237963066201414 -0.0011220549867224968 -0.0011203136668248522 -0.0015739623635054691 -0.00157293925825196 -0.0015719161529984512
          -0.0019967574351638737 -0.001996912418604121 -0.0019970674020443674 -0.0023434666383815106 -0.002344764684823451 -0.0023460627312653923
          -0.0025796352731587025 -0.002581852836364301 -0.0025840703995698997 -0.0026901875191304757 -0.002692759354296755 -0.0026953311894630347
          -0.0005276775381396146 -0.0005272437549570653 -0.0005268099717745162 -0.0009416754483975446 -0.0009398262941719736 -0.0009379771399464028
          -0.0014125009751250791 -0.0014108556986462653 -0.0014092104221674518 -0.001878557199092779 -0.0018782331330409292 -0.0018779090669890793
          -0.002282184111975588 -0.0022832309363081844 -0.0022842777606407808 -0.0025762557747881004 -0.00257825869143192 -0.00258026160807574
          -0.0027321203150452757 -0.0027343881595977776 -0.00273665600415028 -0.002757482467730127 -0.002759636696139381 -0.002761790924548636
          -0.0007442480875120295 -0.0007428315411862642 -0.000741414994860499 -0.0012235594645942317 -0.0012214457432666776 -0.0012193320219391237
          -0.0017281536050020915 -0.0017270071534680365 -0.001725860701933982 -0.0021882591041582364 -0.002188786641294038 -0.0021893141784298403
          -0.002549426173115963 -0.0025512964538459606 -0.002553166734575958 -0.0027752156295279126 -0.0027779083287982247 -0.002780601028068537
          -0.0028480308720764515 -0.00285048475318348 -0.0028529386342905083 -0.002787846909212275 -0.0027899779198106048 -0.0027921089304089354
          -0.001009177100816193 -0.001007129412364494 -0.0010050817239127948 -0.0015446187156812443 -0.0015428094560495788 -0.0015410001964179135
          -0.0020634985790615595 -0.0020632265000405854 -0.002062954421019611 -0.002492666458333815 -0.002494049291009445 -0.0024954321236850753
          -0.0027864278248077847 -0.0027888573798630213 -0.002791286934918257 -0.0029265904847439314 -0.002929739990771302 -0.002932889496798672
          -0.0029195850612222397 -0.0029227365241082225 -0.0029258879869942054 -0.00281108114664193 -0.002813621765629722 -0.0028161623846175137
          -0.0013265361372529131 -0.0013245567912250633 -0.0013225774451972136 -0.0019008472221878274 -0.0018999071631158953 -0.0018989671040439634
          -0.0024085751877376666 -0.0024094158632653384 -0.0024102565387930106 -0.002780761892771991 -0.002783030280115108 -0.0027852986674582257
          -0.002985621241044211 -0.002988592427380567 -0.0029915636137169237 -0.0030242006506279928 -0.0030277964346758185 -0.003031392218723644
          -0.002925520818302003 -0.0029293468410447106 -0.002933172863787418 -0.0027667779704312213 -0.0027692217643475597 -0.002771665558263898
          -0.0022851169964102397 -0.002285485650492982 -0.0022858543045757235 -0.0027504653767627158 -0.002752532805063235 -0.002754600233363755
          -0.0030380658971111 -0.0030413423965688618 -0.0030446188960266242 -0.0031346347814165012 -0.003138469018515857 -0.003142303255615212
          -0.0030580977580242147 -0.0030625959435652407 -0.003067094129106266 -0.0028452933690106064 -0.002849330988376278 -0.00285336860774195
          -0.002565953800403678 -0.0025676542831719034 -0.0025693547659401293 -0.0026861357553488643 -0.0026881602663549877 -0.002690184777361112
          -0.00307169580484464 -0.0030751184847603234 -0.0030785411646760087 -0.0032433079891762803 -0.0032477111276889153 -0.0032521142662015503
          -0.0032080917182006905 -0.0032128785438033515 -0.003217665369406013 -0.0029978058339098774 -0.003002902397972899 -0.00300799896203592
          -0.0026525883488268563 -0.0026558312267673133 -0.00265907410470777 -0.0022475600463458326 -0.002247724272622234 -0.0022478884988986355
          -0.0030854844971410405 -0.003089386965785097 -0.0030932894344291527 -0.0033469379703502293 -0.003351810273357549 -0.0033566825763648687
          -0.0033662185076034374 -0.003371629431957551 -0.003377040356311664 -0.0031721182613468116 -0.0031773268374088903 -0.003182535413470969
          -0.0028123706283403513 -0.0028169535782638453 -0.0028215365281873406 -0.0023452048255230033 -0.0023467543211144917 -0.0023483038167059806
          -0.003452912801200931 -0.0034588239185711477 -0.003464735035941365 -0.0035408146025274322 -0.0035470138166587006 -0.003553213030789969
          -0.0033711813885980864 -0.0033770905278560142 -0.003382999667113942 -0.002999590567921509 -0.003004316022142942 -0.0030090414763643747
          -0.002498513633156712 -0.0025016880531146734 -0.002504862473072636 -0.0025261003183317935 -0.0026963429481586415 -0.0026848536593209187
          -0.0026049457518422456 -0.0025278624255074328 -0.0026981232692388866 -0.0026868185086193264 -0.0026062157306006284 -0.002529624532683071
          -0.0026999035903191313 -0.0026887833579177347 -0.0026074857093590113 -0.0020689123584323415 -0.002202020552628003 -0.001999952705047904
          -0.0018226585881125443 -0.0020683524927444783 -0.002202295957077398 -0.0020007057023284855 -0.001822920047067497 -0.0020677926270566147
          -0.002202571361526793 -0.002001458699609066 -0.00182318150602245 -0.0020703380312799826 -0.0018671562599001765 -0.0023060877043351393
          -0.002072511281203996 -0.0018681438571670115 -0.0023073739678498794 -0.0020746845311280094 -0.0018691314544338462 -0.002308660231364619
          -0.0019119741078199696 -0.0019137573263891098 -0.00191554054495825 -0.0026410229109128315 -0.0025606263799067336 -0.0026187002677554236
          -0.002626135409671004 -0.0026433871812147846 -0.0025627181623756254 -0.0026199692517170363 -0.0026275860773374484 -0.0026457514515167385
          -0.002564809944844518 -0.0026212382356786495 -0.0026290367450038927 -0.0018539476563002037 -0.0016052265841054465 -0.001852762522763212
          -0.0016052110707764078 -0.0018515773892262206 -0.0016051955574473693 -0.0024138847097689453 -0.0021111007429197174 -0.002116269165872468
          -0.0024152056841576304 -0.002112094344517248 -0.0021189113828421783 -0.0024165266585463164 -0.0021130879461147786 -0.0021215535998118885
          -0.0013682150443849958 -0.0016119285054170397 -0.0013683068077782882 -0.001610424669040798 -0.0013683985711715806 -0.0016089208326645562
          -0.0025272449016619444 -0.0021599567867398523 -0.0025291025543522053 -0.0021625378331082217 -0.0025309602070424653 -0.0021651188794765902
          -0.0024182470329602683 -0.002418915584863951 -0.0024195841367676335 -0.0024655012135472226 -0.0021674115436044845 -0.0024671817110838387
          -0.002168665762017013 -0.0024688622086204543 -0.0021699199804295416 -0.0026578062484698376 -0.0025338792656947494 -0.0026599917079184396
          -0.0025364603940529686 -0.002662177167367042 -0.0025390415224111887 -0.0024874948101593942 -0.0025350982800732918 -0.002489094599571078
          -0.0025362381952811156 -0.0024906943889827613 -0.0025373781104889395 -0.0021657532622325055 -0.002361361988845103 -0.002166376072137273
          -0.002362014214022417 -0.0021669988820420404 -0.0023626664391997306 -0.0011345595709301214 -0.0011351606226820787 -0.0011357616744340359
          -0.0007818666785130408 -0.0009178031362772085 -0.0007841578086013662 -0.0009192707321808907 -0.0007864489386896914 -0.000920738328084573
          -0.0022646619394955446 -0.0022648000796773693 -0.0022649382198591935 -0.0007076941992063056 -0.0007104263072510951 -0.0007131584152958846
          -0.0026111657962274507 -0.0026122471668046494 -0.002613328537381849 -0.0006022261261707443 -0.000605807829920515 -0.0006093895336702858
          -0.0013730470410612404 -0.0013711340014358401 -0.00136922096181044 -0.0011320449943661426 -0.0011309394059997998 -0.0011298338176334573
          -0.0009601588508830343 -0.0009606450542773864 -0.0009611312576717383 -0.0018735969396884236 -0.0018721555886767058 -0.0018707142376649878
          -0.001954689285043685 -0.001954636239461913 -0.0019545831938801413 -0.0014807695281533755 -0.0014787296603984697 -0.0014766897926435643
          -0.0036080112301674953 -0.003742333008394343 -0.0036151904357878102 -0.0037503323402364856 -0.003622369641408125 -0.0037583316720786277
          -0.0032242081904068766 -0.0032298513260224457 -0.0032354944616380145 -0.0026817030960511953 -0.002685115598963032 -0.002688528101874869
          -0.0020819323503296116 -0.002083317198431317 -0.002084702046533022 -0.001527316893082809 -0.0015260872997766503 -0.0015248577064704918
          -0.001481076470668284 -0.0014824982138921374 -0.0014839199571159904 -0.0015129639911334125 -0.0015132409387140751 -0.0015135178862947375
          -0.002619286663488176 -0.0025268181549887355 -0.0026201693949110907 -0.0025286664109905816 -0.0026210521263340058 -0.002530514666992427
          -0.0016209166058873531 -0.00160734670743878 -0.001621374853782377 -0.001608653886918371 -0.0016218331016774005 -0.0016099610663979618
          -0.002286522453574937 -0.0024495493136876675 -0.0022867393445193816 -0.0024508468697268305 -0.002286956235463826 -0.0024521444257659944
          -0.0020939465578392715 -0.00209335998629762 -0.0020927734147559683 -0.0015903853192385355 -0.001591208563424788 -0.0015920318076110404
          -0.0025789399505880273 -0.0026292607175454324 -0.002580025994142474 -0.0026311364807675985 -0.002581112037696921 -0.0026330122439897647
          -0.0017083221075807147 -0.0017084546838063027 -0.001708587260031891 -0.0018652139001227427 -0.0022464882405361345 -0.0018658452020310417
          -0.002249095270237962 -0.0018664765039393407 -0.0022517022999397904 -0.0014792509248630938 -0.0014793479082916717 -0.0014794448917202496
          -0.0018857326765948435 -0.001884319586318125 -0.0018829064960414065 -0.0008684585550847056 -0.001130884421187687 -0.0008685443849238518
          -0.0011296291328005707 -0.0008686302147629981 -0.0011283738444134547 -0.0016819392830409287 -0.0016794576302555518 -0.001676975977470175
          -0.0014561024998476285 -0.0014538253661142185 -0.0014515482323808088 -0.0011539010545074879 -0.0011548537522351925 -0.0011558064499628976
        </DataArray>
        <DataArray type="Float64" Name="pe33" format="ascii" RangeMin="-0.003506638196441843" RangeMax="0">
          -0.00006341959208494189 -0.00011779212967149285 -0.00006952450599125217 -0.00013282426822843312 -0.00007562941989756246 -0.00014785640678537337
          -0.000007274243280946493 -0.000010138011610619164 -0.000007012082479339937 -0.000010247852527195342 -0.00000674992167773338 -0.00001035769344377152
          -0.0000018179748545217556 -0.0000036359497090435112 -9.089874272608778e-7 -0.0000018179748545217556 0 0
          0 0 0 0 0 0
          -0.000002434383932320476 0 -0.000002746468495618973 0 -0.00000305855305891747 0
          -0.000042911468440651716 -0.00002886347808444913 -0.000044057390936700155 -0.000029771985687791486 -0.000045203313432748594 -0.00003068049329113384
          -0.00015919868963403452 -0.0001353803741800274 -0.00016321033514360057 -0.00013965530253692303 -0.00016722198065316667 -0.00014393023089381867
          -0.0003563776844491004 -0.00035267287717921723 -0.0003658098244448422 -0.00036163719996160597 -0.00037524196444058404 -0.00037060152274399476
          -0.000004523527249195464 -0.000003112371877035616 -0.0000017012165048757684 -0.000002205237475636911 -0.0000018881562157422656 -0.0000015710749558476201
          0 0 0 0 0 0
          -0.000014373771683797125 -0.000015071177966843868 -0.00001576858424989061 -0.00008634064208950383 -0.00008780279388654923 -0.00008926494568359462
          -0.00023025894469198084 -0.00023382884915165348 -0.00023739875361132617 -0.0004246114382793588 -0.00043422196180617473 -0.0004438324853329907
          0 0 0 0 0 0
          0 0 0 -8.774445506461804e-8 -1.897630712237747e-7 -2.9178168738293133e-7
          -0.00003882807771307651 -0.000039700888019624024 -0.00004057369832617156 -0.00015765238287452824 -0.00015919182919419783 -0.00016073127551386742
          -0.00033984469926699143 -0.0003430891442137912 -0.00034633358916059097 -0.0005560867837834807 -0.0005648981825200306 -0.0005737095812565806
          0 0 0 0 0 0
          0 0 0 -0.000005494152123542169 -0.000006089572830931061 -0.000006684993538319954
          -0.0000797922703489833 -0.00008118118199782719 -0.00008257009364667108 -0.0002530355156630904 -0.0002545527470570058 -0.00025606997845092124
          -0.00047314536080720324 -0.0004763083416717055 -0.0004794713225362078 -0.000703854896909839 -0.0007120259977761127 -0.0007201970986423863
          0 0 0 0 0 0
          0 -2.0121693924359033e-8 -4.0243387848718066e-8 -0.000027520324788633905 -0.000028672420549777636 -0.000029824516310921362
          -0.00015039229984079418 -0.0001523900773203201 -0.00015438785479984598 -0.0003724897118251425 -0.0003740631379791715 -0.0003756365641332005
          -0.0006280188888448816 -0.0006314017559084401 -0.0006347846229719984 -0.0008876396755515167 -0.0008952157622235297 -0.0009027918488955428
          0 0 0 0 0 0
          -0.00000664740268989302 -0.000007235003726383788 -0.000007822604762874555 -0.00007705650887490772 -0.00007902771878389714 -0.00008099892869288655
          -0.0002576496790477487 -0.0002600009875655583 -0.0002623522960833679 -0.0005204685239302219 -0.0005221822618811668 -0.0005238959998321117
          -0.0008101059363013006 -0.0008135644824323383 -0.0008170230285633761 -0.0011042265640239894 -0.0011104409990793094 -0.0011166554341346295
          0 0 0 0 0 0
          -2.192676983062434e-7 -3.5871051622930096e-7 -4.981533341523585e-7 -0.000035734791440312796 -0.00003711243995057365 -0.00003849008846083451
          -0.00016741690559205153 -0.00017022853465620865 -0.00017304016372036573 -0.00040194108000247584 -0.00040449513165407463 -0.0004070491833056735
          -0.0007024762775956027 -0.0007041065778497369 -0.0007057368781038713 -0.0010191007422961779 -0.00102215286995816 -0.0010252049976201417
          -0.001334668229910099 -0.0013390640794367944 -0.0013434599289634899 0 0 0
          0 0 0 -0.000010639888344956121 -0.00001141377184586814 -0.000012187655346780156
          -0.00009793114896413033 -0.00010014754565533366 -0.00010236394234653701 -0.00029884978522313235 -0.00030196562053700965 -0.00030508145585088695
          -0.0005835961132743318 -0.0005860403018164799 -0.0005884844903586283 -0.0009194105999013405 -0.0009204203900444335 -0.0009214301801875266
          -0.001251640146030414 -0.0012536898861396839 -0.0012557396262489538 -0.0015673455010120287 -0.0015699183824408325 -0.0015724912638696363
          0 0 0 -3.362292471777581e-7 -5.289292293659703e-7 -7.216292115541824e-7
          -0.0000436543272873923 -0.000045276911877686314 -0.00004689949646798032 -0.00019850201824178176 -0.00020159179627328848 -0.0002046815743047952
          -0.00046423606491693964 -0.00046749321650748314 -0.00047075036809802665 -0.0007995870289012538 -0.0008014961219603849 -0.0008034052150195157
          -0.001164834703221717 -0.001164710930445471 -0.001164587157669225 -0.0015006911985753736 -0.0015011580278846046 -0.0015016248571938357
          -0.0017942607939220975 -0.001794947941470701 -0.0017956350890193042 0 0 0
          -0.000013120404466560525 -0.000014153451683522737 -0.00001518649890048495 -0.00011137439429458111 -0.0001141813730936377 -0.00011698835189269429
          -0.00034023082200035284 -0.00034382810648503706 -0.0003474253909697213 -0.0006656695332210667 -0.0006687520068214839 -0.0006718344804219012
          -0.0010442747716985902 -0.0010452191031979639 -0.0010461634346973373 -0.0014250101258703465 -0.0014235687175926854 -0.0014221273093150246
          -0.0017516856675521468 -0.0017503684772309214 -0.0017490512869096958 -0.0020142642716869897 -0.0020128877582352715 -0.0020115112447835534
          -0.000001305304222200528 -0.0000017437409480684684 -0.0000021821776739364087 -0.00005320430183876522 -0.00005545976659896153 -0.00005771523135915784
          -0.0002263205945068732 -0.00023021840259478344 -0.00023411621068269368 -0.0005238506534797448 -0.0005276823149882423 -0.0005315139764967398
          -0.0009029678561314833 -0.0009053761356908785 -0.0009077844152502736 -0.001310940935112296 -0.0013106002226457734 -0.0013102595101792507
          -0.001690979753933263 -0.0016880969943533245 -0.0016852142347733863 -0.001996006204488009 -0.0019927786327102195 -0.00198955106093243
          -0.0022602991928404106 -0.002256559747607253 -0.002252820302374095 -0.000017445573933710754 -0.000018846482990750153 -0.00002024739204778955
          -0.00013130797324925335 -0.00013485406376191709 -0.00013840015427458088 -0.0003870970884761586 -0.0003914320407271461 -0.0003957669929781335
          -0.000750370555751679 -0.0007538839760643813 -0.0007573973963770836 -0.001172490663475617 -0.001173673970519906 -0.0011748572775641948
          -0.001592717736875306 -0.001590809281328594 -0.0015889008257818815 -0.001957750058152443 -0.0019531786108521352 -0.0019486071635518272
          -0.0022294729897004264 -0.002224129013275638 -0.0022187850368508497 -0.0024068445025301264 -0.002401775309811685 -0.002396706117093244
          -0.00006106442616091554 -0.00006373288961959517 -0.0000664013530782748 -0.00025548383355286956 -0.00026015488886201884 -0.000264825944171168
          -0.0005913277414439706 -0.0005958118283151153 -0.0006002959151862601 -0.001016979168503262 -0.0010194804822695538 -0.0010219817960358461
          -0.0014675337876325178 -0.001466927317491071 -0.0014663208473496242 -0.0018806367307798648 -0.0018768367482815459 -0.001873036765783227
          -0.0022111753878497923 -0.0022049003355032962 -0.0021986252831568 -0.0024324142794133466 -0.002425231769788232 -0.002418049260163118
          -0.002542829421167786 -0.002535819616505244 -0.002528809811842702 -0.00014404441473652975 -0.00014807012430980056 -0.0001520958338830714
          -0.0004278646678815108 -0.0004332349657486387 -0.00043860526361576665 -0.0008424856588550072 -0.0008465174696950401 -0.000850549280535073
          -0.0013181063802116487 -0.0013188597484074872 -0.0013196131166033256 -0.001777265732901274 -0.0017743927812813038 -0.0017715198296613332
          -0.002161468893701579 -0.0021555772026638016 -0.0021496855116260242 -0.0024357076547495285 -0.002427991760428164 -0.0024202758661067995
          -0.0025869470555660856 -0.002578825840587962 -0.0025707046256098383 -0.002623199404218135 -0.0026152942975944476 -0.002607389190970759
          -0.0006539519240613066 -0.0006595809439977486 -0.0006652099639341905 -0.0011406861604583338 -0.0011433913417296787 -0.0011460965230010239
          -0.0016446727107415514 -0.0016430015772914742 -0.0016413304438413969 -0.002086623477660654 -0.002081296851258561 -0.0020759702248564675
          -0.0024193215394093183 -0.0024114472011484006 -0.002403572862887483 -0.0026199474502208403 -0.0026110851049476174 -0.002602222759674394
          -0.0026869620154972487 -0.002678864632260497 -0.002670767249023746 -0.00264074305799105 -0.002633189309627737 -0.0026256355612644233
          -0.0009395650858880071 -0.0009446523326408382 -0.0009497395793936693 -0.0014798893797031824 -0.0014804110372241522 -0.0014809326947451222
          -0.0019836738627873494 -0.0019790972034723756 -0.0019745205441574014 -0.0023794156147139266 -0.0023717178405220766 -0.0023640200663302257
          -0.0026369803834846006 -0.0026277182514567263 -0.002618456119428852 -0.0027508604128545088 -0.002741684166369552 -0.002732507919884595
          -0.002736224639875431 -0.0027283093656018075 -0.0027203940913281843 -0.0026168520488569318 -0.0026088276036227718 -0.0026008031583886117
          -0.001285087728843047 -0.0012886498970832022 -0.0012922120653233574 -0.0018475026779580254 -0.0018452941574765866 -0.0018430856369951476
          -0.002318816779023021 -0.0023111921100935303 -0.0023035674411640396 -0.0026408952123801715 -0.0026310584724936435 -0.0026212217326071156
          -0.0028016431166149706 -0.0027918047049083454 -0.00278196629320172 -0.002816633549518692 -0.0028084358132545026 -0.0028002380769903135
          -0.002731630182970864 -0.0027236573269215306 -0.0027156844708721966 -0.0025785746432431655 -0.0025679750415242416 -0.0025573754398053182
          -0.00168338862551925 -0.0016844681198037767 -0.0016855476140883036 -0.002226142032948173 -0.0022211092498002237 -0.002216076466652275
          -0.002631508095010595 -0.00262109221962321 -0.0026106763442358258 -0.002856884296334285 -0.0028453539850875637 -0.002833823673840842
          -0.002907821708744956 -0.002897932458929982 -0.002888043209115008 -0.0028192161311306517 -0.002812257402325654 -0.0028052986735206554
          -0.0026652504322074327 -0.002657064299542632 -0.00264887816687783 -0.00249399295019384 -0.0024805019783335036 -0.0024670110064731678
          -0.002595507275220612 -0.0025880306587565483 -0.002580554042292485 -0.002902900981208229 -0.002890250084850438 -0.0028775991884926475
          -0.003013269705715364 -0.0030006417507398493 -0.002988013795764334 -0.002949588962030891 -0.002939844001679555 -0.002930099041328218
          -0.00276201805890268 -0.0027554957592041546 -0.0027489734595056285 -0.0025349470471371692 -0.002526336827115112 -0.0025177266070930556
          -0.0022993553719930795 -0.002286387772794177 -0.002273420173595275 -0.002933851669379409 -0.002924594307534392 -0.0029153369456893755
          -0.0031145923269337815 -0.003100375227597354 -0.003086158128260928 -0.003095536669107721 -0.0030823478691777784 -0.0030691590692478363
          -0.0029139110608719333 -0.0029044962856811262 -0.0028950815104903183 -0.0026285531270548532 -0.0026223744707119137 -0.0026161958143689737
          -0.0023196991035253633 -0.0023118677302489486 -0.0023040363569725346 -0.001990419328863919 -0.0019826119741691885 -0.0019748046194744584
          -0.0032175099152896474 -0.003207090097587206 -0.003196670279884765 -0.003246632096117066 -0.0032315759986071488 -0.003216519901097232
          -0.0030862614701155046 -0.0030731828087241352 -0.003060104147332767 -0.002783197516605946 -0.002774849386441899 -0.0027665012562778533
          -0.0024011459365269054 -0.002396689404013547 -0.002392232871500188 -0.0020162962304378414 -0.0020117170859488666 -0.002007137941459892
          -0.003418835823565284 -0.003407721072339411 -0.0033966063211135376 -0.003275840239463334 -0.0032609036652127207 -0.0032459670909621074
          -0.002966604098852443 -0.002954867826553666 -0.0029431315542548893 -0.002546475279654169 -0.0025406802932885723 -0.002534885306922976
          -0.002085590269075903 -0.0020846027737110757 -0.002083615278346248 -0.0022274741107235325 -0.002517242853232173 -0.002562906354651531
          -0.002420277479743786 -0.0022213154253872443 -0.0025083541930428035 -0.0025544810713387938 -0.0024120497943486354 -0.0022151567400509557
          -0.002499465532853434 -0.0025460557880260565 -0.0024038221089534846 -0.002167082712160916 -0.002302932280015761 -0.002072279042144136
          -0.001887401832808716 -0.0021594523987660237 -0.0022937670837217005 -0.002067695161475224 -0.001884486017352579 -0.002151822085371131
          -0.0022846018874276394 -0.0020631112808063116 -0.0018815702018964413 -0.0017291452577623996 -0.0016021738502114621 -0.0020068402069187163
          -0.001731332434197876 -0.0016033648081883122 -0.001998777017704352 -0.0017335196106333531 -0.0016045557661651627 -0.001990713828489988
          -0.0015673238653816162 -0.0015735032696512843 -0.001579682673920952 -0.0025702441842331636 -0.002516296303607502 -0.002552049965643224
          -0.002515566843230216 -0.002562024283410586 -0.0025091494737223014 -0.002541893465808935 -0.002506006734923886 -0.002553804382588008
          -0.002502002643837102 -0.0025317369659746463 -0.0024964466266175554 -0.0019671114538629556 -0.0016623136613942437 -0.001961904146811213
          -0.0016622175362822815 -0.0019566968397594703 -0.0016621214111703193 -0.0020542863187434294 -0.00174397054778283 -0.0017670010446648745
          -0.0020520319952533872 -0.001745412401811689 -0.0017672978520656512 -0.002049777671763346 -0.0017468542558405483 -0.001767594659466428
          -0.0014159255077303306 -0.0017358013698470344 -0.0014194287053340404 -0.001733711198926954 -0.001422931902937751 -0.001731621028006873
          -0.002226170394104298 -0.0018255825241012883 -0.002218177213577719 -0.0018252945943907247 -0.00221018403305114 -0.0018250066646801608
          -0.0024580944214080518 -0.0024485685300477704 -0.0024390426386874894 -0.002174639034248113 -0.0018096200680636377 -0.002170519879245199
          -0.001811188575732413 -0.0021664007242422853 -0.0018127570834011886 -0.0024230481650337468 -0.002222563132339116 -0.0024137127526049013
          -0.0022147815776546666 -0.002404377340176056 -0.0022070000229702166 -0.002450233186154309 -0.0024987568833866073 -0.0024440668205675717
          -0.002489924405306048 -0.002437900454980834 -0.0024810919272254886 -0.0022313514495249753 -0.00237794120740821 -0.002225750423086324
          -0.0023710637786769637 -0.0022201493966476724 -0.0023641863499457177 -0.0011696753194467293 -0.0011772260761484402 -0.001184776832850151
          -0.0008119805898081678 -0.0009478091357927268 -0.0008233969536397173 -0.0009584649550832244 -0.0008348133174712668 -0.000969120774373722
          -0.0023624293297422314 -0.002353042135904116 -0.0023436549420660017 -0.0007272417723845528 -0.0007384680111337825 -0.0007496942498830124
          -0.002299240159310129 -0.0022855929308631 -0.002271945702416071 -0.0006157913527784486 -0.0006270397231109435 -0.0006382880934434385
          -0.0014988848761910598 -0.0015008429766457782 -0.0015028010771004963 -0.0012628604003363279 -0.0012682066961112693 -0.001273552991886211
          -0.0010786839404850722 -0.0010859374259044499 -0.0010931909113238278 -0.0016330049571667928 -0.0016313348173251177 -0.001629664677483443
          -0.001659872359249909 -0.0016597769896903015 -0.0016596816201306943 -0.0012856050307041306 -0.0012881127936965647 -0.0012906205566889989
          -0.0031787073585560228 -0.003506638196441843 -0.0031652445388173434 -0.003495202457441696 -0.003151781719078664 -0.003483766718441549
          -0.0027245650455344416 -0.0027159791478635078 -0.002707393250192574 -0.002210249992440655 -0.002208636725536041 -0.002207023458631427
          -0.0017109017791615867 -0.0017141599222386362 -0.0017174180653156857 -0.0012943802065207024 -0.0012981485109047628 -0.0013019168152888236
          -0.0012168227757805036 -0.0012248729885691947 -0.001232923201357886 -0.001239287377493078 -0.0012460859229734707 -0.0012528844684538633
          -0.002507762795655668 -0.0023085465227173333 -0.0024987999259138017 -0.0023036570852106317 -0.002489837056171935 -0.0022987676477039297
          -0.0013419669451721092 -0.0013559171704707238 -0.0013454763167484113 -0.0013587297232379421 -0.0013489856883247132 -0.0013615422760051604
          -0.002368043946744953 -0.0024732688742651774 -0.0023625750930671586 -0.002465675921254283 -0.002357106239389365 -0.0024580829682433894
          -0.0022286067713792584 -0.0022241146055028155 -0.0022196224396263727 -0.0013273087106802802 -0.0013314796495021485 -0.0013356505883240165
          -0.0025321332957901365 -0.0025256352767868543 -0.0025223074024894676 -0.0025184158546756544 -0.0025124815091887983 -0.0025111964325644546
          -0.0013994685958644481 -0.0014039532881168185 -0.001408437980369189 -0.00157192448388663 -0.001925087342786989 -0.0015744256535876427
          -0.0019264260630986218 -0.0015769268232886553 -0.0019277647834102549 -0.0012478096872287322 -0.0012546269481123811 -0.0012614442089960304
          -0.0020660874025250024 -0.002062410739219889 -0.0020587340759147758 -0.0009467570856603164 -0.001282470036514085 -0.0009539929774054382
          -0.0012859923121138332 -0.0009612288691505602 -0.0012895145877135812 -0.0018937340618928285 -0.0018910160545934185 -0.0018882980472940088
          -0.0016833467919642113 -0.0016817568477152359 -0.0016801669034662604 -0.0009481703047987374 -0.0009577783916680944 -0.0009673864785374514
        </DataArray>
        <DataArray type="Float64" Name="disp_x" format="ascii" RangeMin="0.0000017981885776522443" RangeMax="0.000031765829925256886">
          0.000002146606567821033 0.000002100406692142571 0.0000021472984153512815 0.0000021202753852453022 0.0000021497544538089656 0.000002184144926287828
          0.00000270702881382929 0.0000026821470304843917 0.000002707843855267184 0.000002690663588657306 0.000002709631277899525 0.0000026948350855930833
          0.0000032675102108210807 0.000003268939872923034 0.000003267163017641182 0.0000032646699362361554 0.0000032653695557945723 0.0000032598526621184867
          0.0000038274351764950455 0.000003827455008731255 0.000003827241153774646 0.000003827698974339624 0.0000038272162666353195 0.000003827838227810466
          0.000004386843382540143 0.0000043875686198864555 0.000004387381184788815 0.000004388020150983522 0.000004388155553559738 0.000004388534337851461
          0.000004949754346404564 0.000004947979818977859 0.000004951674868883324 0.000004949238083986579 0.000004957656522692581 0.000004953676179959775
          0.000005582482390105863 0.000005554112107317005 0.000005585529652811659 0.000005557435614533907 0.0000055962265194513 0.0000055670925160879804
          0.000006356067327393507 0.0000063074283771525336 0.000006364848647550448 0.000006316026486175767 0.000006385254181311358 0.00000634312885231486
          0.0000021993743641747016 0.000002200472359705819 0.0000022046418228117484 0.000002749260538454679 0.000002748288028234429 0.0000027447175154753793
          0.000003277032958114635 0.0000032769203497388367 0.000003277485738158435 0.00000382318434750808 0.000003823786540407247 0.000003825309475766974
          0.000004377879762767903 0.000004379004130420347 0.000004381730672801091 0.000004965590133244941 0.000004968305087577199 0.000004977442138075916
          0.000005657900903029389 0.0000056616741085897205 0.000005672755815624136 0.000006500449494019911 0.0000065085978983742814 0.00000653116448613925
          0.0000022410785705760955 0.0000022407147773600954 0.0000022392653964124785 0.000002791988975233181 0.0000027909455472004317 0.0000027874685580386337
          0.0000033082699070947253 0.0000033079727583696477 0.0000033070744977857457 0.000003823804770311965 0.00000382482579566809 0.000003828164134422969
          0.0000043752014215882525 0.000004377790360081103 0.000004385174806699465 0.000005008847858529589 0.0000050126629855613255 0.000005025010007957705
          0.00000578348693579971 0.000005788358695173308 0.0000058027356355256866 0.000006754598179496745 0.000006761899591755768 0.000006785160633897274
          0.00000226422259214554 0.000002263448192886481 0.0000022618569338601876 0.0000028252921049779898 0.0000028241382388997813 0.000002819929413285288
          0.0000033355983309503726 0.0000033353094459771774 0.0000033341927433424976 0.000003838604008623078 0.000003840568578995902 0.000003846547534400644
          0.000004404660821539133 0.000004408540192293202 0.000004419958924664291 0.000005099820176088568 0.000005104752549903685 0.000005120846673328079
          0.000005982643215439006 0.000005988100578972166 0.00000600381947074267 0.000007075977879169627 0.000007084166754517471 0.000007107904731370588
          0.000002288016373432948 0.0000022872094256355594 0.0000022855163841169686 0.0000028479438246732 0.00000284683411068743 0.000002842611787307378
          0.0000033542047016277226 0.000003354348727800538 0.0000033545866558407908 0.00000386881773174549 0.000003871632227423895 0.0000038804166672096395
          0.000004477884138380286 0.000004483061179707469 0.000004498226015965943 0.000005256482757316558 0.00000526237166001101 0.000005281529145984963
          0.000006258877938681813 0.000006265097577561188 0.000006282607991031905 0.000007496549501303111 0.000007505707560224599 0.000007532976304895611
          0.000002318335595107847 0.0000023175209716606452 0.0000023150236671527063 0.0000028550826293177284 0.000002854460505494726 0.0000028519424789182675
          0.000003364105653972192 0.0000033653594646145346 0.0000033692248892499063 0.000003920350124794114 0.000003924136591542973 0.000003935919047819544
          0.00000460458782989892 0.000004610737644885885 0.000004628881922500672 0.000005490911611303546 0.0000054976565715137145 0.000005519506204622006
          0.000006633024018982485 0.000006640113206476886 0.000006660133409162857 0.000008046021153173198 0.000008055981747217946 0.000008085733776306131
          0.0000018007951912093798 0.000001800203685719648 0.0000017981885776522443 0.00000234039330126811 0.0000023396082394721945 0.0000023366175730038653
          0.000002846805265626534 0.0000028473011857872318 0.0000028489982547476937 0.000003380568963169003 0.0000033832590818560513 0.00000339170592773207
          0.000004006079454995518 0.0000040110457219846414 0.000004026002095129205 0.0000047949125414952 0.000004802002297658949 0.0000048231431111824024
          0.0000058194355250230695 0.000005826983769780455 0.000005851208971638821 0.000007129586448933623 0.000007137320929109056 0.000007159184461921096
          0.000008734465074302005 0.000008744636382434965 0.000008775233743792556 0.0000018285972970261706 0.0000018275823327111603 0.0000018236802947266563
          0.0000023411171861828933 0.0000023406754426938173 0.0000023394240394102893 0.00000285043311008707 0.0000028523767888461995 0.0000028585052439389397
          0.000003425423087700298 0.0000034296447592264543 0.0000034423190856164995 0.000004138692073222854 0.000004144949190422299 0.000004163989549758591
          0.0000050616857795983995 0.000005069832720341711 0.0000050941583096536025 0.000006258293282805916 0.000006266417592364527 0.000006292404049133935
          0.000007764989518032161 0.000007773002492444327 0.000007795488418083088 0.00000957481243819381 0.000009584767985227692 0.000009614506461493247
          0.0000018337725831862506 0.0000018326822534641069 0.0000018286609784505123 0.0000023456614578401115 0.000002346026510667709 0.000002346928001428738
          0.00000287365345183144 0.0000028769196295879703 0.0000028871053992332988 0.00000351042945980033 0.0000035161932516828065 0.000003533566603386138
          0.000004336450327390891 0.0000043440974953714345 0.000004367442970210028 0.000005421980179328705 0.0000054310950147052814 0.000005458488765736879
          0.0000068202025702899726 0.000006828778410910759 0.000006855939414503146 0.000008548060311131789 0.000008555893134411511 0.000008577889232113797
          0.000010573915519109763 0.00001058286353743386 0.000010609455535653996 0.000001826900380687514 0.0000018262608744122596 0.0000018236367523977846
          0.0000023478297183237366 0.000002349382668083699 0.00000235400023194685 0.0000029223058803462257 0.0000029270096267947186 0.000002941451551375915
          0.000003650055156975567 0.000003657344271875571 0.000003679420757416752 0.000004618955080132621 0.00000462799171356527 0.000004655442442151519
          0.000005895806532038938 0.0000059056771763157445 0.000005935306393283031 0.000007516049779985589 0.000007524624003219334 0.000007551934161252943
          0.000009475288173705342 0.0000094827356860292 0.000009503243243925365 0.000011717102395842864 0.000011724446160947854 0.000011746459785142135
          0.0000018091920187203152 0.0000018094606568606645 0.000001810797633656621 0.000002356186724335362 0.00000235948650528291 0.000002369309326782487
          0.000003006754204038711 0.0000030130186000889612 0.0000030319909885875637 0.00000385978526837609 0.000003868527529134942 0.000003895164836801898
          0.000005005429347517951 0.000005015575662869277 0.000005046377176947526 0.0000065007555943488795 0.000006510846283166908 0.000006541310331698561
          0.00000835730697034737 0.00000836574750344315 0.000008391282515310601 0.000010538127866950626 0.000010544673055721848 0.00001056366108480781
          0.000012982123234932401 0.000012987762075228883 0.000013005311170787486 0.0000018013839241303043 0.0000018030864338608506 0.0000018085856542113468
          0.000002389431685908154 0.0000023945650115719375 0.0000024100979721492996 0.0000031420198090802482 0.0000031500323963331017 0.000003174374026805465
          0.000004156885008577303 0.0000041670048628870325 0.0000041977916305472275 0.000005513727476632608 0.000005524516752602645 0.000005557212950619248
          0.000007249405146157209 0.000007259449803859128 0.000007289528352275069 0.000009352038115884897 0.000009359892610881965 0.000009384226752936357
          0.000011773178282403323 0.000011778455676842067 0.00001179411064135462 0.000014435368132891262 0.000014439067728164972 0.000014448305410046668
          0.0000018046528138561653 0.0000018083142237638125 0.0000018189018342096362 0.0000024645218511213273 0.0000024714673509456334 0.0000024926600782327165
          0.0000033495763217238596 0.0000033593892574380773 0.00000338937623197324 0.00000456157310134144 0.000004572851625434903 0.000004607043803864223
          0.0000061612332410359025 0.000006172232592818033 0.000006205469139784172 0.00000815717505857776 0.000008166560205352092 0.000008194876547197849
          0.00001051198002684945 0.000010518793465963398 0.000010539242336352102 0.000013151267525570046 0.000013155178274479074 0.000013166851766648169
          0.000015972829211511723 0.000015974537318976276 0.000015979687549454413 0.0000018332670915535323 0.0000018386881469801417 0.0000018542487470770307
          0.0000025957245149403647 0.0000026045880108228886 0.0000026320614515859924 0.000003652332488309312 0.000003663861703534488 0.0000036989624519556424
          0.0000050978764936301265 0.000005109857879661808 0.0000051461117885962525 0.0000069664900767617555 0.000006977155003171747 0.000007009320525948718
          0.000009234266083693322 0.000009242497167454899 0.000009267190007615977 0.000011831669633173106 0.000011836866988372518 0.000011852582225324686
          0.000014660401486182472 0.000014662547667219736 0.00001466893048045745 0.000017610507974620842 0.00001761010297468548 0.00001760770810179893
          0.000002803690509089505 0.000002814525808763534 0.000002848537708951914 0.000004076054288228699 0.000004088991431451894 0.000004127955571951835
          0.000005790715913748769 0.0000058026708691884805 0.000005838986585642148 0.000007945475585619374 0.000007955164953932027 0.00000798438444401534
          0.000010482545481489258 0.000010489092360083693 0.000010508790611678722 0.000013303542705510412 0.00001330672615131974 0.000013315981606156364
          0.000016284003078395146 0.000016284052750503085 0.000016284309350811018 0.00001930110529504221 0.000019298933235249092 0.000019291976037537033
          0.000003116668392067031 0.00000312907620178626 0.0000031687721347569675 0.000004650467362090384 0.0000046641772427982705 0.000004705018227922003
          0.0000066641225997338674 0.000006675257989813954 0.000006709188370874479 0.000009111212722130802 0.000009119247729514904 0.000009143474541030183
          0.000011899093822998487 0.000011903594817536164 0.000011917027843978203 0.000014907545422548202 0.00001490850816940711 0.000014911251606007962
          0.00001800279094719607 0.00001800080073608829 0.000017994110763982053 0.000021045099345316776 0.000021041725496733697 0.000021028761994732756
          0.0000035670671112713906 0.000003580255218757272 0.000003623379347757878 0.000005404579147907475 0.000005418186647708422 0.000005458302593299905
          0.000007736699888800803 0.00000774637834447862 0.000007775901932520416 0.000010471881349064172 0.000010477716228929777 0.000010495078535456864
          0.000013482235892173746 0.000013484014335168005 0.000013489343158382455 0.000016625181675911363 0.000016624176264240314 0.000016620297594718382
          0.000019773195456194665 0.00001977031644970988 0.000019762187697754022 0.000022841550183508504 0.000022835402025381627 0.000022818039077365422
          0.000004189827401921628 0.0000042025427713703154 0.000004245596732017167 0.0000063659797637353975 0.000006378478435544892 0.000006414980767716587
          0.00000902297190311451 0.000009030737117968844 0.000009053892534440022 0.000012028019339541594 0.00001203110258376703 0.000012040338464175749
          0.000015223827069574577 0.000015222690695911565 0.000015219469648868682 0.000018454397714791594 0.00001845126574590124 0.000018439978938815563
          0.000021594235838131695 0.000021590386899254183 0.00002157831186777249 0.00002458802642625166 0.000024580094903758773 0.00002456111570066366
          0.000007558511651007295 0.000007569053811140714 0.000007599163915731283 0.00001053321376425637 0.000010538227351508348 0.000010553046764396435
          0.000013774568375332677 0.000013774647816089201 0.000013774914067546044 0.00001710723332556632 0.00001710332436922102 0.000017091808781065835
          0.00002037362721985354 0.00002036872157386654 0.000020351544490249673 0.000023465274194599202 0.00002345940294377784 0.000023444151787882035
          0.000026349023132279978 0.000026338557643861827 0.000026309801728678016 0.000009000495055572842 0.000009008162259984438 0.000009029333927230347
          0.00001226939492946448 0.000012271242856358467 0.000012276333403941227 0.000015699205869211178 0.00001569610821619051 0.000015686899971865483
          0.00001910596586968615 0.000019099335816888516 0.00001907981390929917 0.000022339265954799888 0.00002233241678926628 0.000022308776223715913
          0.000025300416163286905 0.00002529206327140482 0.000025270184763809873 0.000027943158449503243 0.00002793056098361995 0.000027892495158275805
          0.00001070400819591864 0.000010707830288614923 0.000010717373645464721 0.000014224758522463512 0.000014222989262132378 0.000014217029127741268
          0.00001777429276651965 0.000017767870431262025 0.000017748704872081205 0.000021168905882132746 0.000021159560076186613 0.000021131760571845492
          0.00002426785022986175 0.000024258989806006353 0.0000242288899052539 0.000026987396666342033 0.000026977085089126462 0.000026950376522378893
          0.000012667355894057901 0.000012666545890215964 0.000012662547597879298 0.0000163711678968013 0.000016365517846903552 0.000016347579654048825
          0.00001994528422341185 0.000019935519083158653 0.00001990630131347592 0.000023215894659091098 0.00002320417318642042 0.000023168934794151654
          0.00002606649199999584 0.00002605591171711916 0.000026021287694789985 0.00002534008957660502 0.0000221425552629294 0.000020361104408496653
          0.000022969712350591058 0.000025330737438127113 0.000022137305521157403 0.000020358174026730445 0.000022963651068641498 0.000025301052919760046
          0.000022122340640311625 0.000020349383273267068 0.00002294774694477254 0.000012747158380913136 0.000013841133333417614 0.000012049180129796142
          0.000010987493854907018 0.000012755437879458384 0.000013848225533771124 0.000012058289277753975 0.000010998197514078627 0.000012778693403055083
          0.000013867226607667929 0.000012089231694344075 0.000011033642379792464 0.000028743398411056624 0.00002933297689854795 0.000027662622008725905
          0.000028729050801466514 0.000029318964750870652 0.000027648765970891688 0.00002868228867973567 0.00002927140730223645 0.000027600589601180026
          0.000029337644784428057 0.000029327009201362195 0.000029295841121234288 0.000018516860750793348 0.0000167445961866627 0.00001880665925320004
          0.00002096472369408807 0.000018516568544216907 0.000016747022328663733 0.000018806418758862756 0.00002096105515604377 0.00001851590269057037
          0.000016754890149217248 0.000018808702449786642 0.000020949593533002117 0.000011447782311107312 0.000009972112493769061 0.000011458870924622952
          0.000009983960083213068 0.00001149001341615076 0.000010022486669562788 0.000026542112051201035 0.000028563789558154884 0.00002852296040799493
          0.000026532772340911596 0.000028554721184967432 0.000028513487267342167 0.000026500930522688583 0.000028529107731163062 0.000028481819046000754
          0.000009077427738058673 0.000010307494974988029 0.000009090069887842444 0.000010320858844074102 0.000009130863448999839 0.000010358966078703432
          0.00002604042283159898 0.000028264954217184047 0.000026029115717878108 0.00002825328972321998 0.00002599297982994117 0.000028215364021047497
          0.00001589858057597975 0.000015902456715283347 0.00001591217510469981 0.000025455302996749096 0.00002819423040937222 0.000025447017769265523
          0.00002818562343216934 0.00002542192656959078 0.000028158567181925555 0.000023818149353475457 0.000025762734986822372 0.000023810962600974056
          0.000025753117176011507 0.000023795483315911878 0.000025724319255833497 0.000015634110383925633 0.000016679953501515907 0.000015638028205035013
          0.000016683031818787472 0.000015650537784618515 0.000016691645846013514 0.000013194801356808747 0.000014717396539703053 0.000013202129735325859
          0.000014723055430162064 0.000013227598811537616 0.000014739686681123866 0.000008354267944682707 0.000008367167587432365 0.000008409010512065955
          0.000007496063421721213 0.000007820485367824941 0.000007510540263851872 0.000007833197547758428 0.000007548021421447208 0.000007871940014883625
          0.000014352517952325692 0.000014359510311353209 0.000014377858270082852 0.000007167620852686507 0.000007181432335405638 0.000007231828767369811
          0.000026091430365539885 0.000026081191809698387 0.000026047761585834964 0.000006928695915355693 0.000006941527817172399 0.000006984996484271471
          0.000009373113369668359 0.00000938883620360523 0.00000943415082920495 0.000008629122256424241 0.000008645739458182458 0.000008699902760752475
          0.000008119102352335349 0.000008136368573719918 0.000008188349348347715 0.00002930659967255156 0.000029293989636451132 0.00002925329558857923
          0.000028452937410822615 0.000028442395128527614 0.000028414012362447904 0.000030411074919044578 0.000030399964612739987 0.000030364843529356363
          0.000018657176151045893 0.000014873105950542673 0.000018647318493416668 0.000014867049458544805 0.00001861677863355813 0.00001484778285509056
          0.000022130150850570838 0.000022117397767310326 0.00002207896711804249 0.000025148831424846407 0.0000251355082533917 0.000025095269498772795
          0.00002764838987159718 0.000027637563850848133 0.00002760210601538891 0.000029651694632738673 0.000029642270945038488 0.000029616642650003247
          0.00003091758820466453 0.00003090781392008898 0.000030880149447675287 0.00003094397802884832 0.00003093655070740319 0.000030916123955554954
          0.00002052133391050939 0.000023741868313002838 0.000020518147844521645 0.000023734427799431608 0.000020506858212467075 0.000023711356621420254
          0.000031052828472088485 0.000030815845246004796 0.00003104514335173874 0.000030807737538223845 0.00003102279372514949 0.000030785769163059346
          0.00001486487050775277 0.00001670163291006268 0.000014870094114574512 0.00001670381881059392 0.000014883813985805898 0.000016710468090699666
          0.000013172049719910877 0.000013180346853490061 0.000013205474095205002 0.000030791081906764944 0.00003078257292790572 0.00003075945064234951
          0.0000180775128758638 0.000019600049303586877 0.00001807789677959006 0.000019598860536333002 0.000018081373124052043 0.000019595927762991047
          0.00003104525534612123 0.000031038883668957144 0.00003101899385278103 0.000030474625858524717 0.000027459193836917304 0.000030469649948987953
          0.00002745234962784657 0.000030456400657790674 0.000027429814804462777 0.000030512249139034156 0.00003050022273594826 0.00003045906704823699
          0.000011749578962811211 0.000011761069255021194 0.000011796120841695296 0.000007475976141704334 0.000008356294827203229 0.000007492491563695252
          0.000008374198867925357 0.000007543998555589528 0.00000842875171643808 0.000010604588490723436 0.000010619181907328069 0.000010663126129552962
          0.00000959510121468849 0.000009611914612506079 0.000009665163177052313 0.000031765829925256886 0.000031757675408353345 0.000031738175157253305
        </DataArray>
        <DataArray type="Float64" Name="disp_y" format="ascii" RangeMin="-0.000020269415174804145" RangeMax="0">
          -1.1936542858704905e-7 0 -1.1876229412388931e-7 0 -1.1969466456243484e-7 0
          -1.5622375839114026e-7 0 -1.5587578746173598e-7 0 -1.5603950327826762e-7 0
          -1.6481950637578466e-7 0 -1.6531072418874763e-7 0 -1.6758629483286406e-7 0
          -1.6413283910943097e-7 0 -1.644591822353136e-7 0 -1.646785411260971e-7 0
          -1.6241463857988431e-7 0 -1.6214651912629174e-7 0 -1.6193756288522223e-7 0
          -1.683929691135041e-7 0 -1.675419079852102e-7 0 -1.6483631117048107e-7 0
          -2.0965655984172734e-7 0 -2.0845608440717073e-7 0 -2.0425147016416685e-7 0
          -3.144379984542042e-7 0 -3.129373914038621e-7 0 -3.098637049285079e-7 0
          -2.568144373065968e-7 -2.5692024007596353e-7 -2.5623074121349423e-7 -3.025015584498037e-7 -3.0303509175816783e-7 -3.0557707577752854e-7
          -3.224036103773401e-7 -3.2304416484591595e-7 -3.249558518952974e-7 -3.272491152561725e-7 -3.2756525601094706e-7 -3.2920917852597475e-7
          -3.243754997361756e-7 -3.238524733997197e-7 -3.2227501095084705e-7 -3.4846840942976927e-7 -3.468494343353832e-7 -3.418219555753322e-7
          -4.4270757320545775e-7 -4.402219937154545e-7 -4.3227608799618015e-7 -6.28493953352061e-7 -6.258061451847943e-7 -6.163790858353078e-7
          -4.0502783295135415e-7 -4.044506811517214e-7 -4.0260422314264346e-7 -4.380579069866933e-7 -4.38242761789887e-7 -4.382514803328362e-7
          -4.666356080747415e-7 -4.671137294730153e-7 -4.688837037172293e-7 -4.771346102206589e-7 -4.772582572894187e-7 -4.782519549980207e-7
          -4.895033352827357e-7 -4.885473481481083e-7 -4.857123298884102e-7 -5.512668517585911e-7 -5.489597249197095e-7 -5.417682897786516e-7
          -7.112497179057964e-7 -7.079282812475293e-7 -6.974359437814525e-7 -0.0000010076975693639782 -0.0000010039860852325085 -9.922185486826249e-7
          -5.551891211470204e-7 -5.550727824865817e-7 -5.550191722282187e-7 -5.806613822438459e-7 -5.8067567020162e-7 -5.806926141055392e-7
          -6.018157036303016e-7 -6.018516863227394e-7 -6.022076746309477e-7 -6.198458885168938e-7 -6.193761905568586e-7 -6.179480542552733e-7
          -6.639571097155845e-7 -6.622975319777861e-7 -6.572957596494164e-7 -7.836817399818797e-7 -7.807648169419366e-7 -7.716776824292798e-7
          -0.0000010310957209210284 -0.0000010271900573743984 -0.0000010152573613373087 -0.000001441651485792246 -0.0000014370828138422218 -0.0000014243031091370184
          -7.081895215190565e-7 -7.08467967761408e-7 -7.090909830240145e-7 -7.243358979111048e-7 -7.245198867845472e-7 -7.252941395693105e-7
          -7.344243843165824e-7 -7.339392821247603e-7 -7.327026825615623e-7 -7.649154617096994e-7 -7.634754709074602e-7 -7.59317851965093e-7
          -8.557236689995189e-7 -8.532328301400168e-7 -8.456245558637801e-7 -0.000001053730664516792 -0.0000010501339985324525 -0.000001039178511655335
          -0.0000014049611368096798 -0.0000014003767983957089 -0.0000013864954696024117 -0.0000019377960509961313 -0.000001932651571868306 -0.000001916642386921172
          -8.591672780454351e-7 -8.597458939256497e-7 -8.619304397551981e-7 -8.665038936930026e-7 -8.665975452300534e-7 -8.677346130273946e-7
          -8.69639254137867e-7 -8.685718400370221e-7 -8.650271960253577e-7 -9.256482923321261e-7 -9.233114249759821e-7 -9.16132595539184e-7
          -0.0000010769455116121275 -0.0000010735454860944685 -0.0000010630993170361433 -0.0000013691503639084657 -0.0000013647247767727548 -0.0000013512944653438067
          -0.000001841082483745556 -0.0000018357793326052707 -0.0000018196916717742803 -0.0000025184046322087714 -0.0000025126810858851007 -0.000002494898429148419
          -9.773727637743022e-7 -9.777433005823893e-7 -9.789903757144604e-7 -9.993381824935046e-7 -9.998922237948712e-7 -0.0000010025330988543546
          -9.988167546537374e-7 -9.985271802387726e-7 -9.978115235785853e-7 -0.0000010178872748347023 -0.0000010160845395277585 -0.0000010104753648462663
          -0.000001114392251608614 -0.000001111210485351478 -0.0000011013982454161763 -0.0000013406933938086983 -0.000001336330339338986 -0.0000013228829147290103
          -0.0000017420503434696554 -0.0000017367184071110778 -0.0000017203941753717831 -0.000002352170783820171 -0.0000023461980421611704 -0.0000023281434885943003
          -0.00000318947264374825 -0.000003183482453672217 -0.000003165019562531529 -0.0000011151466069952468 -0.0000011153614370313755 -0.000001116247445563239
          -0.0000011274324628386541 -0.0000011274947702501052 -0.0000011280851540545118 -0.0000011344729429907255 -0.0000011334556951737224 -0.000001130306290298958
          -0.0000011855765069461579 -0.0000011830451833180472 -0.0000011754914013503695 -0.0000013417475369535125 -0.00000133772490648508 -0.00000132535986833361
          -0.0000016610167002553149 -0.0000016557065648219643 -0.0000016393126406359877 -0.0000021880387198207152 -0.000002181841454605936 -0.000002162819757818887
          -0.0000029490591238860468 -0.0000029425303078242902 -0.000002922727143158502 -0.00000395229011091093 -0.000003946336913311472 -0.000003927781996012877
          -0.0000012520958410502857 -0.0000012521531424176801 -0.0000012523544149269815 -0.0000012557416113553686 -0.0000012551072246092346 -0.0000012533975237114568
          -0.000001280403753800099 -0.0000012785471622758677 -0.0000012732060515648219 -0.0000013799733511472272 -0.0000013766268230256861 -0.0000013664101746386737
          -0.0000016179444879952 -0.0000016130267652557689 -0.0000015979291684027126 -0.0000020523093603272443 -0.0000020461663131173307 -0.0000020272341652612694
          -0.0000027221146491060145 -0.0000027153266274848287 -0.0000026944681402506843 -0.0000036416713351530166 -0.0000036350296950166507 -0.0000036143663726119026
          -0.000004807055105787435 -0.000004801158048122717 -0.000004783186744263586 -0.0000013915460289490526 -0.0000013914882675257254 -0.0000013919645005583355
          -0.0000013911006183678544 -0.0000013897982975925913 -0.0000013857960602673846 -0.0000014451976825726678 -0.0000014424206816519309 -0.000001433945630486178
          -0.000001612351498001641 -0.0000016079827812290276 -0.000001594605923817312 -0.0000019556444090624962 -0.000001949814083504253 -0.0000019318197930138104
          -0.000002527388416415717 -0.0000025205736647435783 -0.0000024996369441478305 -0.00000335544995121005 -0.000003348417849520062 -0.0000033270435626534443
          -0.00000443753789699671 -0.000004430810374396218 -0.000004411217694086456 -0.0000057516561062689805 -0.000005746361902962087 -0.000005729094485797757
          -0.0000015288265828373782 -0.0000015284105134070834 -0.00000152777526458653 -0.000001541101777369494 -0.0000015390540853936052 -0.0000015327696232504465
          -0.0000016410623475012097 -0.000001637240398666585 -0.0000016254833758472795 -0.0000018968735313753184 -0.0000018914047520644991 -0.000001874529087859074
          -0.0000023692540765581568 -0.0000023625316437029517 -0.000002341830034552334 -0.000003098436718163024 -0.0000030911296888462546 -0.0000030688163903332017
          -0.000004093890783836889 -0.000004086763431567534 -0.000004065236737915634 -0.0000053379259706174135 -0.000005331557815927388 -0.000005312096093778244
          -0.0000067850368546643935 -0.000006780132744351367 -0.0000067652719328705945 -0.0000016678610662235154 -0.0000016666596802154309 -0.0000016632276773832652
          -0.0000017117589437855317 -0.0000017088043418834874 -0.0000016999245897717042 -0.0000018805238710814123 -0.0000018756278126067163 -0.000001860528852644236
          -0.000002249487686277337 -0.0000022429469638764207 -0.0000022226989380939708 -0.0000028739266021109404 -0.0000028664356784428015 -0.0000028434535845122704
          -0.000003776146216201124 -0.000003768554784332951 -0.0000037454763632794797 -0.000004944844798551613 -0.000004937903640930384 -0.000004916666401196149
          -0.000006342454246673107 -0.0000063366509296749896 -0.000006318721032536985 -0.00000793056020110531 -0.000007926488419933692 -0.000007913438190234776
          -0.0000018162384138290038 -0.0000018141104608649066 -0.0000018076786630256514 -0.0000019111057603756734 -0.000001907052934180667 -0.000001894654015349331
          -0.0000021763086631882696 -0.000002170254874740345 -0.0000021515580173937068 -0.000002686657069717297 -0.0000026791398619259514 -0.000002655933631973518
          -0.0000034846215188274178 -0.000003476600345320259 -0.000003451999965819219 -0.000004570903553020892 -0.00000456333885675001 -0.000004540305653188025
          -0.000005912348233224889 -0.000005905968347243533 -0.0000058866508119855214 -0.000007456436958823528 -0.000007451597859222875 -0.0000074373928976708485
          -0.000009143272666578224 -0.000009140409552751229 -0.000009131268192500822 -0.000001983316669012909 -0.0000019800965045587355 -0.000001970501969314735
          -0.0000021514571571156356 -0.0000021461145642385782 -0.0000021296578318851005 -0.000002543613825338668 -0.000002536349684108995 -0.0000025138201021430243
          -0.000003224817154900641 -0.0000032165158831503244 -0.0000031909468140050276 -0.000004215301601510543 -0.000004207072667863393 -0.000004181941579156941
          -0.000005490531809885225 -0.000005483365406301772 -0.000005461571882128847 -0.000006995538446878855 -0.000006990092953670058 -0.000006973716935616221
          -0.000008661375957397994 -0.000008658051703327938 -0.000008647915550437417 -0.00001041596843681824 -0.00001041487885660373 -0.000010410958862149061
          -0.0000024478397158015492 -0.000002441073767959903 -0.0000024200275797026095 -0.0000030009738207188507 -0.0000029925890662568876 -0.000002966527020117682
          -0.000003880252066516419 -0.0000038714412372516004 -0.000003844417532116268 -0.000005076351666859734 -0.000005068343309325221 -0.000005044021222483493
          -0.000006537685868941049 -0.0000065313705440625235 -0.000006512203949960475 -0.000008187281136547986 -0.000008183143915373841 -0.000008170444767829648
          -0.000009941342859062518 -0.000009939340370647726 -0.000009933813854775959 -0.00001172887673259173 -0.000011728964915117326 -0.00001173044157124221
          -0.00000281928265937408 -0.000002810982615519541 -0.0000027850721870356116 -0.000003568975357721774 -0.0000035596633873031805 -0.0000035308851419577327
          -0.000004667634770769845 -0.000004658665922489666 -0.0000046313522660490446 -0.000006073035287199666 -0.000006065689876549555 -0.000006043450963731389
          -0.000007707961195573189 -0.000007702901930364658 -0.000007687734546355601 -0.000009476400376540937 -0.000009473791989499885 -0.000009466059705634692
          -0.000011281899085723041 -0.000011281512546444613 -0.000011279845505868738 -0.000013052407125152652 -0.000013053462564333772 -0.000013056161750705464
          -0.000003288609667063088 -0.000003278847695642851 -0.0000032484664728388106 -0.000004267877424946235 -0.00000425798356873836 -0.000004227729108837266
          -0.000005598722782059783 -0.000005590122438123961 -0.0000055640036422281465 -0.000007205927907813678 -0.000007199662939735602 -0.0000071806221098601695
          -0.000008990210800075151 -0.000008986648641709109 -0.000008976101804750882 -0.000010843933897884702 -0.000010843028909111322 -0.000010840770695408023
          -0.000012667919346387268 -0.000012668922498775834 -0.000012672937957633425 -0.000014390767292780361 -0.000014393037530654509 -0.000014397045944494333
          -0.0000038816672257754405 -0.000003870721936256025 -0.000003836916773047791 -0.0000051159161778519925 -0.000005105982509391451 -0.000005075848883078327
          -0.000006681173025332308 -0.000006673463535370659 -0.000006650121885573664 -0.000008471287957255358 -0.000008466409993618152 -0.000008451668631442384
          -0.000010370092063705244 -0.00001036815835305836 -0.00001036247801859007 -0.000012267262746419109 -0.000012268110192983605 -0.000012270589903477773
          -0.000014072787254647887 -0.000014075483591904944 -0.00001408404512511834 -0.00001572935640181395 -0.000015733863847577627 -0.000015745624362847372
          -0.0000061289357856377705 -0.0000061194852524727925 -0.000006091122019468485 -0.000007917440952588763 -0.000007911097330840749 -0.000007891957752397652
          -0.000009859538732930162 -0.000009856430021122745 -0.000009847083402490857 -0.000011830131422379927 -0.000011830092381531665 -0.000011829996278433548
          -0.00001372454417720608 -0.0000137272955682071 -0.000013734891494756496 -0.000015467182915773144 -0.000015471998083476704 -0.000015485859917276002
          -0.00001702091217673578 -0.000017028200044996332 -0.000017048360021896762 -0.000007318182066138065 -0.000007309852926620635 -0.000007285026942082141
          -0.000009303520082851133 -0.000009299035939908634 -0.000009285504930878418 -0.000011354017959820327 -0.00001135314355827074 -0.000011350408732533909
          -0.000013345310142062206 -0.000013347648551190936 -0.000013354494338378421 -0.000015184961700969105 -0.000015190008409842396 -0.000015204765622984213
          -0.000016813750003841018 -0.000016820841055773452 -0.000016842603842067103 -0.000018197630380545888 -0.000018206333644249806 -0.000018233591575942614
          -0.00000868882984253851 -0.000008682357038751502 -0.000008663066004673025 -0.000010826463800158573 -0.000010824409084678916 -0.000010818158465685271
          -0.00001292733760932018 -0.000012929201153705657 -0.000012934649164030875 -0.000014876952734676755 -0.000014882074920693531 -0.00001489729999153349
          -0.000016600322319640298 -0.000016607811199198358 -0.000016630520810093513 -0.00001805501274438949 -0.00001806395613307073 -0.000018091387322989948
          -0.000010235996068620232 -0.000010232087517199598 -0.000010220550927398749 -0.000012460207960494732 -0.00001246119702961997 -0.00001246417937655144
          -0.000014537238166903984 -0.000014542213918033936 -0.000014557200077324528 -0.00001637093161445301 -0.000016378802925668852 -0.00001640268250875039
          -0.000017910859496902737 -0.000017920275923893374 -0.000017949282694517836 -0.000015349964545583285 -0.000013436525813426254 -0.000012091746651001321
          -0.00001364671406238017 -0.000015354760044609517 -0.000013438474557869202 -0.00001209244235418562 -0.000013649492442124615 -0.000015366674371211564
          -0.000013443660102984599 -0.000012095204022056552 -0.000013658406179187781 -0.000005532762470096089 -0.0000065575929995834806 -0.000005584076381138515
          -0.0000046477055177296105 -0.00000552852803076584 -0.000006554342390729911 -0.000005579308633153226 -0.000004642445052692048 -0.000005515407988502211
          -0.000006544411088488485 -0.0000055651535115052155 -0.000004626340857880115 -0.000018011133135243973 -0.00001877395673972303 -0.000017619400751621726
          -0.000018018637029253606 -0.000018782690238147137 -0.00001762638483346734 -0.000018041526133258734 -0.000018813099876950397 -0.00001765125203086149
          -0.00001829646514716039 -0.000018303285408993386 -0.000018327794748947085 -0.00001070415360614303 -0.000009376870830343606 -0.000010591507411863585
          -0.000012152655633765728 -0.000010703421254310508 -0.000009375052214941043 -0.000010591136525853362 -0.000012154013310436294 -0.000010701537854085083
          -0.00000936787702065337 -0.000010590298319691507 -0.000012158694943345258 -0.000004368234942050099 -0.0000037295923734565076 -0.000004363682811415446
          -0.000003723942557590461 -0.0000043492578171710445 -0.000003706473290176443 -0.00001595132433365887 -0.000017260232392756163 -0.000017410895075801967
          -0.000015955710656942258 -0.000017265910748805695 -0.000017416850096443496 -0.00001597291531160591 -0.00001728420443462351 -0.00001743379581367629
          -0.0000028873427255281464 -0.0000033395757447037013 -0.000002881669516551339 -0.0000033348971196950916 -0.0000028639536266349327 -0.0000033205262729339934
          -0.000016255297851640375 -0.00001746846036535629 -0.000016261776164606547 -0.000017474870053783264 -0.00001627988137896884 -0.000017500455834697383
          -0.000008158595326911014 -0.000008156257508460755 -0.000008150561093906387 -0.000015137506799162015 -0.00001681414892234154 -0.000015142283854015839
          -0.000016819935272086665 -0.000015156005445723884 -0.00001684049673761142 -0.000014721924366249199 -0.000015827231594593034 -0.000014725206825235273
          -0.00001583302359145235 -0.000014734145988745879 -0.000015849643962695034 -0.000008521154916164742 -0.000009049676557795662 -0.00000851823035865808
          -0.000009047625032524193 -0.000008509827393979572 -0.000009042420346663622 -0.0000065225273725997285 -0.000007658839937875293 -0.000006518620618322913
          -0.000007655649403599987 -0.000006506514186820922 -0.000007646753536020744 -0.0000021657751672390415 -0.0000021607458824751102 -0.0000021438459543365446
          -0.000001109623235023814 -0.000001579102059040183 -0.000001106247029377205 -0.0000015749070188746447 -0.000001096819268611408 -0.000001560939749642762
          -0.000007102490101284431 -0.000007099657838648984 -0.000007092414326395892 -6.762123456900996e-7 -6.755068203550798e-7 -6.687673190347692e-7
          -0.000016555933787431622 -0.00001656216357098339 -0.000016580454563668953 -3.551870863186073e-7 -3.5442772060563805e-7 -3.539248275878157e-7
          -0.000002454578267023736 -0.0000024503445004035444 -0.0000024361770330408516 -0.0000016665659737976962 -0.0000016649248221754618 -0.0000016555624699205734
          -0.0000012606867276810616 -0.0000012579458385215877 -0.0000012567412781087745 -0.000019214635353152613 -0.000019223969441151103 -0.000019253260270615664
          -0.00001914098460258026 -0.000019150587403332658 -0.00001918029847554135 -0.00002006572201992149 -0.000020074251771873093 -0.000020101669103679133
          -0.000014161323939135936 -0.000011937350325819168 -0.000014165900158833278 -0.000011936987681138853 -0.000014179859771358943 -0.000011935898519144928
          -0.00001612491650220216 -0.000016133094984950233 -0.000016158083712534548 -0.000017763121905265927 -0.000017773218918861108 -0.00001780436720700641
          -0.000019061640520385584 -0.000019071896039050603 -0.00001910389681883682 -0.000020043522488889656 -0.000020052645191352415 -0.000020081123923043017
          -0.000019473172693541597 -0.00001948019556830931 -0.00001950071245028535 -0.000019272563029994366 -0.000019279661623170285 -0.000019299907820614956
          -0.000011475080404956244 -0.000013762536815006675 -0.000011476340730608887 -0.000013765868707816778 -0.000011480380341844 -0.000013775427075470128
          -0.00001876444477449845 -0.000018795436498825493 -0.00001877029496648744 -0.000018801714106453764 -0.00001878558807345928 -0.000018820142798324105
          -0.000006591120693611119 -0.000008269038367179468 -0.000006588846146444915 -0.000008267462814988967 -0.000006581783242323374 -0.00000826227549508688
          -0.000005122307165372629 -0.000005119775866666694 -0.000005112523238962512 -0.000018975429933343992 -0.00001898298133737441 -0.000019004015974631292
          -0.000009718591360615056 -0.000010396680973107837 -0.000009718672342952641 -0.000010398021051765988 -0.000009715999072384961 -0.000010401525687445247
          -0.000018535854495134746 -0.000018542375926404084 -0.000018558979302984535 -0.00001790725971010063 -0.000016123704677926686 -0.00001791436884409104
          -0.000016129605504660735 -0.000017938939872268422 -0.000016145298672598828 -0.000019683118223236025 -0.000019691263646865524 -0.000019716439341676238
          -0.000003850840673694269 -0.00000384841415288894 -0.000003840590166223615 0 -9.550220544745692e-7 0
          -9.528704297359897e-7 0 -9.480576332167735e-7 -0.000002789185146957614 -0.00000278707645898562 -0.0000027817912865194643
          -0.000001869014581284166 -0.000001867012392446985 -0.0000018643546933134763 -0.000020245355146714222 -0.000020251420353269743 -0.000020269415174804145
        </DataArray>
        <DataArray type="Float64" Name="disp_z" format="ascii" RangeMin="-0.0000011749481649656438" RangeMax="0">
          0 0 -5.5138868035248865e-8 -1.8217927619982283e-8 -1.0820665701366297e-7 -7.688004078497664e-8
          0 0 -5.956241169113384e-8 -7.291780496534223e-8 -1.1962171406701056e-7 -1.2978700114902986e-7
          0 0 -5.5927082189541795e-8 -5.569662939284709e-8 -1.107729626620827e-7 -1.1250433384966225e-7
          0 0 -5.547130236828657e-8 -5.513070777407894e-8 -1.1141487553603602e-7 -1.1056200844442711e-7
          0 0 -5.473419010211189e-8 -5.508223459894197e-8 -1.0984438546635053e-7 -1.1047350598937684e-7
          0 0 -5.963990046596605e-8 -5.748979481147722e-8 -1.199116170042036e-7 -1.1533717809082067e-7
          0 0 -7.79455206286312e-8 -7.27975137810896e-8 -1.5755647920921815e-7 -1.4808242882479117e-7
          0 0 -1.0292986128121843e-7 -1.0026398568104385e-7 -2.1100683545276618e-7 -2.045569591891474e-7
          0 -5.579393429387072e-8 -1.1050050562432064e-7 0 -5.390604438985982e-8 -1.0684764018740555e-7
          0 -5.0612419703658276e-8 -1.0185222788990631e-7 0 -5.401709839010928e-8 -1.0831983165524955e-7
          0 -5.575177558333727e-8 -1.1188065341997327e-7 0 -6.72770734806546e-8 -1.3522563280646109e-7
          0 -8.98249335870248e-8 -1.814464927641239e-7 0 -1.1340496142711988e-7 -2.299796924662552e-7
          0 -5.835446062174207e-8 -1.1655724656455207e-7 0 -5.2155815772373946e-8 -1.0463224408310811e-7
          0 -4.6279141194448294e-8 -9.305896609695972e-8 0 -4.941649338277897e-8 -9.955082598585874e-8
          0 -5.939701849138531e-8 -1.1978459293809e-7 0 -7.892728387736635e-8 -1.5825549153919316e-7
          0 -1.0775783447246604e-7 -2.1714908808333018e-7 0 -1.3868140836059137e-7 -2.796349306533797e-7
          0 -5.917093209471994e-8 -1.179890036545802e-7 0 -5.267673629178218e-8 -1.0547602626419052e-7
          0 -4.390321211972249e-8 -8.858850237680195e-8 0 -4.9056871388336875e-8 -9.946655875233489e-8
          0 -6.637054312988173e-8 -1.3374892609934848e-7 0 -9.461975305265578e-8 -1.8954074974992648e-7
          0 -1.2916117542839583e-7 -2.598320638462577e-7 0 -1.5887203543397083e-7 -3.1951529763682645e-7
          0 -5.867217863157885e-8 -1.1745888290829911e-7 0 -5.19788701634241e-8 -1.0417764917787943e-7
          0 -4.409807547173878e-8 -8.912535443654781e-8 0 -5.3865498956893835e-8 -1.0931881029539045e-7
          0 -7.776425424766878e-8 -1.5675202066911526e-7 0 -1.1349361397690988e-7 -2.270988244301829e-7
          0 -1.527869307426958e-7 -3.0731051894128743e-7 0 -1.8517292161443433e-7 -3.7247808595289126e-7
          0 -5.6410085705740874e-8 -1.1288129644850142e-7 0 -4.898425483196204e-8 -9.852917322956184e-8
          0 -4.828054715058222e-8 -9.769166253360919e-8 0 -6.454735517042358e-8 -1.3063634874964046e-7
          0 -9.461786430117253e-8 -1.9057587419739737e-7 0 -1.3599331315758843e-7 -2.7216051676412673e-7
          0 -1.8062684175365903e-7 -3.6299054192981877e-7 0 -2.1784376309412475e-7 -4.3751038154904343e-7
          0 -5.7024099037446364e-8 -1.1412268029480541e-7 0 -4.996296181399796e-8 -1.0018141524419667e-7
          0 -4.678903767341952e-8 -9.438375897349837e-8 0 -5.7569769178647316e-8 -1.1653826472537849e-7
          0 -8.057073392183224e-8 -1.62536700765315e-7 0 -1.1692799524234193e-7 -2.3523460254306746e-7
          0 -1.638373949632979e-7 -3.278100014731805e-7 0 -2.1234601216298746e-7 -4.2622642481140417e-7
          0 -2.5262935055429696e-7 -5.066226767154687e-7 0 -5.3841006402530955e-8 -1.0760913184323224e-7
          0 -4.54131303598275e-8 -9.154013056936583e-8 0 -5.080918440919215e-8 -1.0322918156883588e-7
          0 -6.954172435370908e-8 -1.402280152346391e-7 0 -1.0133159260694e-7 -2.0412725803134082e-7
          0 -1.451516526832053e-7 -2.9154394945186297e-7 0 -1.9725976309575355e-7 -3.943831310163256e-7
          0 -2.478376635709904e-7 -4.968503154741623e-7 0 -2.8799999769787635e-7 -5.76923164435485e-7
          0 -5.311176092169027e-8 -1.0659858820846513e-7 0 -4.615820683699734e-8 -9.348641804202573e-8
          0 -5.792453785134098e-8 -1.1747005859378748e-7 0 -8.588363898330459e-8 -1.731858679761639e-7
          0 -1.2703559410384516e-7 -2.555023524564797e-7 0 -1.7870300838438462e-7 -3.5837028570859184e-7
          0 -2.353274849885525e-7 -4.700321487693295e-7 0 -2.865784484740959e-7 -5.734695799251705e-7
          0 -3.2327768479412566e-7 -6.470853263719477e-7 0 -5.181655997603691e-8 -1.0416193314841846e-7
          0 -5.091863831440728e-8 -1.0319857932626939e-7 0 -7.059987252376397e-8 -1.430506822232481e-7
          0 -1.076744559591055e-7 -2.169371645469519e-7 0 -1.5825599761243193e-7 -3.1785024108640994e-7
          0 -2.1660338865646404e-7 -4.336651317871362e-7 0 -2.755661554637841e-7 -5.50085712147441e-7
          0 -3.256449775341707e-7 -6.512886027582616e-7 0 -3.567182918180529e-7 -7.128115386494828e-7
          0 -5.0135527708288194e-8 -1.0159380389818332e-7 0 -6.080192312106516e-8 -1.2329818338554833e-7
          0 -8.947290409237505e-8 -1.8076625976798794e-7 0 -1.3598510087726112e-7 -2.736672579837847e-7
          0 -1.9502666104293446e-7 -3.910352934734919e-7 0 -2.5795010472703205e-7 -5.157454411266826e-7
          0 -3.15402301388204e-7 -6.295494836667019e-7 0 -3.59003935621062e-7 -7.168308397843808e-7
          0 -3.920054994790623e-7 -7.833215176154901e-7 0 -5.290915560115837e-8 -1.0762994250286655e-7
          0 -7.444225249584912e-8 -1.5073096414370812e-7 0 -1.1471845104821357e-7 -2.313664168638532e-7
          0 -1.7125165816455138e-7 -3.439879122525687e-7 0 -2.3658096969197728e-7 -4.735957339212066e-7
          0 -3.0075167320734e-7 -6.00855713759065e-7 0 -3.5596743386330237e-7 -7.101667455994516e-7
          0 -3.9848879302898026e-7 -7.95240222766289e-7 0 -4.1826266542532613e-7 -8.34964191162166e-7
          0 -6.22119809128785e-8 -1.26280453956568e-7 0 -9.387079918561711e-8 -1.8990883194930038e-7
          0 -1.4645766064023537e-7 -2.948647915984441e-7 0 -2.1275368808711967e-7 -4.2648027740551675e-7
          0 -2.8198071576323427e-7 -5.637145537895182e-7 0 -3.44738807356463e-7 -6.88134564510089e-7
          0 -3.948039851831001e-7 -7.873901753795439e-7 0 -4.266324860868796e-7 -8.506239273180194e-7
          0 -4.422887117914725e-7 -8.825325049699471e-7 0 -7.681137401121027e-8 -1.5512856352150613e-7
          0 -1.2052930797886617e-7 -2.437262187922516e-7 0 -1.8566604387213624e-7 -3.72967162440749e-7
          0 -2.5942181301935395e-7 -5.191029328974274e-7 0 -3.296366928995934e-7 -6.581833920424853e-7
          0 -3.8755501202628944e-7 -7.730548154721615e-7 0 -4.2821211492034046e-7 -8.538056504977695e-7
          0 -4.50802827845306e-7 -8.988914547299348e-7 0 -4.5423111822500386e-7 -9.05576047763921e-7
          0 -1.556974276343878e-7 -3.142855145640924e-7 0 -2.32323009527001e-7 -4.6561346615289995e-7
          0 -3.0992656757100784e-7 -6.191595303119911e-7 0 -3.7696584825526465e-7 -7.520372990517488e-7
          0 -4.268659949748613e-7 -8.509642099034753e-7 0 -4.558897310879728e-7 -9.087722327309439e-7
          0 -4.638348880995102e-7 -9.249800741024877e-7 0 -4.571753347744198e-7 -9.126768397747557e-7
          0 -2.0035721339260597e-7 -4.0358512684010737e-7 0 -2.8530056559450334e-7 -5.705105098500232e-7
          0 -3.621476685836447e-7 -7.225177683413148e-7 0 -4.213081985176477e-7 -8.400222161721517e-7
          0 -4.594344459031571e-7 -9.156817653349609e-7 0 -4.756778402424573e-7 -9.481397978492005e-7
          0 -4.703945589168816e-7 -9.380293202575355e-7 0 -4.4613594526779476e-7 -8.909166307813517e-7
          0 -2.542094669083852e-7 -5.109415879716126e-7 0 -3.4230819135364753e-7 -6.833577449255442e-7
          0 -4.1351624213082137e-7 -8.242267918135482e-7 0 -4.6081343877572425e-7 -9.183365327600112e-7
          0 -4.832886800948874e-7 -9.631858022751948e-7 0 -4.828736758075698e-7 -9.633348705310026e-7
          0 -4.681983859475287e-7 -9.34208601946812e-7 0 -4.507824290103402e-7 -8.980996346331611e-7
          0 -3.156396382453838e-7 -6.332887551591887e-7 0 -4.0035264200700847e-7 -7.983647293083762e-7
          0 -4.609118404522527e-7 -9.181566395265607e-7 0 -4.930929101154713e-7 -9.823164570117485e-7
          0 -4.98335906220202e-7 -9.932527689544033e-7 0 -4.809016348630903e-7 -9.601218131252022e-7
          0 -4.5189366325696677e-7 -9.017718461867086e-7 0 -4.3382875110305287e-7 -8.620935804502257e-7
          0 -4.564485385160745e-7 -9.096223937555513e-7 0 -5.014604193233552e-7 -9.985469328039017e-7
          0 -5.157885505513554e-7 -0.0000010274097681408842 0 -5.033740199468819e-7 -0.0000010033900905136917
          0 -4.711805881159686e-7 -9.411448178249611e-7 0 -4.3449571657894877e-7 -8.662290884335493e-7
          0 -4.124526244198082e-7 -8.198363850162081e-7 0 -5.067785409964117e-7 -0.0000010097683226029838
          0 -5.326191726449714e-7 -0.000001060313026867677 0 -5.271454532973569e-7 -0.0000010500035472101484
          0 -4.972000672724425e-7 -9.91112730541284e-7 0 -4.5116535331370454e-7 -9.011815694501884e-7
          0 -4.0179328591363574e-7 -7.999094336264356e-7 0 -3.6302312768483963e-7 -7.226560922164584e-7
          0 -5.486422526475337e-7 -0.0000010931397839723559 0 -5.515089982876739e-7 -0.0000010977964030459383
          0 -5.247195951236943e-7 -0.0000010451424342370965 0 -4.7647931643878175e-7 -9.499106096329881e-7
          0 -4.1515722247680903e-7 -8.296717134419913e-7 0 -3.542183672070044e-7 -7.055329032110254e-7
          0 -5.777095460272088e-7 -0.0000011511335597557422 0 -5.547211773492432e-7 -0.000001104174620771684
          0 -5.053180748032982e-7 -0.0000010066068271216514 0 -4.3867241269974335e-7 -8.750912166115773e-7
          0 -3.647257858562316e-7 -7.298435862222923e-7 0 0 0
          0 -3.953790495292218e-7 -4.3722833604675755e-7 -4.415177141860437e-7 -4.226713211107417e-7 -7.876651827599228e-7
          -8.713632068880475e-7 -8.804272858807252e-7 -8.428304517891477e-7 0 0 0
          0 -3.9088151942395097e-7 -4.1264354856845247e-7 -3.7288890648782613e-7 -3.455944266814429e-7 -7.780322746382045e-7
          -8.211669830476432e-7 -7.445843625707622e-7 -6.90407095984076e-7 0 0 0
          -3.0222362643440846e-7 -2.8644475627892425e-7 -3.63337556641593e-7 -6.073023838796766e-7 -5.74254559269423e-7 -7.215963192007946e-7
          0 -2.6937627951310386e-7 -5.414782714746044e-7 0 0 0
          0 -4.4791229291575966e-7 -4.3405089316781407e-7 -4.4601290341686933e-7 -4.410815359744842e-7 -8.931303278193066e-7
          -8.664100140341998e-7 -8.879597141535451e-7 -8.782345568359966e-7 0 0 -3.567268052421613e-7
          -3.1025012458732046e-7 -7.107322459238183e-7 -6.211658600685662e-7 0 0 0
          -3.5781134963409873e-7 -3.0368817192178146e-7 -3.09944940932241e-7 -7.162958633079181e-7 -6.082865235985326e-7 -6.200278386581939e-7
          0 0 -2.7117057362014795e-7 -3.199953939689972e-7 -5.444370807356497e-7 -6.380905205451546e-7
          0 0 -3.9796054083975857e-7 -3.2595014242833314e-7 -7.920376246501969e-7 -6.52603938173886e-7
          0 -4.2738315526638743e-7 -8.510075294694993e-7 0 0 -3.851273030792472e-7
          -3.2206157326795893e-7 -7.682299206954021e-7 -6.447577912791112e-7 0 0 -4.2020813855959634e-7
          -4.0849445353061154e-7 -8.356720818025738e-7 -8.149527937007644e-7 0 0 -4.231119307655315e-7
          -4.335675735116761e-7 -8.441017991408953e-7 -8.63991654579738e-7 0 0 -3.9500554771905795e-7
          -4.1977338207620495e-7 -7.885649763749556e-7 -8.378215991836987e-7 0 -2.3175443313454153e-7 -4.6801265593608424e-7
          0 0 -1.782313969639599e-7 -1.9532513326865695e-7 -3.641423931449258e-7 -3.9629817150386597e-7
          0 -4.172588588683349e-7 -8.310839144897527e-7 0 -1.6102032777863794e-7 -3.2906194887137417e-7
          0 -4.118294555352288e-7 -8.187565479389603e-7 0 -1.331168798050183e-7 -2.6579631349936714e-7
          0 -2.8314280561132103e-7 -5.658992813877902e-7 0 -2.4316588053582024e-7 -4.884880305178104e-7
          0 -2.0927979750335987e-7 -4.141331278824077e-7 0 -3.0556386906563785e-7 -6.111798409205487e-7
          0 -2.97744070136122e-7 -5.94522934820658e-7 0 -2.479113397692384e-7 -4.973004561385795e-7
          0 0 -5.383553031467368e-7 -5.896263669550617e-7 -0.0000010717687422555022 -0.0000011749481649656438
          0 -4.6632988854257827e-7 -9.296086074221048e-7 0 -3.845035249044898e-7 -7.682402757801988e-7
          0 -3.0461656465706406e-7 -6.11215147586443e-7 0 -2.404568100540343e-7 -4.815597383031201e-7
          0 -2.2360524511142008e-7 -4.5159998306937876e-7 0 -2.3312755324067643e-7 -4.684282675765272e-7
          0 0 -4.4654958138996476e-7 -4.0389557314244203e-7 -8.899394535145428e-7 -8.059986033776267e-7
          0 0 -2.5435672382599475e-7 -2.526669109175168e-7 -5.099340964403439e-7 -5.054784563571312e-7
          0 0 -4.143106612510213e-7 -4.331894002074733e-7 -8.274934006045726e-7 -8.642816396077928e-7
          0 -3.958154737232651e-7 -7.901908850710613e-7 0 -2.4597394985988345e-7 -4.9354335553199e-7
          0 0 -4.392046106777887e-7 -4.4168563860474795e-7 -8.748360673734839e-7 -8.804995869470352e-7
          0 -2.4783579748670754e-7 -4.976334546764139e-7 0 0 -2.7835480016076156e-7
          -3.42087805193172e-7 -5.57909220903084e-7 -6.855464015197625e-7 0 -2.2529111921284912e-7 -4.529968072877257e-7
          0 -3.7091100528511306e-7 -7.409432010744221e-7 0 0 -2.0067764428055677e-7
          -2.6692187682397564e-7 -4.0581041104815373e-7 -5.354092030516284e-7 0 -3.4596934906848864e-7 -6.910032574350896e-7
          0 -3.249013407096061e-7 -6.499865499306578e-7 0 -1.8648301025086387e-7 -3.77076049319554e-7
        </DataArray>
      </PointData>
      <CellData>
        <DataArray type="Int32" Name="libmesh_elem_id" format="ascii" RangeMin="776" RangeMax="3207">
          776 777 778 779 780 781
          782 783 784 785 786 787
          788 789 794 795 796 797
          798 799 800 801 802 803
          804 805 806 807 812 813
          814 815 816 817 818 819
          820 821 822 823 824 825
          830 831 832 833 834 835
          836 837 838 839 840 841
          842 843 848 849 850 851
          852 853 854 855 856 857
          858 859 860 861 866 867
          868 869 870 871 872 873
          874 875 876 877 878 879
          884 885 886 887 888 889
          890 891 892 893 894 895
          896 897 900 901 902 903
          904 905 906 907 908 909
          910 911 912 913 914 915
          918 919 920 921 922 923
          924 925 926 927 928 929
          930 931 932 933 936 937
          938 939 940 941 942 943
          944 945 946 947 948 949
          950 951 954 955 956 957
          958 959 960 961 962 963
          964 965 966 967 968 969
          972 973 974 975 976 977
          978 979 980 981 982 983
          984 985 986 987 990 991
          992 993 994 995 996 997
          998 999 1000 1001 1002 1003
          1004 1005 1008 1009 1010 1011
          1012 1013 1014 1015 1016 1017
          1018 1019 1020 1021 1022 1023
          1028 1029 1030 1031 1032 1033
          1034 1035 1036 1037 1038 1039
          1040 1041 1046 1047 1048 1049
          1050 1051 1052 1053 1054 1055
          1056 1057 1058 1059 1064 1065
          1066 1067 1068 1069 1070 1071
          1072 1073 1074 1075 1076 1077
          1082 1083 1084 1085 1086 1087
          1088 1089 1090 1091 1092 1093
          1094 1095 1102 1103 1104 1105
          1106 1107 1108 1109 1110 1111
          1112 1113 1120 1121 1122 1123
          1124 1125 1126 1127 1128 1129
          1130 1131 1138 1139 1140 1141
          1142 1143 1144 1145 1146 1147
          1148 1149 1156 1157 1158 1159
          1160 1161 1162 1163 1164 1165
          1166 1167 1174 1175 1176 1177
          1178 1179 1180 1181 1182 1183
          1374 1375 1376 1377 1378 1379
          1384 1385 1388 1389 1404 1405
          1458 1459 1536 1537 1542 1543
          1624 1625 1648 1649 1658 1659
          1672 1673 1770 1771 1810 1811
          1818 1819 1828 1829 1830 1831
          1866 1867 2074 2075 2078 2079
          2116 2117 2124 2125 2288 2289
          2290 2291 2336 2337 2342 2343
          2348 2349 2352 2353 2356 2357
          2358 2359 2424 2425 2452 2453
          2464 2465 2496 2497 2526 2527
          2530 2531 2532 2533 2554 2555
          2560 2561 2590 2591 2594 2595
          2622 2623 2736 2737 2740 2741
          2762 2763 2768 2769 2794 2795
          2800 2801 2864 2865 2890 2891
          2904 2905 2920 2921 2956 2957
          2986 2987 3018 3019 3036 3037
          3088 3089 3114 3115 3144 3145
          3156 3157 3176 3177 3184 3185
          3190 3191 3206 3207
        </DataArray>
        <DataArray type="Int32" Name="subdomain_id" format="ascii" RangeMin="105" RangeMax="107">
          105 105 105 105 105 105
          105 105 105 105 105 105
          105 105 105 105 105 105
          105 105 105 105 105 105
          105 105 105 105 105 105
          105 105 105 105 105 105
          105 105 105 105 105 105
          105 105 105 105 105 105
          105 105 105 105 105 105
          105 105 105 105 105 105
          105 105 105 105 105 105
          105 105 105 105 105 105
          105 105 105 105 105 105
          105 105 105 105 105 105
          105 105 105 105 105 105
          105 105 105 105 105 105
          105 105 105 105 105 105
          105 105 105 105 105 105
          105 105 105 105 105 105
          105 105 105 105 105 105
          105 105 105 105 105 105
          105 105 105 105 105 105
          105 105 105 105 105 105
          105 105 105 105 105 105
          105 105 105 105 105 105
          105 105 105 105 105 105
          105 105 105 105 105 105
          105 105 105 105 105 105
          105 105 105 105 105 105
          105 105 105 105 105 105
          105 105 105 105 105 105
          105 105 105 105 105 105
          105 105 105 105 105 105
          105 105 105 105 105 105
          105 105 105 105 105 105
          105 105 105 105 105 105
          105 105 105 105 105 105
          105 105 105 105 105 105
          105 105 105 105 105 105
          105 105 105 105 105 105
          105 105 105 105 105 105
          105 105 105 105 105 105
          105 105 105 105 105 105
          105 105 105 105 105 105
          105 105 105 105 105 105
          105 105 105 105 105 105
          105 105 105 105 105 105
          105 105 105 105 105 105
          105 105 105 105 105 105
          105 105 105 105 105 105
          105 105 105 105 105 105
          105 105 105 105 105 105
          105 105 105 105 105 105
          105 105 105 105 105 105
          107 107 107 107 107 107
          107 107 107 107 107 107
          107 107 107 107 107 107
          107 107 107 107 107 107
          107 107 107 107 107 107
          107 107 107 107 107 107
          107 107 107 107 107 107
          107 107 107 107 107 107
          107 107 107 107 107 107
          107 107 107 107 107 107
          107 107 107 107 107 107
          107 107 107 107 107 107
          107 107 107 107 107 107
          107 107 107 107 107 107
          107 107 107 107 107 107
          107 107 107 107 107 107
          107 107 107 107 107 107
          107 107 107 107 107 107
          107 107 107 107 107 107
          107 107 107 107 107 107
          107 107 107 107 107 107
          107 107 107 107
        </DataArray>
        <DataArray type="Int32" Name="processor_id" format="ascii" RangeMin="6" RangeMax="6">
          6 6 6 6 6 6
          6 6 6 6 6 6
          6 6 6 6 6 6
          6 6 6 6 6 6
          6 6 6 6 6 6
          6 6 6 6 6 6
          6 6 6 6 6 6
          6 6 6 6 6 6
          6 6 6 6 6 6
          6 6 6 6 6 6
          6 6 6 6 6 6
          6 6 6 6 6 6
          6 6 6 6 6 6
          6 6 6 6 6 6
          6 6 6 6 6 6
          6 6 6 6 6 6
          6 6 6 6 6 6
          6 6 6 6 6 6
          6 6 6 6 6 6
          6 6 6 6 6 6
          6 6 6 6 6 6
          6 6 6 6 6 6
          6 6 6 6 6 6
          6 6 6 6 6 6
          6 6 6 6 6 6
          6 6 6 6 6 6
          6 6 6 6 6 6
          6 6 6 6 6 6
          6 6 6 6 6 6
          6 6 6 6 6 6
          6 6 6 6 6 6
          6 6 6 6 6 6
          6 6 6 6 6 6
          6 6 6 6 6 6
          6 6 6 6 6 6
          6 6 6 6 6 6
          6 6 6 6 6 6
          6 6 6 6 6 6
          6 6 6 6 6 6
          6 6 6 6 6 6
          6 6 6 6 6 6
          6 6 6 6 6 6
          6 6 6 6 6 6
          6 6 6 6 6 6
          6 6 6 6 6 6
          6 6 6 6 6 6
          6 6 6 6 6 6
          6 6 6 6 6 6
          6 6 6 6 6 6
          6 6 6 6 6 6
          6 6 6 6 6 6
          6 6 6 6 6 6
          6 6 6 6 6 6
          6 6 6 6 6 6
          6 6 6 6 6 6
          6 6 6 6 6 6
          6 6 6 6 6 6
          6 6 6 6 6 6
          6 6 6 6 6 6
          6 6 6 6 6 6
          6 6 6 6 6 6
          6 6 6 6 6 6
          6 6 6 6 6 6
          6 6 6 6 6 6
          6 6 6 6 6 6
          6 6 6 6 6 6
          6 6 6 6 6 6
          6 6 6 6 6 6
          6 6 6 6 6 6
          6 6 6 6 6 6
          6 6 6 6 6 6
          6 6 6 6 6 6
          6 6 6 6 6 6
          6 6 6 6 6 6
          6 6 6 6 6 6
          6 6 6 6
        </DataArray>
      </CellData>
      <Points>
        <DataArray type="Float64" Name="Points" NumberOfComponents="3" format="ascii" RangeMin="0.0018888888888872" RangeMax="0.010555613193541787">
          0.0018888888888873 0.00041379310344749 0 0.0018888888888872 0 0
          0.0018888888888873 0.00041379310344749 0.00015 0.0018888888888872 0 0.00015
          0.0018888888888873 0.00041379310344749 0.0003 0.0018888888888872 0 0.0003
          0.0023333333333313 0.00041379310344749 0 0.0023333333333311 0 0
          0.0023333333333313 0.00041379310344749 0.00015 0.0023333333333311 0 0.00015
          0.0023333333333313 0.00041379310344749 0.0003 0.0023333333333311 0 0.0003
          0.0027777777777734 0.00041379310344749 0 0.0027777777777731 0 0
          0.0027777777777734 0.00041379310344749 0.00015 0.0027777777777731 0 0.00015
          0.0027777777777734 0.00041379310344749 0.0003 0.0027777777777731 0 0.0003
          0.003222222222218 0.00041379310344749 0 0.0032222222222177 0 0
          0.003222222222218 0.00041379310344749 0.00015 0.0032222222222177 0 0.00015
          0.003222222222218 0.00041379310344749 0.0003 0.0032222222222177 0 0.0003
          0.0036666666666636 0.00041379310344749 0 0.0036666666666634 0 0
          0.0036666666666636 0.00041379310344749 0.00015 0.0036666666666634 0 0.00015
          0.0036666666666636 0.00041379310344749 0.0003 0.0036666666666634 0 0.0003
          0.0041111111111091 0.00041379310344749 0 0.004111111111109 0 0
          0.0041111111111091 0.00041379310344749 0.00015 0.004111111111109 0 0.00015
          0.0041111111111091 0.00041379310344749 0.0003 0.004111111111109 0 0.0003
          0.0045555555555554 0.00041379310344749 0 0.0045555555555553 0 0
          0.0045555555555554 0.00041379310344749 0.00015 0.0045555555555553 0 0.00015
          0.0045555555555554 0.00041379310344749 0.0003 0.0045555555555553 0 0.0003
          0.005 0.00041379310344749 0 0.005 0 0
          0.005 0.00041379310344749 0.00015 0.005 0 0.00015
          0.005 0.00041379310344749 0.0003 0.005 0 0.0003
          0.0018888888888875 0.00082758620689497 0 0.0018888888888875 0.00082758620689497 0.00015
          0.0018888888888875 0.00082758620689497 0.0003 0.0023333333333315 0.00082758620689497 0
          0.0023333333333315 0.00082758620689497 0.00015 0.0023333333333315 0.00082758620689497 0.0003
          0.0027777777777737 0.00082758620689497 0 0.0027777777777737 0.00082758620689497 0.00015
          0.0027777777777737 0.00082758620689497 0.0003 0.0032222222222183 0.00082758620689497 0
          0.0032222222222183 0.00082758620689497 0.00015 0.0032222222222183 0.00082758620689497 0.0003
          0.0036666666666638 0.00082758620689497 0 0.0036666666666638 0.00082758620689497 0.00015
          0.0036666666666638 0.00082758620689497 0.0003 0.0041111111111093 0.00082758620689497 0
          0.0041111111111093 0.00082758620689497 0.00015 0.0041111111111093 0.00082758620689497 0.0003
          0.0045555555555554 0.00082758620689497 0 0.0045555555555554 0.00082758620689497 0.00015
          0.0045555555555554 0.00082758620689497 0.0003 0.005 0.00082758620689497 0
          0.005 0.00082758620689497 0.00015 0.005 0.00082758620689497 0.0003
          0.0018888888888876 0.0012413793103426 0 0.0018888888888876 0.0012413793103426 0.00015
          0.0018888888888876 0.0012413793103426 0.0003 0.0023333333333317 0.0012413793103426 0
          0.0023333333333317 0.0012413793103426 0.00015 0.0023333333333317 0.0012413793103426 0.0003
          0.002777777777774 0.0012413793103426 0 0.002777777777774 0.0012413793103426 0.00015
          0.002777777777774 0.0012413793103426 0.0003 0.0032222222222186 0.0012413793103426 0
          0.0032222222222186 0.0012413793103426 0.00015 0.0032222222222186 0.0012413793103426 0.0003
          0.003666666666664 0.0012413793103426 0 0.003666666666664 0.0012413793103426 0.00015
          0.003666666666664 0.0012413793103426 0.0003 0.0041111111111095 0.0012413793103426 0
          0.0041111111111095 0.0012413793103426 0.00015 0.0041111111111095 0.0012413793103426 0.0003
          0.0045555555555554 0.0012413793103426 0 0.0045555555555554 0.0012413793103426 0.00015
          0.0045555555555554 0.0012413793103426 0.0003 0.005 0.0012413793103426 0
          0.005 0.0012413793103426 0.00015 0.005 0.0012413793103426 0.0003
          0.0018888888888877 0.0016551724137901 0 0.0018888888888877 0.0016551724137901 0.00015
          0.0018888888888877 0.0016551724137901 0.0003 0.0023333333333319 0.0016551724137901 0
          0.0023333333333319 0.0016551724137901 0.00015 0.0023333333333319 0.0016551724137901 0.0003
          0.0027777777777743 0.0016551724137901 0 0.0027777777777743 0.0016551724137901 0.00015
          0.0027777777777743 0.0016551724137901 0.0003 0.0032222222222189 0.0016551724137901 0
          0.0032222222222189 0.0016551724137901 0.00015 0.0032222222222189 0.0016551724137901 0.0003
          0.0036666666666642 0.0016551724137901 0 0.0036666666666642 0.0016551724137901 0.00015
          0.0036666666666642 0.0016551724137901 0.0003 0.0041111111111096 0.0016551724137901 0
          0.0041111111111096 0.0016551724137901 0.00015 0.0041111111111096 0.0016551724137901 0.0003
          0.0045555555555555 0.0016551724137901 0 0.0045555555555555 0.0016551724137901 0.00015
          0.0045555555555555 0.0016551724137901 0.0003 0.005 0.0016551724137901 0
          0.005 0.0016551724137901 0.00015 0.005 0.0016551724137901 0.0003
          0.0018888888888879 0.0020689655172371 0 0.0018888888888879 0.0020689655172371 0.00015
          0.0018888888888879 0.0020689655172371 0.0003 0.002333333333332 0.0020689655172371 0
          0.002333333333332 0.0020689655172371 0.00015 0.002333333333332 0.0020689655172371 0.0003
          0.0027777777777746 0.0020689655172371 0 0.0027777777777746 0.0020689655172371 0.00015
          0.0027777777777746 0.0020689655172371 0.0003 0.0032222222222192 0.0020689655172371 0
          0.0032222222222192 0.0020689655172371 0.00015 0.0032222222222192 0.0020689655172371 0.0003
          0.0036666666666643 0.0020689655172371 0 0.0036666666666643 0.0020689655172371 0.00015
          0.0036666666666643 0.0020689655172371 0.0003 0.0041111111111098 0.0020689655172371 0
          0.0041111111111098 0.0020689655172371 0.00015 0.0041111111111098 0.0020689655172371 0.0003
          0.0045555555555555 0.0020689655172371 0 0.0045555555555555 0.0020689655172371 0.00015
          0.0045555555555555 0.0020689655172371 0.0003 0.005 0.0020689655172371 0
          0.005 0.0020689655172371 0.00015 0.005 0.0020689655172371 0.0003
          0.001888888888888 0.0024827586206843 0 0.001888888888888 0.0024827586206843 0.00015
          0.001888888888888 0.0024827586206843 0.0003 0.0023333333333322 0.0024827586206843 0
          0.0023333333333322 0.0024827586206843 0.00015 0.0023333333333322 0.0024827586206843 0.0003
          0.0027777777777749 0.0024827586206843 0 0.0027777777777749 0.0024827586206843 0.00015
          0.0027777777777749 0.0024827586206843 0.0003 0.0032222222222196 0.0024827586206843 0
          0.0032222222222196 0.0024827586206843 0.00015 0.0032222222222196 0.0024827586206843 0.0003
          0.0036666666666645 0.0024827586206843 0 0.0036666666666645 0.0024827586206843 0.00015
          0.0036666666666645 0.0024827586206843 0.0003 0.0041111111111099 0.0024827586206843 0
          0.0041111111111099 0.0024827586206843 0.00015 0.0041111111111099 0.0024827586206843 0.0003
          0.0045555555555555 0.0024827586206843 0 0.0045555555555555 0.0024827586206843 0.00015
          0.0045555555555555 0.0024827586206843 0.0003 0.005 0.0024827586206843 0
          0.005 0.0024827586206843 0.00015 0.005 0.0024827586206843 0.0003
          0.0014444444444442 0.0028965517241314 0 0.0014444444444442 0.0028965517241314 0.00015
          0.0014444444444442 0.0028965517241314 0.0003 0.0018888888888881 0.0028965517241314 0
          0.0018888888888881 0.0028965517241314 0.00015 0.0018888888888881 0.0028965517241314 0.0003
          0.0023333333333324 0.0028965517241314 0 0.0023333333333324 0.0028965517241314 0.00015
          0.0023333333333324 0.0028965517241314 0.0003 0.0027777777777753 0.0028965517241314 0
          0.0027777777777753 0.0028965517241314 0.00015 0.0027777777777753 0.0028965517241314 0.0003
          0.0032222222222199 0.0028965517241314 0 0.0032222222222199 0.0028965517241314 0.00015
          0.0032222222222199 0.0028965517241314 0.0003 0.0036666666666647 0.0028965517241314 0
          0.0036666666666647 0.0028965517241314 0.00015 0.0036666666666647 0.0028965517241314 0.0003
          0.0041111111111101 0.0028965517241314 0 0.0041111111111101 0.0028965517241314 0.00015
          0.0041111111111101 0.0028965517241314 0.0003 0.0045555555555556 0.0028965517241314 0
          0.0045555555555556 0.0028965517241314 0.00015 0.0045555555555556 0.0028965517241314 0.0003
          0.005 0.0028965517241314 0 0.005 0.0028965517241314 0.00015
          0.005 0.0028965517241314 0.0003 0.0014444444444442 0.0033103448275785 0
          0.0014444444444442 0.0033103448275785 0.00015 0.0014444444444442 0.0033103448275785 0.0003
          0.0018888888888882 0.0033103448275785 0 0.0018888888888882 0.0033103448275785 0.00015
          0.0018888888888882 0.0033103448275785 0.0003 0.0023333333333326 0.0033103448275785 0
          0.0023333333333326 0.0033103448275785 0.00015 0.0023333333333326 0.0033103448275785 0.0003
          0.0027777777777756 0.0033103448275785 0 0.0027777777777756 0.0033103448275785 0.00015
          0.0027777777777756 0.0033103448275785 0.0003 0.0032222222222202 0.0033103448275785 0
          0.0032222222222202 0.0033103448275785 0.00015 0.0032222222222202 0.0033103448275785 0.0003
          0.0036666666666649 0.0033103448275785 0 0.0036666666666649 0.0033103448275785 0.00015
          0.0036666666666649 0.0033103448275785 0.0003 0.0041111111111102 0.0033103448275785 0
          0.0041111111111102 0.0033103448275785 0.00015 0.0041111111111102 0.0033103448275785 0.0003
          0.0045555555555556 0.0033103448275785 0 0.0045555555555556 0.0033103448275785 0.00015
          0.0045555555555556 0.0033103448275785 0.0003 0.005 0.0033103448275785 0
          0.005 0.0033103448275785 0.00015 0.005 0.0033103448275785 0.0003
          0.0014444444444443 0.0037241379310256 0 0.0014444444444443 0.0037241379310256 0.00015
          0.0014444444444443 0.0037241379310256 0.0003 0.0018888888888884 0.0037241379310256 0
          0.0018888888888884 0.0037241379310256 0.00015 0.0018888888888884 0.0037241379310256 0.0003
          0.0023333333333328 0.0037241379310256 0 0.0023333333333328 0.0037241379310256 0.00015
          0.0023333333333328 0.0037241379310256 0.0003 0.0027777777777759 0.0037241379310256 0
          0.0027777777777759 0.0037241379310256 0.00015 0.0027777777777759 0.0037241379310256 0.0003
          0.0032222222222205 0.0037241379310256 0 0.0032222222222205 0.0037241379310256 0.00015
          0.0032222222222205 0.0037241379310256 0.0003 0.003666666666665 0.0037241379310256 0
          0.003666666666665 0.0037241379310256 0.00015 0.003666666666665 0.0037241379310256 0.0003
          0.0041111111111104 0.0037241379310256 0 0.0041111111111104 0.0037241379310256 0.00015
          0.0041111111111104 0.0037241379310256 0.0003 0.0045555555555556 0.0037241379310256 0
          0.0045555555555556 0.0037241379310256 0.00015 0.0045555555555556 0.0037241379310256 0.0003
          0.005 0.0037241379310256 0 0.005 0.0037241379310256 0.00015
          0.005 0.0037241379310256 0.0003 0.0014444444444444 0.0041379310344727 0
          0.0014444444444444 0.0041379310344727 0.00015 0.0014444444444444 0.0041379310344727 0.0003
          0.0018888888888885 0.0041379310344727 0 0.0018888888888885 0.0041379310344727 0.00015
          0.0018888888888885 0.0041379310344727 0.0003 0.002333333333333 0.0041379310344727 0
          0.002333333333333 0.0041379310344727 0.00015 0.002333333333333 0.0041379310344727 0.0003
          0.0027777777777762 0.0041379310344727 0 0.0027777777777762 0.0041379310344727 0.00015
          0.0027777777777762 0.0041379310344727 0.0003 0.0032222222222208 0.0041379310344727 0
          0.0032222222222208 0.0041379310344727 0.00015 0.0032222222222208 0.0041379310344727 0.0003
          0.0036666666666652 0.0041379310344727 0 0.0036666666666652 0.0041379310344727 0.00015
          0.0036666666666652 0.0041379310344727 0.0003 0.0041111111111105 0.0041379310344727 0
          0.0041111111111105 0.0041379310344727 0.00015 0.0041111111111105 0.0041379310344727 0.0003
          0.0045555555555557 0.0041379310344727 0 0.0045555555555557 0.0041379310344727 0.00015
          0.0045555555555557 0.0041379310344727 0.0003 0.005 0.0041379310344727 0
          0.005 0.0041379310344727 0.00015 0.005 0.0041379310344727 0.0003
          0.0014444444444444 0.0045517241379199 0 0.0014444444444444 0.0045517241379199 0.00015
          0.0014444444444444 0.0045517241379199 0.0003 0.0018888888888886 0.0045517241379199 0
          0.0018888888888886 0.0045517241379199 0.00015 0.0018888888888886 0.0045517241379199 0.0003
          0.0023333333333331 0.0045517241379199 0 0.0023333333333331 0.0045517241379199 0.00015
          0.0023333333333331 0.0045517241379199 0.0003 0.0027777777777765 0.0045517241379199 0
          0.0027777777777765 0.0045517241379199 0.00015 0.0027777777777765 0.0045517241379199 0.0003
          0.0032222222222211 0.0045517241379199 0 0.0032222222222211 0.0045517241379199 0.00015
          0.0032222222222211 0.0045517241379199 0.0003 0.0036666666666654 0.0045517241379199 0
          0.0036666666666654 0.0045517241379199 0.00015 0.0036666666666654 0.0045517241379199 0.0003
          0.0041111111111107 0.0045517241379199 0 0.0041111111111107 0.0045517241379199 0.00015
          0.0041111111111107 0.0045517241379199 0.0003 0.0045555555555557 0.0045517241379199 0
          0.0045555555555557 0.0045517241379199 0.00015 0.0045555555555557 0.0045517241379199 0.0003
          0.005 0.0045517241379199 0 0.005 0.0045517241379199 0.00015
          0.005 0.0045517241379199 0.0003 0.0014444444444445 0.0049655172413669 0
          0.0014444444444445 0.0049655172413669 0.00015 0.0014444444444445 0.0049655172413669 0.0003
          0.0018888888888888 0.0049655172413669 0 0.0018888888888888 0.0049655172413669 0.00015
          0.0018888888888888 0.0049655172413669 0.0003 0.0023333333333333 0.0049655172413669 0
          0.0023333333333333 0.0049655172413669 0.00015 0.0023333333333333 0.0049655172413669 0.0003
          0.0027777777777768 0.0049655172413669 0 0.0027777777777768 0.0049655172413669 0.00015
          0.0027777777777768 0.0049655172413669 0.0003 0.0032222222222214 0.0049655172413669 0
          0.0032222222222214 0.0049655172413669 0.00015 0.0032222222222214 0.0049655172413669 0.0003
          0.0036666666666656 0.0049655172413669 0 0.0036666666666656 0.0049655172413669 0.00015
          0.0036666666666656 0.0049655172413669 0.0003 0.0041111111111108 0.0049655172413669 0
          0.0041111111111108 0.0049655172413669 0.00015 0.0041111111111108 0.0049655172413669 0.0003
          0.0045555555555557 0.0049655172413669 0 0.0045555555555557 0.0049655172413669 0.00015
          0.0045555555555557 0.0049655172413669 0.0003 0.005 0.0049655172413669 0
          0.005 0.0049655172413669 0.00015 0.005 0.0049655172413669 0.0003
          0.0014444444444445 0.0053793103448139 0 0.0014444444444445 0.0053793103448139 0.00015
          0.0014444444444445 0.0053793103448139 0.0003 0.0018888888888889 0.0053793103448139 0
          0.0018888888888889 0.0053793103448139 0.00015 0.0018888888888889 0.0053793103448139 0.0003
          0.0023333333333335 0.0053793103448139 0 0.0023333333333335 0.0053793103448139 0.00015
          0.0023333333333335 0.0053793103448139 0.0003 0.0027777777777771 0.0053793103448139 0
          0.0027777777777771 0.0053793103448139 0.00015 0.0027777777777771 0.0053793103448139 0.0003
          0.0032222222222217 0.0053793103448139 0 0.0032222222222217 0.0053793103448139 0.00015
          0.0032222222222217 0.0053793103448139 0.0003 0.0036666666666658 0.0053793103448139 0
          0.0036666666666658 0.0053793103448139 0.00015 0.0036666666666658 0.0053793103448139 0.0003
          0.004111111111111 0.0053793103448139 0 0.004111111111111 0.0053793103448139 0.00015
          0.004111111111111 0.0053793103448139 0.0003 0.0045555555555558 0.0053793103448139 0
          0.0045555555555558 0.0053793103448139 0.00015 0.0045555555555558 0.0053793103448139 0.0003
          0.005 0.0053793103448139 0 0.005 0.0053793103448139 0.00015
          0.005 0.0053793103448139 0.0003 0.0014444444444446 0.0057931034482612 0
          0.0014444444444446 0.0057931034482612 0.00015 0.0014444444444446 0.0057931034482612 0.0003
          0.001888888888889 0.0057931034482612 0 0.001888888888889 0.0057931034482612 0.00015
          0.001888888888889 0.0057931034482612 0.0003 0.0023333333333337 0.0057931034482612 0
          0.0023333333333337 0.0057931034482612 0.00015 0.0023333333333337 0.0057931034482612 0.0003
          0.0027777777777774 0.0057931034482612 0 0.0027777777777774 0.0057931034482612 0.00015
          0.0027777777777774 0.0057931034482612 0.0003 0.003222222222222 0.0057931034482612 0
          0.003222222222222 0.0057931034482612 0.00015 0.003222222222222 0.0057931034482612 0.0003
          0.0036666666666659 0.0057931034482612 0 0.0036666666666659 0.0057931034482612 0.00015
          0.0036666666666659 0.0057931034482612 0.0003 0.0041111111111112 0.0057931034482612 0
          0.0041111111111112 0.0057931034482612 0.00015 0.0041111111111112 0.0057931034482612 0.0003
          0.0045555555555558 0.0057931034482612 0 0.0045555555555558 0.0057931034482612 0.00015
          0.0045555555555558 0.0057931034482612 0.0003 0.005 0.0057931034482612 0
          0.005 0.0057931034482612 0.00015 0.005 0.0057931034482612 0.0003
          0.0018888888888891 0.0062068965517097 0 0.0018888888888891 0.0062068965517097 0.00015
          0.0018888888888891 0.0062068965517097 0.0003 0.0023333333333339 0.0062068965517097 0
          0.0023333333333339 0.0062068965517097 0.00015 0.0023333333333339 0.0062068965517097 0.0003
          0.0027777777777778 0.0062068965517097 0 0.0027777777777778 0.0062068965517097 0.00015
          0.0027777777777778 0.0062068965517097 0.0003 0.0032222222222224 0.0062068965517097 0
          0.0032222222222224 0.0062068965517097 0.00015 0.0032222222222224 0.0062068965517097 0.0003
          0.0036666666666661 0.0062068965517097 0 0.0036666666666661 0.0062068965517097 0.00015
          0.0036666666666661 0.0062068965517097 0.0003 0.0041111111111113 0.0062068965517097 0
          0.0041111111111113 0.0062068965517097 0.00015 0.0041111111111113 0.0062068965517097 0.0003
          0.0045555555555558 0.0062068965517097 0 0.0045555555555558 0.0062068965517097 0.00015
          0.0045555555555558 0.0062068965517097 0.0003 0.005 0.0062068965517097 0
          0.005 0.0062068965517097 0.00015 0.005 0.0062068965517097 0.0003
          0.0018888888888893 0.0066206896551586 0 0.0018888888888893 0.0066206896551586 0.00015
          0.0018888888888893 0.0066206896551586 0.0003 0.002333333333334 0.0066206896551586 0
          0.002333333333334 0.0066206896551586 0.00015 0.002333333333334 0.0066206896551586 0.0003
          0.0027777777777781 0.0066206896551586 0 0.0027777777777781 0.0066206896551586 0.00015
          0.0027777777777781 0.0066206896551586 0.0003 0.0032222222222227 0.0066206896551586 0
          0.0032222222222227 0.0066206896551586 0.00015 0.0032222222222227 0.0066206896551586 0.0003
          0.0036666666666663 0.0066206896551586 0 0.0036666666666663 0.0066206896551586 0.00015
          0.0036666666666663 0.0066206896551586 0.0003 0.0041111111111115 0.0066206896551586 0
          0.0041111111111115 0.0066206896551586 0.00015 0.0041111111111115 0.0066206896551586 0.0003
          0.0045555555555559 0.0066206896551586 0 0.0045555555555559 0.0066206896551586 0.00015
          0.0045555555555559 0.0066206896551586 0.0003 0.005 0.0066206896551586 0
          0.005 0.0066206896551586 0.00015 0.005 0.0066206896551586 0.0003
          0.0018888888888894 0.0070344827586082 0 0.0018888888888894 0.0070344827586082 0.00015
          0.0018888888888894 0.0070344827586082 0.0003 0.0023333333333342 0.0070344827586082 0
          0.0023333333333342 0.0070344827586082 0.00015 0.0023333333333342 0.0070344827586082 0.0003
          0.0027777777777784 0.0070344827586082 0 0.0027777777777784 0.0070344827586082 0.00015
          0.0027777777777784 0.0070344827586082 0.0003 0.003222222222223 0.0070344827586082 0
          0.003222222222223 0.0070344827586082 0.00015 0.003222222222223 0.0070344827586082 0.0003
          0.0036666666666665 0.0070344827586082 0 0.0036666666666665 0.0070344827586082 0.00015
          0.0036666666666665 0.0070344827586082 0.0003 0.0041111111111116 0.0070344827586082 0
          0.0041111111111116 0.0070344827586082 0.00015 0.0041111111111116 0.0070344827586082 0.0003
          0.0045555555555559 0.0070344827586082 0 0.0045555555555559 0.0070344827586082 0.00015
          0.0045555555555559 0.0070344827586082 0.0003 0.005 0.0070344827586082 0
          0.005 0.0070344827586082 0.00015 0.005 0.0070344827586082 0.0003
          0.0018888888888895 0.0074482758620575 0 0.0018888888888895 0.0074482758620575 0.00015
          0.0018888888888895 0.0074482758620575 0.0003 0.0023333333333344 0.0074482758620575 0
          0.0023333333333344 0.0074482758620575 0.00015 0.0023333333333344 0.0074482758620575 0.0003
          0.0027777777777787 0.0074482758620575 0 0.0027777777777787 0.0074482758620575 0.00015
          0.0027777777777787 0.0074482758620575 0.0003 0.0032222222222233 0.0074482758620575 0
          0.0032222222222233 0.0074482758620575 0.00015 0.0032222222222233 0.0074482758620575 0.0003
          0.0036666666666666 0.0074482758620576 0 0.0036666666666666 0.0074482758620576 0.00015
          0.0036666666666666 0.0074482758620576 0.0003 0.0041111111111118 0.0074482758620576 0
          0.0041111111111118 0.0074482758620576 0.00015 0.0041111111111118 0.0074482758620576 0.0003
          0.0045555555555559 0.0074482758620576 0 0.0045555555555559 0.0074482758620576 0.00015
          0.0045555555555559 0.0074482758620576 0.0003 0.005 0.0074482758620575 0
          0.005 0.0074482758620575 0.00015 0.005 0.0074482758620575 0.0003
          0.0023333333333346 0.0078620689655065 0 0.0023333333333346 0.0078620689655065 0.00015
          0.0023333333333346 0.0078620689655065 0.0003 0.002777777777779 0.0078620689655065 0
          0.002777777777779 0.0078620689655065 0.00015 0.002777777777779 0.0078620689655065 0.0003
          0.0032222222222236 0.0078620689655065 0 0.0032222222222236 0.0078620689655065 0.00015
          0.0032222222222236 0.0078620689655065 0.0003 0.0036666666666668 0.0078620689655065 0
          0.0036666666666668 0.0078620689655065 0.00015 0.0036666666666668 0.0078620689655065 0.0003
          0.0041111111111119 0.0078620689655065 0 0.0041111111111119 0.0078620689655065 0.00015
          0.0041111111111119 0.0078620689655065 0.0003 0.004555555555556 0.0078620689655065 0
          0.004555555555556 0.0078620689655065 0.00015 0.004555555555556 0.0078620689655065 0.0003
          0.005 0.0078620689655065 0 0.005 0.0078620689655065 0.00015
          0.005 0.0078620689655065 0.0003 0.0023333333333348 0.0082758620689564 0
          0.0023333333333348 0.0082758620689564 0.00015 0.0023333333333348 0.0082758620689564 0.0003
          0.0027777777777793 0.0082758620689564 0 0.0027777777777793 0.0082758620689564 0.00015
          0.0027777777777793 0.0082758620689564 0.0003 0.0032222222222239 0.0082758620689564 0
          0.0032222222222239 0.0082758620689564 0.00015 0.0032222222222239 0.0082758620689564 0.0003
          0.003666666666667 0.0082758620689564 0 0.003666666666667 0.0082758620689564 0.00015
          0.003666666666667 0.0082758620689564 0.0003 0.0041111111111121 0.0082758620689564 0
          0.0041111111111121 0.0082758620689564 0.00015 0.0041111111111121 0.0082758620689564 0.0003
          0.004555555555556 0.0082758620689564 0 0.004555555555556 0.0082758620689564 0.00015
          0.004555555555556 0.0082758620689564 0.0003 0.005 0.0082758620689564 0
          0.005 0.0082758620689564 0.00015 0.005 0.0082758620689564 0.0003
          0.002333333333335 0.0086896551724064 0 0.002333333333335 0.0086896551724064 0.00015
          0.002333333333335 0.0086896551724064 0.0003 0.0027777777777796 0.0086896551724064 0
          0.0027777777777796 0.0086896551724064 0.00015 0.0027777777777796 0.0086896551724064 0.0003
          0.0032222222222242 0.0086896551724064 0 0.0032222222222242 0.0086896551724064 0.00015
          0.0032222222222242 0.0086896551724064 0.0003 0.0036666666666672 0.0086896551724064 0
          0.0036666666666672 0.0086896551724064 0.00015 0.0036666666666672 0.0086896551724064 0.0003
          0.0041111111111122 0.0086896551724064 0 0.0041111111111122 0.0086896551724064 0.00015
          0.0041111111111122 0.0086896551724064 0.0003 0.004555555555556 0.0086896551724064 0
          0.004555555555556 0.0086896551724064 0.00015 0.004555555555556 0.0086896551724064 0.0003
          0.0023333333333351 0.0091034482758539 0 0.0023333333333351 0.0091034482758539 0.00015
          0.0023333333333351 0.0091034482758539 0.0003 0.0027777777777799 0.0091034482758539 0
          0.0027777777777799 0.0091034482758539 0.00015 0.0027777777777799 0.0091034482758539 0.0003
          0.0032222222222245 0.0091034482758539 0 0.0032222222222245 0.0091034482758539 0.00015
          0.0032222222222245 0.0091034482758539 0.0003 0.0036666666666673 0.0091034482758539 0
          0.0036666666666673 0.0091034482758539 0.00015 0.0036666666666673 0.0091034482758539 0.0003
          0.0041111111111124 0.0091034482758539 0 0.0041111111111124 0.0091034482758539 0.00015
          0.0041111111111124 0.0091034482758539 0.0003 0.0058597010152523 0.0063127004857001 0
          0.0053951839928307 0.0062556571299739 0 0.0053921082338215 0.005828945826549 0
          0.0057916174309905 0.0058352682535246 0 0.0058597010152523 0.0063127004857001 0.00015
          0.0053951839928307 0.0062556571299739 0.00015 0.0053921082338215 0.005828945826549 0.00015
          0.0057916174309905 0.0058352682535246 0.00015 0.0058597010152523 0.0063127004857001 0.0003
          0.0053951839928307 0.0062556571299739 0.0003 0.0053921082338215 0.005828945826549 0.0003
          0.0057916174309905 0.0058352682535246 0.0003 0.0057558905586118 0.0030553709280972 0
          0.0057130501801562 0.0035159257865852 0 0.005360618756523 0.0035837068269911 0
          0.0053739732009329 0.0031599138809835 0 0.0057558905586118 0.0030553709280972 0.00015
          0.0057130501801562 0.0035159257865852 0.00015 0.005360618756523 0.0035837068269911 0.00015
          0.0053739732009329 0.0031599138809835 0.00015 0.0057558905586118 0.0030553709280972 0.0003
          0.0057130501801562 0.0035159257865852 0.0003 0.005360618756523 0.0035837068269911 0.0003
          0.0053739732009329 0.0031599138809835 0.0003 0.0056439388514995 0.0075162532529611 0
          0.0053753336003136 0.0081134227852172 0 0.0053162760057692 0.0077147827843445 0
          0.0056439388514995 0.0075162532529611 0.00015 0.0053753336003136 0.0081134227852172 0.00015
          0.0053162760057692 0.0077147827843445 0.00015 0.0056439388514995 0.0075162532529611 0.0003
          0.0053753336003136 0.0081134227852172 0.0003 0.0053162760057692 0.0077147827843445 0.0003
          0.0059025575310583 0.0073410103875386 0 0.0059025575310583 0.0073410103875386 0.00015
          0.0059025575310583 0.0073410103875386 0.0003 0.005369078903807 0.0054112957512825 0
          0.0053441966179727 0.0050059769161847 0 0.0056930202847481 0.0049554676612008 0
          0.0057606246390047 0.0053811345728149 0 0.005369078903807 0.0054112957512825 0.00015
          0.0053441966179727 0.0050059769161847 0.00015 0.0056930202847481 0.0049554676612008 0.00015
          0.0057606246390047 0.0053811345728149 0.00015 0.005369078903807 0.0054112957512825 0.0003
          0.0053441966179727 0.0050059769161847 0.0003 0.0056930202847481 0.0049554676612008 0.0003
          0.0057606246390047 0.0053811345728149 0.0003 0.0057438065986578 0.0025718646608386 0
          0.0053684283361675 0.002728434685479 0 0.0057438065986578 0.0025718646608386 0.00015
          0.0053684283361675 0.002728434685479 0.00015 0.0057438065986578 0.0025718646608386 0.0003
          0.0053684283361675 0.002728434685479 0.0003 0.0061712548385041 0.0061513410385421 0
          0.006445117357903 0.0062971891343806 0 0.0062246515840748 0.0066057171706914 0
          0.0061712548385041 0.0061513410385421 0.00015 0.006445117357903 0.0062971891343806 0.00015
          0.0062246515840748 0.0066057171706914 0.00015 0.0061712548385041 0.0061513410385421 0.0003
          0.006445117357903 0.0062971891343806 0.0003 0.0062246515840748 0.0066057171706914 0.0003
          0.0053553835295756 0.0022900157905326 0 0.0057116151882083 0.0021168511926722 0
          0.0053553835295756 0.0022900157905326 0.00015 0.0057116151882083 0.0021168511926722 0.00015
          0.0053553835295756 0.0022900157905326 0.0003 0.0057116151882083 0.0021168511926722 0.0003
          0.0054233068561349 0.007134337670225 0 0.0059254586078826 0.006969673542248 0
          0.0054233068561349 0.007134337670225 0.00015 0.0059254586078826 0.006969673542248 0.00015
          0.0054233068561349 0.007134337670225 0.0003 0.0059254586078826 0.006969673542248 0.0003
          0.0057792643598707 0.0040250905144168 0 0.0057792643598707 0.0040250905144168 0.00015
          0.0057792643598707 0.0040250905144168 0.0003 0.0061880810420103 0.0058441905555885 0
          0.0066005814160285 0.0059502230786403 0 0.0061880810420103 0.0058441905555885 0.00015
          0.0066005814160285 0.0059502230786403 0.00015 0.0061880810420103 0.0058441905555885 0.0003
          0.0066005814160285 0.0059502230786403 0.0003 0.0054017220983371 0.0066575347525889 0
          0.0057115805714605 0.0066548075405697 0 0.0054017220983371 0.0066575347525889 0.00015
          0.0057115805714605 0.0066548075405697 0.00015 0.0054017220983371 0.0066575347525889 0.0003
          0.0057115805714605 0.0066548075405697 0.0003 0.005332609719228 0.0047287620137874 0
          0.0055816175545808 0.004587255111362 0 0.005332609719228 0.0047287620137874 0.00015
          0.0055816175545808 0.004587255111362 0.00015 0.005332609719228 0.0047287620137874 0.0003
          0.0055816175545808 0.004587255111362 0.0003 0.0053693194142364 0.0039518184911864 0
          0.0054474185858658 0.0042751360204936 0 0.0053693194142364 0.0039518184911864 0.00015
          0.0054474185858658 0.0042751360204936 0.00015 0.0053693194142364 0.0039518184911864 0.0003
          0.0054474185858658 0.0042751360204936 0.0003 0.0053395672611724 0.0018614292474742 0
          0.0053395672611724 0.0018614292474742 0.00015 0.0053395672611724 0.0018614292474742 0.0003
          0.0053367365074525 0.0010378216876611 0 0.0053236825500972 0.0014543115259673 0
          0.0053367365074525 0.0010378216876611 0.00015 0.0053236825500972 0.0014543115259673 0.00015
          0.0053367365074525 0.0010378216876611 0.0003 0.0053236825500972 0.0014543115259673 0.0003
          0.0056326688189693 0.0038271453778623 0 0.0056326688189693 0.0038271453778623 0.00015
          0.0056326688189693 0.0038271453778623 0.0003 0.0053236477572007 0.00066751117045644 0
          0.0053236477572007 0.00066751117045644 0.00015 0.0053236477572007 0.00066751117045644 0.0003
          0.0052365987891119 0.0074441888076402 0 0.0052365987891119 0.0074441888076402 0.00015
          0.0052365987891119 0.0074441888076402 0.0003 0.0052651323069134 0.00040272801788152 0
          0.0052651323069134 0.00040272801788152 0.00015 0.0052651323069134 0.00040272801788152 0.0003
          0.005675081773805 0.0016743369040255 0 0.005675081773805 0.0016743369040255 0.00015
          0.005675081773805 0.0016743369040255 0.0003 0.0056481668838523 0.0012062671985027 0
          0.0056481668838523 0.0012062671985027 0.00015 0.0056481668838523 0.0012062671985027 0.0003
          0.0055517738097912 0.00099492145317098 0 0.0055517738097912 0.00099492145317098 0.00015
          0.0055517738097912 0.00099492145317098 0.0003 0.005 0.0086896551724064 0
          0.005 0.0086896551724064 0.00015 0.005 0.0086896551724064 0.0003
          0.0045555555555561 0.0091034482758539 0 0.0045555555555561 0.0091034482758539 0.00015
          0.0045555555555561 0.0091034482758539 0.0003 0.005 0.0091034482758539 0
          0.005 0.0091034482758539 0.00015 0.005 0.0091034482758539 0.0003
          0.0027777777777802 0.0095172413793029 0 0.0023333333333353 0.0095172413793029 0
          0.0027777777777802 0.0095172413793029 0.00015 0.0023333333333353 0.0095172413793029 0.00015
          0.0027777777777802 0.0095172413793029 0.0003 0.0023333333333353 0.0095172413793029 0.0003
          0.0032222222222248 0.0095172413793029 0 0.0032222222222248 0.0095172413793029 0.00015
          0.0032222222222248 0.0095172413793029 0.0003 0.0036666666666675 0.0095172413793029 0
          0.0036666666666675 0.0095172413793029 0.00015 0.0036666666666675 0.0095172413793029 0.0003
          0.0041111111111126 0.0095172413793029 0 0.0041111111111126 0.0095172413793029 0.00015
          0.0041111111111126 0.0095172413793029 0.0003 0.0045555555555561 0.0095172413793029 0
          0.0045555555555561 0.0095172413793029 0.00015 0.0045555555555561 0.0095172413793029 0.0003
          0.0058653844060618 0.0079194158644502 0 0.0058653844060618 0.0079194158644502 0.00015
          0.0058653844060618 0.0079194158644502 0.0003 0.0061750164335738 0.0074760206739226 0
          0.0061750164335738 0.0074760206739226 0.00015 0.0061750164335738 0.0074760206739226 0.0003
          0.0060512178389602 0.0047929387822649 0 0.0062389906493372 0.0053128670028646 0
          0.0060512178389602 0.0047929387822649 0.00015 0.0062389906493372 0.0053128670028646 0.00015
          0.0060512178389602 0.0047929387822649 0.0003 0.0062389906493372 0.0053128670028646 0.0003
          0.0068354780286894 0.0065149558629347 0 0.0065694481807909 0.0068273110654121 0
          0.0068354780286894 0.0065149558629347 0.00015 0.0065694481807909 0.0068273110654121 0.00015
          0.0068354780286894 0.0065149558629347 0.0003 0.0065694481807909 0.0068273110654121 0.0003
          0.0061614658010566 0.0029736343202522 0 0.0061372854142827 0.0036106222238676 0
          0.0061614658010566 0.0029736343202522 0.00015 0.0061372854142827 0.0036106222238676 0.00015
          0.0061614658010566 0.0029736343202522 0.0003 0.0061372854142827 0.0036106222238676 0.0003
          0.0061231952422177 0.002444135475079 0 0.0061231952422177 0.002444135475079 0.00015
          0.0061231952422177 0.002444135475079 0.0003 0.0063586074578252 0.0071353312088165 0
          0.0063586074578252 0.0071353312088165 0.00015 0.0063586074578252 0.0071353312088165 0.0003
          0.005927800859391 0.0043689372395662 0 0.0063054236008776 0.0041223407032968 0
          0.005927800859391 0.0043689372395662 0.00015 0.0063054236008776 0.0041223407032968 0.00015
          0.005927800859391 0.0043689372395662 0.0003 0.0063054236008776 0.0041223407032968 0.0003
          0.0070635342364542 0.0061542378287001 0 0.0070635342364542 0.0061542378287001 0.00015
          0.0070635342364542 0.0061542378287001 0.0003 0.0071984303565192 0.0057392272964834 0
          0.0067200519522164 0.0055550541115669 0 0.0071984303565192 0.0057392272964834 0.00015
          0.0067200519522164 0.0055550541115669 0.00015 0.0071984303565192 0.0057392272964834 0.0003
          0.0067200519522164 0.0055550541115669 0.0003 0.0053754057810206 0.0085370600870078 0
          0.0053754057810206 0.0085370600870078 0.00015 0.0053754057810206 0.0085370600870078 0.0003
          0.0060722038988066 0.0019538017587265 0 0.0060722038988066 0.0019538017587265 0.00015
          0.0060722038988066 0.0019538017587265 0.0003 0.0055128205128194 0 0
          0.0057061681768373 0.00065177476244477 0 0.0055128205128194 0 0.00015
          0.0057061681768373 0.00065177476244477 0.00015 0.0055128205128194 0 0.0003
          0.0057061681768373 0.00065177476244477 0.0003 0.0060137569775388 0.0015029488511318 0
          0.0060137569775388 0.0015029488511318 0.00015 0.0060137569775388 0.0015029488511318 0.0003
          0.0059245902968253 0.0010856763727913 0 0.0059245902968253 0.0010856763727913 0.00015
          0.0059245902968253 0.0010856763727913 0.0003 0.0057785311780113 0.0084598603588589 0
          0.0057785311780113 0.0084598603588589 0.00015 0.0057785311780113 0.0084598603588589 0.0003
          <InformationKey name="L2_NORM_RANGE" location="vtkDataArray" length="2">
            <Value index="0">
              0.0018888888889
            </Value>
            <Value index="1">
              0.010555613194
            </Value>
          </InformationKey>
        </DataArray>
      </Points>
      <Cells>
        <DataArray type="Int64" Name="connectivity" format="ascii" RangeMin="0" RangeMax="779">
          6 0 1 7 8 2
          3 9 8 2 3 9
          10 4 5 11 12 6
          7 13 14 8 9 15
          14 8 9 15 16 10
          11 17 18 12 13 19
          20 14 15 21 20 14
          15 21 22 16 17 23
          24 18 19 25 26 20
          21 27 26 20 21 27
          28 22 23 29 30 24
          25 31 32 26 27 33
          32 26 27 33 34 28
          29 35 36 30 31 37
          38 32 33 39 38 32
          33 39 40 34 35 41
          42 36 37 43 44 38
          39 45 44 38 39 45
          46 40 41 47 51 48
          0 6 52 49 2 8
          52 49 2 8 53 50
          4 10 54 51 6 12
          55 52 8 14 55 52
          8 14 56 53 10 16
          57 54 12 18 58 55
          14 20 58 55 14 20
          59 56 16 22 60 57
          18 24 61 58 20 26
          61 58 20 26 62 59
          22 28 63 60 24 30
          64 61 26 32 64 61
          26 32 65 62 28 34
          66 63 30 36 67 64
          32 38 67 64 32 38
          68 65 34 40 69 66
          36 42 70 67 38 44
          70 67 38 44 71 68
          40 46 75 72 48 51
          76 73 49 52 76 73
          49 52 77 74 50 53
          78 75 51 54 79 76
          52 55 79 76 52 55
          80 77 53 56 81 78
          54 57 82 79 55 58
          82 79 55 58 83 80
          56 59 84 81 57 60
          85 82 58 61 85 82
          58 61 86 83 59 62
          87 84 60 63 88 85
          61 64 88 85 61 64
          89 86 62 65 90 87
          63 66 91 88 64 67
          91 88 64 67 92 89
          65 68 93 90 66 69
          94 91 67 70 94 91
          67 70 95 92 68 71
          99 96 72 75 100 97
          73 76 100 97 73 76
          101 98 74 77 102 99
          75 78 103 100 76 79
          103 100 76 79 104 101
          77 80 105 102 78 81
          106 103 79 82 106 103
          79 82 107 104 80 83
          108 105 81 84 109 106
          82 85 109 106 82 85
          110 107 83 86 111 108
          84 87 112 109 85 88
          112 109 85 88 113 110
          86 89 114 111 87 90
          115 112 88 91 115 112
          88 91 116 113 89 92
          117 114 90 93 118 115
          91 94 118 115 91 94
          119 116 92 95 123 120
          96 99 124 121 97 100
          124 121 97 100 125 122
          98 101 126 123 99 102
          127 124 100 103 127 124
          100 103 128 125 101 104
          129 126 102 105 130 127
          103 106 130 127 103 106
          131 128 104 107 132 129
          105 108 133 130 106 109
          133 130 106 109 134 131
          107 110 135 132 108 111
          136 133 109 112 136 133
          109 112 137 134 110 113
          138 135 111 114 139 136
          112 115 139 136 112 115
          140 137 113 116 141 138
          114 117 142 139 115 118
          142 139 115 118 143 140
          116 119 147 144 120 123
          148 145 121 124 148 145
          121 124 149 146 122 125
          150 147 123 126 151 148
          124 127 151 148 124 127
          152 149 125 128 153 150
          126 129 154 151 127 130
          154 151 127 130 155 152
          128 131 156 153 129 132
          157 154 130 133 157 154
          130 133 158 155 131 134
          159 156 132 135 160 157
          133 136 160 157 133 136
          161 158 134 137 162 159
          135 138 163 160 136 139
          163 160 136 139 164 161
          137 140 165 162 138 141
          166 163 139 142 166 163
          139 142 167 164 140 143
          174 171 144 147 175 172
          145 148 175 172 145 148
          176 173 146 149 177 174
          147 150 178 175 148 151
          178 175 148 151 179 176
          149 152 180 177 150 153
          181 178 151 154 181 178
          151 154 182 179 152 155
          183 180 153 156 184 181
          154 157 184 181 154 157
          185 182 155 158 186 183
          156 159 187 184 157 160
          187 184 157 160 188 185
          158 161 189 186 159 162
          190 187 160 163 190 187
          160 163 191 188 161 164
          192 189 162 165 193 190
          163 166 193 190 163 166
          194 191 164 167 198 195
          168 171 199 196 169 172
          199 196 169 172 200 197
          170 173 201 198 171 174
          202 199 172 175 202 199
          172 175 203 200 173 176
          204 201 174 177 205 202
          175 178 205 202 175 178
          206 203 176 179 207 204
          177 180 208 205 178 181
          208 205 178 181 209 206
          179 182 210 207 180 183
          211 208 181 184 211 208
          181 184 212 209 182 185
          213 210 183 186 214 211
          184 187 214 211 184 187
          215 212 185 188 216 213
          186 189 217 214 187 190
          217 214 187 190 218 215
          188 191 219 216 189 192
          220 217 190 193 220 217
          190 193 221 218 191 194
          225 222 195 198 226 223
          196 199 226 223 196 199
          227 224 197 200 228 225
          198 201 229 226 199 202
          229 226 199 202 230 227
          200 203 231 228 201 204
          232 229 202 205 232 229
          202 205 233 230 203 206
          234 231 204 207 235 232
          205 208 235 232 205 208
          236 233 206 209 237 234
          207 210 238 235 208 211
          238 235 208 211 239 236
          209 212 240 237 210 213
          241 238 211 214 241 238
          211 214 242 239 212 215
          243 240 213 216 244 241
          214 217 244 241 214 217
          245 242 215 218 246 243
          216 219 247 244 217 220
          247 244 217 220 248 245
          218 221 252 249 222 225
          253 250 223 226 253 250
          223 226 254 251 224 227
          255 252 225 228 256 253
          226 229 256 253 226 229
          257 254 227 230 258 255
          228 231 259 256 229 232
          259 256 229 232 260 257
          230 233 261 258 231 234
          262 259 232 235 262 259
          232 235 263 260 233 236
          264 261 234 237 265 262
          235 238 265 262 235 238
          266 263 236 239 267 264
          237 240 268 265 238 241
          268 265 238 241 269 266
          239 242 270 267 240 243
          271 268 241 244 271 268
          241 244 272 269 242 245
          273 270 243 246 274 271
          244 247 274 271 244 247
          275 272 245 248 279 276
          249 252 280 277 250 253
          280 277 250 253 281 278
          251 254 282 279 252 255
          283 280 253 256 283 280
          253 256 284 281 254 257
          285 282 255 258 286 283
          256 259 286 283 256 259
          287 284 257 260 288 285
          258 261 289 286 259 262
          289 286 259 262 290 287
          260 263 291 288 261 264
          292 289 262 265 292 289
          262 265 293 290 263 266
          294 291 264 267 295 292
          265 268 295 292 265 268
          296 293 266 269 297 294
          267 270 298 295 268 271
          298 295 268 271 299 296
          269 272 300 297 270 273
          301 298 271 274 301 298
          271 274 302 299 272 275
          306 303 276 279 307 304
          277 280 307 304 277 280
          308 305 278 281 309 306
          279 282 310 307 280 283
          310 307 280 283 311 308
          281 284 312 309 282 285
          313 310 283 286 313 310
          283 286 314 311 284 287
          315 312 285 288 316 313
          286 289 316 313 286 289
          317 314 287 290 318 315
          288 291 319 316 289 292
          319 316 289 292 320 317
          290 293 321 318 291 294
          322 319 292 295 322 319
          292 295 323 320 293 296
          324 321 294 297 325 322
          295 298 325 322 295 298
          326 323 296 299 327 324
          297 300 328 325 298 301
          328 325 298 301 329 326
          299 302 333 330 303 306
          334 331 304 307 334 331
          304 307 335 332 305 308
          336 333 306 309 337 334
          307 310 337 334 307 310
          338 335 308 311 339 336
          309 312 340 337 310 313
          340 337 310 313 341 338
          311 314 342 339 312 315
          343 340 313 316 343 340
          313 316 344 341 314 317
          345 342 315 318 346 343
          316 319 346 343 316 319
          347 344 317 320 348 345
          318 321 349 346 319 322
          349 346 319 322 350 347
          320 323 351 348 321 324
          352 349 322 325 352 349
          322 325 353 350 323 326
          354 351 324 327 355 352
          325 328 355 352 325 328
          356 353 326 329 360 357
          330 333 361 358 331 334
          361 358 331 334 362 359
          332 335 363 360 333 336
          364 361 334 337 364 361
          334 337 365 362 335 338
          366 363 336 339 367 364
          337 340 367 364 337 340
          368 365 338 341 369 366
          339 342 370 367 340 343
          370 367 340 343 371 368
          341 344 372 369 342 345
          373 370 343 346 373 370
          343 346 374 371 344 347
          375 372 345 348 376 373
          346 349 376 373 346 349
          377 374 347 350 378 375
          348 351 379 376 349 352
          379 376 349 352 380 377
          350 353 381 378 351 354
          382 379 352 355 382 379
          352 355 383 380 353 356
          387 384 360 363 388 385
          361 364 388 385 361 364
          389 386 362 365 390 387
          363 366 391 388 364 367
          391 388 364 367 392 389
          365 368 393 390 366 369
          394 391 367 370 394 391
          367 370 395 392 368 371
          396 393 369 372 397 394
          370 373 397 394 370 373
          398 395 371 374 399 396
          372 375 400 397 373 376
          400 397 373 376 401 398
          374 377 402 399 375 378
          403 400 376 379 403 400
          376 379 404 401 377 380
          405 402 378 381 406 403
          379 382 406 403 379 382
          407 404 380 383 411 408
          384 387 412 409 385 388
          412 409 385 388 413 410
          386 389 414 411 387 390
          415 412 388 391 415 412
          388 391 416 413 389 392
          417 414 390 393 418 415
          391 394 418 415 391 394
          419 416 392 395 420 417
          393 396 421 418 394 397
          421 418 394 397 422 419
          395 398 423 420 396 399
          424 421 397 400 424 421
          397 400 425 422 398 401
          426 423 399 402 427 424
          400 403 427 424 400 403
          428 425 401 404 429 426
          402 405 430 427 403 406
          430 427 403 406 431 428
          404 407 435 432 408 411
          436 433 409 412 436 433
          409 412 437 434 410 413
          438 435 411 414 439 436
          412 415 439 436 412 415
          440 437 413 416 441 438
          414 417 442 439 415 418
          442 439 415 418 443 440
          416 419 444 441 417 420
          445 442 418 421 445 442
          418 421 446 443 419 422
          447 444 420 423 448 445
          421 424 448 445 421 424
          449 446 422 425 450 447
          423 426 451 448 424 427
          451 448 424 427 452 449
          425 428 453 450 426 429
          454 451 427 430 454 451
          427 430 455 452 428 431
          459 456 432 435 460 457
          433 436 460 457 433 436
          461 458 434 437 462 459
          435 438 463 460 436 439
          463 460 436 439 464 461
          437 440 465 462 438 441
          466 463 439 442 466 463
          439 442 467 464 440 443
          468 465 441 444 469 466
          442 445 469 466 442 445
          470 467 443 446 471 468
          444 447 472 469 445 448
          472 469 445 448 473 470
          446 449 474 471 447 450
          475 472 448 451 475 472
          448 451 476 473 449 452
          477 474 450 453 478 475
          451 454 478 475 451 454
          479 476 452 455 483 480
          459 462 484 481 460 463
          484 481 460 463 485 482
          461 464 486 483 462 465
          487 484 463 466 487 484
          463 466 488 485 464 467
          489 486 465 468 490 487
          466 469 490 487 466 469
          491 488 467 470 492 489
          468 471 493 490 469 472
          493 490 469 472 494 491
          470 473 495 492 471 474
          496 493 472 475 496 493
          472 475 497 494 473 476
          498 495 474 477 499 496
          475 478 499 496 475 478
          500 497 476 479 504 501
          480 483 505 502 481 484
          505 502 481 484 506 503
          482 485 507 504 483 486
          508 505 484 487 508 505
          484 487 509 506 485 488
          510 507 486 489 511 508
          487 490 511 508 487 490
          512 509 488 491 513 510
          489 492 514 511 490 493
          514 511 490 493 515 512
          491 494 516 513 492 495
          517 514 493 496 517 514
          493 496 518 515 494 497
          519 516 495 498 520 517
          496 499 520 517 496 499
          521 518 497 500 525 522
          501 504 526 523 502 505
          526 523 502 505 527 524
          503 506 528 525 504 507
          529 526 505 508 529 526
          505 508 530 527 506 509
          531 528 507 510 532 529
          508 511 532 529 508 511
          533 530 509 512 534 531
          510 513 535 532 511 514
          535 532 511 514 536 533
          512 515 537 534 513 516
          538 535 514 517 538 535
          514 517 539 536 515 518
          687 537 516 519 688 538
          517 520 688 538 517 520
          689 539 518 521 543 540
          522 525 544 541 523 526
          544 541 523 526 545 542
          524 527 546 543 525 528
          547 544 526 529 547 544
          526 529 548 545 527 530
          549 546 528 531 550 547
          529 532 550 547 529 532
          551 548 530 533 552 549
          531 534 553 550 532 535
          553 550 532 535 554 551
          533 536 690 552 534 537
          691 553 535 538 691 553
          535 538 692 554 536 539
          693 690 537 687 694 691
          538 688 694 691 538 688
          695 692 539 689 696 697
          540 543 698 699 541 544
          698 699 541 544 700 701
          542 545 702 696 543 546
          703 698 544 547 703 698
          544 547 704 700 545 548
          705 702 546 549 706 703
          547 550 706 703 547 550
          707 704 548 551 708 705
          549 552 709 706 550 553
          709 706 550 553 710 707
          551 554 711 708 552 690
          712 709 553 691 712 709
          553 691 713 710 554 692
          555 556 557 558 559 560
          561 562 559 560 561 562
          563 564 565 566 567 568
          569 570 571 572 573 574
          571 572 573 574 575 576
          577 578 579 714 580 581
          582 715 583 584 582 715
          583 584 585 716 586 587
          579 588 717 714 582 589
          718 715 582 589 718 715
          585 590 719 716 591 592
          593 594 595 596 597 598
          595 596 597 598 599 600
          601 602 594 558 557 591
          598 562 561 595 598 562
          561 595 602 566 565 599
          603 567 570 604 605 571
          574 606 605 571 574 606
          607 575 578 608 555 609
          610 611 559 612 613 614
          559 612 613 614 563 615
          616 617 594 593 720 721
          598 597 722 723 598 597
          722 723 602 601 724 725
          726 727 611 610 728 729
          614 613 728 729 614 613
          730 731 617 616 567 732
          733 568 571 734 735 572
          571 734 735 572 575 736
          737 576 604 618 619 603
          606 620 621 605 606 620
          621 605 608 622 623 607
          567 603 738 732 571 605
          739 734 571 605 739 734
          575 607 740 736 579 624
          625 588 582 626 627 589
          582 626 627 589 585 628
          629 590 625 741 717 588
          627 742 718 589 627 742
          718 589 629 743 719 590
          744 630 733 745 746 631
          735 747 746 631 735 747
          748 632 737 749 633 634
          610 609 635 636 613 612
          635 636 613 612 637 638
          616 615 634 750 726 610
          636 751 728 613 636 751
          728 613 638 752 730 616
          555 558 633 609 559 562
          635 612 559 562 635 612
          563 566 637 615 753 750
          634 754 755 751 636 756
          755 751 636 756 757 752
          638 758 639 640 625 624
          641 642 627 626 641 642
          627 626 643 644 629 628
          625 611 727 741 627 614
          729 742 627 614 729 742
          629 617 731 743 634 633
          721 754 636 635 723 756
          636 635 723 756 638 637
          725 758 580 759 687 519
          583 760 688 520 583 760
          688 520 586 761 689 521
          581 580 519 498 584 583
          520 499 584 583 520 499
          587 586 521 500 592 645
          646 593 596 647 648 597
          596 647 648 597 600 649
          650 601 651 652 300 273
          653 654 301 274 653 654
          301 274 655 656 302 275
          569 651 273 246 573 653
          274 247 573 653 274 247
          577 655 275 248 556 405
          381 557 560 406 382 561
          560 406 382 561 564 407
          383 565 570 569 246 219
          574 573 247 220 574 573
          247 220 578 577 248 221
          557 381 354 591 561 382
          355 595 561 382 355 595
          565 383 356 599 604 570
          219 192 606 574 220 193
          606 574 220 193 608 578
          221 194 640 555 611 625
          642 559 614 627 642 559
          614 627 644 563 617 629
          618 604 192 165 620 606
          193 166 620 606 193 166
          622 608 194 167 657 618
          165 141 658 620 166 142
          658 620 166 142 659 622
          167 143 660 661 117 93
          662 663 118 94 662 663
          118 94 664 665 119 95
          661 657 141 117 663 658
          142 118 663 658 142 118
          665 659 143 119 762 738
          603 619 763 739 605 621
          763 739 605 621 764 740
          607 623 429 639 624 453
          430 641 626 454 430 641
          626 454 431 643 628 455
          666 568 733 630 667 572
          735 631 667 572 735 631
          668 576 737 632 669 660
          93 69 670 662 94 70
          670 662 94 70 671 664
          95 71 592 327 300 645
          596 328 301 647 596 328
          301 647 600 329 302 649
          721 633 558 594 723 635
          562 598 723 635 562 598
          725 637 566 602 744 720
          593 646 746 722 597 648
          746 722 597 648 748 724
          601 650 477 453 624 672
          478 454 626 673 478 454
          626 673 479 455 628 674
          327 592 591 354 328 596
          595 355 328 596 595 355
          329 600 599 356 669 675
          765 766 670 676 767 768
          670 676 767 768 671 677
          769 770 639 429 405 556
          641 430 406 560 641 430
          406 560 643 431 407 564
          581 672 624 579 584 673
          626 582 584 673 626 582
          587 674 628 585 678 619
          618 657 679 621 620 658
          679 621 620 658 680 623
          622 659 42 43 765 675
          44 45 767 676 44 45
          767 676 46 47 769 677
          646 645 300 652 648 647
          301 654 648 647 301 654
          650 649 302 656 619 678
          771 762 621 679 772 763
          621 679 772 763 623 680
          773 764 744 646 652 630
          746 648 654 631 746 648
          654 631 748 650 656 632
          678 681 774 771 679 682
          775 772 679 682 775 772
          680 683 776 773 681 678
          657 661 682 679 658 663
          682 679 658 663 683 680
          659 665 666 630 652 651
          667 631 654 653 667 631
          654 653 668 632 656 655
          651 569 568 666 653 573
          572 667 653 573 572 667
          655 577 576 668 681 684
          766 774 682 685 768 775
          682 685 768 775 683 686
          770 776 759 580 714 777
          760 583 715 778 760 583
          715 778 761 586 716 779
          672 581 498 477 673 584
          499 478 673 584 499 478
          674 587 500 479 639 556
          555 640 641 560 559 642
          641 560 559 642 643 564
          563 644 675 669 69 42
          676 670 70 44 676 670
          70 44 677 671 71 46
          684 681 661 660 685 682
          663 662 685 682 663 662
          686 683 665 664 660 669
          766 684 662 670 768 685
          662 670 768 685 664 671
          770 686
        </DataArray>
        <DataArray type="Int64" Name="offsets" format="ascii" RangeMin="8" RangeMax="3632">
          8 16 24 32 40 48
          56 64 72 80 88 96
          104 112 120 128 136 144
          152 160 168 176 184 192
          200 208 216 224 232 240
          248 256 264 272 280 288
          296 304 312 320 328 336
          344 352 360 368 376 384
          392 400 408 416 424 432
          440 448 456 464 472 480
          488 496 504 512 520 528
          536 544 552 560 568 576
          584 592 600 608 616 624
          632 640 648 656 664 672
          680 688 696 704 712 720
          728 736 744 752 760 768
          776 784 792 800 808 816
          824 832 840 848 856 864
          872 880 888 896 904 912
          920 928 936 944 952 960
          968 976 984 992 1000 1008
          1016 1024 1032 1040 1048 1056
          1064 1072 1080 1088 1096 1104
          1112 1120 1128 1136 1144 1152
          1160 1168 1176 1184 1192 1200
          1208 1216 1224 1232 1240 1248
          1256 1264 1272 1280 1288 1296
          1304 1312 1320 1328 1336 1344
          1352 1360 1368 1376 1384 1392
          1400 1408 1416 1424 1432 1440
          1448 1456 1464 1472 1480 1488
          1496 1504 1512 1520 1528 1536
          1544 1552 1560 1568 1576 1584
          1592 1600 1608 1616 1624 1632
          1640 1648 1656 1664 1672 1680
          1688 1696 1704 1712 1720 1728
          1736 1744 1752 1760 1768 1776
          1784 1792 1800 1808 1816 1824
          1832 1840 1848 1856 1864 1872
          1880 1888 1896 1904 1912 1920
          1928 1936 1944 1952 1960 1968
          1976 1984 1992 2000 2008 2016
          2024 2032 2040 2048 2056 2064
          2072 2080 2088 2096 2104 2112
          2120 2128 2136 2144 2152 2160
          2168 2176 2184 2192 2200 2208
          2216 2224 2232 2240 2248 2256
          2264 2272 2280 2288 2296 2304
          2312 2320 2328 2336 2344 2352
          2360 2368 2376 2384 2392 2400
          2408 2416 2424 2432 2440 2448
          2456 2464 2472 2480 2488 2496
          2504 2512 2520 2528 2536 2544
          2552 2560 2568 2576 2584 2592
          2600 2608 2616 2624 2632 2640
          2648 2656 2664 2672 2680 2688
          2696 2704 2712 2720 2728 2736
          2744 2752 2760 2768 2776 2784
          2792 2800 2808 2816 2824 2832
          2840 2848 2856 2864 2872 2880
          2888 2896 2904 2912 2920 2928
          2936 2944 2952 2960 2968 2976
          2984 2992 3000 3008 3016 3024
          3032 3040 3048 3056 3064 3072
          3080 3088 3096 3104 3112 3120
          3128 3136 3144 3152 3160 3168
          3176 3184 3192 3200 3208 3216
          3224 3232 3240 3248 3256 3264
          3272 3280 3288 3296 3304 3312
          3320 3328 3336 3344 3352 3360
          3368 3376 3384 3392 3400 3408
          3416 3424 3432 3440 3448 3456
          3464 3472 3480 3488 3496 3504
          3512 3520 3528 3536 3544 3552
          3560 3568 3576 3584 3592 3600
          3608 3616 3624 3632
        </DataArray>
        <DataArray type="UInt8" Name="types" format="ascii" RangeMin="12" RangeMax="12">
          12 12 12 12 12 12
          12 12 12 12 12 12
          12 12 12 12 12 12
          12 12 12 12 12 12
          12 12 12 12 12 12
          12 12 12 12 12 12
          12 12 12 12 12 12
          12 12 12 12 12 12
          12 12 12 12 12 12
          12 12 12 12 12 12
          12 12 12 12 12 12
          12 12 12 12 12 12
          12 12 12 12 12 12
          12 12 12 12 12 12
          12 12 12 12 12 12
          12 12 12 12 12 12
          12 12 12 12 12 12
          12 12 12 12 12 12
          12 12 12 12 12 12
          12 12 12 12 12 12
          12 12 12 12 12 12
          12 12 12 12 12 12
          12 12 12 12 12 12
          12 12 12 12 12 12
          12 12 12 12 12 12
          12 12 12 12 12 12
          12 12 12 12 12 12
          12 12 12 12 12 12
          12 12 12 12 12 12
          12 12 12 12 12 12
          12 12 12 12 12 12
          12 12 12 12 12 12
          12 12 12 12 12 12
          12 12 12 12 12 12
          12 12 12 12 12 12
          12 12 12 12 12 12
          12 12 12 12 12 12
          12 12 12 12 12 12
          12 12 12 12 12 12
          12 12 12 12 12 12
          12 12 12 12 12 12
          12 12 12 12 12 12
          12 12 12 12 12 12
          12 12 12 12 12 12
          12 12 12 12 12 12
          12 12 12 12 12 12
          12 12 12 12 12 12
          12 12 12 12 12 12
          12 12 12 12 12 12
          12 12 12 12 12 12
          12 12 12 12 12 12
          12 12 12 12 12 12
          12 12 12 12 12 12
          12 12 12 12 12 12
          12 12 12 12 12 12
          12 12 12 12 12 12
          12 12 12 12 12 12
          12 12 12 12 12 12
          12 12 12 12 12 12
          12 12 12 12 12 12
          12 12 12 12 12 12
          12 12 12 12 12 12
          12 12 12 12 12 12
          12 12 12 12 12 12
          12 12 12 12 12 12
          12 12 12 12 12 12
          12 12 12 12 12 12
          12 12 12 12 12 12
          12 12 12 12 12 12
          12 12 12 12 12 12
          12 12 12 12 12 12
          12 12 12 12 12 12
          12 12 12 12 12 12
          12 12 12 12 12 12
          12 12 12 12 12 12
          12 12 12 12
        </DataArray>
      </Cells>
    </Piece>
  </UnstructuredGrid>
</VTKFile>
