<?xml version="1.0"?>
<VTKFile type="UnstructuredGrid" version="0.1" byte_order="LittleEndian" header_type="UInt32" compressor="vtkZLibDataCompressor">
  <UnstructuredGrid>
    <Piece NumberOfPoints="819" NumberOfCells="454">
      <PointData>
        <DataArray type="Int32" Name="libmesh_node_id" format="ascii" RangeMin="2316" RangeMax="5735">
          2316 2317 2318 2319 2320 2321
          2322 2323 2324 2325 2326 2327
          2433 2434 2435 2436 2437 2438
          2439 2440 2441 2442 2443 2444
          2598 2599 2600 2601 2602 2603
          2643 2644 2645 2646 2647 2648
          2649 2650 2651 2709 2710 2711
          2712 2713 2714 2715 2716 2717
          2718 2719 2720 2766 2767 2768
          2769 2770 2771 2772 2773 2774
          2775 2776 2777 2808 2809 2810
          2811 2812 2813 2814 2815 2816
          2817 2818 2819 2852 2853 2856
          2857 2860 2861 2970 2971 2973
          2974 2976 2977 2991 2994 2995
          2998 2999 3002 3081 3082 3083
          3084 3085 3086 3087 3088 3089
          3090 3091 3092 3187 3190 3193
          3241 3243 3245 3270 3271 3272
          3312 3313 3314 3315 3316 3317
          3495 3496 3497 3498 3499 3500
          3501 3502 3503 3504 3505 3506
          3765 3766 3767 3768 3769 3770
          3852 3853 3854 4470 4471 4472
          4584 4585 4586 4587 4588 4589
          4635 4636 4637 4638 4639 4640
          4641 4642 4643 4644 4645 4646
          4659 4660 4661 4662 4663 4664
          4722 4723 4724 4782 4783 4784
          4791 4792 4793 4794 4795 4796
          4797 4798 4799 4812 4813 4814
          4815 4816 4817 4818 4819 4820
          4833 4834 4835 4836 4837 4838
          4848 4849 4850 4851 4852 4853
          4896 4897 4898 4899 4900 4901
          4911 4912 4913 4935 4936 4937
          4938 4939 4940 4944 4945 4946
          4947 4948 4949 4950 4951 4952
          4953 4954 4955 4956 4957 4958
          4992 4993 4994 5007 5008 5009
          5010 5011 5012 5013 5014 5015
          5016 5017 5018 5019 5020 5021
          5025 5026 5027 5028 5029 5030
          5040 5041 5042 5043 5044 5045
          5055 5056 5057 5073 5074 5075
          5079 5080 5081 5088 5089 5090
          5094 5095 5096 5103 5104 5105
          5151 5152 5153 5160 5161 5162
          5169 5170 5171 5178 5179 5180
          5187 5188 5189 5202 5203 5204
          5205 5206 5207 5208 5209 5210
          5211 5212 5213 5214 5215 5216
          5217 5218 5219 5220 5221 5222
          5223 5224 5225 5226 5227 5228
          5229 5230 5231 5232 5233 5234
          5235 5236 5237 5238 5239 5240
          5241 5242 5243 5244 5245 5246
          5247 5248 5249 5253 5254 5255
          5256 5257 5258 5259 5260 5261
          5262 5263 5264 5265 5266 5267
          5268 5269 5270 5271 5272 5273
          5274 5275 5276 5280 5281 5282
          5283 5284 5285 5286 5287 5288
          5289 5290 5291 5292 5293 5294
          5295 5296 5297 5298 5299 5300
          5301 5302 5303 5307 5308 5309
          5310 5311 5312 5313 5314 5315
          5316 5317 5318 5319 5320 5321
          5322 5323 5324 5325 5326 5327
          5328 5329 5330 5334 5335 5336
          5337 5338 5339 5340 5341 5342
          5343 5344 5345 5346 5347 5348
          5349 5350 5351 5352 5353 5354
          5355 5356 5357 5358 5359 5360
          5361 5362 5363 5364 5365 5366
          5367 5368 5369 5370 5371 5372
          5373 5374 5375 5376 5377 5378
          5379 5380 5381 5382 5383 5384
          5385 5386 5387 5388 5389 5390
          5391 5392 5393 5394 5395 5396
          5397 5398 5399 5400 5401 5402
          5403 5404 5405 5406 5407 5408
          5409 5410 5411 5412 5413 5414
          5415 5416 5417 5418 5419 5420
          5421 5422 5423 5424 5425 5426
          5427 5428 5429 5430 5431 5432
          5433 5434 5435 5436 5437 5438
          5439 5440 5441 5442 5443 5444
          5445 5446 5447 5448 5449 5450
          5451 5452 5453 5454 5455 5456
          5457 5458 5459 5460 5461 5462
          5463 5464 5465 5466 5467 5468
          5469 5470 5471 5472 5473 5474
          5475 5476 5477 5478 5479 5480
          5481 5482 5483 5484 5485 5486
          5487 5488 5489 5490 5491 5492
          5493 5494 5495 5496 5497 5498
          5499 5500 5501 5502 5503 5504
          5505 5506 5507 5508 5509 5510
          5511 5512 5513 5514 5515 5516
          5517 5518 5519 5520 5521 5522
          5523 5524 5525 5526 5527 5528
          5529 5530 5531 5532 5533 5534
          5535 5536 5537 5538 5539 5540
          5541 5542 5543 5544 5545 5546
          5547 5548 5549 5550 5551 5552
          5553 5554 5555 5556 5557 5558
          5559 5560 5561 5562 5563 5564
          5565 5566 5567 5568 5569 5570
          5571 5572 5573 5574 5575 5576
          5577 5578 5579 5580 5581 5582
          5583 5584 5585 5586 5587 5588
          5589 5590 5591 5592 5593 5594
          5595 5596 5597 5598 5599 5600
          5601 5602 5603 5604 5605 5606
          5607 5608 5609 5610 5611 5612
          5613 5614 5615 5616 5617 5618
          5619 5620 5621 5622 5623 5624
          5625 5626 5627 5628 5629 5630
          5631 5632 5633 5634 5635 5636
          5637 5638 5639 5640 5641 5642
          5643 5644 5645 5646 5647 5648
          5649 5650 5651 5652 5653 5654
          5655 5656 5657 5658 5659 5660
          5661 5662 5663 5664 5665 5666
          5667 5668 5669 5670 5671 5672
          5673 5674 5675 5676 5677 5678
          5679 5680 5681 5682 5683 5684
          5685 5686 5687 5688 5689 5690
          5691 5692 5693 5694 5695 5696
          5697 5698 5699 5700 5701 5702
          5703 5704 5705 5706 5707 5708
          5709 5710 5711 5712 5713 5714
          5715 5716 5717 5718 5719 5720
          5721 5722 5723 5724 5725 5726
          5727 5728 5729 5730 5731 5732
          5733 5734 5735
        </DataArray>
        <DataArray type="Float64" Name="resid_x" format="ascii" RangeMin="-0.3680059287866513" RangeMax="68.2622780152497">
          0.001321753439407658 -0.005292008674757653 0.0015171087114778103 0.0035173168594777593 0.002773094480671645 -0.008701718762907262
          0.0011222727023971757 0.004204513422608969 -0.01810781570538289 -0.029261391482970467 -0.015206768478658539 -0.01922473171361716
          0.0019342760898748423 0.003315406438232138 0.0020216664975531984 0.003461692672521277 0.0024271145945604644 0.005748385415116353
          -0.0006246967921192947 0.0015598795373885643 -0.010774642288740921 -0.011766001980872964 -0.02527997624572187 -0.022521112991934267
          -0.019680577647118724 -0.010833121298875259 -0.0020051081207626 0.002423862279790079 -0.019807674332891878 -0.018952060629329748
          -0.00257453049625056 -0.003885465592331272 -0.019916529296484242 0.0006492327409137744 -0.004115937952263948 -0.003610099756532037
          -0.020007942100175313 -0.020667234048135086 -0.02204933539658782 -0.0018502046671319272 0.0017534442856925736 -0.002488968684272841
          0.0029490892040282546 -0.001964810332206579 -0.003988328503456984 -0.006285039411575877 0.00901025220070295 -0.00694374589357416
          -0.007614163802470486 -0.009714544713452788 -0.0033604556458026735 -0.0003140224491815502 -0.0071893209610927045 -0.012691717580971762
          -0.013553556613624451 0.0032764152449207273 -0.01075745543474671 -0.02345123839616292 -0.018119486654613937 0.0007540504774565804
          -0.005415784690595338 -0.016547258050077396 -0.019366637458162472 -0.0023146381010379358 0.002117477113962707 -0.012473268599374698
          0.010610563928786121 0.007865441341030177 -6.201902893465672e-7 -0.006444067705895229 -0.005471523960167701 -0.01604856508283703
          -0.017843499924158124 -0.002885920682253129 -0.015183280519540432 -0.025855456718730352 -0.0132743325715321 -0.0236477271384139
          -0.009641117036714775 -0.010765087839322618 -0.003054678333100469 -0.014940549544984805 -0.013119017333329097 0.00681685674775423
          -0.020752971196571934 -0.007390637238847475 -0.00841708954182252 -0.005167565794728546 -0.002177175334214354 -0.0004220864782311651
          -0.00196193331688832 0.006324233908895138 0.0009044647959770558 -0.001837726022545283 0.0029338200656685576 0.0045180167223861645
          0.0031777175566476412 0.001991202463413444 0.0017311808629570935 0.006773427097696683 0.011053228191262143 -0.004051149146201638
          -0.0010792084629059895 -0.0035587880620120416 -0.005762408916500594 -0.017352613068004175 -0.019155734032644034 -0.01682426273940152
          -0.003840224112330759 -0.008362577077724254 -0.0016713516340276513 -0.016498018334252684 -0.021574031204576016 -0.00854851957300884
          -0.008099187886881465 -0.0015216833773932237 0.0009551432436918361 -0.00010468837053601021 -0.013930457399544016 -0.009402140662932545
          0.01648687594418341 -0.04723676834521662 -0.003573474874274396 -0.011901598320811502 0.012574068631394653 -0.03675471759935878
          0.0022925286478043816 -0.02998121157505551 -0.0084913912125959 0.03181485194613831 0.007941332657093625 -0.014643889714346159
          -0.006274738386823131 -0.007275363962006787 0.0030209371085287984 0.0011924090904541496 -0.00937291433040599 -0.011930852900172484
          -0.0030423776136725422 -0.005114939227524928 -0.001628575513205277 -0.017788292225271896 -0.021482337468851753 -0.009846545331163803
          -0.004829518636761065 -0.0025578142489797173 -0.008202037168942411 -0.0062383050538219464 -0.0022119503655524397 -0.0023754531162856196
          -0.00938082641643967 -0.004598610748074883 -0.011326849829548014 -0.002324619328009092 -0.0099057087078962 -0.004994472942218664
          -0.006577504657900857 -0.0010422031514432106 -0.002780810634913422 0.008816099381555809 -0.01355246825975609 -0.011319210876541419
          -0.0009676761381918197 0.0004724286827695323 -0.00042937878573745536 -0.00901541988158261 0.02324211246692176 0.006678747920081385
          -0.006244182517943009 -0.0061693415559592735 -0.003964459333215875 -0.00014701039211528766 0.014842436787330548 -0.008344186941124043
          -0.004161430722036563 -0.0018820262538827848 -0.0014513650572141046 0.013076237934356527 -0.01899801963274328 0.026867266656173783
          -0.037880425309310795 0.015717124586514863 -0.01042569493730916 -0.0066587419391570535 0.0069083419221325215 -0.005966171611065718
          -0.008469953697060717 0.0018768663939541241 0.001931961123561976 0.011726324007474975 -0.005599336271465916 0.0005906625927973863
          -0.00840756754901939 -0.004045087321706831 -0.004816307050599988 -0.002419926506708414 -0.008797014053364194 -0.005741490088360557
          -0.009284898267841513 -0.004859116704308164 0.0018909222764875722 0.0004982063246687929 -0.01085767458636866 -0.009024971491612632
          -0.005438028572370968 -0.001334860243546565 -0.0015973918342480076 -0.01654183834802936 -0.017082026474877665 0.0268446788738963
          -0.0120158325251154 -0.013954741871295084 -0.006616330026655959 -0.0028625298529627585 -0.0008242997852452305 -0.001940507063202368
          0.0036539950508904795 -0.00399479135021874 0.0050034712842101925 -0.006402079923290671 0.007451237689187984 -0.010533340038586303
          0.014157507062115826 -0.0016220752670017546 0.011369551215884677 -0.007348665333445581 -0.013531953594290158 0.0005338241116721321
          -0.007367031701209115 0.0033939493181369684 0.001832820013618175 -0.005207679818183486 0.0005968004431995411 0.0012795493174442285
          0.008258281485379548 0.019487108257430386 0.01025987153884067 -0.007669309476900921 -0.007640690606963041 0.007391486510222478
          0.0008544332984756764 -0.007214312045746851 -0.0061331228544547756 -0.007601647260156774 -0.005191255133764727 -0.002756631112998953
          -0.003238843119136803 -0.009667181970703709 -0.009584444946598936 0.010596527636963948 0.03385082833884123 0.01818673730880782
          -0.0039713668018599435 0.004181377628291294 0.008612874613970867 -0.010506372963142496 -0.0038924302600769067 -0.006698856571696332
          0.006862945763907113 0.005235094341653479 0.018444884947803608 0.019665791658939114 0.007055435450274317 0.010390107334819376
          0.012424616337166405 0.028438193671661338 0.01405198069432334 0.005053626988805071 0.018145263620875873 0.006077861368257054
          -0.014094472169157157 -0.00008232545704878191 -0.006775802249439522 0.0036601386252446133 0.015760692425023315 0.00588575061271257
          0.0046722950538251595 0.019471248265872987 0.004477307502879668 0.009856799807694827 0.038251242922632045 0.007143694968515746
          -0.008827509829639979 0.0048315997232109 0.010539591357524358 -0.011129827380333523 0.0049050978575309045 0.0021510883534183733
          -0.025812121626611173 -0.02179511740840212 -0.015319180586761405 -0.04145827803316493 -0.050868349088418086 -0.03458722592567298
          0.01165580556366308 0.04832633506416073 0.019045006752275384 -0.0004370750253457345 -0.00017697179909603733 -0.0010139865197587028
          -0.0003316179767587357 0.00036330928870143 0.00015015636060233817 0.00015548500440587532 0.000037403515740663806 0.0003101442082957817
          0.00009390324339619838 0.0010337722269024852 0.0006367636462059068 0.00025058476637163096 0.0001095562197708233 0.0002974735718677124
          0.00012329338706784654 0.0011749063237385116 0.0004851417306941386 0.000516837198928144 0.00020780032338940657 0.00029271344869741256
          0.00008639649771957636 0.0013854829734327723 0.0006227047667834995 0.0006137039061826499 0.00028626215418370293 0.00033397251126565664
          0.00010736730979665765 0.0012827118869775944 0.0005214477130515149 0.00044855986698699724 0.0001552750432054495 0.00038419163587732896
          0.0001445667582586907 0.0010220651446228857 0.00047611142769810044 0.00021553885317615595 0.00005102211217433705 0.0004327375575634562
          0.00018045856462833854 0.0006437666361058803 0.0002951472791430376 -0.000008554918601078043 -0.00004245209992959076 0.00039690326892127814
          0.00020296791007723414 0.00010068689057263214 -0.00003660864632593075 -0.0003172097228159032 -0.0010204677601279855 -0.000054906592616532635
          0.00014484487432930848 0.0004345065777187074 0.001160198439221105 0.00043497668113623433 0.0002705814641839055 0.0014624678328800655
          0.0008604301300252359 0.00040088492229095607 0.0017027850462891791 0.0007831549474968114 0.00045300911039447556 0.0016239540547200448
          0.0006191998654152542 0.0004829572642019997 0.0012998082200574856 0.0003910823718182854 0.0004947149309657561 0.0008867102161040918
          0.00013992590883304956 0.0004953487414702806 0.00029883154411081136 -0.0003161860047420362 -0.0003388142405285066 0.00025002663960194127
          0.0002241408508023568 0.0006767168865486894 0.0013533784427934847 0.00041548345152797594 0.0004523297670626647 0.0016580354186306323
          0.0008624455317729485 0.00066077539620224 0.0019368069899456941 0.0008986257172320933 0.0006660153211228703 0.001799494224918874
          0.0007916209073588476 0.0006633540305749364 0.0015068240167188662 0.000533402151493334 0.0006311094695679031 0.0010740577798884487
          0.0002820033035142444 0.0006054439087712638 0.0005722546605539947 -0.00045363883580051834 -0.00027513077713337 0.0004926307469048652
          0.0003294285760855331 0.0009718394231885696 0.001582021735172745 0.0003447988764904153 0.0008519982902690515 0.0017413681747271426
          0.0007081215361299797 0.0010038846805180413 0.0019796717396900476 0.0007098010420723 0.0009510138819930347 0.0017539394717704937
          0.0007185640376530245 0.0008768102095206842 0.0014847068487089388 0.0004147918713339749 0.0007857402461635132 0.0011827984677879044
          0.00027977140793922217 0.0007049474874740724 0.0008133547748627734 -0.18308440608257825 -0.3680059287866513 -0.18715134889950846
          0.0005145472405114759 0.001376141596065139 0.0016416786496868951 0.0003799005863207583 0.0014496853264205356 0.0018856938412508129
          0.00042707535875941005 0.0014255315626829912 0.0018896933881205058 0.00039852936286521867 0.0012794180148691936 0.0016123944807517887
          0.0003538990214693172 0.0010894714923832538 0.0014585522970858023 0.00019571854424782487 0.0009041164021006409 0.0013317815914462017
          0.0002309834672118427 0.0007524002512759864 0.0010930502848793822 0.18272488493096084 0.3775615279172442 0.2147411633313503
          -0.1129929467689319 -0.2276476944367154 -0.11740975179328217 -0.09120059669285396 -0.17935852064412217 -0.0867659680514592
          0.0003740504614526685 0.002032860471940623 0.0019542636430163185 0.00020831231682194584 0.0019159423425278987 0.0018459396877315015
          0.00011912446420758727 0.0016432626623288371 0.0016505580010583998 0.0001115234476181115 0.0012824926348873333 0.0017726900072805307
          0.00014707408417535817 0.0009433677198646961 0.0016027562376876858 0.00029430080157943905 0.0006754509021931199 0.0013206732544315258
          -0.02494785114678777 -0.0500585264952349 0.030662483937216933 0.01928185982806596 0.03818423998974474 0.010487944943124106
          -0.037106221630359926 -0.07247954233742071 -0.03276959875142893 -0.00023885649557975341 0.0016654422810535863 0.002685480480176139
          0.00008906515669693249 0.0025041639666625315 0.0017687828431931507 0.00013009333998503791 0.002181563138472953 0.0021395980752263455
          0.000233256889339728 0.0015497971155173929 0.0023742147137806313 0.0003201986058058992 0.0007875579804039745 0.001895029583653951
          0.00022655897131151903 0.00026084972380502336 0.001312617055109655 -0.017093567646398355 -0.032741502798195654 0.023476626484224994
          0.008708499586411733 0.02062889622238906 0.012820529275867187 0.000167112022325 0.0030638711336514746 0.01154231215054935
          -0.0010828036781518335 0.0009367825354811288 0.005056944645989603 0.00019862012958959951 0.0033110630914876538 0.002523715108440072
          0.0007238999606489216 0.0033203465352809047 0.0031764337664892395 0.0009064917416559126 0.002352352509175759 0.0034510476304845383
          0.00044458736791597175 0.00046775798008358294 0.0019399472095411596 -0.0003608283288460967 -0.00094775941707681 0.0004738202017104953
          0.01014747061086041 0.023248439730963355 0.018909468472763535 0.00509041071007843 0.013790737937293684 0.01818925438515251
          -0.002492309410875748 -0.0017761223387520175 0.008437266702369328 -0.009122077924359928 -0.015771528982096328 -0.0038207509297674136
          -0.009857445353087968 -0.018042501359637697 -0.007879016507679637 -0.00837344548633645 -0.0161303201836418 -0.006995480540162191
          -0.006224230767111649 -0.012868931475532364 -0.004990307362698232 -0.003911399808480098 -0.008583740616266766 -0.003384571320466989
          -0.00228968922172168 -0.0046980647244438956 -0.0020465274405880862 -0.00030480331677651407 -0.0004893783983312971 0.00015992011000776074
          0.0003185283315083609 -0.00021750005872789302 -0.0003109926573401367 -0.00028553333137537606 0.00043497120726598837 -0.0001174235805940782
          -0.00006762215102895652 0.00048009847777308323 0.00009380504234357545 0.0001652100775402232 0.000573152290549217 0.0003948890168956609
          0.0003427195039371611 0.0006433068769382544 0.0007613172885783115 0.00042044670608021306 0.00058717584713186 0.0009493324791520763
          0.00024919082649432767 0.0002532638741339355 0.0007291743889439317 -0.0004899661227817376 -0.0008786011664394522 -0.0003508166688934722
          -0.0013461182852640974 -0.0022215760004939966 -0.0014776247367516149 -0.000451649457072989 -0.0007258031964596512 0.00016468035323313757
          0.00034023755779344356 -0.0002737745879812792 -0.00048429667575078383 -0.000535056372452658 0.00044109217888532726 -0.00038545911526099985
          -0.0003665561177754739 0.0004883851203985046 -0.00029217925722591076 -0.00011445288395606212 0.0005575471032770452 -0.00010099604956081976
          0.00017367620970532016 0.0005832322349750285 0.00015167536878557542 0.00027749538234189686 0.0004951644601369765 0.0002746064427849859
          0.00010498569122674439 0.00019109812204831655 -0.000002635605881096126 -0.0006888496253374399 -0.0007832730973209578 -0.0012593212935829712
          -0.0012298323108854703 -0.001601987128264426 -0.0016856138373109175 -0.00047021513601919196 -0.0008020154013586023 0.00016206449004130263
          0.00033068361956978265 -0.0003269009016477753 -0.0006670470499514636 -0.0007004763608478015 0.0004262042844516145 -0.0006486040007231964
          -0.0006447667956379632 0.0004654625383615496 -0.0005775227904614155 -0.0004488739206038872 0.000524700662154487 -0.0005245062597722949
          -0.00016710897807925562 0.0005458225809054085 -0.0004433408154529417 0.000008732119162857543 0.0004660043821829163 -0.00030205265558080896
          -0.00010620442506947825 0.0001391097269305419 -0.0003946946543642582 -0.00088425214380905 -0.0007204233958493234 -0.0013476792448958719
          -0.0011189631905441644 -0.0011328976337292573 -0.0013550120233460916 -0.0004889787268176349 -0.0009110554943418947 0.00015270166624148374
          0.0003076537730777318 -0.00039418189632201006 -0.0008719430615329316 -0.0008864241119574956 0.0004000174162435144 -0.0009184965957267366
          -0.0008772922845032838 0.00043108588359075384 -0.0008302680609801882 -0.0008038445269171746 0.00048030989436043114 -0.0008268272941016619
          -0.0006782636195534764 0.0004885451766529769 -0.0008403614729992626 -0.0004733140788530932 0.00039138144153660903 -0.0007874203519353529
          -0.0004125720707008895 0.00005405575218020431 -0.0008199801112080962 -0.0009567047161116449 -0.0006478420756241832 -0.0012959623098236506
          -0.0009414422037394843 -0.0007832895151302921 -0.0009892755478873028 -0.0005409363895552133 -0.0010659155565164724 0.0001381144237129206
          0.00027050638346892697 -0.00039566547652114537 -0.0009557671615318952 -0.0011081892298463458 0.0003570936567491856 -0.0010916667693656734
          -0.00108878113528732 0.00038096167963530547 -0.0009856767685754164 -0.0010792589731636326 0.00042252623124383604 -0.0009192229351793202
          -0.0010658286187013033 0.00041415551200429945 -0.0009200781703295746 -0.0009298913415474175 0.0002963939211788613 -0.001011265214822643
          -0.0007803896208731231 -0.000014835027165815973 -0.0010999731564762527 -0.0009378317817834159 -0.0005461722353530263 -0.0011518234987910603
          -0.000679406745300426 -0.0005258768400082658 -0.0006005894413494417 -0.0005552449873427179 -0.0011568857598014404 0.00011751439149421117
          0.0002207559927533964 -0.0002897140706075163 -0.0008195801019184046 -0.0012864640964096452 0.0002917893204852362 -0.001017406670239751
          -0.0012569935590711623 0.00031006168619995833 -0.0008770049859663231 -0.0011853315518699503 0.00034263581297544476 -0.0007567321739472277
          -0.0011475914807128618 0.00032278959585241296 -0.0008002890163201215 -0.0011498896842159212 0.00020469175045256804 -0.0009847778347555902
          -0.0010784172464575192 -0.00005033625552464116 -0.0010984943801037872 -0.0008869729165592588 -0.00042406717848919584 -0.0009332534214205879
          -0.000403612327190217 -0.00034219242967914454 -0.00029174272963672365 -0.000466687220722406 -0.0010578513382206722 0.00008927731399310801
          0.0001596693134260363 -0.00013318613240542732 -0.0004990952870045362 -0.0012543417385622035 0.00020697068780961558 -0.0006593081023780201
          -0.001188245815445299 0.00021841840804626145 -0.0004960315468487408 -0.0010457541961308436 0.00023752935570797717 -0.0004063132035785344
          -0.001022877501526409 0.00021753313767902682 -0.0005335256572713831 -0.0011288752679181613 0.00012899038499192272 -0.0007062404330859806
          -0.0011173406147406695 -0.000051069804143821784 -0.0007818049791570303 -0.0007542738258390358 -0.00029124491115162243 -0.0006195846153858042
          -0.00019303028490291751 -0.00021242145523281408 -0.00009901466206052589 -0.0003056566478853995 -0.0007584929922117567 0.00005423210880550755
          0.00008867236640242027 0.000016659640778016183 -0.00007672384167989321 -0.0009279095499756806 0.00011070579939342906 -0.00012278163777779127
          -0.0008160226134350523 0.00011313177119731677 -0.0000381189247171676 -0.0006988880454503743 0.00011922120234331146 -0.000016174476629160495
          -0.0007724046576651489 0.00010840843420290014 -0.00008673039403284122 -0.0008742644303616487 0.00006465410156764051 -0.00017419143029684392
          -0.0008272577859589347 -0.000033300282320070096 -0.0002464828361539162 -0.0004977938168782003 -0.00015657968076610018 -0.0002348839813475223
          -0.00008790978709249941 -0.00011390213216877498 -0.000006827918838325786 17.164021473799632 34.13082081555646 34.32833621687608
          68.2622780152497 17.16597715669277 34.13470800337329 33.534456003473984 67.06959844342586 33.53822606837093
          32.52950111494809 65.05960771850698 32.53291863236563 31.116351288245085 62.23319669039009 31.11904985469907
          29.333873682690037 58.66814879721686 29.335298034899516 27.306202237434803 54.61262668645561 27.30549802476218
          25.300219284167774 50.60033360529205 25.29639429139995 23.754546965564614 47.50845079165575 23.74679541947443
          11.585208561612617 23.169801147335257 11.579901280062455
        </DataArray>
        <DataArray type="Float64" Name="resid_y" format="ascii" RangeMin="-7.059693153593939" RangeMax="5.605394434399045">
          0.006981403242832557 0.0028322672362369114 0.0008601961703667491 0.0017108728012589086 0.01429029470652135 0.005564742589414251
          0.0012629157022982888 -0.00020368396581309234 -0.007437614047397845 -0.013906599597214811 -0.009733409182733556 -0.016863052644156537
          0.00043762909636176073 0.004110297826940449 0.0008828522915920178 0.0007331919210572801 0.00017826454324119598 0.006068289450831308
          0.001493556458864509 -0.0012808844314024237 -0.006982697918855519 -0.0061599867621690355 -0.011538496172298074 -0.0146921090248026
          -0.015066322285935956 -0.013420834254330986 -0.0029399491363763727 -0.0028510857032486014 -0.011945428424894253 -0.014191789961061019
          -0.003678882950138851 0.00030628043601976795 -0.007746788911961344 0.0038678134933084474 0.000975537407094107 0.002467006449614839
          -0.010827627741647583 -0.011380362854760295 -0.012472320494047229 -0.0021714261355593612 0.0038572109962619616 0.002998474862541886
          0.0008572666079425268 -0.0030992902270833254 0.0074076827366651695 0.005521330404582282 -0.003042500878895635 -0.009147747116249631
          -0.00023381620996593827 -0.005632902714237727 -0.012752512636185548 0.0017668943970972593 0.004458911775659581 -0.0016238706635197594
          -0.004571292168367882 0.005269098660140594 0.009151033345020217 -0.002486055381358439 -0.002783038584555162 -0.0011470231785077386
          0.0015422203357991077 -0.008966896180639342 -0.010489156250029465 -0.0021804487793947447 0.0003969489026174333 -0.0007449753912381063
          -0.003248914918956028 0.003533324622238404 0.013491756859705786 -0.00959476306223031 -0.007705631080504094 -0.004912716689812011
          -0.002972398724124581 0.015472138380969086 -0.007421631038345644 -0.01261803385329724 -0.021572174740488614 -0.0053338232238404615
          -0.02559774376827495 -0.006167687557950663 -0.013453429653890736 -0.007363118636080773 -0.014894383941515987 0.0031088862716677212
          -0.018287661115174103 -0.008211574071915195 -0.012934668534014482 -0.00248133306007349 -0.001138498973511981 0.005366488060919938
          -0.0015142155643762638 0.00419209164203993 0.0002652177393284213 0.005274947809639361 0.004223048236140427 0.008889382204661123
          0.0000770234626899513 0.013500568479441064 0.008408404967508538 0.01895096783152883 0.009355181588280373 -0.0007155095534710425
          0.0020220200189985417 0.004583681342826967 -0.0037284901675223303 0.0004706683445461213 0.009537718350871471 0.012485184241242953
          -0.0003131540866853112 -0.0014222906059104395 -0.0010200279503460247 -0.01018180471542246 -0.0009207133955186908 -0.003741618578273209
          -0.010473107550939303 -0.002800092304018958 -0.0034679807213439384 -0.002371395293335684 -0.009353045211998853 -0.007240089235207171
          0.002389180959512016 -0.013271477185197555 -0.006793641561463448 0.004984166143201296 0.023977770307057417 -0.005362882019359472
          -0.019123677359925928 0.0091635966351854 0.01048159800855028 -0.0021434756963732426 -0.025272375795387547 -0.009461703576382985
          -0.009856896073628475 -0.004678185595379275 -0.01098605340626764 -0.006824769605676975 -0.017035792760451328 -0.01568099360989976
          -0.0012530747256501683 -0.003893833207022253 -0.00285478210757064 -0.009352618230412044 -0.009583978176962465 -0.009261962844968902
          -0.0005741531951938827 -0.0013050012517991927 -0.0011414648040198316 -0.0017639693589292516 -0.0009995919862764713 -0.0007660657704576523
          -0.00034722950962690936 0.0007011616350276178 0.006444446842909902 0.004628154842432821 0.00039961522392682053 -0.0025716848355585645
          -0.005267424115999508 0.0005437204836367948 -0.010378084405902405 0.0011796999035043054 -0.011408298200287298 -0.005321793748933268
          0.0010668425185176994 0.0010233690566172071 -0.0017100865438141174 -0.03377324408576077 -0.05486159578938915 0.009053345734527124
          -0.0019744616594546682 -0.0013155278982398336 -0.005624810576021155 -0.006143879418723894 -0.006188665359870699 -0.0007300939057892364
          -0.0000705315606357032 0.0017684136603584172 -0.0005926225959679218 0.004903357848950948 0.0014458194200605012 0.013672816573779
          0.011332419124637803 0.004552614978174205 0.006685258152908116 -0.014107347579774655 -0.012644163892333169 -0.014493052576990208
          -0.012512382583699718 -0.005370212032273974 -0.013710420258852583 -0.008477433745263371 -0.015035089771655661 -0.012324276213759533
          -0.006259733973664389 -0.0030330747434341165 0.0014322295303171306 0.001316594227143253 -0.0009560287132289597 0.00012147182154764735
          -0.008070922643301823 -0.002211435853563152 -0.00639153845578716 -0.001477962644865407 -0.010208410587762146 -0.004867671711418935
          -0.0004967890990920376 0.004841714331024066 0.0007499867699246321 -0.0020163620971558605 0.001024091427250698 0.021958924128074195
          -0.0033876181301467356 -0.00320898225806987 -0.0024838399510770937 0.0008438883683491855 -0.0000685489558806679 0.00874242039196256
          0.004116244489417491 0.0007816749114768068 0.0015604009512267467 0.003012336761776549 0.0030053850588172837 0.003175503253932274
          0.006850920451441797 -0.00405887403175198 -0.0015140218059903898 -0.006014974204873902 -0.009720698539612896 -0.007305345863300089
          -0.002769377020522913 -0.008408459318475218 -0.009283933688392643 -0.003821756747499974 -0.005503289225722699 -0.007519627336944695
          -0.004320749265415091 -0.004792990898098988 -0.003126548657505758 -0.007651933766825575 -0.008413545937341893 -0.009038674928886783
          -0.006573390356139561 -0.009624437959974266 -0.006089180243546474 -0.0053033697074208325 -0.00472342432598305 -0.0023261809263554895
          -0.0026106953486598056 -0.008025981917079886 -0.006248956632208369 -0.00578987131954585 -0.007304527935060243 -0.004113147012221728
          -0.0013230773243114724 -0.004062043488813644 -0.008099327548054508 -0.004947563013446347 -0.002049848210421576 -0.004330215249782152
          -0.0029531722713697674 -0.00285245624348111 -1.671259669214914e-7 0.000744291711567889 -0.00221413559671238 -0.0006736286504842592
          -0.0022446193345574406 -0.0023271476674968164 -0.0038824700687691005 -0.004627704571126087 -0.001633330136405169 -0.003097665146440649
          -0.008566447618689958 -0.0040491720337372805 -0.0056999131322594265 -0.0038475490716308822 0.0006979363707330499 -0.001310985040455545
          -0.005313207643549419 -0.00018564342586003917 -0.0016460126549238596 -0.00888287968033203 0.0011997947738959513 -0.007233952969294431
          -0.00531404900091792 -0.00592642275622568 -0.009467640750410178 0.005133587270039652 0.01944149936468631 0.0017334138324449633
          0.003044651412799082 0.022308606915786955 -0.000641803614642833 -0.011119132381315344 -0.004153895000578167 -0.01275920843220718
          -0.011597985362488294 0.003475088222332612 -0.00315990628609783 0.000049562933260860476 -3.5293026940135954 0.000011229959788305877
          -7.059693153593939 -0.00012982002150674354 -3.539406739711489 0.00004468592756357026 -3.0369807994280276 0.00008912741838096316
          -6.07416892234776 0.000019138914622018888 -3.047592047369771 -0.0000026292887538303944 -2.29078778305095 0.00009009765761325284
          -4.581891170891252 0.0000743795110176304 -2.2990535033769572 0.000055062624709667496 -1.3976286223525016 0.00005413271062049141
          -2.795443707378433 0.000054135101696717314 -1.4039846547357602 0.00008590593879653774 -0.4497611096527112 0.000056785377220924804
          -0.8995895110840244 0.00008679176317394344 -0.45328325230857563 0.00005629048468497322 0.47803165185346186 0.00004930854966603282
          0.9561193695462863 0.00014207279921768512 0.4779273305992766 0.000055979075826328994 1.331069654027227 0.00004156951199085768
          2.6622786248763575 0.00022293531253059218 1.334533686195447 0.00003997229507402 1.711325526434518 0.00003465879168523811
          3.4228093260120662 0.0002381940563265239 1.71645749421116 -0.0002436578307303261 -0.00012492521033946602 -0.0003610562947995444
          0.00004887767797012721 0.00008272807693132656 -0.00005066374290429998 0.00006794773911300567 0.000033454502352592286 0.000006905934172518613
          0.00004863202048799309 0.00012496932862571253 0.00008743970318447758 0.00015619358114354887 0.00012240902990467983 0.00018930479724388327
          0.00020110771135405103 0.00012730276158798987 0.0002959816336832663 0.0002950410180901364 0.00014527453681528746 0.00038561413709775616
          0.00022341987919133333 0.00010907976088325722 0.0003187369883111968 -0.0001239675643860405 -0.00007564846696750394 -0.00091533714612968
          -0.00008874368192035575 0.00031639503148417347 -0.0003854011039012839 -0.00006797670389313559 0.00020599396471587816 -0.00009270274001971224
          0.00007727431869297696 0.00024337328288936977 0.0001190828214868711 0.00024525862873248094 0.0002358858498519023 0.00032366886952373
          0.00037610084876274485 0.0002231334961656506 0.0004282225149327412 0.0004706559988489345 0.00024109109947137441 0.00047251178432661245
          0.0003615217039161858 0.00018261213468201767 0.0003246974713735709 0.00028160151865419536 0.0001287504078439916 -0.0009897313250595285
          -0.00023327986738630457 0.000521016995001844 -0.000588996315652679 -0.00020307095690186294 0.00040560391307775667 -0.00028792999927995666
          0.000053158541418074634 0.00043510873286334295 0.00017664805367534342 0.0003547158278986995 0.00044624470330989485 0.0004770117847358035
          0.0005310567825337342 0.0004302317244487819 0.0005524140788275567 0.0005839203046934666 0.00041608242719662347 0.0004387774789335608
          0.0004005545346124073 0.00031376973759245086 0.00023138693903568264 -0.13186038186945992 -0.2628912327838089 -0.13162135010400977
          -0.00039190871921812587 0.0008173376824474055 -0.00051036770021895 -0.00033798723419042886 0.0006932741228555805 -0.0001710693940832897
          0.00011243011448680562 0.0007430247180506555 0.000365940215095506 0.0005276396724596122 0.0008040519416112613 0.0006674976707041758
          0.0006962306013272856 0.0007814584409561176 0.0006043894781593284 0.0005668730519478027 0.0006964140951442599 0.0002692916794664324
          0.0003080939917687875 0.0005066794040881062 0.000003290587476612039 0.11663559483133534 0.23742327251758955 0.12033394782283269
          0.048928951926582975 0.1022672823190236 0.04417250682584273 -0.04083325342226818 -0.07881204987192625 -0.037415738823516786
          -0.0002244417966750234 0.0011155043056589875 0.0002531638364358102 0.00035955640463036787 0.0011838282834353286 0.0007295148822250574
          0.0007887744244665651 0.0013450601373998783 0.0008838890720381798 0.0007841623929576436 0.0013352777899480195 0.0006093248993783718
          0.00044429625911979187 0.0011355028485393603 0.00006697578819603311 0.00013453797568718784 0.0007879699185988631 -0.0002619462683979279
          0.003128157087975314 0.007535536187213587 -0.006102304972300576 0.02101316010725629 0.043612919316774246 0.01696976159303487
          0.024993864662445464 0.05210072163295898 0.024451973891376433 -0.00014486255770540524 0.001013045593226014 0.0006964795820638692
          0.000683094248044025 0.0017032100255760518 0.001127736038421201 0.001015834582978492 0.0020496641485077127 0.0011399252263006865
          0.0008672920686498831 0.002217407621476708 0.000748187681953949 0.00039906648517940013 0.0018991558592176272 0.00009091792758941786
          -0.000033101654579592577 0.0011821967510932119 -0.0003886975545248639 -0.012214733479235518 -0.020095753057694843 -0.016119582166156166
          -0.010242312942446263 -0.016640971266542515 -0.009757966605666635 0.0024846864014684833 0.007963740919564088 0.004402371320681109
          -0.0001728184428637647 0.0007404309581873214 0.0012960479941273029 0.0006464427134753592 0.001573886349065745 0.0012041727735323526
          0.0011668484384799171 0.0028782960333284535 0.0014747471435629933 0.0011775128653925826 0.003666066708404525 0.001407532244166898
          0.0008876006816269655 0.0036994060785717764 0.0009200884868461046 -0.00001603633474545063 0.0017981854336939218 -0.00017614974219126722
          -0.008558231379017789 -0.008942962692098266 -0.008092976453933476 -0.005833620228687497 -0.005241207835995354 -0.0029254053906404565
          -0.0026770861830915926 -0.0022178226576534676 -0.0002431080607454561 -0.002805552088923413 -0.004919826392753901 -0.0013703313801136652
          -0.0033954216238800683 -0.006395470193917063 -0.002841265556353001 -0.0035144420131008047 -0.00600386610062742 -0.002820026944474918
          -0.003309710805519117 -0.004842346002059017 -0.002251598643396413 -0.002246610661627013 -0.002422879023458613 -0.0013189048308044349
          -0.0012440431844296107 -0.0008180976916802862 -0.0007713302738510119 1.776644429455633 0.000058960067452651366 3.5534421543591037
          0.000039073243835230365 1.7819606282120897 0.00010212017008037755 0.00015965392170441683 0.00011196764235160694 0.00012360475747158484
          0.00019898958257486 0.0001631795897658328 0.00011778838637083178 0.00017922156744196172 0.00023536619616099097 0.00008167528229466314
          0.0000899352224743577 0.00032289843776556193 -0.00006488382696223649 -0.00009575160177788256 0.000422600509612181 -0.0002740812469415044
          -0.0003273166084374335 0.0005120784407994794 -0.0004685480361565908 -0.0005121020033953538 0.0005793457174232408 -0.0005691188967091865
          -0.0008245473520660518 -0.0002748657283562217 -0.000505741677046867 2.044672284507796 0.00003453563574484786 4.089529166968383
          0.00003407553726986201 2.0504520214501376 0.000017884490058683866 0.00005468271047304185 0.00010205067439350568 0.000008990172768563731
          0.00006300083893640007 0.00017231422717922662 -0.0000221801583148995 0.000034168473753620754 0.00025190476996438116 -0.000055023497899361895
          -0.000022641618957486287 0.00034154203262037885 -0.00009010853830770937 -0.00013322446598862392 0.0004131782760455893 -0.000147836216836561
          -0.000251433820853908 0.00048810150690825616 -0.00025450817243788393 -0.00037071093721186 0.0004837470125823584 -0.0003938886491768878
          -0.0005127831781199799 0.00005017421165431912 -0.00019534632965667598 2.267475684613234 -0.000008897427393073087 4.5351638737249305
          0.000040630969010191365 2.273513511211232 -0.000031085810868081154 -0.000014260668993126835 0.00011966960887943578 -0.00006165965000959339
          -0.000014277103572657435 0.00020384438685949746 -0.0001413783408151792 -0.00007822137447868055 0.00028969413271060646 -0.00018754881844888077
          -0.00012914517577461426 0.00037683044541447774 -0.00013359646857902252 -0.0001236589666806509 0.0004527778661154169 -0.000025500855700522074
          -0.00006199460431743908 0.0005367163194547331 0.000035546459442148404 -0.00008296903638982389 0.0004739918022730327 -0.00005896582045117338
          -0.0002533762182803656 0.0001245291121781955 0.000009877056209806057 2.4471695271149407 -0.000011420024433661524 4.894556293925743
          0.000050682311421024195 2.4533138681346705 -0.00009003188859102451 -0.00004840918707182951 0.00014610389969504922 -0.00014275160039189938
          -0.00008749118362683106 0.00023969350076946672 -0.000201825713023851 -0.00015599216320211218 0.0003410722863798066 -0.00022775022627710695
          -0.00018329609054962281 0.00044374248981551845 -0.00017079200447314702 -0.00011764846643347315 0.0005313112239325735 -0.000014413346556163553
          0.000033046299688477276 0.0005787579985574443 0.00016348098958995916 0.00010802426983147484 0.00046004554412582 0.00016563775765338073
          -0.00005375771443671962 0.0001398743340277342 0.00009596205119200008 2.58694775870561 -0.000013311705604035495 5.174112845430884
          0.00006382400657822807 2.593112110313638 -0.00012821034533527786 -0.00009586213720957915 0.00017156774915694228 -0.00016449013258734713
          -0.00014224973159082666 0.0002769594981665291 -0.00017837006510190712 -0.00016263781954461987 0.000394362249354796 -0.00021880460073453456
          -0.00017098574418469153 0.0005118617996554137 -0.0002293441516662137 -0.00013592293068448447 0.0005974870443068436 -0.00011602290630757794
          -0.00001556269134428412 0.0005966615242811724 0.00009514081500239246 0.0001028354330854242 0.00043197930615029856 0.00017609086551279018
          0.000019049778678226215 0.00013485528610918118 0.00007495488823305863 2.6904843250989092 -0.000014197734352405789 5.381189123292721
          0.0000755077817073957 2.6966300767756097 -0.00011228895489012736 -0.00008753574355679916 0.00019020560232640982 -0.00011468847931550563
          -0.00011006944180225187 0.0003152656045900537 -0.00014600441821288612 -0.00012446783857161803 0.0004440134286721187 -0.00023901202664061705
          -0.00016915055437435877 0.0005638884630720375 -0.0002896522715582772 -0.00018815159873566967 0.0006384020524701495 -0.0002281142041256623
          -0.0001378560014339003 0.0006021129556752491 -0.00010986621414854625 -0.00007146603485766456 0.0004008230061986473 -0.00009385250197713191
          -0.00009251768611373556 0.00012478441501734272 -0.00006251761758530039 2.7613719554462905 0.00001325825755671417 5.522959101376515
          0.0000863246335025547 2.767478100773861 -0.00008522391639353977 -0.000015012875250741686 0.00020786375193448947 -0.00011293569337689213
          -0.00005085833959594943 0.0003492773662057136 -0.00017782474860461583 -0.0001086476895010291 0.00048452284813416124 -0.0002443813277707152
          -0.0001758371348885568 0.0005992470026099928 -0.00026881463952505014 -0.00021530485470067084 0.0006572503132877827 -0.00028975266019728996
          -0.000254796106951255 0.0006001969462334222 -0.00038405120131246306 -0.00035931410031732336 0.0003730115526597161 -0.0005653504198106646
          -0.000379160628282027 0.00011408668617551854 -0.00026271069230460187 2.802593596709256 0.00004119390343260143 5.605394434399045
          0.00009902174640163963 2.808659605596633 -0.00009266358429216304 0.000012838441161955316 0.00022694270882794854 -0.00019584907639957905
          -0.00007539545961665617 0.0003715731065123684 -0.00023460296322519447 -0.00011617310481781828 0.0005104586293087632 -0.00018325009462116792
          -0.00011438732372759386 0.0006223601164401238 -0.00018625764611079898 -0.0001681610051438298 0.0006645229060470714 -0.0003338622835044047
          -0.00034880358412633927 0.0005929536616005315 -0.0006318065434281206 -0.0006757761797401736 0.00035225039393608267 -0.0009950009371285564
          -0.0007107868579053211 0.00010449306971319072 -0.0004197790348649255 1.408049920412677 -0.0000032067584767592194 2.816208266631733
          0.000050175885776493345 1.411078293350386 -0.00004643535793569242 -0.00007964029221918523 0.00011520969878642262 -0.00008032073527708405
          -0.0001618867319750361 0.00018571262199529315 -0.00006420690470787527 -0.00014399073066018175 0.00025473703385392454 -0.00002183275669409568
          -0.00011686454339454588 0.00031094800419673163 -0.000030400371412775407 -0.00020301005114631288 0.00032993608901121796 -0.0001049706277785889
          -0.00041498136573586697 0.00029565124608982307 -0.0002424179943673055 -0.0007242785511562821 0.00017092043567294712 -0.0003979837217083504
          -0.0005946589104570505 0.00004806271047434318 -0.00012626413592332214
        </DataArray>
        <DataArray type="Float64" Name="resid_z" format="ascii" RangeMin="0" RangeMax="0">
          0 0 0 0 0 0
          0 0 0 0 0 0
          0 0 0 0 0 0
          0 0 0 0 0 0
          0 0 0 0 0 0
          0 0 0 0 0 0
          0 0 0 0 0 0
          0 0 0 0 0 0
          0 0 0 0 0 0
          0 0 0 0 0 0
          0 0 0 0 0 0
          0 0 0 0 0 0
          0 0 0 0 0 0
          0 0 0 0 0 0
          0 0 0 0 0 0
          0 0 0 0 0 0
          0 0 0 0 0 0
          0 0 0 0 0 0
          0 0 0 0 0 0
          0 0 0 0 0 0
          0 0 0 0 0 0
          0 0 0 0 0 0
          0 0 0 0 0 0
          0 0 0 0 0 0
          0 0 0 0 0 0
          0 0 0 0 0 0
          0 0 0 0 0 0
          0 0 0 0 0 0
          0 0 0 0 0 0
          0 0 0 0 0 0
          0 0 0 0 0 0
          0 0 0 0 0 0
          0 0 0 0 0 0
          0 0 0 0 0 0
          0 0 0 0 0 0
          0 0 0 0 0 0
          0 0 0 0 0 0
          0 0 0 0 0 0
          0 0 0 0 0 0
          0 0 0 0 0 0
          0 0 0 0 0 0
          0 0 0 0 0 0
          0 0 0 0 0 0
          0 0 0 0 0 0
          0 0 0 0 0 0
          0 0 0 0 0 0
          0 0 0 0 0 0
          0 0 0 0 0 0
          0 0 0 0 0 0
          0 0 0 0 0 0
          0 0 0 0 0 0
          0 0 0 0 0 0
          0 0 0 0 0 0
          0 0 0 0 0 0
          0 0 0 0 0 0
          0 0 0 0 0 0
          0 0 0 0 0 0
          0 0 0 0 0 0
          0 0 0 0 0 0
          0 0 0 0 0 0
          0 0 0 0 0 0
          0 0 0 0 0 0
          0 0 0 0 0 0
          0 0 0 0 0 0
          0 0 0 0 0 0
          0 0 0 0 0 0
          0 0 0 0 0 0
          0 0 0 0 0 0
          0 0 0 0 0 0
          0 0 0 0 0 0
          0 0 0 0 0 0
          0 0 0 0 0 0
          0 0 0 0 0 0
          0 0 0 0 0 0
          0 0 0 0 0 0
          0 0 0 0 0 0
          0 0 0 0 0 0
          0 0 0 0 0 0
          0 0 0 0 0 0
          0 0 0 0 0 0
          0 0 0 0 0 0
          0 0 0 0 0 0
          0 0 0 0 0 0
          0 0 0 0 0 0
          0 0 0 0 0 0
          0 0 0 0 0 0
          0 0 0 0 0 0
          0 0 0 0 0 0
          0 0 0 0 0 0
          0 0 0 0 0 0
          0 0 0 0 0 0
          0 0 0 0 0 0
          0 0 0 0 0 0
          0 0 0 0 0 0
          0 0 0 0 0 0
          0 0 0 0 0 0
          0 0 0 0 0 0
          0 0 0 0 0 0
          0 0 0 0 0 0
          0 0 0 0 0 0
          0 0 0 0 0 0
          0 0 0 0 0 0
          0 0 0 0 0 0
          0 0 0 0 0 0
          0 0 0 0 0 0
          0 0 0 0 0 0
          0 0 0 0 0 0
          0 0 0 0 0 0
          0 0 0 0 0 0
          0 0 0 0 0 0
          0 0 0 0 0 0
          0 0 0 0 0 0
          0 0 0 0 0 0
          0 0 0 0 0 0
          0 0 0 0 0 0
          0 0 0 0 0 0
          0 0 0 0 0 0
          0 0 0 0 0 0
          0 0 0 0 0 0
          0 0 0 0 0 0
          0 0 0 0 0 0
          0 0 0 0 0 0
          0 0 0 0 0 0
          0 0 0 0 0 0
          0 0 0 0 0 0
          0 0 0 0 0 0
          0 0 0 0 0 0
          0 0 0 0 0 0
          0 0 0 0 0 0
          0 0 0 0 0 0
          0 0 0 0 0 0
          0 0 0 0 0 0
          0 0 0 0 0 0
          0 0 0 0 0 0
          0 0 0 0 0 0
          0 0 0 0 0 0
          0 0 0
        </DataArray>
        <DataArray type="Float64" Name="stress_zz" format="ascii" RangeMin="-6102007.212482653" RangeMax="2825099.899740419">
          1472365.0429299758 685865.0511813071 382230.968938919 762438.333419224 1474631.7119124455 686870.1652586896
          369293.21331514756 744734.074819828 1476898.3808949157 687875.2793360719 356355.4576913761 727029.8162204323
          -206766.9948080122 277002.8603793379 526421.0561064435 123289.87491686264 -207850.21641597635 263853.056402574
          515715.9207387088 116191.86452820466 -208933.4380239405 250703.25242581003 505010.7853709741 109093.85413954669
          879740.5414525409 426691.9476311734 865138.3095405644 422678.5557093355 850536.0776285877 418665.1637874977
          1058643.4444897354 1435945.8479104687 1494729.709774305 1053482.7810836816 1416908.5940694246 1471900.770547052
          1048322.1176776281 1397871.3402283802 1449071.831319799 -268211.21187337354 -370076.6638267752 -320289.26184382755
          -248722.71624659706 -268107.8117791416 -404347.3391328247 -336926.5583594604 -256261.16590694798 -268004.4116849096
          -438618.01443887415 -353563.8548750932 -263799.6155672989 -368003.4329377788 -176501.97396325512 -239322.92543816415
          -502933.0132179808 -362396.94419138983 -194536.46790650013 -270447.18845009326 -479311.22180589364 -356790.4554450009
          -212570.96184974513 -301571.4514620224 -455689.4303938068 -386951.72348662675 323367.09798102046 1118090.7240426927
          -392048.79092406493 340212.5383805093 1119119.8141220687 -397145.85836150317 357057.9787799983 1120148.904201445
          2286066.2409625025 2301795.7813992677 2317525.321836033 591887.2343608197 -74855.77768307005 591110.3164403471
          -54881.693575891666 590333.3985198746 -34907.609468713345 2770574.1046958035 1564813.0178981747 2797837.0022181114
          1543015.2016180118 2825099.899740419 1521217.385337849 -390996.8864314266 -303517.3709751708 -405796.8402489164
          -271245.09621471283 -420596.79406640603 -238972.8214542549 -625467.7550277722 -502397.9263363811 -423321.69531926827
          -394711.96672804945 -649000.1831022752 -518263.0130046477 -452424.9252892509 -403301.3434078887 -672532.6111767786
          -534128.0996729142 -481528.15525923355 -411890.7200877279 766478.9258566038 777648.2970361394 788817.668215675
          164616.49085812186 167654.5841490742 170692.67744002648 1048950.3478047685 1055878.7381755523 1062807.1285463357
          9376.832604883752 -304229.0022379139 5376.694677958376 -293278.60725071956 1376.5567510330002 -282328.21226352523
          -240916.47735689845 -2035532.5025170739 -2188887.959530275 -1597815.7199484645 -268946.60312294844 -2212878.667631609
          -2289301.5842018663 -1653308.0198809302 -296976.72888899845 -2390224.832746144 -2389715.2088734573 -1708800.3198133959
          20636.463158910294 -86352.89805715592 25194.926283872897 -87036.36728083127 29753.3894088355 -87719.83650450662
          -455945.5919035257 -404664.7324913214 -353383.8730791171 -169784.39466328904 -175294.08214471382 -180803.76962613862
          1194226.699940443 1156594.037626616 1204120.8312037191 1211125.5422316117 1214014.9624669952 1265657.046836607
          -619690.8871667499 -477528.54345305805 -586582.5947794934 -467200.56117908645 -553474.3023922369 -456872.5789051148
          -1808712.3849155635 -2717884.874196503 -1802491.521893677 -2819378.1788605545 -1796270.6588717904 -2920871.4835246056
          -703717.9691326352 -663635.5142921143 -623553.0594515934 -699231.7511430264 -725169.0561661643 -751106.3611893024
          -503206.9635652347 -491673.3713531054 -480139.77914097614 -1532405.3818223448 -1461978.5894788338 -1391551.7971353228
          322602.40687764983 381342.8222638937 440083.23765013734 91796.51521027688 35883.11572881084 72068.64376652856
          13235.20618194982 52340.77232278025 -9412.703364911256 -144841.851773604 -145456.35876062576 -146070.86574764756
          -297418.87021334644 -776733.8815749866 -284723.97315200896 -765368.7113871757 -272029.07609067153 -754003.541199365
          -1210775.2854356302 -982791.8132994163 -1200687.2527293563 -949194.838135783 -1190599.220023082 -915597.8629721496
          -335560.6273364281 -314916.1297357176 -346472.96682849876 -321635.42188273015 -357385.3063205695 -328354.71402974275
          544265.6309107494 574407.6171327028 604549.6033546561 -275719.78043521964 -308836.7620909597 -341953.74374669965
          -769627.9640358615 -782835.5208598943 -796043.077683927 -199649.75416635995 -528637.6800201666 -163663.64256606702
          -515313.87907383364 -127677.53096577407 -501990.07812750066 3072.647826862434 -239983.06518306863 3262.2288839207904
          -208831.06586247502 3451.8099409791685 -177679.06654188148 -311879.2926436922 -323690.8758269014 -476174.58419285424
          -267153.1472250665 -323918.878488754 -458935.44389807567 -222427.0018064407 -324146.8811506065 -441696.3036032972
          -345699.45089475706 -346828.93846165435 -347958.4260285516 -1256686.620873881 -1038978.3345546371 -1146402.604859542
          -1037795.6406920713 -1036118.5888452028 -1036612.9468295056 -22277.21950409747 230320.33462543567 -14093.510015910142
          234384.81986699323 -5909.800527722808 238449.3051085508 -542855.8286545705 -546597.88618668 -550339.9437187897
          -281084.68476516614 -298828.2651527315 -316571.8455402968 -723291.8466829663 -674943.0789824947 -626594.311282023
          -375012.3402824082 -249104.08105889682 -381670.35110698454 -262886.31995429366 -388328.361931561 -276668.5588496906
          -402894.570609363 -416032.1531629898 -429169.7357166166 -257959.374700246 -254485.35921992868 -251011.34373961142
          -713754.83665607 -703430.6677240964 -693106.4987921228 -74926.50880084583 -58150.16033905312 -41373.811877260414
          239989.34926536973 228701.3530594409 217413.35685351212 367146.8540957179 349661.6985729331 332176.5430501483
          2430641.9009741675 2422268.724960636 2413895.5489471043 2220952.60026188 2218761.6307216627 2216570.6611814457
          1676288.3068775784 1672527.3936984262 1668766.4805192742 498727.66534669383 501075.0149588102 503422.3645709265
          -408417.90808387287 -400324.4698119586 -392231.03154004435 -61485.71288158436 -27653.386935419323 -56930.68011971183
          -22537.703013992148 -52375.64735783929 -17422.019092564973 -29474.862016432664 -28002.4985060393 -31281.552743788292
          -30415.052876550984 -33088.24347114391 -32827.60724706267 4462.208568666823 12567.282643816345 5160.711112095671
          13561.056460049318 5859.213655524515 14554.830276282291 33435.44873941392 42162.40003749498 33234.99931051153
          41937.245516762414 33034.54988160914 41712.090996029845 51515.04955156155 59858.92146659075 51552.730884160024
          60023.282044725434 51590.412216758516 60187.64262286011 61229.63432112016 66893.63592419663 61220.82702305563
          66941.60739945469 61212.01972499109 66989.57887471277 50776.39615780118 56067.42144663895 50809.96374960951
          56165.736905802376 50843.53134141785 56264.052364965806 8040.142075473188 17195.389115915983 7971.996568958156
          17231.825178509804 7903.851062443124 17268.261241103624 -125746.65662591433 -123767.05598992683 -121787.45535393935
          -23346.347656640613 -23317.055837317526 -23287.764017994436 1331.4166603702188 862.1035398264621 392.7904192827027
          35534.19989290535 35756.87152811343 35979.5431633215 50642.363680064285 50501.46593012529 50360.5681801863
          62673.07016163823 62767.6488351034 62862.227508568554 43841.78269082436 44002.7588351099 44163.734979395434
          -18246.864534115208 -18283.349932649457 -18319.835331183705 16465.92496673514 12554.340340489594 8642.755714244035
          -62926.143674826126 -60680.02086092618 -58433.89804702624 34523.89239274196 34540.33103916525 34556.769685588544
          53780.919976050085 53944.983926249406 54109.04787644872 60752.80100713759 60770.436001873386 60788.07099660917
          72589.04394483363 72593.5846226043 72598.12530037499 33431.11006714255 33422.30263477444 33413.495202406324
          -65477.96053523513 -66086.23628667272 -66694.51203811032 -283306.6624457557 -293626.6617592902 -303946.6610728247
          79608.7459438055 74630.48283193393 69652.21972006235 36094.77343953376 37106.10758567217 38117.4417318106
          77389.92344499759 77180.8531644369 76971.7828838762 53325.659386073974 52930.6051550241 52535.55092397422
          73954.53173644716 74307.01337256515 74659.49500868317 6642.952016407868 7438.524150870266 8234.096285332667
          -141962.52477031483 -141883.92898051365 -141805.33319071244 -1371318.1466096414 -1362125.175411261 -1352932.2042128805
          213675.377381322 205254.70660280727 196834.03582429257 98639.51996449285 97858.20918134625 97076.89839819963
          59995.343402502775 62098.47478621576 64201.606169928746 36155.03006326142 35357.44656499729 34559.86306673316
          65452.39495816818 65379.921273845284 65307.44758952237 -56327.141760837694 -56997.77917607356 -57668.416591309404
          -285132.5051238347 -287763.25514753547 -290394.00517123635 -1165524.58136982 -1166162.2370155107 -1166799.8926612013
          -2159062.0702949017 -2143213.2449108404 -2127364.419526779 -897192.3251785305 -899161.6056603696 -901130.8861422088
          58328.76699442656 49324.294470252105 40319.82194607761 80068.69412140606 79066.09639165751 78063.49866190895
          -8291.641726467531 -9069.180520708705 -9846.719314949876 76000.99190605449 76876.7086705952 77752.42543513591
          -119346.25790984186 -116901.278373029 -114456.29883621614 -464885.1270509666 -464742.5911338924 -464600.055216818
          1342335.2371895628 1323734.3035140182 1305133.3698384734 -714880.1326181355 -716337.0905360961 -717794.0484540567
          -2352829.5604214836 -2340385.972545525 -2327942.3846695675 -929669.1227736865 -930980.629030447 -932292.1352872073
          431912.5203967713 425659.58988186874 419406.6593669663 25876.45450921362 23795.74417152337 21715.03383383312
          38591.618138349455 39809.70857485719 41027.79901136493 -644899.0617076631 -643296.9416653936 -641694.8216231243
          -1284745.5150675357 -1287591.3226315116 -1290437.1301954875 1047065.8292343745 1035976.9031524146 1024887.9770704547
          -1062774.8168545999 -1068018.1640237363 -1073261.5111928722 -4427627.618828361 -4406754.3314973265 -4385881.044166291
          -3518238.484000385 -3505094.840480059 -3491951.196959733 -113907.5462409677 -120498.9109597082 -127090.27567844861
          340896.88197274785 334928.8511807405 328960.82038873306 550335.4802841161 551748.5773966659 553161.6745092158
          -338431.68861089833 -338740.26193592063 -339048.8352609433 -1543957.6626675143 -1551998.8150487153 -1560039.9674299164
          -810595.6790584705 -822182.1912417201 -833768.7034249697 -3026997.66509251 -3034110.7449284205 -3041223.824764331
          -6102007.212482653 -6085434.394107844 -6068861.575733036 -5248312.7674727235 -5235200.857912888 -5222088.948353052
          -957915.5225552986 -964929.0300439291 -971942.5375325598 584406.7778290795 575654.0502899797 566901.3227508797
          1117096.401375766 1120333.4209605893 1123570.4405454127 475518.39230673737 479890.13117402984 484261.87004132225
          -1066277.291627642 -1069647.9100195086 -1073018.5284113751 -15332.013935666697 -22325.093231642324 -15301.238750028551
          -22317.05637631546 -15270.463564390408 -22309.01952098859 -43011.87049066509 -42830.41049072941 -42648.95049079372
          -77831.523300196 -77776.58329361948 -77721.64328704297 -126698.5113090977 -125723.79983792239 -124749.08836674708
          -213586.90619792102 -213693.33081393412 -213799.75542994728 -284147.8804307317 -281227.81021116336 -278307.73999159504
          -780677.1565280377 -776643.7733781885 -772610.3902283392 -400991.15860158793 -395829.9355148668 -390668.7124281457
          463810.50291576283 474336.3368647228 484862.1708136827 -26828.119771667385 -30445.027946769493 -26809.519740688575
          -30427.694960895325 -26790.919709709764 -30410.36197502115 -40340.823069926526 -40252.49603105771 -40164.168992188905
          -55068.91772719259 -55001.772460392225 -54934.62719359186 -73673.14258791196 -73263.89647121161 -72854.6503545113
          -101586.05300240678 -101479.73616891482 -101373.41933542286 -117367.17800246889 -116252.51519905122 -115137.85239563353
          -335750.14777583815 -334168.35264744196 -332586.55751904566 511994.54369847575 511416.23390583077 510837.92411318584
          1580098.9732090835 1578640.2451436205 1577181.5170781575 -39159.68893651838 -43033.69297776923 -39150.15710584292
          -43040.68769587285 -39140.625275167455 -43047.68241397648 -54066.567517819414 -54120.297654987226 -54174.02779215503
          -71256.36315320956 -71419.05713565816 -71581.75111810677 -94858.97063029096 -95135.21262596264 -95411.45462163433
          -126987.52418822351 -127619.9744818759 -128252.42477552831 -183720.0162867971 -184694.64314693946 -185669.27000708185
          -250171.15652698954 -252397.35845538336 -254623.56038377725 346028.97973813646 341710.4275249194 337391.8753117024
          970504.6353623231 965324.5466257979 960144.4578892725 -51775.45087309847 -55474.73683810387 -51771.20903955669
          -55460.20476585629 -51766.96720601493 -55445.67269360871 -66088.02693643002 -66043.66403262765 -65999.30112882529
          -82656.72966036003 -82564.46814455878 -82472.20662875754 -104098.35973554224 -103929.1606064957 -103759.96147744915
          -132919.55723162947 -132615.56449483958 -132311.5717580497 -160296.60718835797 -159859.89788240072 -159423.1885764435
          -104809.79764725512 -103831.29995370886 -102852.80226016263 376889.4709284701 379458.3388388971 382027.2067493242
          792759.1460178781 796423.0983131165 800087.0506083549 -63775.80866520283 -67521.12771073126 -63776.04313913372
          -67523.43273792694 -63776.27761306462 -67525.73776512263 -78276.09294984215 -78291.93792318487 -78307.7828965276
          -94571.97487197194 -94612.90937257554 -94653.84387317918 -113995.13807469782 -114096.35806065022 -114197.5780466026
          -132094.56159338873 -132227.64715098334 -132360.73270857794 -122315.95320430088 -122732.20379808517 -123148.45439186948
          -8212.710995187954 -8683.85900617956 -9155.007017171163 356756.8946047042 355840.9472235808 354924.9998424574
          625364.3624290836 623760.5482795181 622156.7341299527 -74336.00703476765 -78177.47929117105 -74340.80948786029
          -78180.48560960496 -74345.61194095292 -78183.49192803887 -89044.02526883992 -89046.96354900389 -89049.90182916787
          -104662.9218027085 -104662.47608075348 -104662.03035879845 -119988.38349067041 -119999.79795296465 -120011.21241525887
          -123497.6473720177 -123465.88619038567 -123434.12500875365 -83475.4760584157 -83568.11297654017 -83660.7498946646
          53863.34267917506 54027.568033809 54191.79338844295 334900.4806085585 335445.1784747423 335989.8763409261
          515398.59611994174 515882.3581984772 516366.1202770126 -82635.59405884806 -86576.09138954082 -82638.99482828847
          -86579.9015458777 -82642.3955977289 -86583.7117022146 -97474.04037326016 -97484.17930843754 -97494.31824361494
          -112016.941276916 -112032.50370059439 -112048.06612427281 -122506.35903486269 -122550.16556439221 -122593.97209392174
          -112987.04606016754 -113010.10359301012 -113033.1611258527 -53155.263870131006 -53330.54687638804 -53505.82988264508
          91056.23020176303 91063.51603579034 91070.80186981763 317322.4298078159 317374.54755729716 317426.6653067785
          446785.6360499987 446498.3023952541 446210.9687405096 -87947.10611335718 -91965.00159684582 -87944.81244878376
          -91962.88665425364 -87942.51878421036 -91960.77171166145 -102849.85429664818 -102852.35879855722 -102854.8633004663
          -116428.45976330196 -116433.38134387409 -116438.30292444622 -123226.34493879737 -123255.42109880538 -123284.49725881338
          -105207.49136768142 -105208.1360828003 -105208.78079791917 -34773.36052073837 -34895.183032205845 -35017.00554367332
          110172.810016643 110254.67057487994 110336.53113311688 305572.3571515856 305770.2081014491 305968.0590513127
          408354.7740998185 408289.1449070737 408223.51571432897 -89770.63753442104 -93813.96876588886 -89766.40000111188
          -93810.51218702437 -89762.16246780271 -93807.05560815989 -104682.49926073453 -104684.19695501491 -104685.89464929527
          -117877.66137908996 -117882.08051677386 -117886.49965445776 -123309.97657250881 -123340.62860762561 -123371.28064274241
          -102369.36887953975 -102374.39020115422 -102379.4115227687 -28627.342736746497 -28753.30171562441 -28879.260694502325
          116103.84918952256 116171.37237129854 116238.89555307452 301679.22380334744 301826.3894755019 301973.55514765636
          396262.4726022862 396121.3454606699 395980.2183190536
        </DataArray>
        <DataArray type="Float64" Name="peeq" format="ascii" RangeMin="0" RangeMax="0.0036533652229411738">
          0.002404095473940183 0.0024778012813983586 0.0024710853611064703 0.0024687420836548746 0.0024038850801840514 0.0024776313867875066
          0.0024708755621168192 0.0024683813476215725 0.0024036746864279203 0.0024774614921766543 0.002470665763127169 0.0024680206115882714
          0.00243968487386114 0.002494693222698092 0.0024674608302012197 0.0024542981110467228 0.0024400484098438626 0.002494991492741212
          0.002467054816912906 0.0024539900738651046 0.0024404119458265854 0.0024952897627843326 0.0024666488036245923 0.0024536820366834857
          0.002453764728559989 0.0024493460336229623 0.0024532609044132887 0.002449082902322698 0.0024527570802665884 0.002448819771022433
          0.0024691074115458086 0.0022841837740146327 0.0023948755959180986 0.0024689025094066894 0.002283858388091212 0.0023943835103341056
          0.0024686976072675706 0.002283533002167792 0.0023938914247501127 0.002413734149883105 0.002454699240879864 0.0025155047342758706
          0.0024219701924970633 0.0024144451644478797 0.0024553068355200516 0.002516237814506266 0.002422810445003743 0.002415156179012655
          0.00245591443016024 0.0025169708947366614 0.0024236506975104234 0.002445198880731087 0.0024950375849726756 0.0024713033351485805
          0.0024225353911577355 0.0024457798699717543 0.0024955808036408113 0.0024718272941916327 0.0024232035426353746 0.0024463608592124224
          0.002496124022308948 0.0024723512532346856 0.0024238716941130138 0.002517757781552865 0.0026824097471041006 0.002591810150837434
          0.002518923321111559 0.0026836141279024694 0.002592283314342762 0.0025200888606702523 0.0026848185087008382 0.0025927564778480904
          0.002231630335013403 0.002231548718869539 0.0022314671027256748 0.0028094207533619154 0.0029843280938070095 0.0028099696802944794
          0.002984937158542442 0.0028105186072270427 0.0029855462232778744 0.0020150435214346275 0.0021319380266449726 0.0020150888261414694
          0.002131873873574594 0.002015134130848312 0.002131809720504215 0.0029860027808391505 0.003153424073231569 0.0029864431175636993
          0.0031539424484175243 0.0029868834542882477 0.0031544608236034797 0.002587316507892276 0.002716804981694707 0.0026062953461501327
          0.002470980460722641 0.0025880063177959964 0.002717795389253631 0.0026071513496198954 0.0024717845115015498 0.0025886961276997177
          0.002718785796812555 0.0026080073530896576 0.0024725885622804583 0.003653045608267439 0.0036532054156043067 0.0036533652229411738
          0.003375142666732217 0.0033754563423968867 0.0033757700180615563 0.0025290423844465345 0.0025293730730764257 0.0025297037617063173
          0.0024193328719943853 0.002399484795562833 0.002419437353144087 0.002400247091477233 0.0024195418342937893 0.002401009387391633
          0.0035422102922182484 0.0031905298528518105 0.0030778736261987427 0.0034305277031299094 0.0035426145104804707 0.0031901697227615156
          0.0030780017208458235 0.0034311073545894594 0.0035430187287426923 0.003189809592671221 0.0030781298154929047 0.0034316870060490095
          0.0024105994207261477 0.0024325099851313023 0.002410937307210781 0.002432631587364536 0.002411275193695414 0.0024327531895977704
          0.0030881368100644426 0.003089491550582932 0.0030908462911014216 0.002545165489839314 0.002545857254152943 0.0025465490184665715
          0.0031668848304147114 0.00309615641145341 0.0031682673088208537 0.0030978060056579145 0.003169649787226996 0.003099455599862419
          0.002418488896594512 0.0024241393114121917 0.0024190106305500233 0.0024246257608489014 0.0024195323645055337 0.0024251122102856115
          0.0027942363445615224 0.002918192682580624 0.0027954660788911045 0.002918787834476125 0.002796695813220687 0.0029193829863716266
          0.00289294906765748 0.002894028060286275 0.0028951070529150704 0.0032277649839735066 0.0032277461982707437 0.0032277274125679795
          0.0027523313551524584 0.0027530675850107014 0.0027538038148689444 0.002801081734698518 0.0028025761086080425 0.0028040704825175664
          0.0029066481054440068 0.0029083989402404423 0.0029101497750368775 0.003068984513707007 0.003055024850448609 0.0030691675119882264
          0.0030551745775488012 0.0030693505102694454 0.0030553243046489934 0.0023906497275262965 0.002391321237380093 0.00239199274723389
          0.0023992288226915223 0.0024509175430801706 0.0024002530198883026 0.002452047419581212 0.002401277217085083 0.0024531772960822533
          0.0026793591674634802 0.002938497992706861 0.0026805095673892 0.0029394274629810854 0.0026816599673149194 0.0029403569332553106
          0.002439547822188203 0.002431490354159266 0.00243955828029606 0.0024317709157408406 0.0024395687384039166 0.0024320514773224153
          0.0028688898601566936 0.0028703537958955543 0.002871817731634416 0.003026095788287772 0.0030262885582725244 0.0030264813282572765
          0.0032922169082804423 0.003293176439272664 0.0032941359702648855 0.0026746102374279653 0.0028181922602064998 0.002675435598726976
          0.002818651875885616 0.002676260960025987 0.002819111491564732 0.0028792889843270485 0.002897387461886234 0.0028796198088891682
          0.0028979524542121615 0.002879950633451289 0.002898517446538089 0.002669208801660432 0.0025768251542633213 0.002705833129389124
          0.0026700861864644146 0.0025775602596855686 0.0027065195508770416 0.002670963571268398 0.002578295365107815 0.0027072059723649584
          0.002727206664397283 0.0027277008329123003 0.002728195001427318 0.00260223690253052 0.002519103412144158 0.0026042825146605428
          0.0025204450779812157 0.0026063281267905652 0.002521786743818274 0.0024574676799752797 0.0024846566336682516 0.0024576502863724566
          0.0024845704357511285 0.0024578328927696343 0.002484484237834005 0.002594344793383316 0.0025951098961635374 0.002595874998943759
          0.002845671492615859 0.0028458831966733265 0.002846094900730794 0.002406886409292538 0.0024081616832575636 0.00240943695722259
          0.0024271010449267902 0.0024556637676742374 0.002427574392184975 0.0024561325131096357 0.00242804773944316 0.0024566012585450344
          0.0025083125734356535 0.002508923431690231 0.0025095342899448085 0.002423844679102758 0.002424423659667924 0.0024250026402330895
          0.002445910011695306 0.002447000029300996 0.0024480900469066847 0.0024459090806381997 0.002446366623249112 0.0024468241658600247
          0.002486661789105488 0.002486527047410101 0.0024863923057147144 0.00250977666994386 0.0025094596719459398 0.0025091426739480196
          0.001632592785615381 0.0016324923827171446 0.0016323919798189083 0.0019486860379499095 0.001948564192769931 0.0019484423475899524
          0.002209829836027727 0.0022097041949339273 0.0022095785538401285 0.0024032565401817673 0.0024031521595813993 0.0024030477789810313
          0.0024820047887323796 0.0024819287991729843 0.0024818528096135885 0 0 0
          0 0 0 0 0 0
          0 0 0 0 0 0
          0 0 0 0 0 0
          0 0 0 0 0 0
          0 0 0 0 0 0
          0 0 0 0 0 0
          0 0 0 0 0 0
          0 0 0 0 0 0
          0 0 0 0 0 0
          0 0 0 0 0 0
          0 0 0 0 0 0
          0 0 0 0 0 0
          0 0 0 0 0 0
          0 0 0 0 0 0
          0 0 0 0 0 0
          0 0 0 0 0 0
          0 0 0 0 0 0
          0 0 0 0 0 0
          0 0 0 0 0 0
          0 0 0 0.00002906227923064812 0.00002914717700799231 0.0000292320747853365
          0 0 0 0 0 0
          0 0 0 0 0 0
          0 0 0 0 0 0
          0 0 0 0.000521040480416058 0.0005211846920850978 0.0005213289037541377
          0.00016525273440776614 0.00016549135427909744 0.0001657299741504287 0.00002265211949538239 0.000022752336734390383 0.000022852553973398378
          0 0 0 0 0 0
          0 0 0 0 0 0
          0 0 0 0 0 0
          0.0009650131445899704 0.0009648944601788371 0.000964775775767704 0.0004647337212936397 0.00046490384042934056 0.00046507395956504145
          0.0001237800723729302 0.00012403759644445626 0.0001242951205159823 0.000006034266707608817 0.000006118174653042596 0.000006202082598476374
          0 0 0 0 0 0
          0 0 0 0 0 0
          0 0 0 0.001502758674007032 0.0015022607939048662 0.0015017629138027006
          0.0009136630812095563 0.0009135383614646804 0.0009134136417198045 0.000359296748858269 0.00035961229022745674 0.0003599278315966445
          0.000060078184973761104 0.00006029990950652802 0.00006052163403929493 0 0 0
          0 0 0 0 0 0
          0 0 0 0 0 0
          0.0017933091767033324 0.001792610195977816 0.0017919112152523 0.0011702396301860696 0.00116995739661289 0.0011696751630397109
          0.0005163375919614424 0.0005166540610347817 0.0005169705301081211 0.00010808783653230458 0.00010836346970697085 0.00010863910288163712
          0 0 0 0 0 0
          0 0 0 0 0 0
          0 0 0 0 0 0
          0 0 0 0 0 0
          0 0 0 0 0 0
          0 0 0 0 0 0
          0 0 0 0 0 0
          0 0 0 0 0 0
          0 0 0 0 0 0
          0 0 0 0 0 0
          0 0 0 0 0 0
          0 0 0 0 0 0
          0 0 0 0 0 0
          0 0 0 0 0 0
          0 0 0 0 0 0
          0 0 0 0 0 0
          0 0 0 0 0 0
          0 0 0 0 0 0
          0 0 0 0 0 0
          0 0 0 0 0 0
          0 0 0 0 0 0
          0 0 0 0 0 0
          0 0 0 0 0 0
          0 0 0 0 0 0
          0 0 0 0 0 0
          0 0 0 0 0 0
          0 0 0 0 0 0
          0 0 0 0 0 0
          0 0 0 0 0 0
          0 0 0 0 0 0
          0 0 0 0 0 0
          0 0 0 0 0 0
          0 0 0 0 0 0
          0 0 0 0 0 0
          0 0 0 0 0 0
          0 0 0 0 0 0
          0 0 0 0 0 0
          0 0 0 0 0 0
          0 0 0 0 0 0
          0 0 0 0 0 0
          0 0 0 0 0 0
          0 0 0 0 0 0
          0 0 0 0 0 0
          0 0 0 0 0 0
          0 0 0 0 0 0
          0 0 0 0 0 0
          0 0 0 0 0 0
          0 0 0
        </DataArray>
        <DataArray type="Float64" Name="pe11" format="ascii" RangeMin="0" RangeMax="0.003652758824596774">
          0.002403868243987992 0.0024776657591987937 0.0024709651000081453 0.002468617280220355 0.002403656178455319 0.002477494434937294
          0.002470754084989456 0.002468255751661474 0.002403444112922645 0.0024773231106757945 0.0024705430699707666 0.002467894223102593
          0.0024395378397036854 0.0024944425024490584 0.002467117386167745 0.002454103338373103 0.002439900162275423 0.002494735613771142
          0.0024667073290097546 0.002453793825371217 0.0024402624848471615 0.002495028725093226 0.002466297271851764 0.0024534843123693306
          0.0024535604535559532 0.0024492113331457807 0.0024530550176471598 0.0024489477617033748 0.002452549581738366 0.0024486841902609693
          0.0024685905219612395 0.002283630208216902 0.002394535159544386 0.0024683769291308196 0.0022832991495598644 0.002394039724225058
          0.002468163336300399 0.0022829680909028267 0.0023935442889057306 0.0024136756198715253 0.0024546313510219187 0.002515415310952163
          0.002421891207725949 0.002414384924076578 0.0024552390501986015 0.002516147564936235 0.0024227299045124387 0.002415094228281631
          0.002455846749375284 0.0025168798189203075 0.0024235686012989283 0.0024451633634790895 0.002495004027922744 0.002471258966070147
          0.00242248594557613 0.002445744477992379 0.0024955474163132338 0.0024717831586425843 0.002423152799644291 0.002446325592505668
          0.002496090804703724 0.002472307351215022 0.002423819653712452 0.0025176177782748293 0.0026820769786944105 0.002591410865896534
          0.0025187777077955624 0.0026832719492120493 0.0025918727069760127 0.002519937637316295 0.0026844669197296886 0.0025923345480554916
          0.0022311837246018124 0.0022310993715607304 0.0022310150185196483 0.0028086494314879316 0.0029836634542153057 0.0028091835321249767
          0.0029842659027858407 0.0028097176327620222 0.002984868351356375 0.002014283217893745 0.002131024935603656 0.0020143247069681755
          0.002130951450904108 0.002014366196042606 0.0021308779662045597 0.002985814043107094 0.003153125588291297 0.00298625433665803
          0.003153643886265842 0.002986694630208966 0.0031541621842403876 0.002587163310606843 0.0027166052136671785 0.002606160243594427
          0.0024708743923572774 0.002587852119778588 0.002717594455327755 0.002607016277448431 0.0024716773942719174 0.0025885409289503336
          0.0027185836969883317 0.002607872311302435 0.002472480396186557 0.0036524522944229327 0.003652605559509853 0.003652758824596774
          0.003374874328254937 0.0033751883417031253 0.0033755023551513136 0.0025281831908901807 0.002528497595479165 0.0025288120000681496
          0.0024192194455304136 0.0023994018287878185 0.002419323650338875 0.0024001638054805337 0.0024194278551473362 0.0024009257821732493
          0.0035416788822445395 0.0031901719820241607 0.0030775425484938506 0.003430065563339203 0.0035420797966007004 0.0031898086299927252
          0.0030776688258961353 0.0034306433845644174 0.003542480710956861 0.0031894452779612902 0.00307779510329842 0.003431221205789631
          0.0024105224673101155 0.0024324356848671584 0.0024108584922801074 0.0024325553906445305 0.0024111945172500984 0.002432675096421902
          0.0030878822758163204 0.00308923840434129 0.0030905945328662593 0.0025451231881295595 0.0025458144719057757 0.002546505755681993
          0.0031665234088281793 0.0030959208610960346 0.0031679059954693623 0.003097571524726989 0.0031692885821105452 0.003099222188357944
          0.002418439338976988 0.0024241063931641684 0.002418958580578272 0.0024245915075571255 0.0024194778221795555 0.0024250766219500825
          0.0027940573580302348 0.002917932392404489 0.0027952863017528017 0.002918526031607489 0.0027965152454753686 0.0029191196708104896
          0.0028926918227198182 0.00289376994215839 0.002894848061596962 0.0032272726607613816 0.003227250590283093 0.0032272285198048033
          0.0027521263238696756 0.0027528617847819583 0.002753597245694242 0.0028007760972956998 0.002802265316696113 0.0028037545360965256
          0.002906429442177134 0.002908180900109374 0.0029099323580416146 0.003068915254229635 0.0030549659757395696 0.0030690947016793167
          0.0030551134482659816 0.0030692741491289977 0.003055260920792393 0.0023905799473436227 0.002391250011109174 0.002391920074874726
          0.0023991600359198374 0.0024508524642654554 0.002400183059536887 0.002451981021132987 0.0024012060831539368 0.002453109578000518
          0.0026792274071442464 0.0029381964053981392 0.0026803782816509514 0.002939127073137401 0.0026815291561576565 0.0029400577408766624
          0.002439476629418321 0.00243143750179749 0.002439484851059692 0.0024317161568532864 0.0024394930727010627 0.0024319948119090823
          0.002868653238409649 0.0028701193809687296 0.00287158552352781 0.0030260361924750153 0.0030262289247029984 0.0030264216569309815
          0.0032917596755191432 0.0032927186709801755 0.0032936776664412074 0.0026744911003929975 0.002818065824582029 0.0026753157337915225
          0.002818526431193628 0.002676140367190048 0.0028189870378052266 0.0028792158020760554 0.0028973015283718633 0.002879538224529436
          0.002897850062382069 0.0028798606469828164 0.0028983985963922754 0.0026691464528258986 0.002576788307364844 0.002705774222127246
          0.0026700230252635912 0.0025775237719356204 0.0027064549715205668 0.0026708995977012843 0.0025782592365063963 0.0027071357209138875
          0.002727144376389378 0.00272762741983925 0.002728110463289122 0.002602125176046765 0.002519038035413354 0.002604166053732713
          0.002520377634261917 0.00260620693141866 0.0025217172331104794 0.002457374471939579 0.0024845588529239294 0.002457556283012152
          0.0024844715672203686 0.0024577380940847245 0.0024843842815168086 0.0025943051429499183 0.0025950708888455467 0.002595836634741175
          0.0028455966838987433 0.0028458086319559013 0.00284602058001306 0.0024068251615629705 0.0024080996187699536 0.002409374075976937
          0.002427077583240888 0.002455638270445248 0.002427550296858282 0.002456107010488664 0.0024280230104756755 0.002456575750532081
          0.00250827900327327 0.0025088898142369 0.00250950062520053 0.0024238125110116445 0.002424390342600764 0.0024249681741898834
          0.0024458248666669384 0.002446913263482147 0.002448001660297355 0.0024458532153856715 0.0024463106780995445 0.002446768140813417
          0.002486588010480302 0.0024864526001003766 0.002486317189720451 0.0025096853052815277 0.002509367003957847 0.0025090487026341655
          0.001630968620754677 0.001630866022011707 0.0016307634232687364 0.0019475690922242713 0.0019474450021627052 0.0019473209121011392
          0.0022092028825099557 0.0022090752058732993 0.0022089475292366425 0.0024029578400713934 0.0024028516127704725 0.002402745385469551
          0.002481821027807126 0.0024817433177809827 0.002481665607754839 0 0 0
          0 0 0 0 0 0
          0 0 0 0 0 0
          0 0 0 0 0 0
          0 0 0 0 0 0
          0 0 0 0 0 0
          0 0 0 0 0 0
          0 0 0 0 0 0
          0 0 0 0 0 0
          0 0 0 0 0 0
          0 0 0 0 0 0
          0 0 0 0 0 0
          0 0 0 0 0 0
          0 0 0 0 0 0
          0 0 0 0 0 0
          0 0 0 0 0 0
          0 0 0 0 0 0
          0 0 0 0 0 0
          0 0 0 0 0 0
          0 0 0 0 0 0
          0 0 0 0.0000285909608739783 0.00002867499860920347 0.00002875903634442864
          0 0 0 0 0 0
          0 0 0 0 0 0
          0 0 0 0 0 0
          0 0 0 0.000515612286986882 0.0005157552055652594 0.0005158981241436369
          0.0001624167659718905 0.00016265350807587544 0.00016289025017986042 0.000022119607484977706 0.000022218457103301058 0.00002231730672162441
          0 0 0 0 0 0
          0 0 0 0 0 0
          0 0 0 0 0 0
          0.0009561145419374711 0.0009559937172550033 0.0009558728925725355 0.0004561078765657578 0.00045628026245809463 0.0004564526483504315
          0.00012009466770482175 0.00012035059491863863 0.00012060652213245548 0.000005768831290884146 0.0000058497580025336835 0.000005930684714183222
          0 0 0 0 0 0
          0 0 0 0 0 0
          0 0 0 0.0014899036957776695 0.0014894007599475234 0.0014888978241173773
          0.0008941019662449361 0.0008939913082686058 0.0008938806502922756 0.00034479371963367056 0.0003451160896513591 0.00034543845966904767
          0.0000561247446459365 0.00005634226187524512 0.000056559779104553745 0 0 0
          0 0 0 0 0 0
          0 0 0 0 0 0
          0.0017781149146090989 0.0017774098606343671 0.0017767048066596352 0.0011436397895541808 0.0011433791105543666 0.0011431184315545521
          0.0004936373188276531 0.0004939679036720431 0.0004942984885164331 0.0001007118267101047 0.00010098500774542287 0.00010125818878074105
          0 0 0 0 0 0
          0 0 0 0 0 0
          0 0 0 0 0 0
          0 0 0 0 0 0
          0 0 0 0 0 0
          0 0 0 0 0 0
          0 0 0 0 0 0
          0 0 0 0 0 0
          0 0 0 0 0 0
          0 0 0 0 0 0
          0 0 0 0 0 0
          0 0 0 0 0 0
          0 0 0 0 0 0
          0 0 0 0 0 0
          0 0 0 0 0 0
          0 0 0 0 0 0
          0 0 0 0 0 0
          0 0 0 0 0 0
          0 0 0 0 0 0
          0 0 0 0 0 0
          0 0 0 0 0 0
          0 0 0 0 0 0
          0 0 0 0 0 0
          0 0 0 0 0 0
          0 0 0 0 0 0
          0 0 0 0 0 0
          0 0 0 0 0 0
          0 0 0 0 0 0
          0 0 0 0 0 0
          0 0 0 0 0 0
          0 0 0 0 0 0
          0 0 0 0 0 0
          0 0 0 0 0 0
          0 0 0 0 0 0
          0 0 0 0 0 0
          0 0 0 0 0 0
          0 0 0 0 0 0
          0 0 0 0 0 0
          0 0 0 0 0 0
          0 0 0 0 0 0
          0 0 0 0 0 0
          0 0 0 0 0 0
          0 0 0 0 0 0
          0 0 0 0 0 0
          0 0 0 0 0 0
          0 0 0 0 0 0
          0 0 0 0 0 0
          0 0 0
        </DataArray>
        <DataArray type="Float64" Name="pe22" format="ascii" RangeMin="-0.0018265549337335603" RangeMax="0">
          -0.0011961346291796803 -0.001236977744044004 -0.0012332583155401533 -0.0012295396986223566 -0.0011962230483176285 -0.001236967895156339
          -0.0012332217800001 -0.0012294831136344284 -0.0011963114674555762 -0.001236958046268674 -0.0012331852444600463 -0.0012294265286465
          -0.0012161301942699052 -0.0012389491893007023 -0.0012203955508140168 -0.001217494629168615 -0.001216026475700045 -0.0012389332334739893
          -0.0012203774661495885 -0.001217423419896868 -0.0012159227571301849 -0.0012389172776472762 -0.0012203593814851604 -0.0012173522106251212
          -0.0012171809709955518 -0.0012187098609908586 -0.0012171459879450467 -0.0012185888043089945 -0.0012171110048945415 -0.0012184677476271301
          -0.0012180062482981828 -0.0011283335869933194 -0.0011850290157117533 -0.00121800464139388 -0.0011283517284242143 -0.001185036876903877
          -0.0012180030344895775 -0.0011283698698551093 -0.0011850447380960007 -0.0012094378430234291 -0.001232712612255292 -0.0012590442284901087
          -0.0012123214500988704 -0.0012093618714636616 -0.0012325804803778456 -0.0012589100591791098 -0.0012122719454676662 -0.0012092858999038943
          -0.001232448348500399 -0.0012587758898681112 -0.0012122224408364617 -0.001224474818211336 -0.0012479240251953335 -0.0012389657208218155
          -0.0012139612353313498 -0.0012243674143862997 -0.0012477331646634385 -0.0012387839081320336 -0.0012138478764326076 -0.0012242600105612628
          -0.0012475423041315437 -0.0012386020954422516 -0.0012137345175338658 -0.001253501588045879 -0.0013278000977281245 -0.001281884120127437
          -0.0012533782929035314 -0.0013276587194993123 -0.0012818594349950337 -0.0012532549977611837 -0.0013275173412705002 -0.0012818347498626302
          -0.001106938941390112 -0.0011070763919767029 -0.0011072138425632936 -0.0013830679969678533 -0.0014700688096281216 -0.001383106340445419
          -0.001469894030350639 -0.0013831446839229849 -0.0014697192510731562 -0.0009966518919236641 -0.0010516611704949538 -0.0009967953784658858
          -0.0010517150707213484 -0.0009969388650081072 -0.0010517689709477428 -0.001495752217913472 -0.0015830068044374928 -0.0014957739602455612
          -0.0015831775908433402 -0.0014957957025776506 -0.0015833483772491879 -0.001293043912925861 -0.0013593449092579946 -0.0013074918867185931
          -0.0012363859375014454 -0.001292905588432492 -0.0013592265272773258 -0.0013072936854971306 -0.0012362875970288033 -0.0012927672639391225
          -0.0013591081452966566 -0.001307095484275668 -0.0012361892565561617 -0.0018265549337335603 -0.0018261558129803457 -0.001825756692227131
          -0.0016982535113449395 -0.001698448583590827 -0.0016986436558367145 -0.0012426699068246205 -0.00124277891746208 -0.0012428879280995397
          -0.001204609361280688 -0.001198426473437056 -0.0012044556659515828 -0.0011983059070678442 -0.0012043019706224774 -0.0011981853406986321
          -0.0017791751712339682 -0.0015894507096167435 -0.0015370092926201466 -0.001723702455102815 -0.0017790149912792885 -0.001589020300669857
          -0.0015367224871960534 -0.0017236471297709687 -0.0017788548113246085 -0.001588589891722971 -0.0015364356817719603 -0.001723591804439123
          -0.0012024096015393233 -0.0012133290648910402 -0.0012023000495873886 -0.0012132251178729617 -0.0012021904976354538 -0.0012131211708548836
          -0.0015479349059830873 -0.0015480694485466508 -0.0015482039911102145 -0.001272976146323409 -0.001272727809574798 -0.0012724794728261868
          -0.0015874794590073989 -0.001550454755081675 -0.001587176122625625 -0.0015503101673912684 -0.0015868727862438509 -0.0015501655797008614
          -0.0012107431585172952 -0.00121350410521242 -0.0012105551614099601 -0.0012133598655398414 -0.001210367164302625 -0.0012132156258672627
          -0.00139556936405774 -0.0014513661792968952 -0.0013953213488542197 -0.001450976944898896 -0.0013950733336506997 -0.0014505877105008968
          -0.0014468670068128885 -0.00144687088754429 -0.0014468747682756919 -0.0016004018561147915 -0.0015998876673575559 -0.0015993734786003198
          -0.001374963014068286 -0.001374815470385857 -0.0013746679267034275 -0.0013905530352647383 -0.0013903464991141434 -0.0013901399629635486
          -0.001456222044849199 -0.0014562401949751226 -0.0014562583451010458 -0.0015348685627996166 -0.001527611685161788 -0.0015345281618477165
          -0.0015276251697071974 -0.0015341877608958162 -0.001527638654252607 -0.0011932055205017681 -0.0011931017023791956 -0.0011929978842566233
          -0.0011985051702272293 -0.001226849534870708 -0.001198452584779576 -0.0012268231888683118 -0.0011983999993319227 -0.0012267968428659158
          -0.0013441390023267435 -0.001474816222108631 -0.0013438689540020143 -0.0014744216490933072 -0.0013435989056772854 -0.0014740270760779835
          -0.001218044287617185 -0.00121574809436477 -0.001217886928907327 -0.001215627105498234 -0.001217729570197469 -0.001215506116631698
          -0.0014421163916121392 -0.0014418754317370506 -0.001441634471861962 -0.0015136349569231382 -0.0015138475643954102 -0.0015140601718676826
          -0.0016524949598313373 -0.0016522234908167845 -0.0016519520218022318 -0.0013380672670860393 -0.0014123999548491485 -0.0013378643122639244
          -0.0014121356759612075 -0.0013376613574418094 -0.0014118713970732667 -0.0014405506523321736 -0.001449477432510885 -0.0014401031902077203
          -0.0014484533322314318 -0.0014396557280832666 -0.0014474292319519785 -0.0013357765252112748 -0.0012876476989280654 -0.001352679331907648
          -0.0013356414389644046 -0.0012875768679210373 -0.0013524883593947887 -0.001335506352717534 -0.0012875060369140089 -0.0013522973868819294
          -0.0013625212343023538 -0.0013621396860320123 -0.0013617581377616708 -0.001299468434460751 -0.0012619587428239465 -0.0012994114711233262
          -0.001261855291238228 -0.0012993545077859014 -0.0012617518396525096 -0.0012288878495812364 -0.0012426524773002567 -0.0012288420175261593
          -0.0012425419316909575 -0.001228796185471082 -0.0012424313860816578 -0.0012957382259766897 -0.001295854097983583 -0.0012959699699904765
          -0.0014252032803170574 -0.0014251264770140468 -0.0014250496737110365 -0.0012047689143900777 -0.0012047495781563437 -0.0012047302419226098
          -0.001213489108531736 -0.0012270278330514639 -0.0012134562028988107 -0.001226997684294553 -0.0012134232972658857 -0.0012269675355376418
          -0.0012531899912192174 -0.0012530324903131248 -0.0012528749894070322 -0.0012123820760269188 -0.0012123642349222712 -0.0012123463938176235
          -0.0012232512848203906 -0.0012231515615180888 -0.001223051838215787 -0.001223538821300122 -0.0012235251978242124 -0.0012235115743483025
          -0.001243769525633264 -0.0012436109772562265 -0.001243452428879189 -0.0012539457385271047 -0.0012538048222484359 -0.001253663905969767
          -0.000793531151868882 -0.0007935680975142617 -0.0007936050431596412 -0.0009557234195064846 -0.0009557925397008317 -0.0009558616598951788
          -0.0010926825188261181 -0.0010927633307632955 -0.001092844142700473 -0.0011944994421467544 -0.0011945320936910088 -0.0011945647452352634
          -0.0012354382704168534 -0.0012354355529768679 -0.0012354328355368826 0 0 0
          0 0 0 0 0 0
          0 0 0 0 0 0
          0 0 0 0 0 0
          0 0 0 0 0 0
          0 0 0 0 0 0
          0 0 0 0 0 0
          0 0 0 0 0 0
          0 0 0 0 0 0
          0 0 0 0 0 0
          0 0 0 0 0 0
          0 0 0 0 0 0
          0 0 0 0 0 0
          0 0 0 0 0 0
          0 0 0 0 0 0
          0 0 0 0 0 0
          0 0 0 0 0 0
          0 0 0 0 0 0
          0 0 0 0 0 0
          0 0 0 0 0 0
          0 0 0 -0.000011407301403307244 -0.000011432381888018434 -0.000011457462372729624
          0 0 0 0 0 0
          0 0 0 0 0 0
          0 0 0 0 0 0
          0 0 0 -0.00022228887077002055 -0.00022230748065068178 -0.00022232609053134301
          -0.0000669395373778562 -0.0000670004107534153 -0.00006706128412897439 -0.000008958291420116298 -0.000008991459869711668 -0.000009024628319307038
          0 0 0 0 0 0
          0 0 0 0 0 0
          0 0 0 0 0 0
          -0.0004297124473561488 -0.0004296241725080537 -0.0004295358976599586 -0.00019757266556257405 -0.00019757432291968413 -0.00019757598027679427
          -0.000050977899413641854 -0.00005105543811641338 -0.00005113297681918491 -0.000002436350662616393 -0.0000024690461648685863 -0.000002501741667120779
          0 0 0 0 0 0
          0 0 0 0 0 0
          0 0 0 -0.0006945209849238841 -0.0006942133715326358 -0.0006939057581413874
          -0.0004051542812837976 -0.0004050026324227221 -0.00040485098356164673 -0.00015270315644059615 -0.00015277628254895141 -0.0001528494086573067
          -0.000024383143458551957 -0.000024462272654983027 -0.0000245414018514141 0 0 0
          0 0 0 0 0 0
          0 0 0 0 0 0
          -0.0008389295962112564 -0.000838493031195743 -0.0008380564661802294 -0.000526227703391545 -0.0005259926767368696 -0.0005257576500821944
          -0.0002213670968941411 -0.00022142460860449938 -0.0002214821203148577 -0.000043893585591871124 -0.000043986452980228883 -0.00004407932036858664
          0 0 0 0 0 0
          0 0 0 0 0 0
          0 0 0 0 0 0
          0 0 0 0 0 0
          0 0 0 0 0 0
          0 0 0 0 0 0
          0 0 0 0 0 0
          0 0 0 0 0 0
          0 0 0 0 0 0
          0 0 0 0 0 0
          0 0 0 0 0 0
          0 0 0 0 0 0
          0 0 0 0 0 0
          0 0 0 0 0 0
          0 0 0 0 0 0
          0 0 0 0 0 0
          0 0 0 0 0 0
          0 0 0 0 0 0
          0 0 0 0 0 0
          0 0 0 0 0 0
          0 0 0 0 0 0
          0 0 0 0 0 0
          0 0 0 0 0 0
          0 0 0 0 0 0
          0 0 0 0 0 0
          0 0 0 0 0 0
          0 0 0 0 0 0
          0 0 0 0 0 0
          0 0 0 0 0 0
          0 0 0 0 0 0
          0 0 0 0 0 0
          0 0 0 0 0 0
          0 0 0 0 0 0
          0 0 0 0 0 0
          0 0 0 0 0 0
          0 0 0 0 0 0
          0 0 0 0 0 0
          0 0 0 0 0 0
          0 0 0 0 0 0
          0 0 0 0 0 0
          0 0 0 0 0 0
          0 0 0 0 0 0
          0 0 0 0 0 0
          0 0 0 0 0 0
          0 0 0 0 0 0
          0 0 0 0 0 0
          0 0 0 0 0 0
          0 0 0
        </DataArray>
        <DataArray type="Float64" Name="pe33" format="ascii" RangeMin="-0.0018270021323696425" RangeMax="0">
          -0.0012077336148083118 -0.001240688015154789 -0.0012377067844679915 -0.0012390775815979975 -0.00120743313013769 -0.001240526539780955
          -0.0012375323049893556 -0.0012387726380270452 -0.0012071326454670688 -0.0012403650644071205 -0.0012373578255107202 -0.0012384676944560925
          -0.0012234076454337795 -0.0012554933131483557 -0.0012467218353537277 -0.0012366087092044878 -0.0012238736865753778 -0.0012558023802971526
          -0.0012463298628601653 -0.0012363704054743484 -0.0012243397277169762 -0.0012561114474459497 -0.001245937890366603 -0.0012361321017442092
          -0.0012363794825604013 -0.0012305014721549214 -0.0012359090297021128 -0.0012303589573943801 -0.0012354385768438244 -0.0012302164426338386
          -0.0012505842736630565 -0.0011552966212235822 -0.0012095061438326322 -0.0012503722877369391 -0.0011549474211356497 -0.0012090028473211811
          -0.0012501603018108217 -0.0011545982210477174 -0.0012084995508097299 -0.0012042377768480955 -0.0012219187387666264 -0.0012563710824620542
          -0.001209569757627078 -0.0012050230526129157 -0.0012226585698207556 -0.001257237505757125 -0.0012104579590447718 -0.0012058083283777363
          -0.001223398400874885 -0.0012581039290521959 -0.001211346160462466 -0.001220688545267753 -0.0012470800027274101 -0.0012322932452483316
          -0.0012085247102447798 -0.0012213770636060788 -0.0012478142516497953 -0.001232999250510551 -0.0012093049232116827 -0.0012220655819444048
          -0.00124854850057218 -0.00123370525577277 -0.0012100851361785858 -0.0012641161902289498 -0.001354276880966286 -0.0013095267457690967
          -0.0012653994148920306 -0.0013556132297127372 -0.0013100132719809784 -0.0012666826395551114 -0.0013569495784591882 -0.0013104997981928605
          -0.0011242447832117003 -0.0011240229795840273 -0.0011238011759563543 -0.0014255814345200783 -0.001513594644587184 -0.001426077191679557
          -0.001514371872435201 -0.001426572948839036 -0.001515149100283218 -0.0010176313259700805 -0.001079363765108702 -0.0010175293285022897
          -0.0010792363801827593 -0.0010174273310344986 -0.001079108995256817 -0.0014900618251936222 -0.0015701187838538036 -0.0014904803764124687
          -0.001570466295422502 -0.0014908989276313153 -0.0015708138069911997 -0.0012941193976809817 -0.0013572603044091833 -0.0012986683568758338
          -0.0012344884548558316 -0.0012949465313460962 -0.001358367928050429 -0.0012997225919513002 -0.0012353897972431133 -0.0012957736650112107
          -0.0013594755516916747 -0.0013007768270267665 -0.001236291139630395 -0.0018258973606893728 -0.0018264497465295074 -0.0018270021323696425
          -0.0016766208169099973 -0.0016767397581122982 -0.001676858699314599 -0.0012855132840655595 -0.0012857186780170845 -0.0012859240719686094
          -0.0012146100842497253 -0.0012009753553507624 -0.0012148679843872918 -0.0012018578984126897 -0.0012151258845248584 -0.0012027404414746172
          -0.0017625037110105713 -0.0016007212724074168 -0.001540533255873704 -0.0017063631082363882 -0.0017630648053214115 -0.001600788329322868
          -0.001540946338700082 -0.001706996254793448 -0.001763625899632252 -0.0016008553862383187 -0.00154135942152646 -0.001707629401350508
          -0.0012081128657707918 -0.0012191066199761175 -0.001208558442692718 -0.0012193302727715677 -0.0012090040196146442 -0.0012195539255670177
          -0.001539947369833233 -0.0015411689557946388 -0.0015423905417560448 -0.0012721470418061503 -0.0012730866623309777 -0.0012740262828558053
          -0.00157904394982078 -0.0015454661060143595 -0.0015807298728437369 -0.001547261357335721 -0.0015824157958666937 -0.0015490566086570822
          -0.0012076961804596926 -0.0012106022879517485 -0.0012084034191683116 -0.0012112316420172839 -0.0012091106578769302 -0.0012118609960828195
          -0.001398487993972495 -0.001466566213107593 -0.001399964952898582 -0.0014675490867085928 -0.001401441911824669 -0.0014685319603095926
          -0.0014458248159069293 -0.0014468990546140997 -0.00144797329332127 -0.0016268708046465897 -0.0016273629229255366 -0.001627855041204483
          -0.0013771633098013888 -0.0013780463143961016 -0.0013789293189908139 -0.001410223062030961 -0.001411918817581969 -0.001413614573132977
          -0.0014502073973279353 -0.0014519407051342519 -0.0014536740129405682 -0.0015340466914300181 -0.0015273542905777815 -0.0015345665398315996
          -0.0015274882785587835 -0.001535086388233181 -0.0015276222665397856 -0.0011973744268418541 -0.0011981483087299778 -0.0011989221906181019
          -0.0012006548656926079 -0.0012240029293947474 -0.0012017304747573105 -0.0012251578322646749 -0.0012028060838220136 -0.0012263127351346019
          -0.0013350884048175032 -0.001463380183289508 -0.0013365093276489371 -0.0014647054240440934 -0.0013379302504803706 -0.0014660306647986785
          -0.0012214323418011364 -0.0012156894074327204 -0.0012215979221523647 -0.0012160890513550522 -0.0012217635025035933 -0.001216488695277384
          -0.0014265368467975092 -0.0014282439492316786 -0.0014299510516658479 -0.0015124012355518769 -0.0015123813603075877 -0.0015123614850632988
          -0.001639264715687806 -0.0016404951801633908 -0.0016417256446389754 -0.001336423833306958 -0.0014056658697328805 -0.001337451421527598
          -0.0014063907552324198 -0.0013384790097482374 -0.0014071156407319595 -0.0014386651497438818 -0.0014478240958609783 -0.0014394350343217158
          -0.0014493967301506374 -0.0014402049188995498 -0.0014509693644402964 -0.0013333699276146236 -0.001289140608436779 -0.0013530948902195988
          -0.0013343815862991867 -0.0012899469040145832 -0.0013539666121257783 -0.00133539324498375 -0.0012907531995923873 -0.0013548383340319578
          -0.0013646231420870246 -0.001365487733807238 -0.0013663523255274513 -0.0013026567415860136 -0.0012570792925894077 -0.001304754582609386
          -0.0012585223430236889 -0.0013068524236327585 -0.0012599653934579698 -0.0012284866223583424 -0.001241906375623672 -0.0012287142654859922
          -0.0012419296355294116 -0.0012289419086136421 -0.0012419528954351507 -0.0012985669169732288 -0.0012992167908619633 -0.001299866664750698
          -0.0014203934035816857 -0.0014206821549418544 -0.001420970906302023 -0.0012020562471728926 -0.00120335004061361 -0.0012046438340543276
          -0.0012135884747091516 -0.0012286104373937833 -0.0012140940939594706 -0.0012291093261941107 -0.0012145997132097892 -0.0012296082149944381
          -0.0012550890120540527 -0.0012558573239237747 -0.0012566256357934968 -0.0012114304349847252 -0.0012120261076784922 -0.0012126217803722593
          -0.0012225735818465473 -0.0012237617019640577 -0.001224949822081568 -0.0012223143940855493 -0.001222785480275332 -0.0012232565664651144
          -0.0012428184848470385 -0.0012428416228441506 -0.0012428647608412626 -0.001255739566754423 -0.0012555621817094108 -0.0012553847966643985
          -0.0008374374688857951 -0.0008372979244974452 -0.0008371583801090951 -0.0009918456727177865 -0.0009916524624618735 -0.0009914592522059602
          -0.0011165203636838374 -0.0011163118751100034 -0.0011161033865361696 -0.001208458397924639 -0.0012083195190794632 -0.0012081806402342873
          -0.0012463827573902723 -0.0012463077648041142 -0.0012462327722179561 0 0 0
          0 0 0 0 0 0
          0 0 0 0 0 0
          0 0 0 0 0 0
          0 0 0 0 0 0
          0 0 0 0 0 0
          0 0 0 0 0 0
          0 0 0 0 0 0
          0 0 0 0 0 0
          0 0 0 0 0 0
          0 0 0 0 0 0
          0 0 0 0 0 0
          0 0 0 0 0 0
          0 0 0 0 0 0
          0 0 0 0 0 0
          0 0 0 0 0 0
          0 0 0 0 0 0
          0 0 0 0 0 0
          0 0 0 0 0 0
          0 0 0 0 0 0
          0 0 0 -0.00001718365947067106 -0.000017242616721185034 -0.000017301573971699012
          0 0 0 0 0 0
          0 0 0 0 0 0
          0 0 0 0 0 0
          0 0 0 -0.0002933234162168614 -0.00029344772491457754 -0.0002935720336122938
          -0.00009547722859403431 -0.00009565309732246016 -0.00009582896605088603 -0.000013161316064861403 -0.000013226997233589385 -0.000013292678402317369
          0 0 0 0 0 0
          0 0 0 0 0 0
          0 0 0 0 0 0
          -0.0005264020945813222 -0.0005263695447469494 -0.0005263369949125767 -0.00025853521100318373 -0.0002587059395384105 -0.0002588766680736372
          -0.00006911676829117987 -0.00006929515680222522 -0.00006947354531327056 -0.000003332480628267751 -0.000003380711837665097 -0.000003428943047062443
          0 0 0 0 0 0
          0 0 0 0 0 0
          0 0 0 -0.000795382710853785 -0.0007951873884148874 -0.0007949920659759899
          -0.0004889476849611384 -0.0004889886758458837 -0.000489029666730629 -0.00019209056319307444 -0.00019233980710240767 -0.0001925890510117409
          -0.000031741601187384536 -0.00003187998922026209 -0.00003201837725313965 0 0 0
          0 0 0 0 0 0
          0 0 0 0 0 0
          -0.0009391853183978417 -0.0009389168294386236 -0.0009386483404794056 -0.0006174120861626359 -0.0006173864338174968 -0.0006173607814723576
          -0.00027227022193351195 -0.0002725432950675437 -0.0002728163682015754 -0.000056818241118233565 -0.00005699855476519399 -0.0000571788684121544
          0 0 0 0 0 0
          0 0 0 0 0 0
          0 0 0 0 0 0
          0 0 0 0 0 0
          0 0 0 0 0 0
          0 0 0 0 0 0
          0 0 0 0 0 0
          0 0 0 0 0 0
          0 0 0 0 0 0
          0 0 0 0 0 0
          0 0 0 0 0 0
          0 0 0 0 0 0
          0 0 0 0 0 0
          0 0 0 0 0 0
          0 0 0 0 0 0
          0 0 0 0 0 0
          0 0 0 0 0 0
          0 0 0 0 0 0
          0 0 0 0 0 0
          0 0 0 0 0 0
          0 0 0 0 0 0
          0 0 0 0 0 0
          0 0 0 0 0 0
          0 0 0 0 0 0
          0 0 0 0 0 0
          0 0 0 0 0 0
          0 0 0 0 0 0
          0 0 0 0 0 0
          0 0 0 0 0 0
          0 0 0 0 0 0
          0 0 0 0 0 0
          0 0 0 0 0 0
          0 0 0 0 0 0
          0 0 0 0 0 0
          0 0 0 0 0 0
          0 0 0 0 0 0
          0 0 0 0 0 0
          0 0 0 0 0 0
          0 0 0 0 0 0
          0 0 0 0 0 0
          0 0 0 0 0 0
          0 0 0 0 0 0
          0 0 0 0 0 0
          0 0 0 0 0 0
          0 0 0 0 0 0
          0 0 0 0 0 0
          0 0 0 0 0 0
          0 0 0
        </DataArray>
        <DataArray type="Float64" Name="disp_x" format="ascii" RangeMin="0.0000858999447351373" RangeMax="0.00016">
          0.00011297162103868222 0.00011028176249163603 0.00010622522229180239 0.00010678103910055712 0.0001129710193659389 0.00011028170095521317
          0.00010622520908310664 0.00010678105075780962 0.00011296928594277836 0.00011028162316399889 0.00010622515706351824 0.00010678113916336183
          0.00010378929240101714 0.00010516241728268424 0.00010854239120976291 0.00010640120331916971 0.00010378963545802408 0.00010516244794857981
          0.0001085423090387347 0.0001064015048983754 0.00010379072004672852 0.00010516250345041206 0.00010854227955432632 0.00010640268056367956
          0.00010923099136550673 0.00010567142451954701 0.00010923087124432198 0.00010567195662063814 0.00010923023143237182 0.00010567343010330588
          0.00011021129140379845 0.00011427278355869966 0.00011203315448495216 0.00011021085999233268 0.00011427124140927264 0.00011203228079119876
          0.00011020984460639843 0.00011426655004206773 0.00011202931954219085 0.00009927326925798215 0.00009723633745190183 0.00009524972225217863
          0.00009824071100554407 0.00009927307983084148 0.00009723571761336156 0.00009524874302097451 0.0000982402293821655 0.00009927262590337617
          0.00009723375632831456 0.00009524612548084563 0.00009823884388398665 0.00009859898865398921 0.00009643312132066714 0.00009693720297229748
          0.00009979131554669598 0.00009859854635238279 0.00009643230369933295 0.00009693662622909313 0.00009979126144026189 0.00009859727918976634
          0.00009643029948586381 0.00009693467232939611 0.0000997908096330014 0.00010203427562209545 0.00010232845110769802 0.00010611983253292951
          0.00010203404490658177 0.0001023273564639603 0.00010611931209519277 0.00010203336121709388 0.00010232465198491231 0.00010611715534509469
          0.00011554794755639546 0.00011554700894667383 0.00011554410068828519 0.00010629671157912829 0.0001021066341281493 0.00010629490527276597
          0.00010210447688327791 0.00010628899855028237 0.0001020979368602279 0.00011792762954445844 0.00011636583662124224 0.00011792633868564781
          0.00011636395428428944 0.00011792232238514214 0.00011635813154108668 0.00008874128068753437 0.00008727024881440134 0.00008873903921971781
          0.00008726752841340047 0.0000887319034722272 0.00008725951011849738 0.0000940012843921034 0.00009246294351996154 0.00009536294501831971
          0.00009690890603961747 0.00009399997033420611 0.00009246140522808345 0.00009536154592322074 0.00009690790760378466 0.00009399580665099887
          0.00009245690692124215 0.00009535755590639069 0.00009690475498361697 0.00009364647555245132 0.00009364437245779677 0.00009363787525581047
          0.00008591395586056465 0.00008591053550617134 0.0000858999447351373 0.00011166875947230108 0.00011166711113244704 0.00011166235267669918
          0.00010385174733960899 0.00010205912713844388 0.00010385232866847633 0.0001020594232094875 0.00010385371950504118 0.0001020605968786988
          0.00009270433651026312 0.00009541238137021327 0.00009427953125783442 0.00009158711843306284 0.00009270178905593438 0.00009541002767085093
          0.00009427631168425942 0.00009158425989567503 0.00009269482406698393 0.0000954033801216245 0.00009426638951839898 0.00009157580379651316
          0.00010228462949610296 0.0001030322026517596 0.00010228510675581038 0.00010303278539281865 0.0001022863199437616 0.00010303451600291005
          0.00008856043750392724 0.00008855727993741717 0.00008854747839444018 0.00009456210921780386 0.00009456127392665509 0.00009455897312073509
          0.00008988759976730402 0.00008938260629046136 0.00008988417038025035 0.0000893793745722339 0.0000898735033489376 0.00008936857639197232
          0.00010122862596247677 0.00010055781017053231 0.0001012289814838974 0.00010055782563043919 0.00010122995698158518 0.0001005576276731152
          0.00009670293378168106 0.00009708988243205842 0.0000966999385081855 0.00009708664246501165 0.00009669069035469725 0.00009707374656425925
          0.00008993487422245098 0.00008993272485860613 0.00008992641890555662 0.00009775466064355955 0.00009775189722199369 0.00009774301484504716
          0.00009129130682518352 0.00009128953363482367 0.00009128408817513569 0.00009918409575692542 0.00009918144714897483 0.00009917302931897904
          0.00009072212340198305 0.00009071972548658029 0.00009071293240809523 0.00008772440274478434 0.00008785413201152918 0.00008771966096146092
          0.00008785257327439944 0.00008771497271693664 0.00008784715913069968 0.00010110085424857372 0.00010110120770507464 0.0001011019643012626
          0.00009973598105413037 0.0000988313240643902 0.00009973583743440488 0.00009883037503499086 0.0000997351825915129 0.00009882712615585981
          0.00009608631722125125 0.0000933994231359286 0.00009608462144192316 0.00009339677063028281 0.00009607983270983303 0.00009338857971834102
          0.00010316181282835013 0.00010262848982779677 0.00010316234657936457 0.00010262862662146286 0.00010316362729642176 0.00010262904194458253
          0.00009230142340349199 0.00009229924676244294 0.00009229247234670419 0.00008809154207359542 0.00008809014624242724 0.00008808471310402926
          0.00009065592349784827 0.0000906526072808603 0.00009064218845871897 0.0000921751404917573 0.0000904046844479657 0.00009217364901699993
          0.00009040278643607473 0.00009216882420507728 0.00009039645112193693 0.00008999424688143895 0.00008992577703654804 0.0000899920140714659
          0.00008992689364968838 0.00008998597919434861 0.00008992127082326713 0.00009233821891333244 0.00009429459588083521 0.00009214618414520601
          0.00009233676924588635 0.00009429378532356394 0.00009214442455201315 0.00009233209218685999 0.00009429052805459128 0.0000921395899267049
          0.00009203905300239451 0.00009203788780285626 0.00009203318143646566 0.0000992259455322698 0.00009884478184935958 0.00009922465839301697
          0.00009884374999716718 0.00009922077205797917 0.00009884007911334902 0.0001048108502358819 0.00010592248015872884 0.00010481122551837353
          0.00010592284821998249 0.00010481181199116633 0.00010592402194475339 0.00009406826713420605 0.00009406707393447008 0.00009406354658488357
          0.00009022427212297835 0.00009022242324062553 0.00009021601989697818 0.00010077082129475913 0.00010077080225479028 0.00010077024177187181
          0.00009989517365336418 0.00009798039745766032 0.00009989490371686813 0.00009798008967896134 0.0000998938501604913 0.00009797865093060865
          0.00009604256185033501 0.00009604203947086677 0.00009603982019184129 0.00010179501152833015 0.0001017951605695901 0.00010179505096160246
          0.00010137011718215635 0.00010137002531366483 0.00010136911381632304 0.00010369564550307695 0.00010369636052127424 0.00010369814269978685
          0.00010561803850469027 0.0001056188177071083 0.00010562130505300572 0.00010757959939132345 0.00010757987446919052 0.00010758027392946136
          0.00012320009696589838 0.00012319890709960047 0.00012319534899584745 0.0001212733386475682 0.00012127246080572984 0.00012126979568162295
          0.00011903498210984131 0.00011903439684987612 0.00011903254334887159 0.00011655993821671246 0.00011655970111327859 0.00011655888387249928
          0.00011396853978221262 0.0001139686115834921 0.00011396871337784996 0.00013515301213300472 0.00013510194792489005 0.000135152976144297
          0.00013510191124601527 0.00013515288642289446 0.0001351018238296331 0.00013702947525651133 0.00013696182139107105 0.00013702939486544036
          0.000136961746195286 0.0001370291455806147 0.00013696151091507365 0.0001389016986263245 0.00013882113137744713 0.00013890160948471802
          0.00013882104449693851 0.000138901345278729 0.00013882078758655349 0.00014077475865465999 0.00014068555470950724 0.00014077466144990912
          0.00014068546052260512 0.00014077436906702242 0.00014068517721350967 0.00014264982198733045 0.00014255747743082464 0.00014264972355406856
          0.0001425573816338969 0.00014264942936035522 0.00014255709560280112 0.00014452541931182103 0.0001444366357179703 0.00014452532413603472
          0.0001444365434933091 0.0001445250386851124 0.00014443626672315825 0.00014639826639041483 0.00014632097338466163 0.00014639817982136069
          0.00014632088872753083 0.00014639792016691902 0.00014632063481390651 0.00014826430238169998 0.00014820752828571715 0.00014826422466510122
          0.00014820745209624046 0.00014826399124140996 0.00014820722308680207 0.00013526018032096023 0.00013526009079123255 0.00013525982785706186
          0.00013716516957096994 0.00013716509151089402 0.0001371648573597045 0.00013906211649592076 0.00013906201439484474 0.00013906170778771806
          0.00014095449682920372 0.00014095439059708746 0.00014095407368791432 0.00014284237301758648 0.00014284226716686614 0.00014284195037753402
          0.00014472259009467586 0.00014472248788262982 0.00014472218149428034 0.0001465901286728048 0.00014659003859818657 0.00014658976897757397
          0.00014843924513215784 0.00014843916406418413 0.0001484389209160684 0.00013543486183860835 0.0001354347461059618 0.0001354343697611439
          0.00013738254461258503 0.00013738244832294273 0.00013738217466968182 0.00013931572089910654 0.00013931560218387437 0.00013931523989517113
          0.00014123859348811766 0.0001412384726371351 0.00014123811322643367 0.0001431489314479542 0.0001431488129731386 0.00014314845822077448
          0.000145041412879837 0.00014504129877030827 0.0001450409565528521 0.00014690906790262994 0.00014690897180523696 0.0001469086842262494
          0.00014874434649851645 0.00014874425998632674 0.00014874400049551124 0.00013570113415287463 0.00013570113261477792 0.00013570114745090688
          0.00013770246927791033 0.00013770229848007276 0.00013770175904474319 0.00013968530510026912 0.0001396851771312221 0.00013968480856188853
          0.00014165069612199417 0.00014165055022955322 0.0001416501054867113 0.00014359252739826815 0.00014359239322592158 0.0001435919946147115
          0.0001455033938516304 0.0001455032630715413 0.00014550286888741315 0.00014737476361227292 0.00014737466124829245 0.00014737435660947665
          0.0001491975235354339 0.00014919743122272086 0.00014919715539726366 0.00013608463189899157 0.00013608447864866074 0.00013608409491882038
          0.00013815606920018913 0.00013815599247383973 0.00013815576499107138 0.00014020597574341214 0.00014020575697505034 0.00014020508220028707
          0.00014222501505635756 0.00014222486395311688 0.00014222442253166966 0.00014420483829275768 0.0001442046790548054 0.0001442041967949597
          0.00014613675672180671 0.00014613660519098394 0.0001461361497171494 0.00014801182717575858 0.0001480117142462278 0.00014801137426335902
          0.00014981935101447715 0.0001498192492544432 0.0001498189425623352 0.00013407904697451458 0.0001340771410002573 0.00013407135259812286
          0.00013662430758540003 0.00013662327787778607 0.0001366201705605259 0.0001387974383713577 0.00013879726793862652 0.0001387968138457869
          0.0001409256096531645 0.00014092543007885162 0.00014092488240105314 0.00014300507536098596 0.00014300486155122475 0.0001430042119648427
          0.00014502388451527115 0.00014502371333610206 0.00014502320616549202 0.00014697479250526694 0.00014697460973727574 0.0001469740539628328
          0.0001488471239082481 0.00014884701509900356 0.00014884669928060296 0.0001506280229790842 0.0001506279249034051 0.00015062763696287556
          0.00013392503557012282 0.0001339230664357451 0.00013391720298445403 0.0001371729390410906 0.00013717093248055744 0.00013716489346743413
          0.00013969656732929097 0.00013969559211321847 0.00013969262939984346 0.00014189701381214572 0.00014189684469859771 0.00014189638827891954
          0.00014403652492965728 0.00014403635484694716 0.00014403582586321168 0.00014609495428201649 0.00014609473172012052 0.00014609406601253058
          0.00014805697787063061 0.00014805674635177252 0.00014805604183508607 0.0001499102183258478 0.00014991005860310222 0.00014990957298068687
          0.00015163297875714734 0.00015163284185555878 0.000151632424422272 0.0001334958651989109 0.00013349390836599195 0.00013348806128972811
          0.0001376259135308985 0.00013762329061269455 0.00013761540639980417 0.0001407590986421702 0.00014075707875745895 0.00014075102651564498
          0.0001431690416380364 0.00014316843845534898 0.00014316668412100054 0.00014537248383692273 0.00014537235749944913 0.0001453720142607596
          0.00014747490819482463 0.00014747464715997042 0.00014747385314317472 0.00014944244517696017 0.00014944214975643464 0.00014944126311058152
          0.00015123224618643092 0.000151232174751479 0.0001512320018300202 0.00015280854729432563 0.00015280848181192143 0.00015280829775168276
          0.00013283016556579644 0.0001328281300262059 0.00013282203927843892 0.00013799759450634877 0.00013799422662916352 0.0001379840506535896
          0.00014188549103030042 0.00014188243354425122 0.00014187310659217035 0.00014472387623769457 0.00014472247352742378 0.00014471812512957476
          0.00014707315094667826 0.00014707287419842932 0.0001470720655471401 0.00014927939285387887 0.0001492790581160324 0.00014927806377719864
          0.0001512583563110043 0.00015125776798412401 0.0001512559384321129 0.0001528879980681739 0.00015288771890019677 0.00015288687385059326
          0.0001540478053922402 0.00015404777466645453 0.00015404767059015183 0.00014952641562810022 0.0001495792341892049 0.0001495263474398393
          0.0001495791644502212 0.00014952614144494176 0.00014957895399433894 0.00014974129098143285 0.00014974121714808047 0.00014974099404108993
          0.0001500222752125931 0.00015002219508120356 0.0001500219527648295 0.00015043610101693835 0.00015043601269923096 0.00015043574424745097
          0.0001509972528797751 0.00015099715714713625 0.00015099686619614606 0.0001517151342083923 0.00015171502573371767 0.00015171468709426525
          0.00015258042272115667 0.00015258032622215422 0.0001525800330742908 0.00015354497200811615 0.00015354483079401557 0.00015354434409517003
          0.0001543288068026854 0.00015432911299095823 0.0001543300479714312 0.00015084406049824316 0.00015089213535847174 0.00015084400035815968
          0.00015089207453753553 0.00015084381774341644 0.00015089189060362498 0.00015103918335343742 0.000151039121545833 0.00015103893539267997
          0.00015129288409261138 0.00015129282152317178 0.00015129263422912636 0.00015166374987058852 0.0001516636882828605 0.00015166350584590405
          0.0001521613070263715 0.00015216125144040438 0.00015216108991487968 0.00015278700979907766 0.00015278696894850024 0.00015278685569803535
          0.00015352035132325476 0.00015352036343464434 0.00015352041884489118 0.00015428022853788734 0.0001542803217064217 0.00015428063053669287
          0.00015478097179352215 0.00015478150800633082 0.0001547832011197267 0.00015215963000272581 0.00015220226894067308 0.0001521595784397327
          0.00015220221687085007 0.000152159421754422 0.00015220205905892053 0.00015233239689458304 0.0001523323441103794 0.0001523321838598828
          0.00015255596925000487 0.00015255591618371978 0.0001525557545289318 0.0001528806686840815 0.00015288061718929431 0.0001528804597225932
          0.00015331190458718779 0.0001533118588356479 0.0001533117177498939 0.00015384532382672236 0.0001538452961827515 0.0001538452077587436
          0.00015445093557688646 0.0001544509430068727 0.00015445095503490417 0.0001550340983543958 0.00015503418679071776 0.00015503442942279845
          0.00015536341383604502 0.0001553636505025538 0.0001553643091909049 0.00015347256895471704 0.000153509148016872 0.00015347252606320123
          0.0001535091049321483 0.0001534723953704649 0.0001535089739326622 0.0001536205888895429 0.00015362054584591885 0.00015362041499249142
          0.0001538113865961195 0.0001538113445392244 0.0001538112168665801 0.0001540868806439316 0.00015408684185763962 0.00015408672441778135
          0.00015444931997897536 0.0001544492898522745 0.00015444919931126337 0.00015489022428396684 0.00015489021245969215 0.00015489017794239628
          0.00015537481634899438 0.00015537484045324487 0.00015537491760991357 0.00015581324179563026 0.00015581332911734634 0.00015581359663820247
          0.00015603262738713314 0.00015603282023927286 0.0001560334272311289 0.00015478263195212893 0.0001548126035710483 0.0001547825979368396
          0.0001548125694976409 0.0001547824937221171 0.00015481246526042816 0.00015490379234227858 0.00015490375871211892 0.00015490365547259858
          0.00015505946409401493 0.0001550594318952476 0.0001550593329788704 0.00015528309903344256 0.0001552830707436056 0.0001552829833204816
          0.00015557474085028255 0.00015557472117657553 0.00015557465921933706 0.0001559239097231931 0.0001559239066039441 0.00015592389438189326
          0.00015629671269651725 0.00015629673875796845 0.00015629681378595127 0.00015661770590525052 0.00015661777877291989 0.00015661799268696405
          0.00015676384028859882 0.00015676397108451012 0.00015676435222949507 0.0001560898989028906 0.00015611280194731793 0.0001560898737279236
          0.00015611277679259775 0.00015608979600255902 0.0001561126991698111 0.00015618241532445307 0.00015618239079228074 0.00015618231457642992
          0.0001563009805789527 0.00015630095754050173 0.00015630088598158584 0.00015647058083401687 0.0001564705613337873 0.0001564705005076116
          0.000156690061821414 0.00015669004953406535 0.0001566900105922835 0.00015694924525419692 0.00015694924619112668 0.00015694924698476804
          0.00015721955442161043 0.00015721957725035285 0.0001572196445432456 0.0001574438287059129 0.00015744388266525434 0.00015744404395456684
          0.00015753869369606146 0.00015753878126499907 0.0001575390486068892 0.0001573947549630608 0.0001574102292828163 0.0001573947383680197
          0.00015741021280433803 0.00015739468687774296 0.00015741016144406732 0.00015745723221661438 0.00015745721637168395 0.00015745716630330246
          0.0001575371519960615 0.00015753713734886502 0.00015753709107003017 0.00015765109483443333 0.00015765108277700834 0.00015765104455889718
          0.00015779766542918668 0.00015779765851908748 0.00015779763584614176 0.0001579689452669193 0.00015796894760101914 0.00015796895236335637
          0.00015814456343401115 0.00015814458036047675 0.00015814462884501977 0.00015828658581825295 0.00015828662180669432 0.0001582867280951261
          0.00015834353073316052 0.00015834358598562198 0.00015834375120036062 0.00015869784409595238 0.00015870564346430517 0.0001586978359641536
          0.00015870563552182308 0.0001586978104476676 0.00015870561016508735 0.00015872932561883306 0.0001587293181398033 0.0001587292936298978
          0.00015876955104265764 0.0001587695440909839 0.00015876952161277902 0.0001588267801675688 0.0001588267745307139 0.00015882675630569156
          0.0001589001157406437 0.00015890011292463125 0.00015890010286483857 0.00015898525809699725 0.00015898526000953424 0.00015898526390981083
          0.00015907166641897536 0.00015907167545378762 0.00015907170094896778 0.0001591405020544077 0.00015914051993280717 0.00015914057268987623
          0.00015916721135877157 0.000159167237624083 0.0001591673173740035 0.00016 0.00016 0.00016
          0.00016 0.00016 0.00016 0.00016 0.00016 0.00016
          0.00016 0.00016 0.00016 0.00016 0.00016 0.00016
          0.00016 0.00016 0.00016 0.00016 0.00016 0.00016
          0.00016 0.00016 0.00016 0.00016 0.00016 0.00016
          0.00016 0.00016 0.00016
        </DataArray>
        <DataArray type="Float64" Name="disp_y" format="ascii" RangeMin="-0.00002681261557408071" RangeMax="0">
          -0.000012061672041901729 -0.000014397386363555822 -0.00001651172032499656 -0.000015682768447446866 -0.000012061274504114579 -0.000014397259281917105
          -0.000016511964153504412 -0.00001568289571758114 -0.000012060048356215743 -0.000014396794151818185 -0.000016512755336165922 -0.000015683085643150604
          -0.000015731600994228548 -0.000014486394881524274 -0.000012838874397775304 -0.000014561991636775154 -0.000015732096561299163 -0.000014486885815593902
          -0.000012838928818596728 -0.000014562258213542156 -0.00001573361985646411 -0.000014488240491566805 -0.000012839049432815043 -0.000014562910049464081
          -0.000013404914779454905 -0.000015763540747769307 -0.000013404869903260056 -0.000015763674278515924 -0.000013404989416411112 -0.000015764339112669152
          -0.000011248136278135677 -0.00000931083843762047 -0.00001126968897227718 -0.000011247991502652465 -0.000009310298461918428 -0.000011269339964366866
          -0.00001124767630295409 -0.000009308544742923861 -0.000011268421993427514 -0.00001968632723631353 -0.000020907165140915243 -0.000021795861303981767
          -0.000019908572931954652 -0.00001968616992024937 -0.00002090680820963217 -0.0000217954680719996 -0.00001990844099605525 -0.000019685740362878113
          -0.00002090550115845849 -0.00002179426198241821 -0.00001990768421031428 -0.000020866759490154056 -0.00002195373690398109 -0.00002133253203003051
          -0.0000198288396103862 -0.00002086642450102596 -0.00002195325132623823 -0.00002133208057949085 -0.00001982867325263964 -0.0000208652487403881
          -0.000021951718785633106 -0.00002133079568847672 -0.00001982827740230152 -0.00001605529423121294 -0.000015259570765171133 -0.000013331344169407564
          -0.000016056179752998632 -0.000015261085334847185 -0.00001333210956558053 -0.000016058879941218473 -0.000015265615479945056 -0.000013334409634161428
          -0.000009805216982328095 -0.0000098043951484618 -0.000009801943536887098 -0.000012431611738339768 -0.000014466090198979701 -0.000012433163141919693
          -0.000014468146473059604 -0.000012438114425694662 -0.000014474910028532445 -0.000007683586142574819 -0.000007413568714536396 -0.000007682597240289637
          -0.000007412780386483072 -0.000007679737393446143 -0.000007410548852640479 -0.000025268617406806174 -0.000025714126576593968 -0.00002526743344897093
          -0.00002571342465571783 -0.000025263995967970828 -0.00002571078368170678 -0.000022063209774260136 -0.000022528369372959392 -0.000020609029865142882
          -0.000020277580669078266 -0.000022062766384338793 -0.000022528094934660077 -0.000020609042454074434 -0.000020277321064629587 -0.00002206161813013732
          -0.000022527305653925685 -0.00002060900519887065 -0.00002027665399277899 -0.000017063208399553195 -0.000017064489689979522 -0.0000170688330210739
          -0.00002602816825127724 -0.000026027859400078428 -0.000026026989398529483 -0.000009554147611539237 -0.000009554224002540994 -0.000009554411849332236
          -0.000016355576458446165 -0.000017028370248664546 -0.000016355757277187598 -0.000017028636112818815 -0.00001635655952718089 -0.000017029356179689572
          -0.000018673859982635284 -0.00001823585486337346 -0.00001952971409708162 -0.000020250150996746784 -0.000018674743067966937 -0.00001823711420835888
          -0.00001953136853858858 -0.00002025126326175813 -0.000018677012316887647 -0.000018240589790488544 -0.000019537263714392564 -0.000020254525972092584
          -0.00001787508872236598 -0.000017884321440866353 -0.00001787513241534285 -0.00001788444762964794 -0.000017875378924787077 -0.000017884922716813604
          -0.00002447430117553701 -0.000024473928764671624 -0.000024472942623937444 -0.000022572825962404645 -0.000022572098316475028 -0.00002257036976152764
          -0.000022832614521076492 -0.000023521142057429277 -0.000022833253126694914 -0.000023521088374956168 -0.00002283526328845209 -0.000023521671392454298
          -0.00001928835375816452 -0.00001990395563067973 -0.00001928830153205546 -0.000019903873991095383 -0.000019288612931156597 -0.00001990341047043186
          -0.00001862099345905746 -0.000017900083384583568 -0.00001862220406840477 -0.000017901436773661957 -0.000018626105553528863 -0.00001790574100621199
          -0.00002411288515062536 -0.00002411230659613841 -0.000024110382352075807 -0.000016381613387770153 -0.000016383461431228658 -0.000016388711876242104
          -0.00002371216455652597 -0.00002371140728801849 -0.000023709340626597857 -0.000016825325863843798 -0.000016826712196703807 -0.00001683152551855734
          -0.000023102121558668608 -0.00002310187742652527 -0.000023100958594391598 -0.00002681261557408071 -0.000026445922618028175 -0.00002681230972306152
          -0.00002644466471898365 -0.000026808461490031856 -0.000026440925578044314 -0.000018139453364116058 -0.000018139392508122576 -0.000018139514474319778
          -0.00001853411833735223 -0.00001865309995483507 -0.000018534066810449526 -0.000018653253747997653 -0.000018534054367022686 -0.000018653721893464066
          -0.000019548678163415537 -0.0000207209908695221 -0.00001954904396674587 -0.00002072212838894332 -0.000019550202482695437 -0.0000207257542598551
          -0.000018204281379297135 -0.000018852369080436032 -0.00001820439183466087 -0.000018852589767613135 -0.00001820506915497805 -0.000018853345760673162
          -0.00002189366981740779 -0.000021893824593384418 -0.000021894383678221868 -0.00002601036198333635 -0.00002600873333769074 -0.000026004791022090288
          -0.000021677179363144077 -0.00002167823610699012 -0.000021681810106518368 -0.000023536415912311484 -0.000024572789193037263 -0.000023535628710899467
          -0.000024571911498962414 -0.000023533877742239185 -0.000024568515226889608 -0.000025308510679040917 -0.000025643724441477752 -0.000025306937072597996
          -0.000025641692393400214 -0.00002530371755482894 -0.000025635556786162787 -0.00002375389294629744 -0.000023054670380876302 -0.000024170500262468675
          -0.000023752798376478974 -0.000023053715098830476 -0.00002416944558472129 -0.000023749556942951988 -0.000023051291999836735 -0.00002416526983951619
          -0.000024543842479015304 -0.00002454304902961279 -0.000024540210431968883 -0.000017433908374289627 -0.000018175121158748654 -0.000017434638635685838
          -0.000018175322287189244 -0.000017436298347948008 -0.00001817592450901646 -0.000017726032111015354 -0.000017246507245310534 -0.000017726240301071494
          -0.000017246479650613695 -0.000017727200329815807 -0.00001724643928695702 -0.000023506738911861268 -0.000023505726101127645 -0.00002350316264207891
          -0.000024889553183279303 -0.000024888454422221917 -0.00002488489654876564 -0.00001752383765828366 -0.000017523900984165074 -0.000017524445666107842
          -0.000020587292949165815 -0.000021539672724932775 -0.00002058708716502766 -0.00002153915770653672 -0.00002058670285334979 -0.000021538052587731786
          -0.000022508017165958344 -0.000022507457714246306 -0.00002250565626875834 -0.000019644338046268943 -0.000019644544867831982 -0.00001964554318657362
          -0.000016895784482301 -0.000016896107847616212 -0.000016897781198954196 -0.000018691540450699385 -0.000018691780868358098 -0.000018692769346022988
          -0.000017736886343760855 -0.00001773645241119526 -0.000017735555989275373 -0.000016770693148785927 -0.000016770300480958397 -0.000016769367711056016
          -0.000005192098528343085 -0.000005190814464927895 -0.0000051869490492777715 -0.000007022011902591762 -0.000007020966107062389 -0.000007017847850670813
          -0.0000090820358360596 -0.000009081217018886058 -0.000009078829250137455 -0.000011322487705160742 -0.00001132193668916629 -0.000011320341486886555
          -0.000013673572491835985 -0.00001367315224273822 -0.000013672093837336448 -3.252872985848883e-7 0 -3.2526447083933247e-7
          0 -3.251936162921982e-7 0 -3.594256268879076e-7 0 -3.5940858807566707e-7
          0 -3.593590308845798e-7 0 -4.141436740928755e-7 0 -4.141322184202828e-7
          0 -4.1409749570645354e-7 0 -4.844677372913468e-7 0 -4.844624964846788e-7
          0 -4.844466100931376e-7 0 -5.657797636273819e-7 0 -5.657799414714869e-7
          0 -5.657802213014428e-7 0 -6.54152277453037e-7 0 -6.541573321930287e-7
          0 -6.541723466491754e-7 0 -7.462833315455892e-7 0 -7.46292890532384e-7
          0 -7.463215276809881e-7 0 -8.3960817298359e-7 0 -8.396199692497455e-7
          0 -8.396551499261336e-7 0 -6.512038983649342e-7 -6.511672525002307e-7 -6.510688692811942e-7
          -7.204948454681941e-7 -7.20459118559724e-7 -7.203457760522072e-7 -8.313493041377061e-7 -8.313314557948238e-7 -8.312793696251877e-7
          -9.728155341412966e-7 -9.728088171057863e-7 -9.727884813621308e-7 -0.0000011353381200702357 -0.0000011353426339209354 -0.0000011353561941938116
          -0.0000013108554989420154 -0.000001310869054111592 -0.0000013109097004744927 -0.0000014928031383020167 -0.000001492825031528964 -0.0000014928907663391892
          -0.0000016759770071966167 -0.0000016760026157152433 -0.000001676079352917868 -9.770751476088137e-7 -9.76967098124315e-7 -9.766244664215866e-7
          -0.000001083361267484274 -0.000001083326608657952 -0.000001083236744356181 -0.0000012521392850783024 -0.0000012521095211793808 -0.0000012520165172811225
          -0.0000014658386283149027 -0.0000014658320254933628 -0.0000014658136940074426 -0.0000017088202668579102 -0.0000017088293573485866 -0.000001708856245545743
          -0.0000019690842825107307 -0.000001969107713016532 -0.000001969177334002916 -0.000002236900371779098 -0.000002236936731396284 -0.000002237044914005176
          -0.000002504140175667198 -0.0000025041819780843668 -0.0000025043054545781576 -0.0000013025000828442027 -0.000001302493688275014 -0.0000013024671923106032
          -0.0000014466901118642032 -0.0000014465916895896542 -0.000001446279134513126 -0.0000016767903676154392 -0.0000016767694240518384 -0.0000016767136588168747
          -0.0000019629315308842318 -0.0000019629256049837915 -0.000001962904735770502 -0.000002283710544683069 -0.000002283729661595722 -0.0000022837871036031217
          -0.000002624376120786578 -0.000002624414373576135 -0.0000026245288158550006 -0.000002972338172197741 -0.0000029723953436070874 -0.0000029725683409774286
          -0.0000033156648253619326 -0.000003315730080862243 -0.000003315927548905237 -0.0000016181557738533734 -0.0000016180788316322023 -0.0000016179394947443492
          -0.0000018107715410714761 -0.0000018107514752631464 -0.0000018106933130902874 -0.000002105018722810644 -0.0000021049751945732653 -0.0000021048428360131706
          -0.000002460451235334624 -0.000002460464132603238 -0.00000246050849951979 -0.000002852460980883951 -0.000002852494534764352 -0.000002852594781533073
          -0.0000032666178239174148 -0.0000032666752135504153 -0.0000032668459392241136 -0.000003687402025679779 -0.0000036874822382367288 -0.0000036877193587881942
          -0.000004096947992009592 -0.000004097033738765212 -0.000004097283499832451 -0.0000021374536294119122 -0.0000021356327462022587 -0.0000021300764686623526
          -0.0000019437571360066893 -0.0000019427792633582095 -0.0000019398128548257227 -0.0000021728144950125864 -0.0000021727358978128417 -0.0000021725453944928504
          -0.000002534287735837425 -0.00000253429906699797 -0.000002534319533228324 -0.0000029482172518680423 -0.0000029482267350578554 -0.000002948250477696054
          -0.0000033996629295493436 -0.000003399713393580517 -0.0000033998641553566546 -0.000003877292346431878 -0.000003877378644300924 -0.000003877638231354506
          -0.000004362346737277623 -0.000004362483259642948 -0.000004362901941422637 -0.000004826865735372611 -0.000004827023815749431 -0.000004827508795471012
          -0.000002977475170166947 -0.0000029756493425329493 -0.0000029702105035075744 -0.0000024261740826451888 -0.0000024246234025954087 -0.0000024199022049818068
          -0.000002535049075114925 -0.0000025345957105300768 -0.0000025332698303533737 -0.0000029542981149442837 -0.0000029544246849047275 -0.0000029548477329792603
          -0.0000034083310153205685 -0.000003408381760591399 -0.0000034085262067711113 -0.000003899501445033702 -0.000003899579826450005 -0.000003899818959530735
          -0.000004425780891309187 -0.00000442588414996279 -0.000004426189825887308 -0.00000496614142897931 -0.000004966283254636342 -0.000004966701087954961
          -0.000005472931465651752 -0.000005473055544276556 -0.000005473408779049197 -0.000004238228062836717 -0.0000042358883652145115 -0.000004228855049049491
          -0.000003237644413318567 -0.000003235627228242197 -0.000003229619966206186 -0.0000030093579263552587 -0.000003008191728021868 -0.0000030046811136854015
          -0.000003348236447368865 -0.0000033479992273152193 -0.0000033473446009237484 -0.000003820854866247517 -0.000003820912605779162 -0.000003821100382102007
          -0.0000043141283924715005 -0.0000043141798950147805 -0.000004314329969744997 -0.000004858920417101136 -0.000004859089617259246 -0.00000485960249386261
          -0.000005435819337635681 -0.0000054361684611334835 -0.000005437230774639909 -0.000005977240307873986 -0.000005977714938078087 -0.000005979131408049599
          -0.000005979872134603955 -0.000005976509998168898 -0.000005966356495852531 -0.000004471239515622495 -0.0000044685001840649965 -0.0000044601930395517275
          -0.0000037361273239945406 -0.0000037343856802357165 -0.0000037290125277992256 -0.000003765402738269626 -0.00000376483020131557 -0.000003763014557555164
          -0.000004162818899547255 -0.000004162833511328391 -0.000004162874075559624 -0.000004589488088660054 -0.000004589483908131707 -0.000004589464310806363
          -0.000005075096328035403 -0.000005075344636950736 -0.0000050760863462590835 -0.000005622158594916025 -0.000005622799019007395 -0.0000056247218465806194
          -0.000006243374724586383 -0.000006244316310383134 -0.00000624718910771521 0 -8.704701386514397e-7 0
          -8.7048408144535e-7 0 -8.705258273263268e-7 -0.0000017361092949543025 -0.0000017361389094058556 -0.0000017362279601127244
          -0.000002590568276217627 -0.000002590615769988603 -0.0000025907576080721013 -0.0000034246546425555892 -0.000003424727175122685 -0.0000034249468609276063
          -0.000004225084332632699 -0.000004225180492987969 -0.000004225466049131082 -0.000004972528576132524 -0.00000497269348887693 -0.0000049731971380097854
          -0.000005640044357754352 -0.00000564021420743995 -0.000005640719125026588 -0.000006184851399074783 -0.000006185288411546743 -0.000006186612275744288
          -0.000006525512980916455 -0.00000652629974692882 -0.000006528675846564292 0 -8.961858502082079e-7 0
          -8.962005723019248e-7 0 -8.962446500484545e-7 -0.0000017857582449941321 -0.0000017857888057255338 -0.000001785880452398932
          -0.0000026607870771923803 -0.000002660835911482376 -0.0000026609823648337845 -0.0000035108739745449534 -0.0000035109447137362165 -0.0000035111569950863337
          -0.000004322037939933835 -0.000004322136266459262 -0.000004322431216952452 -0.000005075244815500421 -0.0000050753837843086116 -0.000005075800892099021
          -0.000005744801244368078 -0.000005744977717617266 -0.000005745508311774009 -0.000006284390114018957 -0.000006284668822230687 -0.000006285495958800021
          -0.000006656335645853702 -0.000006656692921320318 -0.000006657766404551096 0 -9.169298343403323e-7 0
          -9.169449876937341e-7 0 -9.169905164324263e-7 -0.0000018253649888188098 -0.0000018253961865001444 -0.0000018254899603982522
          -0.0000027156141799071606 -0.000002715663167666328 -0.000002715810274577623 -0.0000035757084884289487 -0.0000035757779812305566 -0.000003575986973197972
          -0.000004390373693647263 -0.000004390467242576791 -0.000004390748384414046 -0.000005139865825806581 -0.0000051399887603664525 -0.000005140358467679859
          -0.000005796977925443852 -0.000005797131183537245 -0.00000579759144263009 -0.000006325034696932244 -0.000006325220383097428 -0.0000063257771730016294
          -0.000006719941134886849 -0.000006720141637108608 -0.0000067207468448753806 0 -9.331010036672915e-7 0
          -9.331163612818544e-7 0 -9.331624727982133e-7 -0.0000018558266869903267 -0.0000018558579351464724 -0.000001855951872421479
          -0.000002756660183782773 -0.0000027567084249932125 -0.0000027568534865522776 -0.0000036219126745641722 -0.0000036219794305413683 -0.0000036221802687390716
          -0.000004434852289486823 -0.000004434938965472288 -0.000004435199822838553 -0.000005174740361047917 -0.0000051748477140171855 -0.000005175170126999112
          -0.0000058161915048557515 -0.000005816317341018149 -0.000005816695788030589 -0.000006336107059829387 -0.000006336231080674055 -0.000006336601622202949
          -0.000006749778217298885 -0.000006749890249594905 -0.000006750225849207692 0 -9.452240559821545e-7 0
          -9.452394160148103e-7 0 -9.452855251500384e-7 -0.0000018783092403705862 -0.000001878340127174126 -0.0000018784331503694642
          -0.0000027859987155210754 -0.000002786045676403874 -0.000002786187090630489 -0.0000036529646928282168 -0.0000036530282048142945 -0.000003653219350390858
          -0.000004461163808782161 -0.000004461243453873873 -0.0000044614832041335255 -0.00000518976839448445 -0.0000051898619460203244 -0.000005190143120139346
          -0.00000581744103035475 -0.000005817542668513771 -0.000005817848656396149 -0.000006332930411469346 -0.000006333015383701868 -0.0000063332695618573405
          -0.00000676178773824129 -0.0000067618518294081285 -0.000006762043772065047 0 -9.538725883800194e-7 0
          -9.538878132080828e-7 0 -9.539335486832524e-7 -0.0000018940817006147406 -0.0000018941120900904182 -0.0000018942036216505693
          -0.0000028058635194425303 -0.0000028059091513662235 -0.0000028060465150063267 -0.0000036725011921712036 -0.0000036725616135629082 -0.0000036727433980232024
          -0.000004475054537936756 -0.000004475127951355653 -0.0000044753490437193405 -0.000005193411155635726 -0.000005193493341177176 -0.000005193740547375644
          -0.0000058106445470889146 -0.000005810727717988782 -0.000005810978533399429 -0.0000063242325020009935 -0.000006324292526537431 -0.000006324472203114376
          -0.000006764769717542508 -0.000006764806941962293 -0.000006764918423809341 0 -9.59591778915355e-7 0
          -9.596068504562526e-7 0 -9.596521048164892e-7 -0.0000019043455946130373 -0.0000019043755639039613 -0.0000019044656780997364
          -0.0000028183389243451214 -0.0000028183834173379957 -0.000002818517281007974 -0.0000036838311198620438 -0.0000036838889727563507 -0.0000036840631162709066
          -0.000004481398999253615 -0.000004481467546103407 -0.00000448167417445419 -0.0000051919192756516495 -0.000005191993099119484 -0.0000051922153611992486
          -0.000005802098377951418 -0.000005802168819762041 -0.000005802381711702372 -0.00000631512658098816 -0.00000631517130681904 -0.000006315305733887411
          -0.000006763907608635865 -0.000006763928830691044 -0.0000067639938616935095 0 -9.628284577032308e-7 0
          -9.628434410011626e-7 0 -9.628883424794865e-7 -0.0000019100796063982047 -0.0000019101093591072504 -0.000001910198613538433
          -0.000002825102595476548 -0.0000028251463577524573 -0.0000028252779561700215 -0.000003689541496885815 -0.0000036895977124225703 -0.0000036897668742759237
          -0.000004483771511363361 -0.0000044838371373302485 -0.000004484034715282893 -0.000005189457100098512 -0.000005189526058208084 -0.000005189733321686018
          -0.000005795616337618598 -0.0000057956796082162475 -0.000005795870749565344 -0.0000063086111106242725 -0.0000063086477973420545 -0.000006308757973383941
          -0.0000067622923205621424 -0.00000676230523257135 -0.000006762346430386226 0 -9.638741295479275e-7 0
          -9.638890299950586e-7 0 -9.639338005302475e-7 -0.0000019119188971397334 -0.0000019119482505792775 -0.000001912036984984042
          -0.0000028272345286216605 -0.0000028272775843497336 -0.000002827408036299227 -0.000003691261082423136 -0.000003691316455609602 -0.0000036914836587568552
          -0.000004484324541109436 -0.000004484388962697577 -0.000004484583299022283 -0.000005188383943968562 -0.0000051884508397261525 -0.000005188652769050931
          -0.000005793243393698929 -0.000005793303565749808 -0.000005793487048472536 -0.000006306276429501694 -0.000006306309381601264 -0.000006306411037310306
          -0.000006761582386829411 -0.000006761591427435584 -0.000006761624097481963
        </DataArray>
        <DataArray type="Float64" Name="disp_z" format="ascii" RangeMin="-6.611138147024158e-7" RangeMax="0">
          0 0 0 0 -2.400677302959617e-7 -2.446053378383555e-7
          -2.450562339596304e-7 -2.466908892345099e-7 -4.800414341365762e-7 -4.891907229190332e-7 -4.900031690245605e-7 -4.93160180325413e-7
          0 0 0 0 -2.40695190189562e-7 -2.4633605040235736e-7
          -2.466685138156372e-7 -2.4442856934416465e-7 -4.814977278620668e-7 -4.927570891881369e-7 -4.930847150219007e-7 -4.886781692788456e-7
          0 0 -2.475810477412412e-7 -2.4330128584521174e-7 -4.94965756968245e-7 -4.864922853765885e-7
          0 0 0 -2.4591977550259436e-7 -2.3655494866560335e-7 -2.436235712609481e-7
          -4.915870622278214e-7 -4.7302668883615466e-7 -4.87037806500892e-7 0 0 0
          0 -2.3653445360770394e-7 -2.405655408729503e-7 -2.449813046338833e-7 -2.3705449993293168e-7 -4.7332100809332943e-7
          -4.81361410744544e-7 -4.902696556957812e-7 -4.7445154649805205e-7 0 0 0
          0 -2.407033450180598e-7 -2.436688061938568e-7 -2.420936413621475e-7 -2.3713336302054254e-7 -4.816542775975818e-7
          -4.874679509641802e-7 -4.843487271870918e-7 -4.7465736698405664e-7 0 0 0
          -2.456644399154032e-7 -2.5766938976004294e-7 -2.52173579783493e-7 -4.917001142083124e-7 -5.159789651397716e-7 -5.045833404353614e-7
          0 -2.2649155308487692e-7 -4.529066821424009e-7 0 0 -2.7178930205144474e-7
          -2.815020682951288e-7 -5.438561118395429e-7 -5.633837793419183e-7 0 0 -2.0955424580671835e-7
          -2.235417678032861e-7 -4.190908338509467e-7 -4.4699679926708384e-7 0 0 -2.806725543584541e-7
          -2.9175546108862925e-7 -5.6147917772111e-7 -5.838609557013257e-7 0 0 0
          0 -2.5074751707942727e-7 -2.610514958410838e-7 -2.508009839784879e-7 -2.398632693987108e-7 -5.017175625414982e-7
          -5.224656042893252e-7 -5.018013565004134e-7 -4.800079911263887e-7 0 -3.304972826584695e-7 -6.611138147024158e-7
          0 -3.0819521163036754e-7 -6.164282838144913e-7 0 -2.4793143803385665e-7 -4.959605771660128e-7
          0 0 -2.3996400054820125e-7 -2.3710410595223755e-7 -4.799603267676921e-7 -4.7453393999997676e-7
          0 0 0 0 -3.186874738488655e-7 -3.040445955627941e-7
          -2.905265875715333e-7 -3.1689810987735737e-7 -6.377078900945218e-7 -6.07806995279271e-7 -5.80865467469854e-7 -6.337279525550505e-7
          0 0 -2.378619743039751e-7 -2.4026870711923126e-7 -4.7589420289565963e-7 -4.80583541011541e-7
          0 -2.854858753850134e-7 -5.714853138005371e-7 0 -2.4804683343505534e-7 -4.96443249180293e-7
          0 0 -2.93388957653767e-7 -2.8612717028878316e-7 -5.877746997975466e-7 -5.728426403759716e-7
          0 0 -2.371556242300378e-7 -2.3852172982175983e-7 -4.745811224460755e-7 -4.773377438192263e-7
          0 0 -2.650562863399082e-7 -2.826645514029288e-7 -5.307635579713535e-7 -5.656832927262232e-7
          0 -2.7185778754668175e-7 -5.442118764729948e-7 0 -3.0214964865269266e-7 -6.044434778324139e-7
          0 -2.6303945446370436e-7 -5.263812142567188e-7 0 -2.6172683721444636e-7 -5.242271325162041e-7
          0 -2.7146228499609486e-7 -5.437132818396231e-7 0 0 -2.8906886068937055e-7
          -2.8734312040167755e-7 -5.780700319862063e-7 -5.744188890986571e-7 0 -2.356571209444979e-7 -4.7160348432799286e-7
          0 0 -2.3486113560058476e-7 -2.389760069106605e-7 -4.702403874116192e-7 -4.782635887734825e-7
          0 0 -2.5629653317565627e-7 -2.718988671334224e-7 -5.132283207317594e-7 -5.444407191248245e-7
          0 0 -2.4207127903418236e-7 -2.4012694429228534e-7 -4.840266618192003e-7 -4.803361916998802e-7
          0 -2.663323703724757e-7 -5.332853391442775e-7 0 -2.8377605039117727e-7 -5.67446745834638e-7
          0 -3.0122316840265945e-7 -6.027964937102971e-7 0 0 -2.55629852288096e-7
          -2.687097669883915e-7 -5.11664311733335e-7 -5.37891204796273e-7 0 0 -2.7321577801781077e-7
          -2.76882234168492e-7 -5.463225252593697e-7 -5.556978566510901e-7 0 0 0
          -2.5444485169695116e-7 -2.5039993683877686e-7 -2.5997959598358005e-7 -5.094182406931627e-7 -5.012229598430696e-7 -5.203122542862543e-7
          0 -2.63238461885592e-7 -5.258502219173567e-7 0 0 -2.481928629813891e-7
          -2.4540563229395316e-7 -4.974053156902933e-7 -4.911340073067253e-7 0 0 -2.414266627061839e-7
          -2.428826954615992e-7 -4.829471786744455e-7 -4.858032060840516e-7 0 -2.5352276723870017e-7 -5.07437657875266e-7
          0 -2.7193947524476043e-7 -5.439586617021561e-7 0 -2.3539268249882014e-7 -4.713416622592247e-7
          0 0 -2.397686441712312e-7 -2.429263694825113e-7 -4.795715796472593e-7 -4.859278785824303e-7
          0 -2.468535882527189e-7 -4.94041436421055e-7 0 -2.3808918202715824e-7 -4.7643686855728173e-7
          0 -2.3868450734364805e-7 -4.778988526452977e-7 0 -2.3935558177663117e-7 -4.789871208374611e-7
          0 -2.4588016001706123e-7 -4.916492294364421e-7 0 -2.496570448742037e-7 -4.99227962320577e-7
          0 -1.8838888723526273e-7 -3.767348240136429e-7 0 -2.1106208120892564e-7 -4.2207682833830497e-7
          0 -2.284830293813878e-7 -4.5689841184962855e-7 0 -2.414581544284176e-7 -4.828422397137171e-7
          0 -2.4925215662609025e-7 -4.985239699217487e-7 0 0 -6.130357963468465e-8
          -6.10506523660164e-8 -1.2262194018522537e-7 -1.2212511754521459e-7 0 0 -5.987192127294767e-8
          -5.97159517352312e-8 -1.1973853959244238e-7 -1.1942253896492452e-7 0 0 -5.810187293445532e-8
          -5.80052035695062e-8 -1.1620609651906738e-7 -1.1601311110328287e-7 0 0 -5.6111507230383126e-8
          -5.607360900653328e-8 -1.122225858373126e-7 -1.121461800102573e-7 0 0 -5.403352701483286e-8
          -5.405505940621931e-8 -1.0806739271126442e-7 -1.0811012076698308e-7 0 0 -5.198731649464895e-8
          -5.206246139138114e-8 -1.0397486750287707e-7 -1.0412489588352375e-7 0 0 -5.005353575934847e-8
          -5.017934911362167e-8 -1.0010692525753025e-7 -1.0035853372407523e-7 0 0 -4.8337688350675835e-8
          -4.848604120371757e-8 -9.66753879933552e-8 -9.697213152090243e-8 0 -6.185110671477336e-8 -1.2370885697203637e-7
          0 -6.034390580014222e-8 -1.2068623982554607e-7 0 -5.8358225642254905e-8 -1.1671557159430581e-7
          0 -5.617133020559996e-8 -1.1234281479006402e-7 0 -5.39215157719957e-8 -1.0784236794227679e-7
          0 -5.172319784193254e-8 -1.0344682120211293e-7 0 -4.9643574543091004e-8 -9.928675663197387e-8
          0 -4.7859496470933105e-8 -9.571967258965213e-8 0 -6.301340793532179e-8 -1.259918725312508e-7
          0 -6.11227897885106e-8 -1.2226631655442663e-7 0 -5.877689315069998e-8 -1.1754696864477775e-7
          0 -5.6274222845732046e-8 -1.1255142807557746e-7 0 -5.372687993774325e-8 -1.0745275461923838e-7
          0 -5.126202849726725e-8 -1.0252523189992035e-7 0 -4.89161235982776e-8 -9.783063553412554e-8
          0 -4.6997829895269856e-8 -9.399564028004603e-8 0 -6.518567116499557e-8 -1.3038160093682727e-7
          0 -6.198234153323004e-8 -1.2393155101685359e-7 0 -5.9349528321911094e-8 -1.1871373821311643e-7
          0 -5.6321021440851435e-8 -1.1263526311027693e-7 0 -5.336193898673494e-8 -1.067246376233528e-7
          0 -5.0508110170551904e-8 -1.0101784487331778e-7 0 -4.776213053552896e-8 -9.552431602578311e-8
          0 -4.565302808518946e-8 -9.13103940848109e-8 0 -6.408995346866119e-8 -1.2827839037199746e-7
          0 -6.423590126907103e-8 -1.284827533423502e-7 0 -5.965077519178192e-8 -1.1928454419909132e-7
          0 -5.626888876131919e-8 -1.1255287601055692e-7 0 -5.271355262914238e-8 -1.0542075392972763e-7
          0 -4.934719874858839e-8 -9.869864367120381e-8 0 -4.603172890305539e-8 -9.205467355354669e-8
          0 -4.365294188075425e-8 -8.730242103349565e-8 0 -1.0591539840641364e-7 -2.1193516563668908e-7
          0 -7.21155091457845e-8 -1.4438544921165373e-7 0 -6.344933410396626e-8 -1.269535142770454e-7
          0 -6.051441884093222e-8 -1.21004005230226e-7 0 -5.5710546420649025e-8 -1.1141597345286276e-7
          0 -5.17008996033284e-8 -1.0340021237440381e-7 0 -4.765178844678387e-8 -9.531100723457021e-8
          0 -4.351050031109786e-8 -8.702607613187878e-8 0 -4.084421024864901e-8 -8.170857256023646e-8
          0 -1.4290746520820725e-7 -2.8579069730343516e-7 0 -1.0049810259757872e-7 -2.012135777040505e-7
          0 -6.827774305068374e-8 -1.367456339538105e-7 0 -5.863266765314369e-8 -1.1731636874830023e-7
          0 -5.543386713483902e-8 -1.1086662997483076e-7 0 -5.020857359048125e-8 -1.0040941442884046e-7
          0 -4.528131209689347e-8 -9.057188251470187e-8 0 -3.958838164826041e-8 -7.91472350345667e-8
          0 -3.630973755631092e-8 -7.260859338199443e-8 0 -1.787702723320014e-7 -3.5747375199156047e-7
          0 -1.3204128956509422e-7 -2.6408405179606867e-7 0 -8.238478294329096e-8 -1.649806752227347e-7
          0 -5.7422177283991946e-8 -1.1496651791547925e-7 0 -5.36719345897173e-8 -1.0736204553258316e-7
          0 -4.836839086339744e-8 -9.670789963949124e-8 0 -4.231760753758774e-8 -8.467228091363252e-8
          0 -3.490076677428198e-8 -6.978257728323814e-8 0 -3.148963166604901e-8 -6.300806119010454e-8
          0 -2.373260943848084e-7 -4.7457831665087323e-7 0 -1.804960839235217e-7 -3.610521484294692e-7
          0 -1.1345574705140905e-7 -2.2719938152429458e-7 0 -6.694720997325789e-8 -1.3411449050164746e-7
          0 -5.292072021521867e-8 -1.0589717844654097e-7 0 -4.79641061723328e-8 -9.590894568750742e-8
          0 -3.702092804690365e-8 -7.406897243754993e-8 0 -2.1506424994854365e-8 -4.2982434760295946e-8
          0 -1.0748387022991817e-8 -2.1507416388628386e-8 0 0 -4.741766003114554e-8
          -4.723961527787505e-8 -9.483541845218462e-8 -9.447910078811781e-8 0 -4.667847935480972e-8 -9.335658812425355e-8
          0 -4.568203001571453e-8 -9.136199916145077e-8 0 -4.4151900451145615e-8 -8.830268673383253e-8
          0 -4.191090759227735e-8 -8.381285642436609e-8 0 -3.8780495044409226e-8 -7.7559818066579e-8
          0 -3.378803477150916e-8 -6.755154689878075e-8 0 -2.7728117109681204e-8 -5.541981337592443e-8
          0 -1.0134739030533338e-8 -2.0207821268525648e-8 0 0 -4.6458068485367964e-8
          -4.6269335534566966e-8 -9.291607995376948e-8 -9.253873293932057e-8 0 -4.5686125496600064e-8 -9.137277385417556e-8
          0 -4.466461825444102e-8 -8.933050300163388e-8 0 -4.3123363594002e-8 -8.624956637270581e-8
          0 -4.0948203235247796e-8 -8.190028125229923e-8 0 -3.7912121276429134e-8 -7.583450746860874e-8
          0 -3.376480554152285e-8 -6.754070492463574e-8 0 -2.821998131765515e-8 -5.647642787786364e-8
          0 -1.969101904162353e-8 -3.942036357150111e-8 0 0 -4.562307042465636e-8
          -4.542743279336564e-8 -9.124617546269914e-8 -9.085483058784067e-8 0 -4.482865007050669e-8 -8.965703899800475e-8
          0 -4.379284283556499e-8 -8.758498815598642e-8 0 -4.226379450237986e-8 -8.452631095761151e-8
          0 -4.015396067845026e-8 -8.030533270359218e-8 0 -3.736039102390013e-8 -7.471711594838168e-8
          0 -3.3760871927205776e-8 -6.751269137339279e-8 0 -2.9397798512175506e-8 -5.878043496281473e-8
          0 -2.4311447261329476e-8 -4.8564491735929374e-8 0 0 -4.491569737852344e-8
          -4.4717388878340325e-8 -8.9831388197395e-8 -8.943478898526803e-8 0 -4.411472229771758e-8 -8.822954794363139e-8
          0 -4.308591659673635e-8 -8.617210764143908e-8 0 -4.1596365637096934e-8 -8.319324960616776e-8
          0 -3.9604626451784196e-8 -7.921039026091355e-8 0 -3.7085057124733264e-8 -7.417134204130399e-8
          0 -3.4048374516956875e-8 -6.810077687122333e-8 0 -3.072524259334024e-8 -6.145450040326138e-8
          0 -2.7728976602495242e-8 -5.5471518726528575e-8 0 0 -4.433818270691776e-8
          -4.4139758243960404e-8 -8.867638873689685e-8 -8.8279524263567e-8 0 -4.3540517737602287e-8 -8.708101543641341e-8
          0 -4.2529701619756086e-8 -8.505932730987973e-8 0 -4.109455050273348e-8 -8.218893342394783e-8
          0 -3.923201982969289e-8 -7.846377420285361e-8 0 -3.697507617381369e-8 -7.394936366490172e-8
          0 -3.4423955535832215e-8 -6.884733220418904e-8 0 -3.190726573518018e-8 -6.381152889496148e-8
          0 -3.007446471552274e-8 -6.013827624586336e-8 0 0 -4.389071637886874e-8
          -4.3693605588094165e-8 -8.778144357540685e-8 -8.738722528130423e-8 0 -4.310135238513681e-8 -8.620273166687838e-8
          0 -4.211268968835303e-8 -8.42254307734636e-8 0 -4.073308261896803e-8 -8.146620046588155e-8
          0 -3.898894803129102e-8 -7.797807155907583e-8 0 -3.695429008313123e-8 -7.390841160311865e-8
          0 -3.478546992183217e-8 -6.957199304405423e-8 0 -3.2835261908038864e-8 -6.566978015632701e-8
          0 -3.168001439745521e-8 -6.336038680485463e-8 0 0 -4.357233397228357e-8
          -4.3377035649440866e-8 -8.714467583144441e-8 -8.675408802661197e-8 0 -4.279230537232826e-8 -8.558463321047095e-8
          0 -4.1824073200451834e-8 -8.364816047163689e-8 0 -4.049115399093321e-8 -8.098227288834004e-8
          0 -3.8840428887717534e-8 -7.768090792036563e-8 0 -3.6972481186510355e-8 -7.394464974882505e-8
          0 -3.507562222298814e-8 -7.015177324676211e-8 0 -3.349513307440788e-8 -6.698908795418433e-8
          0 -3.273863659899055e-8 -6.54754091035571e-8 0 0 -4.338191606113409e-8
          -4.318812093575131e-8 -8.676382528529957e-8 -8.637623262533281e-8 0 -4.260899363471788e-8 -8.521797666600979e-8
          0 -4.1654810603283166e-8 -8.330961795310734e-8 0 -4.035261711182983e-8 -8.070519009905086e-8
          0 -3.8761221526338465e-8 -7.752250633796658e-8 0 -3.6995800531564465e-8 -7.399131809581167e-8
          0 -3.52600357766373e-8 -7.052067384991458e-8 0 -3.3886943797290986e-8 -6.777294208010681e-8
          0 -3.333962057709697e-8 -6.667856889753597e-8 0 0 -4.331853679473846e-8
          -4.3125250973560066e-8 -8.66370336158433e-8 -8.625045321436764e-8 0 -4.254813013777668e-8 -8.50961981672986e-8
          0 -4.159898462110436e-8 -8.319792299291838e-8 0 -4.0307505350291644e-8 -8.061491914918185e-8
          0 -3.873638784604614e-8 -7.747277269905801e-8 0 -3.7005482250706414e-8 -7.401062689120325e-8
          0 -3.5323014401759184e-8 -7.064654441868992e-8 0 -3.401668892037735e-8 -6.803244063176387e-8
          0 -3.3535299165398563e-8 -6.706967975199578e-8
        </DataArray>
      </PointData>
      <CellData>
        <DataArray type="Int32" Name="libmesh_elem_id" format="ascii" RangeMin="1398" RangeMax="3643">
          1398 1399 1422 1423 1460 1461
          1470 1471 1482 1483 1494 1495
          1502 1503 1506 1507 1520 1521
          1528 1529 1580 1581 1584 1585
          1612 1613 1636 1637 1652 1653
          1722 1723 1798 1799 1850 1851
          2298 2299 2406 2407 2442 2443
          2450 2451 2472 2473 2558 2559
          2610 2611 2646 2647 2648 2649
          2662 2663 2672 2673 2680 2681
          2748 2749 2756 2757 2776 2777
          2808 2809 2814 2815 2822 2823
          2828 2829 2836 2837 2852 2853
          2876 2877 2898 2899 2910 2911
          2926 2927 2936 2937 2950 2951
          2952 2953 2954 2955 2966 2967
          2980 2981 2982 2983 2990 2991
          3006 3007 3014 3015 3026 3027
          3068 3069 3074 3075 3104 3105
          3110 3111 3124 3125 3126 3127
          3168 3169 3194 3195 3204 3205
          3208 3209 3210 3211 3212 3213
          3220 3221 3222 3223 3224 3225
          3226 3227 3234 3235 3236 3237
          3240 3241 3252 3253 3254 3255
          3264 3265 3296 3297 3302 3303
          3308 3309 3314 3315 3324 3325
          3326 3327 3328 3329 3330 3331
          3332 3333 3334 3335 3336 3337
          3342 3343 3344 3345 3346 3347
          3348 3349 3350 3351 3352 3353
          3354 3355 3360 3361 3362 3363
          3364 3365 3366 3367 3368 3369
          3370 3371 3372 3373 3378 3379
          3380 3381 3382 3383 3384 3385
          3386 3387 3388 3389 3390 3391
          3396 3397 3398 3399 3400 3401
          3402 3403 3404 3405 3406 3407
          3408 3409 3414 3415 3416 3417
          3418 3419 3420 3421 3422 3423
          3424 3425 3426 3427 3430 3431
          3432 3433 3434 3435 3436 3437
          3438 3439 3440 3441 3442 3443
          3444 3445 3448 3449 3450 3451
          3452 3453 3454 3455 3456 3457
          3458 3459 3460 3461 3462 3463
          3466 3467 3468 3469 3470 3471
          3472 3473 3474 3475 3476 3477
          3478 3479 3480 3481 3482 3483
          3484 3485 3486 3487 3488 3489
          3490 3491 3492 3493 3494 3495
          3496 3497 3498 3499 3500 3501
          3502 3503 3504 3505 3506 3507
          3508 3509 3510 3511 3512 3513
          3514 3515 3516 3517 3518 3519
          3520 3521 3522 3523 3524 3525
          3526 3527 3528 3529 3530 3531
          3532 3533 3534 3535 3536 3537
          3538 3539 3540 3541 3542 3543
          3544 3545 3546 3547 3548 3549
          3550 3551 3552 3553 3554 3555
          3556 3557 3558 3559 3560 3561
          3562 3563 3564 3565 3566 3567
          3568 3569 3570 3571 3572 3573
          3574 3575 3576 3577 3578 3579
          3580 3581 3582 3583 3584 3585
          3586 3587 3588 3589 3590 3591
          3592 3593 3594 3595 3596 3597
          3598 3599 3600 3601 3602 3603
          3604 3605 3606 3607 3608 3609
          3610 3611 3612 3613 3614 3615
          3616 3617 3618 3619 3620 3621
          3622 3623 3624 3625 3626 3627
          3628 3629 3630 3631 3632 3633
          3634 3635 3636 3637 3638 3639
          3640 3641 3642 3643
        </DataArray>
        <DataArray type="Int32" Name="subdomain_id" format="ascii" RangeMin="107" RangeMax="110">
          107 107 107 107 107 107
          107 107 107 107 107 107
          107 107 107 107 107 107
          107 107 107 107 107 107
          107 107 107 107 107 107
          107 107 107 107 107 107
          107 107 107 107 107 107
          107 107 107 107 107 107
          107 107 107 107 107 107
          107 107 107 107 107 107
          107 107 107 107 107 107
          107 107 107 107 107 107
          107 107 107 107 107 107
          107 107 107 107 107 107
          107 107 107 107 107 107
          107 107 107 107 107 107
          107 107 107 107 107 107
          107 107 107 107 107 107
          107 107 107 107 107 107
          107 107 107 107 107 107
          107 107 107 107 107 107
          107 107 107 107 107 107
          107 107 107 107 107 107
          107 107 107 107 107 107
          107 107 107 107 107 107
          107 107 108 108 108 108
          108 108 108 108 109 109
          109 109 109 109 109 109
          109 109 109 109 109 109
          109 109 109 109 109 109
          109 109 109 109 109 109
          109 109 109 109 109 109
          109 109 109 109 109 109
          109 109 109 109 109 109
          109 109 109 109 109 109
          109 109 109 109 109 109
          109 109 109 109 109 109
          109 109 109 109 109 109
          109 109 109 109 109 109
          109 109 109 109 109 109
          109 109 109 109 109 109
          109 109 109 109 109 109
          109 109 109 109 109 109
          109 109 109 109 109 109
          109 109 109 109 109 109
          109 109 109 109 109 109
          109 109 109 109 109 109
          109 109 109 109 109 109
          109 109 109 109 110 110
          110 110 110 110 110 110
          110 110 110 110 110 110
          110 110 110 110 110 110
          110 110 110 110 110 110
          110 110 110 110 110 110
          110 110 110 110 110 110
          110 110 110 110 110 110
          110 110 110 110 110 110
          110 110 110 110 110 110
          110 110 110 110 110 110
          110 110 110 110 110 110
          110 110 110 110 110 110
          110 110 110 110 110 110
          110 110 110 110 110 110
          110 110 110 110 110 110
          110 110 110 110 110 110
          110 110 110 110 110 110
          110 110 110 110 110 110
          110 110 110 110 110 110
          110 110 110 110 110 110
          110 110 110 110 110 110
          110 110 110 110 110 110
          110 110 110 110 110 110
          110 110 110 110 110 110
          110 110 110 110 110 110
          110 110 110 110 110 110
          110 110 110 110
        </DataArray>
        <DataArray type="Int32" Name="processor_id" format="ascii" RangeMin="0" RangeMax="0">
          0 0 0 0 0 0
          0 0 0 0 0 0
          0 0 0 0 0 0
          0 0 0 0 0 0
          0 0 0 0 0 0
          0 0 0 0 0 0
          0 0 0 0 0 0
          0 0 0 0 0 0
          0 0 0 0 0 0
          0 0 0 0 0 0
          0 0 0 0 0 0
          0 0 0 0 0 0
          0 0 0 0 0 0
          0 0 0 0 0 0
          0 0 0 0 0 0
          0 0 0 0 0 0
          0 0 0 0 0 0
          0 0 0 0 0 0
          0 0 0 0 0 0
          0 0 0 0 0 0
          0 0 0 0 0 0
          0 0 0 0 0 0
          0 0 0 0 0 0
          0 0 0 0 0 0
          0 0 0 0 0 0
          0 0 0 0 0 0
          0 0 0 0 0 0
          0 0 0 0 0 0
          0 0 0 0 0 0
          0 0 0 0 0 0
          0 0 0 0 0 0
          0 0 0 0 0 0
          0 0 0 0 0 0
          0 0 0 0 0 0
          0 0 0 0 0 0
          0 0 0 0 0 0
          0 0 0 0 0 0
          0 0 0 0 0 0
          0 0 0 0 0 0
          0 0 0 0 0 0
          0 0 0 0 0 0
          0 0 0 0 0 0
          0 0 0 0 0 0
          0 0 0 0 0 0
          0 0 0 0 0 0
          0 0 0 0 0 0
          0 0 0 0 0 0
          0 0 0 0 0 0
          0 0 0 0 0 0
          0 0 0 0 0 0
          0 0 0 0 0 0
          0 0 0 0 0 0
          0 0 0 0 0 0
          0 0 0 0 0 0
          0 0 0 0 0 0
          0 0 0 0 0 0
          0 0 0 0 0 0
          0 0 0 0 0 0
          0 0 0 0 0 0
          0 0 0 0 0 0
          0 0 0 0 0 0
          0 0 0 0 0 0
          0 0 0 0 0 0
          0 0 0 0 0 0
          0 0 0 0 0 0
          0 0 0 0 0 0
          0 0 0 0 0 0
          0 0 0 0 0 0
          0 0 0 0 0 0
          0 0 0 0 0 0
          0 0 0 0 0 0
          0 0 0 0 0 0
          0 0 0 0 0 0
          0 0 0 0 0 0
          0 0 0 0 0 0
          0 0 0 0
        </DataArray>
      </CellData>
      <Points>
        <DataArray type="Float64" Name="Points" NumberOfComponents="3" format="ascii" RangeMin="0.019949534490770096" RangeMax="0.057059767276955435">
          0.025 0.010111111111103 0 0.025 0.011555555555552 0
          0.023969654121399 0.011643457228511 0 0.023712354871128 0.010827306146479 0
          0.025 0.010111111111103 0.00015 0.025 0.011555555555552 0.00015
          0.023969654121399 0.011643457228511 0.00015 0.023712354871128 0.010827306146479 0.00015
          0.025 0.010111111111103 0.0003 0.025 0.011555555555552 0.0003
          0.023969654121399 0.011643457228511 0.0003 0.023712354871128 0.010827306146479 0.0003
          0.021832836898909 0.0086447924127183 0 0.021823224979211 0.0078559681587773 0
          0.022737846371709 0.0079006862580081 0 0.022634898807434 0.0088549234284915 0
          0.021832836898909 0.0086447924127183 0.00015 0.021823224979211 0.0078559681587773 0.00015
          0.022737846371709 0.0079006862580081 0.00015 0.022634898807434 0.0088549234284915 0.00015
          0.021832836898909 0.0086447924127183 0.0003 0.021823224979211 0.0078559681587773 0.0003
          0.022737846371709 0.0079006862580081 0.0003 0.022634898807434 0.0088549234284915 0.0003
          0.023595500831214 0.0092794942281182 0 0.023071107871262 0.010124307969263 0
          0.023595500831214 0.0092794942281182 0.00015 0.023071107871262 0.010124307969263 0.00015
          0.023595500831214 0.0092794942281182 0.0003 0.023071107871262 0.010124307969263 0.0003
          0.022679909737796 0.0068405181074087 0 0.023816654948859 0.0069324696013164 0
          0.023805320189621 0.0081867285281858 0 0.022679909737796 0.0068405181074087 0.00015
          0.023816654948859 0.0069324696013164 0.00015 0.023805320189621 0.0081867285281858 0.00015
          0.022679909737796 0.0068405181074087 0.0003 0.023816654948859 0.0069324696013164 0.0003
          0.023805320189621 0.0081867285281858 0.0003 0.021890570917318 0.011219591567605 0
          0.021490495874743 0.011513015985888 0 0.020878683694742 0.011349585571751 0
          0.021380466308845 0.010767094219468 0 0.021890570917318 0.011219591567605 0.00015
          0.021490495874743 0.011513015985888 0.00015 0.020878683694742 0.011349585571751 0.00015
          0.021380466308845 0.010767094219468 0.00015 0.021890570917318 0.011219591567605 0.0003
          0.021490495874743 0.011513015985888 0.0003 0.020878683694742 0.011349585571751 0.0003
          0.021380466308845 0.010767094219468 0.0003 0.022336312736143 0.012467557709352 0
          0.021763745105177 0.012476629724541 0 0.021622459990569 0.011931223094182 0
          0.02233098651665 0.011816769005978 0 0.022336312736143 0.012467557709352 0.00015
          0.021763745105177 0.012476629724541 0.00015 0.021622459990569 0.011931223094182 0.00015
          0.02233098651665 0.011816769005978 0.00015 0.022336312736143 0.012467557709352 0.0003
          0.021763745105177 0.012476629724541 0.0003 0.021622459990569 0.011931223094182 0.0003
          0.02233098651665 0.011816769005978 0.0003 0.021047379294988 0.0079667793778881 0
          0.020813290684512 0.007243328880283 0 0.021666975794544 0.0069715825078724 0
          0.021047379294988 0.0079667793778881 0.00015 0.020813290684512 0.007243328880283 0.00015
          0.021666975794544 0.0069715825078724 0.00015 0.021047379294988 0.0079667793778881 0.0003
          0.020813290684512 0.007243328880283 0.0003 0.021666975794544 0.0069715825078724 0.0003
          0.025 0.0086666666666559 0 0.025 0.0086666666666559 0.00015
          0.025 0.0086666666666559 0.0003 0.021356284292895 0.0061182113295331 0
          0.020489019208248 0.0065103794253073 0 0.021356284292895 0.0061182113295331 0.00015
          0.020489019208248 0.0065103794253073 0.00015 0.021356284292895 0.0061182113295331 0.0003
          0.020489019208248 0.0065103794253073 0.0003 0.025 0.0072222222222063 0
          0.023829479378086 0.0056593315311521 0 0.025 0.0072222222222063 0.00015
          0.023829479378086 0.0056593315311521 0.00015 0.025 0.0072222222222063 0.0003
          0.023829479378086 0.0056593315311521 0.0003 0.019357361519954 0.01157618305141 0
          0.01884046117173 0.011223113854601 0 0.019357361519954 0.01157618305141 0.00015
          0.01884046117173 0.011223113854601 0.00015 0.019357361519954 0.01157618305141 0.0003
          0.01884046117173 0.011223113854601 0.0003 0.020274347850796 0.01080512315655 0
          0.019692191057164 0.010418143528135 0 0.020104676199583 0.0097475599042502 0
          0.020792052735599 0.010316149813733 0 0.020274347850796 0.01080512315655 0.00015
          0.019692191057164 0.010418143528135 0.00015 0.020104676199583 0.0097475599042502 0.00015
          0.020792052735599 0.010316149813733 0.00015 0.020274347850796 0.01080512315655 0.0003
          0.019692191057164 0.010418143528135 0.0003 0.020104676199583 0.0097475599042502 0.0003
          0.020792052735599 0.010316149813733 0.0003 0.018734278863615 0.0068564365277259 0
          0.018734278863615 0.0068564365277259 0.00015 0.018734278863615 0.0068564365277259 0.0003
          0.018384253973557 0.010894663204421 0 0.018384253973557 0.010894663204421 0.00015
          0.018384253973557 0.010894663204421 0.0003 0.022477642087048 0.0055533155338694 0
          0.022477642087048 0.0055533155338694 0.00015 0.022477642087048 0.0055533155338694 0.0003
          0.022333445868241 0.0096250088550796 0 0.021678233976573 0.0092839168226163 0
          0.022333445868241 0.0096250088550796 0.00015 0.021678233976573 0.0092839168226163 0.00015
          0.022333445868241 0.0096250088550796 0.0003 0.021678233976573 0.0092839168226163 0.0003
          0.018696511924608 0.0075816988835645 0 0.019307778433714 0.0076950261479263 0
          0.019244919669154 0.0083241905034728 0 0.018643245907353 0.0082916041839039 0
          0.018696511924608 0.0075816988835645 0.00015 0.019307778433714 0.0076950261479263 0.00015
          0.019244919669154 0.0083241905034728 0.00015 0.018643245907353 0.0082916041839039 0.00015
          0.018696511924608 0.0075816988835645 0.0003 0.019307778433714 0.0076950261479263 0.0003
          0.019244919669154 0.0083241905034728 0.0003 0.018643245907353 0.0082916041839039 0.0003
          0.02247089481133 0.010746063389313 0 0.022956441030322 0.011313723369763 0
          0.02247089481133 0.010746063389313 0.00015 0.022956441030322 0.011313723369763 0.00015
          0.02247089481133 0.010746063389313 0.0003 0.022956441030322 0.011313723369763 0.0003
          0.018817000838468 0.010560792840001 0 0.018817000838468 0.010560792840001 0.00015
          0.018817000838468 0.010560792840001 0.0003 0.021028725472558 0.011993213484042 0
          0.021028725472558 0.011993213484042 0.00015 0.021028725472558 0.011993213484042 0.0003
          0.018719100515555 0.0096191331103102 0 0.018769006148643 0.010016813571171 0
          0.018719100515555 0.0096191331103102 0.00015 0.018769006148643 0.010016813571171 0.00015
          0.018719100515555 0.0096191331103102 0.0003 0.018769006148643 0.010016813571171 0.0003
          0.022845614094026 0.012068678060928 0 0.022870050818517 0.012481997757377 0
          0.022845614094026 0.012068678060928 0.00015 0.022870050818517 0.012481997757377 0.00015
          0.022845614094026 0.012068678060928 0.0003 0.022870050818517 0.012481997757377 0.0003
          0.01980903614198 0.0082923028866096 0 0.019733887771193 0.007830319872041 0
          0.01980903614198 0.0082923028866096 0.00015 0.019733887771193 0.007830319872041 0.00015
          0.01980903614198 0.0082923028866096 0.0003 0.019733887771193 0.007830319872041 0.0003
          0.019287865107188 0.010870204720027 0 0.019287865107188 0.010870204720027 0.00015
          0.019287865107188 0.010870204720027 0.0003 0.019611341590458 0.0069319215290848 0
          0.019611341590458 0.0069319215290848 0.00015 0.019611341590458 0.0069319215290848 0.0003
          0.019793192887703 0.011218191570876 0 0.019793192887703 0.011218191570876 0.00015
          0.019793192887703 0.011218191570876 0.0003 0.02014052068744 0.0075597001530957 0
          0.02014052068744 0.0075597001530957 0.00015 0.02014052068744 0.0075597001530957 0.0003
          0.019142781766586 0.010156284019367 0 0.019142781766586 0.010156284019367 0.00015
          0.019142781766586 0.010156284019367 0.0003 0.019871794871807 0.013 0
          0.019671681078705 0.012567114388191 0 0.019871794871807 0.013 0.00015
          0.019671681078705 0.012567114388191 0.00015 0.019871794871807 0.013 0.0003
          0.019671681078705 0.012567114388191 0.0003 0.02189605775595 0.01024368797285 0
          0.02189605775595 0.01024368797285 0.00015 0.02189605775595 0.01024368797285 0.0003
          0.021306208963658 0.0098107932917518 0 0.020830530356293 0.0093484326970494 0
          0.021306208963658 0.0098107932917518 0.00015 0.020830530356293 0.0093484326970494 0.00015
          0.021306208963658 0.0098107932917518 0.0003 0.020830530356293 0.0093484326970494 0.0003
          0.019927087042343 0.0089401115508047 0 0.019284140679376 0.0089915496868705 0
          0.019927087042343 0.0089401115508047 0.00015 0.019284140679376 0.0089915496868705 0.00015
          0.019927087042343 0.0089401115508047 0.0003 0.019284140679376 0.0089915496868705 0.0003
          0.023272296973232 0.01187913061167 0 0.023408043049707 0.012441583397961 0
          0.023272296973232 0.01187913061167 0.00015 0.023408043049707 0.012441583397961 0.00015
          0.023272296973232 0.01187913061167 0.0003 0.023408043049707 0.012441583397961 0.0003
          0.019291729405334 0.009640079412969 0 0.019291729405334 0.009640079412969 0.00015
          0.019291729405334 0.009640079412969 0.0003 0.019497075330812 0.012129782091497 0
          0.019497075330812 0.012129782091497 0.00015 0.019497075330812 0.012129782091497 0.0003
          0.018655444813331 0.0089912542068827 0 0.018655444813331 0.0089912542068827 0.00015
          0.018655444813331 0.0089912542068827 0.0003 0.020217772280624 0.01161574996656 0
          0.019866459267603 0.011787315550137 0 0.020217772280624 0.01161574996656 0.00015
          0.019866459267603 0.011787315550137 0.00015 0.020217772280624 0.01161574996656 0.0003
          0.019866459267603 0.011787315550137 0.0003 0.020169909004412 0.012559422291794 0
          0.020384615384626 0.013 0 0.020169909004412 0.012559422291794 0.00015
          0.020384615384626 0.013 0.00015 0.020169909004412 0.012559422291794 0.0003
          0.020384615384626 0.013 0.0003 0.02048968364866 0.012063778985416 0
          0.021216890903006 0.012503701361908 0 0.020684692364028 0.012535095885709 0
          0.02048968364866 0.012063778985416 0.00015 0.021216890903006 0.012503701361908 0.00015
          0.020684692364028 0.012535095885709 0.00015 0.02048968364866 0.012063778985416 0.0003
          0.021216890903006 0.012503701361908 0.0003 0.020684692364028 0.012535095885709 0.0003
          0.020897435897446 0.013 0 0.020897435897446 0.013 0.00015
          0.020897435897446 0.013 0.0003 0.020387511226442 0.0081443073342907 0
          0.02056343795537 0.0087688297792787 0 0.020387511226442 0.0081443073342907 0.00015
          0.02056343795537 0.0087688297792787 0.00015 0.020387511226442 0.0081443073342907 0.0003
          0.02056343795537 0.0087688297792787 0.0003 0.023967653117571 0.012391671962311 0
          0.024322147732379 0.012509260561901 0 0.023967653117571 0.012391671962311 0.00015
          0.024322147732379 0.012509260561901 0.00015 0.023967653117571 0.012391671962311 0.0003
          0.024322147732379 0.012509260561901 0.0003 0.021410256410266 0.013 0
          0.021410256410266 0.013 0.00015 0.021410256410266 0.013 0.0003
          0.019993073529409 0.012116879865089 0 0.019993073529409 0.012116879865089 0.00015
          0.019993073529409 0.012116879865089 0.0003 0.02122910202584 0.0090825003429501 0
          0.02122910202584 0.0090825003429501 0.00015 0.02122910202584 0.0090825003429501 0.0003
          0.022948717948721 0.013 0 0.022435897435903 0.013 0
          0.022948717948721 0.013 0.00015 0.022435897435903 0.013 0.00015
          0.022948717948721 0.013 0.0003 0.022435897435903 0.013 0.0003
          0.021923076923085 0.013 0 0.021923076923085 0.013 0.00015
          0.021923076923085 0.013 0.0003 0.023461538461539 0.013 0
          0.023461538461539 0.013 0.00015 0.023461538461539 0.013 0.0003
          0.021171209164951 0.0086229949315581 0 0.021171209164951 0.0086229949315581 0.00015
          0.021171209164951 0.0086229949315581 0.0003 0.023974358974358 0.013 0
          0.023974358974358 0.013 0.00015 0.023974358974358 0.013 0.0003
          0.024487179487177 0.013 0 0.024487179487177 0.013 0.00015
          0.024487179487177 0.013 0.0003 0.025 0.013 0
          0.025 0.013 0.00015 0.025 0.013 0.0003
          0.026666666666667 0.0072222222222063 0 0.026666666666667 0.0072222222222063 0.00015
          0.026666666666667 0.0072222222222063 0.0003 0.026666666666668 0.0086666666666559 0
          0.026666666666668 0.0086666666666559 0.00015 0.026666666666668 0.0086666666666559 0.0003
          0.026666666666669 0.010111111111103 0 0.026666666666669 0.010111111111103 0.00015
          0.026666666666669 0.010111111111103 0.0003 0.026666666666669 0.011555555555552 0
          0.026666666666669 0.011555555555552 0.00015 0.026666666666669 0.011555555555552 0.0003
          0.02666666666667 0.013 0 0.02666666666667 0.013 0.00015
          0.02666666666667 0.013 0.0003 0.033201501647561 0.0014698753983525 0
          0.033179797338052 0 0 0.033201501647561 0.0014698753983525 0.00015
          0.033179797338052 0 0.00015 0.033201501647561 0.0014698753983525 0.0003
          0.033179797338052 0 0.0003 0.034800103200053 0.0015015548376625 0
          0.034769696007096 0 0 0.034800103200053 0.0015015548376625 0.00015
          0.034769696007096 0 0.00015 0.034800103200053 0.0015015548376625 0.0003
          0.034769696007096 0 0.0003 0.03639613666046 0.0015457026119765 0
          0.036359594676111 0 0 0.03639613666046 0.0015457026119765 0.00015
          0.036359594676111 0 0.00015 0.03639613666046 0.0015457026119765 0.0003
          0.036359594676111 0 0.0003 0.037988764334349 0.001602116400018 0
          0.037949493345121 0 0 0.037988764334349 0.001602116400018 0.00015
          0.037949493345121 0 0.00015 0.037988764334349 0.001602116400018 0.0003
          0.037949493345121 0 0.0003 0.039577164134098 0.001670537667151 0
          0.039539392014149 0 0 0.039577164134098 0.001670537667151 0.00015
          0.039539392014149 0 0.00015 0.039577164134098 0.001670537667151 0.0003
          0.039539392014149 0 0.0003 0.041160533348121 0.0017506528505884 0
          0.041129290683195 0 0 0.041160533348121 0.0017506528505884 0.00015
          0.041129290683195 0 0.00015 0.041160533348121 0.0017506528505884 0.0003
          0.041129290683195 0 0.0003 0.042738092320879 0.0018420947973532 0
          0.042719189352233 0 0 0.042738092320879 0.0018420947973532 0.00015
          0.042719189352233 0 0.00015 0.042738092320879 0.0018420947973532 0.0003
          0.042719189352233 0 0.0003 0.044309088021254 0.0019444444444413 0
          0.044309088021254 0 0 0.044309088021254 0.0019444444444413 0.00015
          0.044309088021254 0 0.00015 0.044309088021254 0.0019444444444413 0.0003
          0.044309088021254 0 0.0003 0.033223205957069 0.0029397507967035 0
          0.033223205957069 0.0029397507967035 0.00015 0.033223205957069 0.0029397507967035 0.0003
          0.03483051039301 0.0030031096753234 0 0.03483051039301 0.0030031096753234 0.00015
          0.03483051039301 0.0030031096753234 0.0003 0.036432678644808 0.0030914052239513 0
          0.036432678644808 0.0030914052239513 0.00015 0.036432678644808 0.0030914052239513 0.0003
          0.038028035323577 0.0032042328000343 0 0.038028035323577 0.0032042328000343 0.00015
          0.038028035323577 0.0032042328000343 0.0003 0.039614936254047 0.0033410753343001 0
          0.039614936254047 0.0033410753343001 0.00015 0.039614936254047 0.0033410753343001 0.0003
          0.041191776013048 0.0035013057011749 0 0.041191776013048 0.0035013057011749 0.00015
          0.041191776013048 0.0035013057011749 0.0003 0.042756995289524 0.0036841895947044 0
          0.042756995289524 0.0036841895947044 0.00015 0.042756995289524 0.0036841895947044 0.0003
          0.044309088021254 0.0038888888888803 0 0.044309088021254 0.0038888888888803 0.00015
          0.044309088021254 0.0038888888888803 0.0003 0.033244910266578 0.0044096261950543 0
          0.033244910266578 0.0044096261950543 0.00015 0.033244910266578 0.0044096261950543 0.0003
          0.034860917585967 0.004504664512984 0 0.034860917585967 0.004504664512984 0.00015
          0.034860917585967 0.004504664512984 0.0003 0.036469220629156 0.0046371078359259 0
          0.036469220629156 0.0046371078359259 0.00015 0.036469220629156 0.0046371078359259 0.0003
          0.038067306312805 0.0048063492000502 0 0.038067306312805 0.0048063492000502 0.00015
          0.038067306312805 0.0048063492000502 0.0003 0.039652708373995 0.0050116130014489 0
          0.039652708373995 0.0050116130014489 0.00015 0.039652708373995 0.0050116130014489 0.0003
          0.041223018677975 0.005251958551761 0 0.041223018677975 0.005251958551761 0.00015
          0.041223018677975 0.005251958551761 0.0003 0.04277589825817 0.0055262843920551 0
          0.04277589825817 0.0055262843920551 0.00015 0.04277589825817 0.0055262843920551 0.0003
          0.044309088021254 0.0058333333333189 0 0.044309088021254 0.0058333333333189 0.00015
          0.044309088021254 0.0058333333333189 0.0003 0.033266614576087 0.0058795015934051 0
          0.033266614576087 0.0058795015934051 0.00015 0.033266614576087 0.0058795015934051 0.0003
          0.034891324778924 0.0060062193506447 0 0.034891324778924 0.0060062193506447 0.00015
          0.034891324778924 0.0060062193506447 0.0003 0.036505762613504 0.0061828104479004 0
          0.036505762613504 0.0061828104479004 0.00015 0.036505762613504 0.0061828104479004 0.0003
          0.038106577302032 0.0064084656000662 0 0.038106577302032 0.0064084656000662 0.00015
          0.038106577302032 0.0064084656000662 0.0003 0.039690480493944 0.0066821506685977 0
          0.039690480493944 0.0066821506685977 0.00015 0.039690480493944 0.0066821506685977 0.0003
          0.041254261342902 0.0070026114023471 0 0.041254261342902 0.0070026114023471 0.00015
          0.041254261342902 0.0070026114023471 0.0003 0.042794801226816 0.0073683791894058 0
          0.042794801226816 0.0073683791894058 0.00015 0.042794801226816 0.0073683791894058 0.0003
          0.044309088021254 0.0077777777777574 0 0.044309088021254 0.0077777777777574 0.00015
          0.044309088021254 0.0077777777777574 0.0003 0.033288318885596 0.0073493769917596 0
          0.033288318885596 0.0073493769917596 0.00015 0.033288318885596 0.0073493769917596 0.0003
          0.034921731971881 0.0075077741883091 0 0.034921731971881 0.0075077741883091 0.00015
          0.034921731971881 0.0075077741883091 0.0003 0.036542304597852 0.0077285130598789 0
          0.036542304597852 0.0077285130598789 0.00015 0.036542304597852 0.0077285130598789 0.0003
          0.03814584829126 0.0080105820000862 0 0.03814584829126 0.0080105820000862 0.00015
          0.03814584829126 0.0080105820000862 0.0003 0.039728252613893 0.0083526883357508 0
          0.039728252613893 0.0083526883357508 0.00015 0.039728252613893 0.0083526883357508 0.0003
          0.041285504007829 0.0087532642529377 0 0.041285504007829 0.0087532642529377 0.00015
          0.041285504007829 0.0087532642529377 0.0003 0.042813704195461 0.0092104739867613 0
          0.042813704195461 0.0092104739867613 0.00015 0.042813704195461 0.0092104739867613 0.0003
          0.044309088021254 0.0097222222222011 0 0.044309088021254 0.0097222222222011 0.00015
          0.044309088021254 0.0097222222222011 0.0003 0.031657595460571 0.0087048568522863 0
          0.031657595460571 0.0087048568522863 0.00015 0.031657595460571 0.0087048568522863 0.0003
          0.033310023195106 0.0088192523901195 0 0.033310023195106 0.0088192523901195 0.00015
          0.033310023195106 0.0088192523901195 0.0003 0.034952139164838 0.009009329025979 0
          0.034952139164838 0.009009329025979 0.00015 0.034952139164838 0.009009329025979 0.0003
          0.0365788465822 0.0092742156718627 0 0.0365788465822 0.0092742156718627 0.00015
          0.0365788465822 0.0092742156718627 0.0003 0.038185119280488 0.0096126984001116 0
          0.038185119280488 0.0096126984001116 0.00015 0.038185119280488 0.0096126984001116 0.0003
          0.039766024733842 0.010023226002909 0 0.039766024733842 0.010023226002909 0.00015
          0.039766024733842 0.010023226002909 0.0003 0.041316746672756 0.010503917103534 0
          0.041316746672756 0.010503917103534 0.00015 0.041316746672756 0.010503917103534 0.0003
          0.042832607164107 0.011052568784123 0 0.042832607164107 0.011052568784123 0.00015
          0.042832607164107 0.011052568784123 0.0003 0.044309088021254 0.011666666666651 0
          0.044309088021254 0.011666666666651 0.00015 0.044309088021254 0.011666666666651 0.0003
          0.031668878259163 0.010155666327672 0 0.031668878259163 0.010155666327672 0.00015
          0.031668878259163 0.010155666327672 0.0003 0.033331727504615 0.010289127788478 0
          0.033331727504615 0.010289127788478 0.00015 0.033331727504615 0.010289127788478 0.0003
          0.034982546357795 0.010510883863647 0 0.034982546357795 0.010510883863647 0.00015
          0.034982546357795 0.010510883863647 0.0003 0.036615388566549 0.010819918283845 0
          0.036615388566549 0.010819918283845 0.00015 0.036615388566549 0.010819918283845 0.0003
          0.038224390269716 0.011214814800136 0 0.038224390269716 0.011214814800136 0.00015
          0.038224390269716 0.011214814800136 0.0003 0.039803796853791 0.011693763670067 0
          0.039803796853791 0.011693763670067 0.00015 0.039803796853791 0.011693763670067 0.0003
          0.041347989337683 0.012254569954129 0 0.041347989337683 0.012254569954129 0.00015
          0.041347989337683 0.012254569954129 0.0003 0.042851510132752 0.012894663581483 0
          0.042851510132752 0.012894663581483 0.00015 0.042851510132752 0.012894663581483 0.0003
          0.044309088021254 0.0136111111111 0 0.044309088021254 0.0136111111111 0.00015
          0.044309088021254 0.0136111111111 0.0003 0.031680161057755 0.011606475803059 0
          0.031680161057755 0.011606475803059 0.00015 0.031680161057755 0.011606475803059 0.0003
          0.033353431814124 0.011759003186837 0 0.033353431814124 0.011759003186837 0.00015
          0.033353431814124 0.011759003186837 0.0003 0.035012953550752 0.012012438701317 0
          0.035012953550752 0.012012438701317 0.00015 0.035012953550752 0.012012438701317 0.0003
          0.036651930550897 0.012365620895829 0 0.036651930550897 0.012365620895829 0.00015
          0.036651930550897 0.012365620895829 0.0003 0.038263661258944 0.012816931200161 0
          0.038263661258944 0.012816931200161 0.00015 0.038263661258944 0.012816931200161 0.0003
          0.03984156897374 0.013364301337225 0 0.03984156897374 0.013364301337225 0.00015
          0.03984156897374 0.013364301337225 0.0003 0.04137923200261 0.014005222804725 0
          0.04137923200261 0.014005222804725 0.00015 0.04137923200261 0.014005222804725 0.0003
          0.042870413101398 0.014736758378844 0 0.042870413101398 0.014736758378844 0.00015
          0.042870413101398 0.014736758378844 0.0003 0.044309088021254 0.015555555555549 0
          0.044309088021254 0.015555555555549 0.00015 0.044309088021254 0.015555555555549 0.0003
          0.031691443856347 0.013057285278446 0 0.031691443856347 0.013057285278446 0.00015
          0.031691443856347 0.013057285278446 0.0003 0.033375136123633 0.013228878585196 0
          0.033375136123633 0.013228878585196 0.00015 0.033375136123633 0.013228878585196 0.0003
          0.035043360743709 0.013513993538986 0 0.035043360743709 0.013513993538986 0.00015
          0.035043360743709 0.013513993538986 0.0003 0.036688472535245 0.013911323507812 0
          0.036688472535245 0.013911323507812 0.00015 0.036688472535245 0.013911323507812 0.0003
          0.038302932248172 0.014419047600187 0 0.038302932248172 0.014419047600187 0.00015
          0.038302932248172 0.014419047600187 0.0003 0.039879341093689 0.015034839004384 0
          0.039879341093689 0.015034839004384 0.00015 0.039879341093689 0.015034839004384 0.0003
          0.041410474667538 0.015755875655322 0 0.041410474667538 0.015755875655322 0.00015
          0.041410474667538 0.015755875655322 0.0003 0.042889316070044 0.016578853176207 0
          0.042889316070044 0.016578853176207 0.00015 0.042889316070044 0.016578853176207 0.0003
          0.044309088021254 0.0175 0 0.044309088021254 0.0175 0.00015
          0.044309088021254 0.0175 0.0003 0.045420199132363 0 0
          0.045420199132363 0.0019444444444413 0 0.045420199132363 0 0.00015
          0.045420199132363 0.0019444444444413 0.00015 0.045420199132363 0 0.0003
          0.045420199132363 0.0019444444444413 0.0003 0.045420199132363 0.0038888888888803 0
          0.045420199132363 0.0038888888888803 0.00015 0.045420199132363 0.0038888888888803 0.0003
          0.045420199132363 0.0058333333333189 0 0.045420199132363 0.0058333333333189 0.00015
          0.045420199132363 0.0058333333333189 0.0003 0.045420199132363 0.0077777777777574 0
          0.045420199132363 0.0077777777777574 0.00015 0.045420199132363 0.0077777777777574 0.0003
          0.045420199132363 0.0097222222222011 0 0.045420199132363 0.0097222222222011 0.00015
          0.045420199132363 0.0097222222222011 0.0003 0.045420199132363 0.011666666666651 0
          0.045420199132363 0.011666666666651 0.00015 0.045420199132363 0.011666666666651 0.0003
          0.045420199132363 0.0136111111111 0 0.045420199132363 0.0136111111111 0.00015
          0.045420199132363 0.0136111111111 0.0003 0.045420199132363 0.015555555555549 0
          0.045420199132363 0.015555555555549 0.00015 0.045420199132363 0.015555555555549 0.0003
          0.045420199132363 0.0175 0 0.045420199132363 0.0175 0.00015
          0.045420199132363 0.0175 0.0003 0.046531310243475 0 0
          0.046531310243475 0.0019444444444413 0 0.046531310243475 0 0.00015
          0.046531310243475 0.0019444444444413 0.00015 0.046531310243475 0 0.0003
          0.046531310243475 0.0019444444444413 0.0003 0.046531310243475 0.0038888888888803 0
          0.046531310243475 0.0038888888888803 0.00015 0.046531310243475 0.0038888888888803 0.0003
          0.046531310243475 0.0058333333333189 0 0.046531310243475 0.0058333333333189 0.00015
          0.046531310243475 0.0058333333333189 0.0003 0.046531310243475 0.0077777777777574 0
          0.046531310243475 0.0077777777777574 0.00015 0.046531310243475 0.0077777777777574 0.0003
          0.046531310243475 0.0097222222222011 0 0.046531310243475 0.0097222222222011 0.00015
          0.046531310243475 0.0097222222222011 0.0003 0.046531310243475 0.011666666666651 0
          0.046531310243475 0.011666666666651 0.00015 0.046531310243475 0.011666666666651 0.0003
          0.046531310243475 0.0136111111111 0 0.046531310243475 0.0136111111111 0.00015
          0.046531310243475 0.0136111111111 0.0003 0.046531310243475 0.015555555555549 0
          0.046531310243475 0.015555555555549 0.00015 0.046531310243475 0.015555555555549 0.0003
          0.046531310243475 0.0175 0 0.046531310243475 0.0175 0.00015
          0.046531310243475 0.0175 0.0003 0.04764242135458 0 0
          0.04764242135458 0.0019444444444413 0 0.04764242135458 0 0.00015
          0.04764242135458 0.0019444444444413 0.00015 0.04764242135458 0 0.0003
          0.04764242135458 0.0019444444444413 0.0003 0.04764242135458 0.0038888888888803 0
          0.04764242135458 0.0038888888888803 0.00015 0.04764242135458 0.0038888888888803 0.0003
          0.04764242135458 0.0058333333333189 0 0.04764242135458 0.0058333333333189 0.00015
          0.04764242135458 0.0058333333333189 0.0003 0.04764242135458 0.0077777777777574 0
          0.04764242135458 0.0077777777777574 0.00015 0.04764242135458 0.0077777777777574 0.0003
          0.04764242135458 0.0097222222222011 0 0.04764242135458 0.0097222222222011 0.00015
          0.04764242135458 0.0097222222222011 0.0003 0.04764242135458 0.011666666666651 0
          0.04764242135458 0.011666666666651 0.00015 0.04764242135458 0.011666666666651 0.0003
          0.04764242135458 0.0136111111111 0 0.04764242135458 0.0136111111111 0.00015
          0.04764242135458 0.0136111111111 0.0003 0.04764242135458 0.015555555555549 0
          0.04764242135458 0.015555555555549 0.00015 0.04764242135458 0.015555555555549 0.0003
          0.04764242135458 0.0175 0 0.04764242135458 0.0175 0.00015
          0.04764242135458 0.0175 0.0003 0.048753532465692 0 0
          0.048753532465692 0.0019444444444413 0 0.048753532465692 0 0.00015
          0.048753532465692 0.0019444444444413 0.00015 0.048753532465692 0 0.0003
          0.048753532465692 0.0019444444444413 0.0003 0.048753532465692 0.0038888888888803 0
          0.048753532465692 0.0038888888888803 0.00015 0.048753532465692 0.0038888888888803 0.0003
          0.048753532465692 0.0058333333333189 0 0.048753532465692 0.0058333333333189 0.00015
          0.048753532465692 0.0058333333333189 0.0003 0.048753532465692 0.0077777777777574 0
          0.048753532465692 0.0077777777777574 0.00015 0.048753532465692 0.0077777777777574 0.0003
          0.048753532465692 0.0097222222222011 0 0.048753532465692 0.0097222222222011 0.00015
          0.048753532465692 0.0097222222222011 0.0003 0.048753532465692 0.011666666666651 0
          0.048753532465692 0.011666666666651 0.00015 0.048753532465692 0.011666666666651 0.0003
          0.048753532465692 0.0136111111111 0 0.048753532465692 0.0136111111111 0.00015
          0.048753532465692 0.0136111111111 0.0003 0.048753532465692 0.015555555555549 0
          0.048753532465692 0.015555555555549 0.00015 0.048753532465692 0.015555555555549 0.0003
          0.048753532465692 0.0175 0 0.048753532465692 0.0175 0.00015
          0.048753532465692 0.0175 0.0003 0.0498646435768 0 0
          0.0498646435768 0.0019444444444413 0 0.0498646435768 0 0.00015
          0.0498646435768 0.0019444444444413 0.00015 0.0498646435768 0 0.0003
          0.0498646435768 0.0019444444444413 0.0003 0.0498646435768 0.0038888888888803 0
          0.0498646435768 0.0038888888888803 0.00015 0.0498646435768 0.0038888888888803 0.0003
          0.0498646435768 0.0058333333333189 0 0.0498646435768 0.0058333333333189 0.00015
          0.0498646435768 0.0058333333333189 0.0003 0.0498646435768 0.0077777777777574 0
          0.0498646435768 0.0077777777777574 0.00015 0.0498646435768 0.0077777777777574 0.0003
          0.0498646435768 0.0097222222222011 0 0.0498646435768 0.0097222222222011 0.00015
          0.0498646435768 0.0097222222222011 0.0003 0.0498646435768 0.011666666666651 0
          0.0498646435768 0.011666666666651 0.00015 0.0498646435768 0.011666666666651 0.0003
          0.0498646435768 0.0136111111111 0 0.0498646435768 0.0136111111111 0.00015
          0.0498646435768 0.0136111111111 0.0003 0.0498646435768 0.015555555555549 0
          0.0498646435768 0.015555555555549 0.00015 0.0498646435768 0.015555555555549 0.0003
          0.0498646435768 0.0175 0 0.0498646435768 0.0175 0.00015
          0.0498646435768 0.0175 0.0003 0.050975754687912 0 0
          0.050975754687912 0.0019444444444413 0 0.050975754687912 0 0.00015
          0.050975754687912 0.0019444444444413 0.00015 0.050975754687912 0 0.0003
          0.050975754687912 0.0019444444444413 0.0003 0.050975754687912 0.0038888888888803 0
          0.050975754687912 0.0038888888888803 0.00015 0.050975754687912 0.0038888888888803 0.0003
          0.050975754687912 0.0058333333333189 0 0.050975754687912 0.0058333333333189 0.00015
          0.050975754687912 0.0058333333333189 0.0003 0.050975754687912 0.0077777777777574 0
          0.050975754687912 0.0077777777777574 0.00015 0.050975754687912 0.0077777777777574 0.0003
          0.050975754687912 0.0097222222222011 0 0.050975754687912 0.0097222222222011 0.00015
          0.050975754687912 0.0097222222222011 0.0003 0.050975754687912 0.011666666666651 0
          0.050975754687912 0.011666666666651 0.00015 0.050975754687912 0.011666666666651 0.0003
          0.050975754687912 0.0136111111111 0 0.050975754687912 0.0136111111111 0.00015
          0.050975754687912 0.0136111111111 0.0003 0.050975754687912 0.015555555555549 0
          0.050975754687912 0.015555555555549 0.00015 0.050975754687912 0.015555555555549 0.0003
          0.050975754687912 0.0175 0 0.050975754687912 0.0175 0.00015
          0.050975754687912 0.0175 0.0003 0.052086865799025 0 0
          0.052086865799025 0.0019444444444413 0 0.052086865799025 0 0.00015
          0.052086865799025 0.0019444444444413 0.00015 0.052086865799025 0 0.0003
          0.052086865799025 0.0019444444444413 0.0003 0.052086865799025 0.0038888888888803 0
          0.052086865799025 0.0038888888888803 0.00015 0.052086865799025 0.0038888888888803 0.0003
          0.052086865799025 0.0058333333333189 0 0.052086865799025 0.0058333333333189 0.00015
          0.052086865799025 0.0058333333333189 0.0003 0.052086865799025 0.0077777777777574 0
          0.052086865799025 0.0077777777777574 0.00015 0.052086865799025 0.0077777777777574 0.0003
          0.052086865799025 0.0097222222222011 0 0.052086865799025 0.0097222222222011 0.00015
          0.052086865799025 0.0097222222222011 0.0003 0.052086865799025 0.011666666666651 0
          0.052086865799025 0.011666666666651 0.00015 0.052086865799025 0.011666666666651 0.0003
          0.052086865799025 0.0136111111111 0 0.052086865799025 0.0136111111111 0.00015
          0.052086865799025 0.0136111111111 0.0003 0.052086865799025 0.015555555555549 0
          0.052086865799025 0.015555555555549 0.00015 0.052086865799025 0.015555555555549 0.0003
          0.052086865799025 0.0175 0 0.052086865799025 0.0175 0.00015
          0.052086865799025 0.0175 0.0003 0.05319797691014 0 0
          0.05319797691014 0.0019444444444413 0 0.05319797691014 0 0.00015
          0.05319797691014 0.0019444444444413 0.00015 0.05319797691014 0 0.0003
          0.05319797691014 0.0019444444444413 0.0003 0.05319797691014 0.0038888888888803 0
          0.05319797691014 0.0038888888888803 0.00015 0.05319797691014 0.0038888888888803 0.0003
          0.05319797691014 0.0058333333333189 0 0.05319797691014 0.0058333333333189 0.00015
          0.05319797691014 0.0058333333333189 0.0003 0.05319797691014 0.0077777777777574 0
          0.05319797691014 0.0077777777777574 0.00015 0.05319797691014 0.0077777777777574 0.0003
          0.05319797691014 0.0097222222222011 0 0.05319797691014 0.0097222222222011 0.00015
          0.05319797691014 0.0097222222222011 0.0003 0.05319797691014 0.011666666666651 0
          0.05319797691014 0.011666666666651 0.00015 0.05319797691014 0.011666666666651 0.0003
          0.05319797691014 0.0136111111111 0 0.05319797691014 0.0136111111111 0.00015
          0.05319797691014 0.0136111111111 0.0003 0.05319797691014 0.015555555555549 0
          0.05319797691014 0.015555555555549 0.00015 0.05319797691014 0.015555555555549 0.0003
          0.05319797691014 0.0175 0 0.05319797691014 0.0175 0.00015
          0.05319797691014 0.0175 0.0003 0.054309088021254 0 0
          0.054309088021254 0.0019444444444413 0 0.054309088021254 0 0.00015
          0.054309088021254 0.0019444444444413 0.00015 0.054309088021254 0 0.0003
          0.054309088021254 0.0019444444444413 0.0003 0.054309088021254 0.0038888888888803 0
          0.054309088021254 0.0038888888888803 0.00015 0.054309088021254 0.0038888888888803 0.0003
          0.054309088021254 0.0058333333333189 0 0.054309088021254 0.0058333333333189 0.00015
          0.054309088021254 0.0058333333333189 0.0003 0.054309088021254 0.0077777777777574 0
          0.054309088021254 0.0077777777777574 0.00015 0.054309088021254 0.0077777777777574 0.0003
          0.054309088021254 0.0097222222222011 0 0.054309088021254 0.0097222222222011 0.00015
          0.054309088021254 0.0097222222222011 0.0003 0.054309088021254 0.011666666666651 0
          0.054309088021254 0.011666666666651 0.00015 0.054309088021254 0.011666666666651 0.0003
          0.054309088021254 0.0136111111111 0 0.054309088021254 0.0136111111111 0.00015
          0.054309088021254 0.0136111111111 0.0003 0.054309088021254 0.015555555555549 0
          0.054309088021254 0.015555555555549 0.00015 0.054309088021254 0.015555555555549 0.0003
          0.054309088021254 0.0175 0 0.054309088021254 0.0175 0.00015
          0.054309088021254 0.0175 0.0003
          <InformationKey name="L2_NORM_RANGE" location="vtkDataArray" length="2">
            <Value index="0">
              0.019949534491
            </Value>
            <Value index="1">
              0.057059767277
            </Value>
          </InformationKey>
        </DataArray>
      </Points>
      <Cells>
        <DataArray type="Int64" Name="connectivity" format="ascii" RangeMin="0" RangeMax="818">
          0 1 2 3 4 5
          6 7 4 5 6 7
          8 9 10 11 12 13
          14 15 16 17 18 19
          16 17 18 19 20 21
          22 23 24 0 3 25
          26 4 7 27 26 4
          7 27 28 8 11 29
          30 31 32 14 33 34
          35 18 33 34 35 18
          36 37 38 22 39 40
          41 42 43 44 45 46
          43 44 45 46 47 48
          49 50 51 52 53 54
          55 56 57 58 55 56
          57 58 59 60 61 62
          13 63 64 65 17 66
          67 68 17 66 67 68
          21 69 70 71 0 24
          32 72 4 26 35 73
          4 26 35 73 8 28
          38 74 24 15 14 32
          26 19 18 35 26 19
          18 35 28 23 22 38
          13 65 30 14 17 68
          33 18 17 68 33 18
          21 71 36 22 93 94
          95 96 97 98 99 100
          97 98 99 100 101 102
          103 104 72 32 31 81
          73 35 34 83 73 35
          34 83 74 38 37 85
          53 40 39 54 57 44
          43 58 57 44 43 58
          61 48 47 62 31 30
          111 82 34 33 112 84
          34 33 112 84 37 36
          113 86 12 15 114 115
          16 19 116 117 16 19
          116 117 20 23 118 119
          120 121 122 123 124 125
          126 127 124 125 126 127
          128 129 130 131 64 76
          75 65 67 78 77 68
          67 78 77 68 70 80
          79 71 132 133 54 39
          134 135 58 43 134 135
          58 43 136 137 62 47
          53 141 41 40 57 142
          45 44 57 142 45 44
          61 143 49 48 111 30
          65 75 112 33 68 77
          112 33 68 77 113 36
          71 79 54 150 151 51
          58 152 153 55 58 152
          153 55 62 154 155 59
          156 122 121 157 158 126
          125 159 158 126 125 159
          160 130 129 161 162 88
          108 138 163 90 109 139
          163 90 109 139 164 92
          110 140 168 87 88 162
          169 89 90 163 169 89
          90 163 170 91 92 164
          121 165 171 157 125 166
          172 159 125 166 172 159
          129 167 173 161 132 39
          42 183 134 43 46 184
          134 43 46 184 136 47
          50 185 186 96 95 187
          188 100 99 189 188 100
          99 189 190 104 103 191
          192 193 122 156 194 195
          126 158 194 195 126 158
          196 197 130 160 183 42
          96 186 184 46 100 188
          184 46 100 188 185 50
          104 190 151 150 198 199
          153 152 200 201 153 152
          200 201 155 154 202 203
          174 145 144 204 175 147
          146 205 175 147 146 205
          176 149 148 206 193 192
          95 204 195 194 99 205
          195 194 99 205 197 196
          103 206 123 122 193 210
          127 126 195 211 127 126
          195 211 131 130 197 212
          93 96 42 41 97 100
          46 45 97 100 46 45
          101 104 50 49 213 214
          87 168 215 216 89 169
          215 216 89 169 217 218
          91 170 178 219 220 177
          180 221 222 179 180 221
          222 179 182 223 224 181
          225 141 226 227 228 142
          229 230 228 142 229 230
          231 143 232 233 120 105
          165 121 124 106 166 125
          124 106 166 125 128 107
          167 129 210 193 204 144
          211 195 205 146 211 195
          205 146 212 197 206 148
          219 227 234 220 221 230
          235 222 221 230 235 222
          223 233 236 224 94 174
          204 95 98 175 205 99
          98 175 205 99 102 176
          206 103 192 156 237 238
          194 158 239 240 194 158
          239 240 196 160 241 242
          243 2 1 244 245 6
          5 246 245 6 5 246
          247 10 9 248 227 226
          249 234 230 229 250 235
          230 229 250 235 233 232
          251 236 238 187 95 192
          240 189 99 194 240 189
          99 194 242 191 103 196
          252 207 87 214 253 208
          89 216 253 208 89 216
          254 209 91 218 187 255
          115 186 189 256 117 188
          189 256 117 188 191 257
          119 190 94 162 138 174
          98 163 139 175 98 163
          139 175 102 164 140 176
          64 63 237 171 67 66
          239 172 67 66 239 172
          70 69 241 173 41 213
          168 93 45 215 169 97
          45 215 169 97 49 217
          170 101 2 198 133 3
          6 200 135 7 6 200
          135 7 10 202 137 11
          25 114 15 24 27 116
          19 26 27 116 19 26
          29 118 23 28 114 183
          186 115 116 184 188 117
          116 184 188 117 118 185
          190 119 51 151 258 259
          55 153 260 261 55 153
          260 261 59 155 262 263
          226 52 264 249 229 56
          265 250 229 56 265 250
          232 60 266 251 198 150
          54 133 200 152 58 135
          200 152 58 135 202 154
          62 137 64 171 165 76
          67 172 166 78 67 172
          166 78 70 173 167 80
          52 51 259 264 56 55
          261 265 56 55 261 265
          60 59 263 266 171 237
          156 157 172 239 158 159
          172 239 158 159 173 241
          160 161 252 214 213 225
          253 216 215 228 253 216
          215 228 254 218 217 231
          151 199 267 258 153 201
          268 260 153 201 268 260
          155 203 269 262 63 13
          12 270 66 17 16 271
          66 17 16 271 69 21
          20 272 270 255 187 238
          271 256 189 240 271 256
          189 240 272 257 191 242
          199 198 2 243 201 200
          6 245 201 200 6 245
          203 202 10 247 225 213
          41 141 228 215 45 142
          228 215 45 142 231 217
          49 143 52 226 141 53
          56 229 142 57 56 229
          142 57 60 232 143 61
          25 132 183 114 27 134
          184 116 27 134 184 116
          29 136 185 118 252 225
          227 219 253 228 230 221
          253 228 230 221 254 231
          233 223 219 178 207 252
          221 180 208 253 221 180
          208 253 223 182 209 254
          25 3 133 132 27 7
          135 134 27 7 135 134
          29 11 137 136 93 168
          162 94 97 169 163 98
          97 169 163 98 101 170
          164 102 270 12 115 255
          271 16 117 256 271 16
          117 256 272 20 119 257
          199 243 273 267 201 245
          274 268 201 245 274 268
          203 247 275 269 63 270
          238 237 66 271 240 239
          66 271 240 239 69 272
          242 241 243 244 276 273
          245 246 277 274 245 246
          277 274 247 248 278 275
          276 244 1 279 277 246
          5 280 277 246 5 280
          278 248 9 281 285 72
          81 282 286 73 83 283
          286 73 83 283 287 74
          85 284 288 0 72 285
          289 4 73 286 289 4
          73 286 290 8 74 287
          291 1 0 288 292 5
          4 289 292 5 4 289
          293 9 8 290 294 279
          1 291 295 280 5 292
          295 280 5 292 296 281
          9 293 303 297 298 304
          305 299 300 306 305 299
          300 306 307 301 302 308
          309 303 304 310 311 305
          306 312 311 305 306 312
          313 307 308 314 315 309
          310 316 317 311 312 318
          317 311 312 318 319 313
          314 320 321 315 316 322
          323 317 318 324 323 317
          318 324 325 319 320 326
          327 321 322 328 329 323
          324 330 329 323 324 330
          331 325 326 332 333 327
          328 334 335 329 330 336
          335 329 330 336 337 331
          332 338 339 333 334 340
          341 335 336 342 341 335
          336 342 343 337 338 344
          348 345 297 303 349 346
          299 305 349 346 299 305
          350 347 301 307 351 348
          303 309 352 349 305 311
          352 349 305 311 353 350
          307 313 354 351 309 315
          355 352 311 317 355 352
          311 317 356 353 313 319
          357 354 315 321 358 355
          317 323 358 355 317 323
          359 356 319 325 360 357
          321 327 361 358 323 329
          361 358 323 329 362 359
          325 331 363 360 327 333
          364 361 329 335 364 361
          329 335 365 362 331 337
          366 363 333 339 367 364
          335 341 367 364 335 341
          368 365 337 343 372 369
          345 348 373 370 346 349
          373 370 346 349 374 371
          347 350 375 372 348 351
          376 373 349 352 376 373
          349 352 377 374 350 353
          378 375 351 354 379 376
          352 355 379 376 352 355
          380 377 353 356 381 378
          354 357 382 379 355 358
          382 379 355 358 383 380
          356 359 384 381 357 360
          385 382 358 361 385 382
          358 361 386 383 359 362
          387 384 360 363 388 385
          361 364 388 385 361 364
          389 386 362 365 390 387
          363 366 391 388 364 367
          391 388 364 367 392 389
          365 368 396 393 369 372
          397 394 370 373 397 394
          370 373 398 395 371 374
          399 396 372 375 400 397
          373 376 400 397 373 376
          401 398 374 377 402 399
          375 378 403 400 376 379
          403 400 376 379 404 401
          377 380 405 402 378 381
          406 403 379 382 406 403
          379 382 407 404 380 383
          408 405 381 384 409 406
          382 385 409 406 382 385
          410 407 383 386 411 408
          384 387 412 409 385 388
          412 409 385 388 413 410
          386 389 414 411 387 390
          415 412 388 391 415 412
          388 391 416 413 389 392
          420 417 393 396 421 418
          394 397 421 418 394 397
          422 419 395 398 423 420
          396 399 424 421 397 400
          424 421 397 400 425 422
          398 401 426 423 399 402
          427 424 400 403 427 424
          400 403 428 425 401 404
          429 426 402 405 430 427
          403 406 430 427 403 406
          431 428 404 407 432 429
          405 408 433 430 406 409
          433 430 406 409 434 431
          407 410 435 432 408 411
          436 433 409 412 436 433
          409 412 437 434 410 413
          438 435 411 414 439 436
          412 415 439 436 412 415
          440 437 413 416 447 444
          417 420 448 445 418 421
          448 445 418 421 449 446
          419 422 450 447 420 423
          451 448 421 424 451 448
          421 424 452 449 422 425
          453 450 423 426 454 451
          424 427 454 451 424 427
          455 452 425 428 456 453
          426 429 457 454 427 430
          457 454 427 430 458 455
          428 431 459 456 429 432
          460 457 430 433 460 457
          430 433 461 458 431 434
          462 459 432 435 463 460
          433 436 463 460 433 436
          464 461 434 437 465 462
          435 438 466 463 436 439
          466 463 436 439 467 464
          437 440 471 468 441 444
          472 469 442 445 472 469
          442 445 473 470 443 446
          474 471 444 447 475 472
          445 448 475 472 445 448
          476 473 446 449 477 474
          447 450 478 475 448 451
          478 475 448 451 479 476
          449 452 480 477 450 453
          481 478 451 454 481 478
          451 454 482 479 452 455
          483 480 453 456 484 481
          454 457 484 481 454 457
          485 482 455 458 486 483
          456 459 487 484 457 460
          487 484 457 460 488 485
          458 461 489 486 459 462
          490 487 460 463 490 487
          460 463 491 488 461 464
          492 489 462 465 493 490
          463 466 493 490 463 466
          494 491 464 467 498 495
          468 471 499 496 469 472
          499 496 469 472 500 497
          470 473 501 498 471 474
          502 499 472 475 502 499
          472 475 503 500 473 476
          504 501 474 477 505 502
          475 478 505 502 475 478
          506 503 476 479 507 504
          477 480 508 505 478 481
          508 505 478 481 509 506
          479 482 510 507 480 483
          511 508 481 484 511 508
          481 484 512 509 482 485
          513 510 483 486 514 511
          484 487 514 511 484 487
          515 512 485 488 516 513
          486 489 517 514 487 490
          517 514 487 490 518 515
          488 491 519 516 489 492
          520 517 490 493 520 517
          490 493 521 518 491 494
          525 522 495 498 526 523
          496 499 526 523 496 499
          527 524 497 500 528 525
          498 501 529 526 499 502
          529 526 499 502 530 527
          500 503 531 528 501 504
          532 529 502 505 532 529
          502 505 533 530 503 506
          534 531 504 507 535 532
          505 508 535 532 505 508
          536 533 506 509 537 534
          507 510 538 535 508 511
          538 535 508 511 539 536
          509 512 540 537 510 513
          541 538 511 514 541 538
          511 514 542 539 512 515
          543 540 513 516 544 541
          514 517 544 541 514 517
          545 542 515 518 546 543
          516 519 547 544 517 520
          547 544 517 520 548 545
          518 521 340 549 550 339
          342 551 552 341 342 551
          552 341 344 553 554 343
          339 550 555 366 341 552
          556 367 341 552 556 367
          343 554 557 368 366 555
          558 390 367 556 559 391
          367 556 559 391 368 557
          560 392 390 558 561 414
          391 559 562 415 391 559
          562 415 392 560 563 416
          414 561 564 438 415 562
          565 439 415 562 565 439
          416 563 566 440 438 564
          567 465 439 565 568 466
          439 565 568 466 440 566
          569 467 465 567 570 492
          466 568 571 493 466 568
          571 493 467 569 572 494
          492 570 573 519 493 571
          574 520 493 571 574 520
          494 572 575 521 519 573
          576 546 520 574 577 547
          520 574 577 547 521 575
          578 548 549 579 580 550
          551 581 582 552 551 581
          582 552 553 583 584 554
          550 580 585 555 552 582
          586 556 552 582 586 556
          554 584 587 557 555 585
          588 558 556 586 589 559
          556 586 589 559 557 587
          590 560 558 588 591 561
          559 589 592 562 559 589
          592 562 560 590 593 563
          561 591 594 564 562 592
          595 565 562 592 595 565
          563 593 596 566 564 594
          597 567 565 595 598 568
          565 595 598 568 566 596
          599 569 567 597 600 570
          568 598 601 571 568 598
          601 571 569 599 602 572
          570 600 603 573 571 601
          604 574 571 601 604 574
          572 602 605 575 573 603
          606 576 574 604 607 577
          574 604 607 577 575 605
          608 578 579 609 610 580
          581 611 612 582 581 611
          612 582 583 613 614 584
          580 610 615 585 582 612
          616 586 582 612 616 586
          584 614 617 587 585 615
          618 588 586 616 619 589
          586 616 619 589 587 617
          620 590 588 618 621 591
          589 619 622 592 589 619
          622 592 590 620 623 593
          591 621 624 594 592 622
          625 595 592 622 625 595
          593 623 626 596 594 624
          627 597 595 625 628 598
          595 625 628 598 596 626
          629 599 597 627 630 600
          598 628 631 601 598 628
          631 601 599 629 632 602
          600 630 633 603 601 631
          634 604 601 631 634 604
          602 632 635 605 603 633
          636 606 604 634 637 607
          604 634 637 607 605 635
          638 608 609 639 640 610
          611 641 642 612 611 641
          642 612 613 643 644 614
          610 640 645 615 612 642
          646 616 612 642 646 616
          614 644 647 617 615 645
          648 618 616 646 649 619
          616 646 649 619 617 647
          650 620 618 648 651 621
          619 649 652 622 619 649
          652 622 620 650 653 623
          621 651 654 624 622 652
          655 625 622 652 655 625
          623 653 656 626 624 654
          657 627 625 655 658 628
          625 655 658 628 626 656
          659 629 627 657 660 630
          628 658 661 631 628 658
          661 631 629 659 662 632
          630 660 663 633 631 661
          664 634 631 661 664 634
          632 662 665 635 633 663
          666 636 634 664 667 637
          634 664 667 637 635 665
          668 638 639 669 670 640
          641 671 672 642 641 671
          672 642 643 673 674 644
          640 670 675 645 642 672
          676 646 642 672 676 646
          644 674 677 647 645 675
          678 648 646 676 679 649
          646 676 679 649 647 677
          680 650 648 678 681 651
          649 679 682 652 649 679
          682 652 650 680 683 653
          651 681 684 654 652 682
          685 655 652 682 685 655
          653 683 686 656 654 684
          687 657 655 685 688 658
          655 685 688 658 656 686
          689 659 657 687 690 660
          658 688 691 661 658 688
          691 661 659 689 692 662
          660 690 693 663 661 691
          694 664 661 691 694 664
          662 692 695 665 663 693
          696 666 664 694 697 667
          664 694 697 667 665 695
          698 668 669 699 700 670
          671 701 702 672 671 701
          702 672 673 703 704 674
          670 700 705 675 672 702
          706 676 672 702 706 676
          674 704 707 677 675 705
          708 678 676 706 709 679
          676 706 709 679 677 707
          710 680 678 708 711 681
          679 709 712 682 679 709
          712 682 680 710 713 683
          681 711 714 684 682 712
          715 685 682 712 715 685
          683 713 716 686 684 714
          717 687 685 715 718 688
          685 715 718 688 686 716
          719 689 687 717 720 690
          688 718 721 691 688 718
          721 691 689 719 722 692
          690 720 723 693 691 721
          724 694 691 721 724 694
          692 722 725 695 693 723
          726 696 694 724 727 697
          694 724 727 697 695 725
          728 698 699 729 730 700
          701 731 732 702 701 731
          732 702 703 733 734 704
          700 730 735 705 702 732
          736 706 702 732 736 706
          704 734 737 707 705 735
          738 708 706 736 739 709
          706 736 739 709 707 737
          740 710 708 738 741 711
          709 739 742 712 709 739
          742 712 710 740 743 713
          711 741 744 714 712 742
          745 715 712 742 745 715
          713 743 746 716 714 744
          747 717 715 745 748 718
          715 745 748 718 716 746
          749 719 717 747 750 720
          718 748 751 721 718 748
          751 721 719 749 752 722
          720 750 753 723 721 751
          754 724 721 751 754 724
          722 752 755 725 723 753
          756 726 724 754 757 727
          724 754 757 727 725 755
          758 728 729 759 760 730
          731 761 762 732 731 761
          762 732 733 763 764 734
          730 760 765 735 732 762
          766 736 732 762 766 736
          734 764 767 737 735 765
          768 738 736 766 769 739
          736 766 769 739 737 767
          770 740 738 768 771 741
          739 769 772 742 739 769
          772 742 740 770 773 743
          741 771 774 744 742 772
          775 745 742 772 775 745
          743 773 776 746 744 774
          777 747 745 775 778 748
          745 775 778 748 746 776
          779 749 747 777 780 750
          748 778 781 751 748 778
          781 751 749 779 782 752
          750 780 783 753 751 781
          784 754 751 781 784 754
          752 782 785 755 753 783
          786 756 754 784 787 757
          754 784 787 757 755 785
          788 758 759 789 790 760
          761 791 792 762 761 791
          792 762 763 793 794 764
          760 790 795 765 762 792
          796 766 762 792 796 766
          764 794 797 767 765 795
          798 768 766 796 799 769
          766 796 799 769 767 797
          800 770 768 798 801 771
          769 799 802 772 769 799
          802 772 770 800 803 773
          771 801 804 774 772 802
          805 775 772 802 805 775
          773 803 806 776 774 804
          807 777 775 805 808 778
          775 805 808 778 776 806
          809 779 777 807 810 780
          778 808 811 781 778 808
          811 781 779 809 812 782
          780 810 813 783 781 811
          814 784 781 811 814 784
          782 812 815 785 783 813
          816 786 784 814 817 787
          784 814 817 787 785 815
          818 788
        </DataArray>
        <DataArray type="Int64" Name="offsets" format="ascii" RangeMin="8" RangeMax="3632">
          8 16 24 32 40 48
          56 64 72 80 88 96
          104 112 120 128 136 144
          152 160 168 176 184 192
          200 208 216 224 232 240
          248 256 264 272 280 288
          296 304 312 320 328 336
          344 352 360 368 376 384
          392 400 408 416 424 432
          440 448 456 464 472 480
          488 496 504 512 520 528
          536 544 552 560 568 576
          584 592 600 608 616 624
          632 640 648 656 664 672
          680 688 696 704 712 720
          728 736 744 752 760 768
          776 784 792 800 808 816
          824 832 840 848 856 864
          872 880 888 896 904 912
          920 928 936 944 952 960
          968 976 984 992 1000 1008
          1016 1024 1032 1040 1048 1056
          1064 1072 1080 1088 1096 1104
          1112 1120 1128 1136 1144 1152
          1160 1168 1176 1184 1192 1200
          1208 1216 1224 1232 1240 1248
          1256 1264 1272 1280 1288 1296
          1304 1312 1320 1328 1336 1344
          1352 1360 1368 1376 1384 1392
          1400 1408 1416 1424 1432 1440
          1448 1456 1464 1472 1480 1488
          1496 1504 1512 1520 1528 1536
          1544 1552 1560 1568 1576 1584
          1592 1600 1608 1616 1624 1632
          1640 1648 1656 1664 1672 1680
          1688 1696 1704 1712 1720 1728
          1736 1744 1752 1760 1768 1776
          1784 1792 1800 1808 1816 1824
          1832 1840 1848 1856 1864 1872
          1880 1888 1896 1904 1912 1920
          1928 1936 1944 1952 1960 1968
          1976 1984 1992 2000 2008 2016
          2024 2032 2040 2048 2056 2064
          2072 2080 2088 2096 2104 2112
          2120 2128 2136 2144 2152 2160
          2168 2176 2184 2192 2200 2208
          2216 2224 2232 2240 2248 2256
          2264 2272 2280 2288 2296 2304
          2312 2320 2328 2336 2344 2352
          2360 2368 2376 2384 2392 2400
          2408 2416 2424 2432 2440 2448
          2456 2464 2472 2480 2488 2496
          2504 2512 2520 2528 2536 2544
          2552 2560 2568 2576 2584 2592
          2600 2608 2616 2624 2632 2640
          2648 2656 2664 2672 2680 2688
          2696 2704 2712 2720 2728 2736
          2744 2752 2760 2768 2776 2784
          2792 2800 2808 2816 2824 2832
          2840 2848 2856 2864 2872 2880
          2888 2896 2904 2912 2920 2928
          2936 2944 2952 2960 2968 2976
          2984 2992 3000 3008 3016 3024
          3032 3040 3048 3056 3064 3072
          3080 3088 3096 3104 3112 3120
          3128 3136 3144 3152 3160 3168
          3176 3184 3192 3200 3208 3216
          3224 3232 3240 3248 3256 3264
          3272 3280 3288 3296 3304 3312
          3320 3328 3336 3344 3352 3360
          3368 3376 3384 3392 3400 3408
          3416 3424 3432 3440 3448 3456
          3464 3472 3480 3488 3496 3504
          3512 3520 3528 3536 3544 3552
          3560 3568 3576 3584 3592 3600
          3608 3616 3624 3632
        </DataArray>
        <DataArray type="UInt8" Name="types" format="ascii" RangeMin="12" RangeMax="12">
          12 12 12 12 12 12
          12 12 12 12 12 12
          12 12 12 12 12 12
          12 12 12 12 12 12
          12 12 12 12 12 12
          12 12 12 12 12 12
          12 12 12 12 12 12
          12 12 12 12 12 12
          12 12 12 12 12 12
          12 12 12 12 12 12
          12 12 12 12 12 12
          12 12 12 12 12 12
          12 12 12 12 12 12
          12 12 12 12 12 12
          12 12 12 12 12 12
          12 12 12 12 12 12
          12 12 12 12 12 12
          12 12 12 12 12 12
          12 12 12 12 12 12
          12 12 12 12 12 12
          12 12 12 12 12 12
          12 12 12 12 12 12
          12 12 12 12 12 12
          12 12 12 12 12 12
          12 12 12 12 12 12
          12 12 12 12 12 12
          12 12 12 12 12 12
          12 12 12 12 12 12
          12 12 12 12 12 12
          12 12 12 12 12 12
          12 12 12 12 12 12
          12 12 12 12 12 12
          12 12 12 12 12 12
          12 12 12 12 12 12
          12 12 12 12 12 12
          12 12 12 12 12 12
          12 12 12 12 12 12
          12 12 12 12 12 12
          12 12 12 12 12 12
          12 12 12 12 12 12
          12 12 12 12 12 12
          12 12 12 12 12 12
          12 12 12 12 12 12
          12 12 12 12 12 12
          12 12 12 12 12 12
          12 12 12 12 12 12
          12 12 12 12 12 12
          12 12 12 12 12 12
          12 12 12 12 12 12
          12 12 12 12 12 12
          12 12 12 12 12 12
          12 12 12 12 12 12
          12 12 12 12 12 12
          12 12 12 12 12 12
          12 12 12 12 12 12
          12 12 12 12 12 12
          12 12 12 12 12 12
          12 12 12 12 12 12
          12 12 12 12 12 12
          12 12 12 12 12 12
          12 12 12 12 12 12
          12 12 12 12 12 12
          12 12 12 12 12 12
          12 12 12 12 12 12
          12 12 12 12 12 12
          12 12 12 12 12 12
          12 12 12 12 12 12
          12 12 12 12 12 12
          12 12 12 12 12 12
          12 12 12 12 12 12
          12 12 12 12 12 12
          12 12 12 12 12 12
          12 12 12 12 12 12
          12 12 12 12 12 12
          12 12 12 12 12 12
          12 12 12 12
        </DataArray>
      </Cells>
    </Piece>
  </UnstructuredGrid>
</VTKFile>
