<?xml version="1.0"?>
<VTKFile type="UnstructuredGrid" version="0.1" byte_order="LittleEndian" header_type="UInt32" compressor="vtkZLibDataCompressor">
  <UnstructuredGrid>
    <Piece NumberOfPoints="756" NumberOfCells="468">
      <PointData>
        <DataArray type="Int32" Name="libmesh_node_id" format="ascii" RangeMin="120" RangeMax="2168">
          120 121 122 123 124 125
          126 127 128 129 130 131
          132 133 134 135 136 137
          138 139 140 141 142 143
          144 145 146 147 148 149
          150 151 152 153 154 155
          156 157 158 159 160 161
          162 163 164 165 166 167
          168 169 170 171 172 173
          174 175 176 177 178 179
          240 241 242 243 244 245
          246 247 248 249 250 251
          252 253 254 255 256 257
          258 259 260 261 262 263
          264 265 266 267 268 269
          330 331 332 333 334 335
          336 337 338 339 340 341
          342 343 344 345 346 347
          348 349 350 351 352 353
          354 355 356 357 358 359
          420 421 422 423 424 425
          426 427 428 429 430 431
          432 433 434 435 436 437
          438 439 440 441 442 443
          444 445 446 447 448 449
          510 511 512 513 514 515
          516 517 518 519 520 521
          522 523 524 525 526 527
          528 529 530 531 532 533
          534 535 536 537 538 539
          600 601 602 603 604 605
          606 607 608 609 610 611
          612 613 614 615 616 617
          618 619 620 621 622 623
          624 625 626 627 628 629
          690 691 692 693 694 695
          696 697 698 699 700 701
          702 703 704 705 706 707
          708 709 710 711 712 713
          714 715 716 717 718 719
          780 781 782 783 784 785
          786 787 788 789 790 791
          792 793 794 795 796 797
          798 799 800 801 802 803
          804 805 806 807 808 809
          876 877 878 879 880 881
          882 883 884 885 886 887
          888 889 890 891 892 893
          894 895 896 897 898 899
          900 901 902 903 904 905
          906 907 908 909 910 911
          912 913 914 915 916 917
          918 919 920 921 922 923
          924 925 926 927 928 929
          930 931 932 933 934 935
          936 937 938 939 940 941
          942 943 944 945 946 947
          948 949 950 951 952 953
          954 955 956 957 958 959
          960 961 962 963 964 965
          966 967 968 969 970 971
          972 973 974 975 976 977
          978 979 980 981 982 983
          984 985 986 987 988 989
          990 991 992 993 994 995
          996 997 998 999 1000 1001
          1002 1003 1004 1005 1006 1007
          1008 1009 1010 1011 1012 1013
          1014 1015 1016 1017 1018 1019
          1020 1021 1022 1023 1024 1025
          1026 1027 1028 1029 1030 1031
          1032 1033 1034 1035 1036 1037
          1038 1039 1040 1041 1042 1043
          1044 1045 1046 1047 1048 1049
          1050 1051 1052 1053 1054 1055
          1056 1057 1058 1059 1060 1061
          1062 1063 1064 1065 1066 1067
          1068 1069 1070 1071 1072 1073
          1074 1075 1076 1077 1078 1079
          1080 1081 1082 1083 1084 1085
          1086 1087 1088 1089 1090 1091
          1092 1093 1094 1095 1096 1097
          1098 1099 1100 1101 1102 1103
          1104 1105 1106 1107 1108 1109
          1110 1111 1112 1113 1114 1115
          1116 1117 1118 1119 1120 1121
          1122 1123 1124 1125 1126 1127
          1128 1129 1130 1131 1132 1133
          1134 1135 1136 1137 1138 1139
          1140 1141 1142 1143 1144 1145
          1146 1147 1148 1149 1150 1151
          1152 1153 1154 1155 1156 1157
          1158 1159 1160 1161 1162 1163
          1164 1165 1166 1167 1168 1169
          1170 1171 1172 1173 1174 1175
          1176 1177 1178 1179 1180 1181
          1182 1183 1184 1185 1186 1187
          1188 1189 1190 1191 1192 1193
          1194 1195 1196 1197 1198 1199
          1200 1201 1202 1203 1204 1205
          1206 1207 1208 1209 1210 1211
          1212 1213 1214 1215 1216 1217
          1218 1219 1220 1221 1222 1223
          1224 1225 1226 1227 1228 1229
          1230 1231 1232 1233 1234 1235
          1236 1237 1238 1239 1240 1241
          1242 1243 1244 1245 1246 1247
          1248 1249 1250 1251 1252 1253
          1254 1255 1256 1257 1258 1259
          1260 1261 1262 1263 1264 1265
          1266 1267 1268 1269 1270 1271
          1893 1894 1895 1896 1897 1898
          1920 1921 1922 1923 1924 1925
          1947 1948 1949 1974 1975 1976
          2001 2002 2003 2028 2029 2030
          2055 2056 2057 2112 2113 2114
          2115 2116 2117 2124 2125 2126
          2127 2128 2129 2130 2131 2132
          2133 2134 2135 2148 2149 2150
          2151 2152 2153 2164 2166 2168
          1926 1899 1927 1900 1928 1901
          1950 1951 1952 1953 1954 1955
          1977 1978 1979 2004 2005 2006
          2031 2032 2033 2058 2059 2060
          2142 2144 2146 2163 2143 2096
          2165 2145 2100 2167 2147 2104
        </DataArray>
        <DataArray type="Float64" Name="resid_x" format="ascii" RangeMin="-14.20318088189006" RangeMax="1.5707424616963142">
          0.00008947753685006887 -6.383834707839103 0.00020128240787586904 -12.767428119893518 0.00008104723953117343 -6.383471675424657
          -8.80480375720083e-7 -6.388967847067908 -0.0000017823430495944592 -12.777513159823384 -0.0000712656963628433 -6.388290009218487
          0.000060735587894988896 -6.397363347652915 0.000045204586024638616 -12.794062168076643 -0.0000443208842950682 -6.396344518509227
          0.00004365459327493326 -6.410628435504092 0.000014978041023017141 -12.820238627653305 -0.000020084398628217315 -6.40915406457192
          0.00004451502268665308 -6.432452914341987 0.000023542679824739565 -12.863252029300828 0.00001609059671858759 -6.430142961624769
          0.00006215805992981771 -6.470229360098067 0.000064590926142305 -12.937557597304757 0.00004615484782721779 -6.466269266743527
          0.00008671363671242105 -6.542254766207081 0.0001069604861911877 -13.078409040880228 0.00005128012614008526 -6.533593266278244
          0.00009323574917896593 -6.690284290771868 0.00010896397873505492 -13.367719030963626 0.0000357560249324429 -6.672309745198998
          0.00008252517809825832 -7.127725016208003 0.00005479344663816832 -14.20318088189006 -0.000003209993669539557 -7.052166604428844
          -0.00004480761350617035 -4.517208102396601 -0.000051544418625398825 -8.931000242587377 0.00019177691908034422 -4.364039221122581
          -0.0002505706513535877 -0.00042153718881898783 -0.00029268537776783177 -0.00040794312845271463 -0.0006227714589850386 -0.00021487172833323243
          -0.00031975960269248205 -0.00037769865831327465 -0.00006981449855913979 -0.0001381047141273406 -0.00012207057945046174 -9.118919752637566e-8
          0.0000678072824622511 0.00009431843895768566 -0.000008942432541125811 0.00011395555869420093 0.00007072481512349071 -0.0001015974438698386
          0.000015290784840971128 -0.0000833775243607171 -0.00016492477419749463 -0.00016857886085874796 -0.0002935258635297089 -0.00010993312959817203
          -0.000704304246079257 -0.0009523763255971929 -0.00007345934596525439 -0.0009411770317442336 0.0020838865206691537 0.017687998902648605
          -0.0000859649873734547 -0.0000037063693998362623 -0.00002064262048628862 -0.000015900263270474113 -0.0000241893844203922 -0.0000017080368666100298
          -0.00000347700346869928 0.00001254947258555461 0.000006519410126415437 -0.00000789241304799404 0.0000027216319189449223 -0.000013561820140672864
          -0.000005657846238182884 0.000005559684680633836 -0.000014754638040681556 -0.0000034209351995606596 0.0000130849048147752 2.46220204225267e-7
          -0.000026473619254563374 -0.0000155927288192359 0.000008659679986422475 -0.000012070260374308361 -0.00001700564055973075 0.00003698233543580898
          -0.00008057739811961895 -0.00014411097207833734 0.00011645788205916219 -0.00023772926950092754 -0.01602937783876726 -0.03701059362889264
          -0.00007388056861801218 -0.0000016443093771023598 0.000012319256245341137 -0.000008632326277346891 -0.00001829611305881329 0.00000425099285239483
          -0.0000032143376316184913 0.000005597465391193879 0.000008859320129950277 -0.000007491686978333689 0.000003738007908982155 -0.000006759752190443891
          -0.000009169849939372199 0.000001305712478583132 -0.000011809960156483612 -0.000007239345415133158 -4.2422851809220674e-7 -0.0000021804559589000405
          -0.000022146292988800553 -0.000024022875826812395 0.000008932059238020429 -0.000012207438115474645 -0.000010826499821092739 0.00006255742768779271
          -0.000024644475129065313 -0.00008268069186190274 0.00011893436923005041 0.00011074628722096413 0.0001655402985978327 0.00037413508778394444
          -0.00009541955434633209 -0.000056172219926153844 0.000008429611780602642 -0.000001961815812023815 -0.000012191106810721664 0.000006534103841548955
          -0.000001283816146724348 0.0000026357776583552095 0.000007931040070019435 -0.000005138929917158919 0.000004594593648654666 -0.000003166096136375529
          -0.000009794802242168998 -0.0000011110505941935855 -0.00000836863043973679 -0.000008861619818834043 -0.000003868289095265709 0.0000026541781914524165
          -0.00002041323956580854 -0.00002209021126109434 0.000015145153509088516 -0.000005751218266958347 -0.000009440978864017069 0.00007257811367811229
          0.000025494881352727816 0.000012801609246437806 0.00018732839800650325 0.0000822817069738857 0.00011436950886389852 0.000267477764682611
          -0.00010954048290612306 -0.00009976689648416581 -3.927394107705595e-7 0.0000019578146375209826 -0.000007943664125598104 0.000005692156974657081
          0.0000013221457644263523 0.0000028157647031790134 0.000006033794669679793 -0.000004070392443100701 0.0000034144752105724763 -0.000001200713557469868
          -0.00000988843577376386 -0.0000021099064193563777 -0.0000044571213275723665 -0.000009758746199572954 -0.0000049003642739187114 0.000007462076510922344
          -0.000015961903475414374 -0.000015958073448896215 0.000023489622470229676 0.000011716659289895404 0.000011504850524257648 0.00008038117900044384
          -0.0000041487281934315945 -0.00003466104539606718 0.00015307873551062556 -0.00005982247074265423 -0.00012018315688955283 0.0001070755321591621
          -0.00009251946396826582 -0.00008660734772680811 0.0000038128973658402288 0.0000028970834931030254 -0.0000055402395049419795 0.0000020204733877093872
          0.0000028913302321242895 0.000004008883565553845 0.000003986546863732343 -0.000004630593910981418 0.0000011321548143428117 -4.24781921193329e-7
          -0.000009666278976361298 -0.0000024263261613199916 -0.0000014759122275442849 -0.000008446348365609424 -0.0000033635499492312704 0.000010723237616971915
          -0.00001200617912600066 -0.000009064685427606634 0.000030976501521617905 0.0000203431449325997 0.000027200134571359058 0.00009258627877750669
          -0.000007120139877692111 -0.00004972791204016502 0.0001380706434184198 -0.00009191256737128839 -0.0001680546759169621 0.00006951569812563285
          0.00018049565440536597 0.0004780211994130923 0.00020466388652540246 -0.00006536095631304306 -0.00005192051762215044 -0.000048458729043687754
          -0.0001530201374313478 -0.0002978584416934993 -0.0001525695001749483 -0.00002059391961939383 -0.00003445677786606538 -0.000019859399634558628
          -0.00000820433977111179 -0.0000031429699420826296 -0.0000020760111683060245 -0.000008020765914995565 -0.000002218688180288808 0.000012092563211218987
          -0.000007448996342418468 -0.000003918738103347863 0.00003459110095560547 0.000025403511717314586 0.00002906712789840782 0.00009821579975577421
          0.000010571271273018823 -0.00002362742043526822 0.00014850630494978034 -0.000013233453038274945 -0.000011244671740295864 0.00013748330834995048
          -0.00008350841798288045 -0.0003241125456581173 -0.00003824068606927966 -0.00012833625576513796 -0.00027297687552518823 -0.00003313052579212439
          -0.000059723761612229254 -0.00007362894599571845 0.00005414340141340901 -0.000048885556836797406 -0.00006672212419012169 0.00006786982792839069
          -0.000037849294705960546 -0.00004837649722411186 0.00012146651586197876 0.00002440600944098037 0.00003482359798967494 0.00028996841262696194
          0.0000768219267621717 0.00009713324052817995 0.000512193845525033 0.00008815081723745344 0.0001294855368099146 0.0004117034361792449
          -0.0001532199573801435 -0.00013448651762693054 0.0004378250638039094 0.0009304006435705836 -0.00032744425484065864 -0.0001856830495739481
          0.0007421305631368225 0.0016688414288289072 -0.0002463372499214578 -0.00010918653623015473 0.0003755286358246429 0.0008510872192044883
          0.00004398156011603538 0.0009003410544628082 0.00003699640708801355 0.001557281112946094 -0.000008246843278270077 0.0007406684347522063
          -0.0006723421341601615 0.00013052141835355469 -0.00010196468073429138 -0.0009243024577068465 0.0002978332241627482 -0.0001247300247123051
          -0.0003759934045692581 0.00017612675731045607 -0.00005502152908295338 0.020883349754683478 -0.03503960873189649 0.02278336767285527
          0.016021049645485785 0.04811619007481438 -0.1631532478466978 0.2891528343673469 0.08541847736555847 0.019302374993562688
          -0.061862120196787496 0.030707430928389234 0.044378964401913745 0.3532698617713551 -0.4442362565076281 -0.27472875384210593
          -0.8237066105207005 0.20682602723770005 -0.4208912777474184 -0.21631767506429989 -1.3325389724858958 0.19505629391693635
          -0.3328761141817675 -0.03586554303932071 -0.5147212634994395 -0.00011371206694010816 -0.052399697336995565 -0.09161793804621399
          0.06201968209957509 -0.03822614751501674 -0.039515639891778864 -0.06539805451675706 0.06031555837064273 -0.10766207064553379
          -0.0746738708739596 -0.07475092659258586 0.13352514194874887 0.13585137464211505 0.13657541747328672 -0.19356105427707643
          -0.060924961015932366 0.033311009225805766 0.03242568992463346 -0.05157959351838726 -0.018356533389801144 0.0004054815632716924
          0.000033846179390173425 -0.000054903505506964656 -0.0006918941043677629 0.00012421583200272757 0.0002568599344492384 0.00020673553099448405
          0.0004793202392679996 0.00014267503791987046 0.00028992246042691683 -0.021851540740511766 -0.06734772382600862 -0.04967697135752669
          -0.11941725660735747 -0.013128137719236932 -0.06931875341974691 -0.0002874355076803864 0.00015479496617268242 -0.00015620797541373134
          -0.00004608647638160157 -0.00011119980807396124 0.000451038865671426 -0.0002988964640725615 -0.00009071641680750975 0.00010945991287837631
          0.0002306671930500763 -0.0001488260095476755 -0.00012684858772071816 -0.0023284421597387084 -0.0017005347039878993 0.024142055466926937
          -1.2725659423894795 -0.003054836322755272 -0.0034209365144864945 0.15012028283956705 -2.5063961193953515 -0.00024138924259553551
          -0.0028324550980457497 0.0421624521335483 -1.1785208444018396 -0.08205216922628433 0.14143822273971118 -0.2516307618795519
          -0.070814320730892 -0.14508234188041624 0.1880571782625433 0.00016712925772310872 0.000026142454046085284 0.00024032588951816702
          0.0005355358108396491 0.0002831333190415064 0.00010366601337352677 0.0005300128244300761 0.0008345435593550832 0.00015540460037888337
          0.00009209323195047414 0.00028144384825781743 0.0003612729960289496 -0.26969785371956845 -0.14711653839412647 0.5331869537182465
          -0.26345178672670433 -0.6411859038568297 -0.16099952703889925 1.4435485620721349 -0.6778332040144591 -0.4643479159309586
          -0.07295578962792454 0.6797291127667034 -0.404851814625507 0.00008180184028369446 0.00015800356443446215 -0.0005193209637887157
          -0.00032742253104741346 0.00016583274112193583 0.0003020017694033055 -0.0011897669544229088 -0.0006795972497965538 0.00009593268216917875
          0.00016887599641827056 -0.0008760380785383104 -0.0004345736248790675 0.0006211195903096378 -0.00001599900727466963 0.00007668787947112676
          0.00006037153872240353 0.00020809593171322582 0.00027739292028128304 0.0389156703371516 0.008100055936219874 0.02743888717703813
          -0.00028381042593442207 -0.0003925888049600701 -0.0002807082750090062 -0.0009143479964507373 0.000001609917339440159 -0.0007396940580278177
          0.0007555361442415642 0.001020444706769097 -0.00044630809670154203 0.001223698815748686 0.0012177313300459902 -0.0003861564731856282
          0.0010535066524121062 0.000678919581042492 0.000055015747819187055 -0.69638219227918 0.09464401892021207 0.9025670878962918
          -0.8360623340225307 -1.131565373108934 0.03546936689951338 1.5707424616963142 -1.389947155618053 -0.43244090868345575
          0.43992307231807937 0.7967575529384832 -0.3824137499101435 -1.3497498680542614 -0.005747330297085795 -1.4355727170286967
          -2.6922279956385333 -0.07772182664551813 -2.860842184295486 -1.2655680227760298 0.01740654740080222 -1.271712922506756
          0.0001301205904965727 -0.02349876545232299 0.0002589946246706748 -0.005940398250807721 0.00019535065757819714 0.00026516097398876504
          0.00013723896976330918 -0.0015528758226708295 0.0005319797861601527 -0.0028079064131841247 -0.00014169712221578923 -0.0012085835091352193
          0.00014353253826782097 0.0005465261919783415 0.0005810497982323692 0.0008440575695299324 0.00021890931172452444 0.0006558016459098925
          -1.3164996187479812 -0.22112967352099655 0.012965699689615029 -1.3833818051678353 -3.105770273585492 0.8582928157416346
          0.09815964002728578 -2.673751107551468 -1.3893046897446903 -0.04905062206819444 0.48791568515310724 -1.2595714335543302
          -0.00018621225772030847 -0.003602838221757665 -0.0002706734491971785 -0.0034527799309158613 -0.006245856670517691 -0.018419543740430533
          -0.004236700158117834 -0.006009864493804473 -0.029365167414725946 -0.00014009526769941105 -0.000018911055322368142 -0.00046039462577404655
          -0.0003249814574576293 -0.0003321171085027691 -0.00040150200436139816 0.01701029447671898 -0.003273809427494778 0.0026342339675871074
          -0.0012126828891539931 -0.0016655703701666802 0.0002993254935763634 -0.013815595512739476 -0.13009670659659978 -0.010583595154642328
          -0.49264161780833315 -0.0031686881907065367 -0.5070665090489176 0.00023002752844036856 -0.0005972595848765527 0.0004968224755438344
          -0.0014261444016735458 0.0005376137362085309 -0.0006678668540751609 0.00012249338161997823 0.0007593429614362879 0.00020839903913547064
          0.00023522231600309196 0.001390981318125123 0.0004202238996640073 0.00011258966771578519 0.0007339871415252414 0.00022905831646061192
          0.00022580195605947928 -6.054505421460021e-7 0.00019709333442619048 0.00045052341767704007 0.000033796679683062436 0.00041629444671698046
          0.0002939117936091584 0.0001336043653874519 0.00032575775693388653 -0.023839983589406866 -0.36697035020339985 -1.3616733757570532
          0.018090441060576834 -0.6938427894924502 -2.737134362514087 -0.0012002456175123077 0.03468179785816694 -1.339776742414911
          -1.3153868609615684 -2.818855194864663 -1.304280540032248 -0.00004264619432629846 0.0000160190132380833 0.0000656943546700206
          0.0002117836222721714 -0.00007482586809198777 0.00004336430610783759 0.00011410973927819534 0.0004558658659679915 -0.00003838063631081412
          0.000013572108248968706 0.00001587425887319971 0.00023431137158880233 -0.00965753596723773 0.08813858376436057 0.15887078949353964
          -0.04085747792465666 0.03471656388403577 0.1671931826522033 0.00010658263839112558 -0.00023572922603978808 0.00019500394442853453
          -0.00044041081568953894 0.0000551512129532139 -0.00022205998374576902 -0.7133728511796197 0.41863077244274044 -1.9211385618732206
          0.8333443962048885 -0.43653212157703375 0.1137024759997776 0.6378591689440433 0.5743162072254169 1.0366906412249914
          0.19113909612399338 0.40178087693929765 0.08203058583264156 0.0003711458756054664 0.0005734435109401165 0.000170244764814656
          0.000059257453288497075 0.00020211548773141352 0.0002033353185815212 0.6976773829296111 -0.24734796956466487 1.1224256403774568
          -0.5550472065933122 0.35903965489421374 -0.277902823624065 0.0003796896103636094 0.00035563901607837956 0.00019816480079648535
          -0.000058502974294757926 -0.00008281410599445677 0.00018751812030248782 -0.00013142345353918134 -0.00024979804719595187 -0.00014375614898861798
          0.00002887715244692668 -0.00001740337696198857 0.000023926921554173752 0.00003134353049583094 -0.0000536259123652405 -0.00010962117614876643
          -0.0006750617610602472 -0.0012758085768640737 -0.000607646993492611 -0.26317741035675946 -0.2642486168927378 -0.10135487912385566
          -0.7463353796036215 -1.270358816058157 -0.544660809933058 -1.2105672951117752 -2.374672894775858 -1.147409173017531
          -0.00010012246251456247 -0.000205013020466438 -0.00010923194192502539 0.0009326412709674718 0.0018561054044308556 0.000969063479764777
          -0.00011618771901344971 -0.0003061493395413173 0.00005712185439454842 -0.00004410373830454617 0.00011570943974748005 0.0002084956466528176
          0.00017335491915471124 0.00027813448424263143 0.0002324306378698182 0.000035701070830285175 -0.00005811493542751123 0.000010009979730440932
          0.00020747623587746844 0.0004477745566622282 0.0003099190444659783 0.00030392350714514293 0.0005467885501295733 0.0004245683759664942
          0.00024115943859293054 0.00029123478044290607 0.0004474932489926253 0.0001135651208175048 -0.00007182517648507414 0.00039069837284699815
          0.00036923303060398815 0.0004917546927198924 0.0005778276603027876 -0.000009981061289243698 0.000007134938402708624 -0.000023817577555318437
          0.000020156203452303956 0.00014570018144843822 0.000112279290458428 0.000380330400127582 0.0004196264130151839 -0.00009178255331299123
          0.00010499298733868123 0.0007246723134360922 0.0008252490230429288 -0.00019275431304277557 0.0003257913336249807 0.0003612215949527764
          0.00033532103781963585 -0.000014051198113818053 0.0002715142981468688 -0.00004613180928564331 -0.00015846881448056127 -0.00011939283592554695
          0.00036635210247881744 0.0005373516148439172 0.0003382561558911146 -0.0002924749680318639 -0.0008109517075172434 -0.0005031403126518341
          0.0003210303069103304 0.00012814735715105385 0.0007607305797208141 0.00035004042868092 0.00046654055442196807 0.00022123867405143827
          -0.00006276468007548885 0.00002106537364277017 0.00016704855300275767 0.0001752551531919444 0.000500136113347871 0.00042255393013812537
          -0.00003741459304951178 0.00006126729525313124 0.0002445832798025904 0.00029108138679490025 0.0006616939570420755 0.0005643560384633872
          0.0006383931639444285 0.0013963158019620892 0.0008843867605827782 0.000687334334678269 0.0016069909438289898 0.0009779191966519107
          0.0009259910599226373 0.001635122308954351 0.0008669375381984423 -0.00003116159382909878 0.0006846374606259698 -0.00018830404664438305
          -0.00010807220536834805 0.0010846158816946172 -0.0001275036956442932 0.0000047392582058769506 0.0005706957170668048 0.00016910990773189027
        </DataArray>
        <DataArray type="Float64" Name="resid_y" format="ascii" RangeMin="-1.1070171236528359" RangeMax="1.468604093490519">
          0.0002152135945174341 0.00012071851876787817 0.0004939452287571477 0.0003629919165159187 0.00029959625120453554 0.0002477084650400127
          0.000006837624764041705 0.00006524039631508605 0.000013831349062461834 0.00027489693803771365 0.000047533226302985676 0.00024318371970393632
          0.00003866481204060912 0.00009548104593745665 0.000016712229247921317 0.00029216109652469013 0.00004038377886975836 0.00024407207595057712
          0.000044886083912100416 0.00016355816310403837 0.00002205114276065262 0.0004994259926539291 0.000029619685255888317 0.00037411079903057476
          0.00006132117959373184 0.00029532800344655996 0.000026352797158603336 0.0008438750082327348 0.000028367172830508214 0.0005779830071359002
          0.00007581380105803337 0.0003958183643983926 0.000018799226243530753 0.0010592297185402916 0.000036809452700563294 0.0006945539560076625
          0.00008726428053444646 0.00040396121735605806 0.000021098551208645344 0.0010280966662414709 0.0000559803794521474 0.0006721694079368234
          0.00010856276753488936 0.00040064231148589924 0.00006416958978745779 0.001012550228826431 0.00007316161761855566 0.0006561162021856692
          0.00017506403329534126 0.0004378260879725482 0.00021122836819452429 0.0011375861581612856 0.00010243835050646743 0.0007177022886838413
          -0.0005223300513235718 0.00020184796105315872 -0.00019413802706308436 0.000578737422854636 -0.00009819606522742941 0.00025105598264363316
          0.0006074288366121894 0.0010458564177110996 0.0005176784563262829 0.0006928283711965244 0.0011510059650146794 0.0005693330272234648
          0.0007535666938453187 0.0012759325856261834 0.0006393365812506456 0.000606851656404693 0.0009641258005350407 0.0005303330952331452
          0.0004540646334403424 0.0006237496388189871 0.0004162369247120573 0.0004435200185961205 0.0005835494193626271 0.00041867175253396463
          0.0005996284190317239 0.0008757323684368996 0.0005369218956982336 0.0008206328774457601 0.0012407299040192218 0.0006577765197262409
          0.0009723345905997757 0.001535749187869688 0.0007699265930995944 -0.000031829778681990994 -0.015600192253245798 -0.0426793532987679
          0.00021153070190067097 0.00036995216633013694 0.000282658142402116 0.00009519859061201882 0.00003721144184166969 0.00010975389427647468
          0.00011989329808331783 0.00004503222071144432 0.00013203066028594744 0.0001438011536950591 0.000034980065710685584 0.00016321991686432495
          0.00018555210329441497 0.00005124487021986382 0.00020034197277336678 0.00021174062916331452 0.00007552894919869192 0.00021606210803331097
          0.00024756112725851133 0.00014232099433310504 0.000224323353204426 0.00024842982407619757 0.0001457680452334742 0.00023015859003284317
          0.00037101136576445093 0.00038958938543944 0.0003199619908613449 0.00021376780515247606 -0.04352910400830814 -0.07993893794984197
          0.0002442156384165686 0.0003901574927975826 0.00029872257160679094 0.00011891875260474152 0.00003782663915258451 0.00013423526722863323
          0.00015190429010463174 0.00005644608347489966 0.00016408174295928345 0.00017023291373178184 0.00005009219110163176 0.00018561616798062636
          0.00020098582470610103 0.00006400830926308904 0.00020977173694442658 0.00022070520391019935 0.00008303826516882495 0.000219540107998753
          0.000246255705587263 0.00012409806508144328 0.00022892063065783202 0.00024103782554631137 0.00009249349619523672 0.00021776806191463327
          0.0003132323112070151 0.00029439236051763407 0.0003220844228892239 0.00025317046711911817 0.0002835233426609629 0.00009373459555175878
          0.00026151230715758256 0.0004005568304902979 0.00030137764239817483 0.00013026165534427234 0.00003628205053187068 0.00014282238962674354
          0.00016622935056171068 0.00005902852376361281 0.00017598121953188006 0.0001803892607895579 0.000054108580622873326 0.0001914801553153829
          0.00020326202935511128 0.00006599519551760483 0.00020882758458389689 0.0002178035915394727 0.00007476487236245805 0.00021284525213771666
          0.00023542503660332892 0.00009976807478681571 0.00022303321285196964 0.00023054622833990068 0.00007283133560413713 0.00021242527987383464
          0.00025817778244084655 0.000168252507254954 0.00027599889983209724 0.00019938694698960757 0.0002151389948586331 0.00010899867967133344
          0.00028779062823072743 0.00043755548109278286 0.0003073173480411806 0.00013504097907657275 0.000034195749441213834 0.00014272088861312909
          0.00017143740358650274 0.00005829435911485631 0.0001782434604351655 0.00018344731559957056 0.000054301166637120424 0.00019074679224560798
          0.0002017305063920366 0.00006286489712277465 0.00020380468185483835 0.00021316301925420472 0.00006504062089861262 0.000205857528294065
          0.00022116285922400836 0.00007215717053773996 0.00021189890634779052 0.0002013178204194055 0.00003813640802499685 0.00019912114860545782
          0.0003340141808626518 0.00029713203141229494 0.0003252041409299439 0.00021691796440587423 0.0002622329742813373 0.00013183216610132944
          0.0003077326889737997 0.0004727650623764512 0.0003075953393090469 0.00013510020252382668 0.00003218350215039405 0.00013768270299853794
          0.00017139871867707587 0.000055682545380721093 0.000174841769000917 0.00018293607353700447 0.000052045361813433944 0.00018768978634662106
          0.00019816321038476636 0.00005795032276683515 0.00019824467006897273 0.00020630317239871132 0.00005462562685068506 0.0002001230448300806
          0.00020931361669648818 0.00004799725711003566 0.000197964115966065 0.0001841468594414447 0.000009227243062626123 0.00017486441425870747
          0.0003553887868292874 0.0003542728915381932 0.0003313169149858769 0.0002213895106569566 0.00026004059304907123 0.0001320608047801347
          0.0011275235456297342 0.0021164405261357155 0.0010835789011733252 0.000943771758912082 0.0016453249857514285 0.0009126966104786166
          0.00036689343164474086 0.0004718148634020314 0.00036266247458464906 0.0001819224216210516 0.00006156536199000001 0.00018565206729978523
          0.0001923528518799067 0.000052102768043481296 0.0001933011486545816 0.0002004073815940477 0.00004567654604142879 0.00019305191366855712
          0.00019911655069490553 0.000033304556474447744 0.00018795603604757072 0.0001766943266710147 -0.0000018199024726106572 0.00016186462879469454
          0.00032485566425783513 0.0003229497681257118 0.00030639233189303644 0.00016740209505341358 0.0001699752389602953 0.00009898833189801726
          0.00034039668496677056 0.0006255961397881871 0.0006291320814444251 0.00029391015089419437 0.000339336814182023 0.0004874582523384241
          0.0003918486786867112 0.00014023480416729128 0.0004628621287085799 0.0003889086611186098 0.00009405760187941679 0.0004614176933712445
          0.00037459376558007795 0.00004998791280683146 0.0004560911589674699 0.00033892327470586014 -0.00003068423863211711 0.0004187892170748331
          0.00044920826755244503 0.00020694200760644488 0.0005126911153359864 0.00033213284674254995 0.0001567550982917998 0.0002416203755358226
          0.00000667984822470824 -0.00033975226878013576 -0.00028274694767559116 0.0007756206598740212 0.00021360165451182397 -0.0003037718103720277
          -0.0003673641870055727 0.001565111317742729 0.00020373776510274055 -0.000044910989086294206 -0.00015993983097595255 0.0008640158265699194
          0.0011867678810149745 0.00047859106550891643 0.0020007959443049117 0.0007186815692627442 0.0009001033387686513 0.00023414011849362797
          0.0006356327702297521 0.00033971147981572483 0.00047911070429314945 0.0009794494860568131 0.000493508032892026 0.0008181060215414343
          0.00037974178277402904 0.00019174894006381699 0.0003987438451778236 -0.0730572453092323 -0.002262586009504401 -0.0911599343176462
          -0.12977155066293633 -0.2204277912844508 -0.005543292563154223 -0.30521580399317383 -0.2074275133790373 -0.08412378582656443
          -0.00005263455280206386 -0.046505398269257134 -0.08864280074533076 -0.10144660511935835 -0.21868617930487416 -0.04887716882020704
          -0.0772202135097142 -0.5235901831363156 -0.16009041461255832 -0.005638973923081714 -0.5674902763330247 -0.18106850183600434
          0.0531504988891226 -0.005098366590793102 -0.3108146093714661 -0.01765020092972356 -0.038530578411327156 0.04747671172131243
          -0.05417846512548029 -0.04568231156293579 -0.03119017714117717 0.0059999505503798775 0.02338716679790183 -0.07440175627757523
          -0.030606721195089247 0.030683046274320433 0.25646460733330945 0.045005421179257196 -0.04856600678267455 -0.03168707422305356
          0.08418261533641394 0.01241927170939744 -0.010302737324928597 -0.007265741896111537 0.02287419873166079 0.0006877884066594092
          0.0002894287487696795 -0.00008685890403358973 0.0008826235632376639 0.00019912412049574724 0.00036875503112739766 0.0004034752557228599
          0.0006739438415312646 0.00022607071460045702 0.00036581579873091324 0.0005332586043090837 0.005219432722986542 -0.014967859930560296
          0.02377148166876515 -0.008238550038814574 0.03200483619763757 0.00014573703427767093 0.0008407770849228301 0.0002529492364985522
          0.00023078058438263938 0.0003972853753609479 0.0015802464550162456 0.0005302111661841004 0.000599753549389126 0.0002361231893416721
          0.0007778289016916566 0.0002639603324477973 0.00036181527984717465 -0.00369644591219463 -0.005336855037985561 -0.021592157580122184
          -0.010273123875560841 -0.003099306819491828 -0.007890438866940797 -0.1349656788605589 -0.01858059983107979 -0.00013969317715000623
          -0.0036240993610425765 -0.10123781067495319 -0.059726934205216964 -0.19536643793176045 -0.26523745856562475 -0.3469398937733379
          -0.7417728038235963 -0.2513324775981252 -0.3802702981499546 -0.00012433884595383637 -8.867342629476083e-7 0.0005658644405098223
          0.0005104837856944877 0.0000901476182513794 0.00022971665821439058 0.0014568827822619423 0.001225976092590897 0.00015210612278357405
          0.00012538401017166828 0.000898204074184672 0.0007173944179559577 0.24949476924668906 0.2320231521319645 -0.44379049773266777
          -0.06599349093249675 0.41032439175182256 0.34032929187478744 -0.4993708848222412 -0.11616623339753665 0.22173832723495046
          -0.015426295928975653 -0.5215655091384765 0.16343160970157702 0.0000811228420464793 0.00017794928349568803 0.0007979292448261192
          -0.000025719684104845257 0.00015620541713029772 0.0003102675553861159 0.0015740525433915154 -0.000045945488375539155 0.00007523917618464625
          0.00012434990040958646 0.0009310915697863086 -0.000017063510352637208 0.011310358965137282 0.0007487809576176147 0.0035350908605256415
          0.0012752173074122575 0.00027626286634351016 0.0005097875190700762 0.0020948599037212134 -0.05748042043353334 -0.06665570433116147
          0.00015201374786753818 -0.0005450708137803018 0.0005728731594214498 -0.0007624263682119992 0.0002568285802282966 -0.0005188713257775479
          0.00014195158747062897 0.001278738560518411 -0.0002805039839145762 0.0004869902625442013 0.0023727538581362895 -0.0002557007118278998
          -0.00005956823656150245 0.0015606722218717561 -0.0003758319148045586 -0.0741108167100849 0.09204845515093257 0.9073719535986895
          -0.6746760460982631 -0.3240628815124871 0.08008593564143222 0.8913817704699711 -1.1070171236528359 -0.14581564120259338
          0.24384933153858596 0.18592259597539018 -0.3430546768055669 0.0028309888414488893 -0.026298534182597977 -0.06638075465373156
          -0.04656086629854661 0.07834222165484045 -0.08721019794893904 0.00017303030019749643 0.026036357908266416 0.03339308310898556
          -0.000047334788324845944 -0.026390057678039466 -0.00009619545071001823 -0.005890129213391215 -0.00007172233683311324 0.0006194330949556986
          -0.00022917129646887746 -0.00025229528657594313 -0.00032966451087557136 -0.0005295811761030222 -0.00013119434956021525 -0.00022452235743325444
          0.0004946878060712312 0.0004245215503211608 0.0009920203347127121 0.0005347712240299368 0.000555210788573568 0.0003130768562815134
          -0.031915069070243995 0.272933929222874 0.09257449497032658 -0.2047793588568331 -0.10718709480589983 0.8185710182509365
          -0.06481133359556411 -0.6223077115839711 0.0002281598081202707 -0.038606853952406844 0.023936878294618213 -0.09005664816503497
          0.00027771911366877844 -0.011987412228808683 0.0018470412779582335 0.002184733457819707 -0.01006940707171565 0.009187055979780277
          0.0032959444709532715 -0.003108467370279727 0.010685476575572901 0.000015717748542198873 0.00043759895610059885 -0.0001010340289092776
          0.0009699649054624448 -0.00022987366034857293 0.00043764069316692966 -0.003153883264045188 -0.02896807389653229 0.0000058645063597193015
          -0.006382667975091329 0.0015096678889710662 0.0007116446666739565 -0.006781276138095954 -0.3191605481070401 -0.002549623926658133
          -0.3520110972334943 -0.0003768305614516784 -0.07257616212774012 0.000935460733387572 0.0006769175682327377 0.001646203932570034
          0.0012151220146861957 0.00042712488761123546 0.0006453628525129873 0.00017086680747081112 0.000009921946013749516 0.00009996056370040543
          0.00031233830256047895 -0.0000627227637532285 0.0001879780540853821 0.00016825772093318966 -0.00012053002479609637 0.00008758055215821528
          0.00004679842748983587 0.0008962052108648089 0.0003613764413550047 0.00023206803078743878 0.001699503283971171 0.0007855489288069069
          0.00015491531560139077 0.0007881696973887631 0.0003684339751627505 -0.0686746373343044 -0.05556582933834636 -0.10200675032548337
          0.09539216082375007 -0.09791876322411253 -0.14460154278127185 0.06891819199045024 0.08596059603811484 0.016715570746873326
          0.05071195618596916 0.01271837176735327 0.0449165552987677 0.000005660414651619677 0.000012891266771130477 0.00004157816385583213
          0.00019758662311398362 0.0000723975484691955 0.000051932194687853706 0.00003149132447065328 0.00046233456777687934 0.00005483632293520023
          0.000008594671279692212 -0.00004606908815868449 0.0002639480186868333 0.27850821410062065 0.16746255498356907 0.5282179775142869
          0.3986409659110106 0.09678677455591311 0.09520207253295074 0.00004316156041344471 0.0005488364459873395 0.00008507772293173121
          0.0010782219774480139 0.000019234281213774407 0.000562143303322854 0.3663824503701815 -0.042870326009559166 0.911878333588013
          -0.25463748558108973 0.5152504686743066 -0.08356121460572541 -0.2675662548923127 -0.0743581750640891 -0.5162127465251408
          -0.15062898754645726 -0.029844916445929404 -0.17072312846974755 0.00057622596365812 0.000996240472286811 0.0003752656324558599
          0.0007214023912338885 0.0011913687719085075 0.0005956491920998952 0.7938892823326421 0.44999845142526107 1.468604093490519
          0.7735652777155767 0.5185957885367579 0.23362231269037104 0.0012262912862050501 0.002404855840673889 0.0012688790687840762
          0.000620247239424089 0.0008177381414284993 0.0006615386765280173 0.0002375795615798485 0.00041915022522390905 0.00020219223287736704
          0.0009622905223683753 0.001743805869026449 0.0007091042547398285 0.00016357763685270754 0.0001814465807167681 -0.00002425683423884495
          0.0005181034849386507 0.0005034268953061916 0.00015069935402597934 -0.07540128375533217 0.053373983515951795 0.05506941406192156
          0.48861886401997084 0.7393692539698106 0.1512888574830013 0.0003634246262048668 0.000560722759766985 0.0001867996804340577
          0.00012793806076813463 0.00023873260169358576 0.0001641654421026817 -0.00012739430836371756 -0.00032086313963258697 -0.00023552948799591457
          0.0007766453573258558 0.001396052088870614 0.0010630759713937954 0.0009711105166880576 0.0016482607765783003 0.0008580866809333246
          0.0004714892481318747 0.000442985684627549 0.0005917544004363506 0.0007607052577976864 0.0011958748679506692 0.0006848222609245752
          0.0007790650433179974 0.0005901706823462916 0.0007293399021595093 0.0006118496142949043 0.0003276813429933384 0.0005848889852649725
          0.00046117162534718703 0.00013922761030984998 0.0004561123453990512 0.0007206393371934211 0.0004954684462052938 0.000528520251220424
          0.000852595911554066 0.0005357132438786605 0.0005512768303853333 0.0004862396915403522 0.00008903727177406173 0.0008783423734560758
          0.00010931562231880632 0.000616165304556382 0.00005717126526852412 0.00034375188968646664 0.00041099875469902125 0.00033241555168053716
          0.0006162800745972835 0.0008839495601096203 0.001010120346634391 0.0007157916514142215 0.0012707565017544796 0.0005075815785744175
          0.0006072106006649869 0.00042594820395783217 0.0006900381953324278 0.0004118525684927432 0.0005280378269586217 0.00027840146737443533
          0.0008705529516881971 0.001169178773676248 0.0005664682549538919 0.00039075599563439395 0.0005076867152144712 0.00026649385748245616
          0.000011975917067072461 0.0007340719469206697 0.000019304500376599032 0.0016992824221297442 0.00020890322137392947 0.0010025473006212739
          0.0009733907050578222 0.002180571466947584 0.0014112175865469562 0.0006000214584983288 0.0007256378463231239 0.0007874798855980331
          0.00018783524260784779 0.0002769609968275716 0.0004716605600677756 0.0003191864600959743 0.0002691986271212282 0.0005170883215290245
          0.00044839298527418747 0.000291753940928563 0.00041258311313940865 0.0006064503737279736 0.00034545887389370034 0.0005157458046470276
          0.0010510716992069846 0.0017866100564810639 0.001178235772493541 0.0004018718802363706 0.0007709176996708311 -0.00014521493675956343
          0.0004998668322484211 0.0012808953735856665 -0.00018995780834279996 0.00041134518884784754 0.0007027396866225721 0.0002089526934039576
        </DataArray>
        <DataArray type="Float64" Name="resid_z" format="ascii" RangeMin="0" RangeMax="0">
          0 0 0 0 0 0
          0 0 0 0 0 0
          0 0 0 0 0 0
          0 0 0 0 0 0
          0 0 0 0 0 0
          0 0 0 0 0 0
          0 0 0 0 0 0
          0 0 0 0 0 0
          0 0 0 0 0 0
          0 0 0 0 0 0
          0 0 0 0 0 0
          0 0 0 0 0 0
          0 0 0 0 0 0
          0 0 0 0 0 0
          0 0 0 0 0 0
          0 0 0 0 0 0
          0 0 0 0 0 0
          0 0 0 0 0 0
          0 0 0 0 0 0
          0 0 0 0 0 0
          0 0 0 0 0 0
          0 0 0 0 0 0
          0 0 0 0 0 0
          0 0 0 0 0 0
          0 0 0 0 0 0
          0 0 0 0 0 0
          0 0 0 0 0 0
          0 0 0 0 0 0
          0 0 0 0 0 0
          0 0 0 0 0 0
          0 0 0 0 0 0
          0 0 0 0 0 0
          0 0 0 0 0 0
          0 0 0 0 0 0
          0 0 0 0 0 0
          0 0 0 0 0 0
          0 0 0 0 0 0
          0 0 0 0 0 0
          0 0 0 0 0 0
          0 0 0 0 0 0
          0 0 0 0 0 0
          0 0 0 0 0 0
          0 0 0 0 0 0
          0 0 0 0 0 0
          0 0 0 0 0 0
          0 0 0 0 0 0
          0 0 0 0 0 0
          0 0 0 0 0 0
          0 0 0 0 0 0
          0 0 0 0 0 0
          0 0 0 0 0 0
          0 0 0 0 0 0
          0 0 0 0 0 0
          0 0 0 0 0 0
          0 0 0 0 0 0
          0 0 0 0 0 0
          0 0 0 0 0 0
          0 0 0 0 0 0
          0 0 0 0 0 0
          0 0 0 0 0 0
          0 0 0 0 0 0
          0 0 0 0 0 0
          0 0 0 0 0 0
          0 0 0 0 0 0
          0 0 0 0 0 0
          0 0 0 0 0 0
          0 0 0 0 0 0
          0 0 0 0 0 0
          0 0 0 0 0 0
          0 0 0 0 0 0
          0 0 0 0 0 0
          0 0 0 0 0 0
          0 0 0 0 0 0
          0 0 0 0 0 0
          0 0 0 0 0 0
          0 0 0 0 0 0
          0 0 0 0 0 0
          0 0 0 0 0 0
          0 0 0 0 0 0
          0 0 0 0 0 0
          0 0 0 0 0 0
          0 0 0 0 0 0
          0 0 0 0 0 0
          0 0 0 0 0 0
          0 0 0 0 0 0
          0 0 0 0 0 0
          0 0 0 0 0 0
          0 0 0 0 0 0
          0 0 0 0 0 0
          0 0 0 0 0 0
          0 0 0 0 0 0
          0 0 0 0 0 0
          0 0 0 0 0 0
          0 0 0 0 0 0
          0 0 0 0 0 0
          0 0 0 0 0 0
          0 0 0 0 0 0
          0 0 0 0 0 0
          0 0 0 0 0 0
          0 0 0 0 0 0
          0 0 0 0 0 0
          0 0 0 0 0 0
          0 0 0 0 0 0
          0 0 0 0 0 0
          0 0 0 0 0 0
          0 0 0 0 0 0
          0 0 0 0 0 0
          0 0 0 0 0 0
          0 0 0 0 0 0
          0 0 0 0 0 0
          0 0 0 0 0 0
          0 0 0 0 0 0
          0 0 0 0 0 0
          0 0 0 0 0 0
          0 0 0 0 0 0
          0 0 0 0 0 0
          0 0 0 0 0 0
          0 0 0 0 0 0
          0 0 0 0 0 0
          0 0 0 0 0 0
          0 0 0 0 0 0
          0 0 0 0 0 0
          0 0 0 0 0 0
          0 0 0 0 0 0
          0 0 0 0 0 0
          0 0 0 0 0 0
        </DataArray>
        <DataArray type="Float64" Name="stress_zz" format="ascii" RangeMin="-21945047.020931214" RangeMax="110039007.97755228">
          -16494.543181059296 -16519.882033908507 -15123.334968244199 -14438.332101505379 -13752.126755429097 -12356.782169102251
          -22507.851001710253 -23314.955817078066 -21851.516685139875 -22539.194784459298 -21195.182368569494 -21763.433751840526
          -29594.13652629866 -30645.566885073757 -29775.392380202204 -31070.30210735486 -29956.648234105756 -31495.03732963596
          -39074.378126139476 -39979.08660787773 -39449.56573388039 -40485.23370011861 -39824.7533416213 -40991.380792359494
          -53171.98521401254 -54313.083603052844 -55432.30609177574 -56661.46729426773 -57692.62696953895 -59009.850985482626
          -89580.49805587486 -92283.1177235929 -90143.78241680325 -93367.33537601022 -90707.06677773163 -94451.55302842753
          -178798.67305092892 -188949.690350736 -171302.54443520738 -177276.91609347632 -163806.4158194858 -165604.14183621664
          -13440.71765161799 -63416.50604701569 -140386.2371900816 -208153.5247836229 -267331.7567285452 -352890.54352023016
          -376634.5275091821 -581517.0720095821 -302747.77847983723 -525479.4863455857 -228861.02945049232 -469441.9006815894
          -2985623.3157845484 -1646938.831423997 -1628692.7981508106 -99849.44911586448 -271762.28051707323 1447239.933192268
          -14934.689761632697 -14540.532371416448 -14146.374981200199 -18754.89079159641 -18696.179645807948 -18637.46850001948
          -25523.3645909301 -25905.66275056254 -26287.960910194983 -35365.55147360057 -35864.855748416616 -36364.16002323265
          -48449.2382225265 -50820.966777653884 -53192.69533278126 -80574.52485624723 -78553.32111355587 -76532.11737086452
          -141784.9707032559 -148771.1340969989 -155757.29749074188 106443.26510260369 46569.565139161066 -13304.134824281544
          39533.37916977278 37198.73684458137 34864.09451938994 -2035719.5451538295 -672833.7637668826 690052.0176200643
          -12929.803726810886 -12826.645729603297 -12723.487732395708 -15065.144145020422 -15463.901542266654 -15862.65893951289
          -20894.958046571544 -21729.637686420978 -22564.317326270415 -29494.33725824382 -30377.955502230256 -31261.573746216698
          -39216.73233091808 -41711.06998532944 -44205.407639740806 -64316.67559606007 -61034.348122138996 -57752.02064821792
          -74119.39078098674 -90962.96397231943 -107806.53716365212 220181.50925532004 218567.57717788094 216953.64510044176
          392496.44630769704 324577.24419032736 256658.04207295776 -1134393.8185167748 -160305.48408375392 813782.8503492671
          -11770.08358616358 -11712.728780753176 -11655.373975342769 -13266.69153649548 -13651.013135303509 -14035.334734111533
          -17377.096496731807 -18249.151720869784 -19121.206945007758 -22935.347374993384 -23953.163824707884 -24970.980274422378
          -27770.73234508119 -29997.04483900559 -32223.35733292999 -40661.487874225 -38656.84027834409 -36652.19268246319
          4010.0801269886033 -10837.903216173 -25685.886559334598 295442.0927490566 310178.354764599 324914.61678014137
          527420.9534238526 479161.2194671609 430901.4855104693 72025.2138803426 -243587.65873283317 -559200.531346009
          -10617.12976696005 -10357.4879155558 -10097.84606415155 -11836.771003711574 -11924.874508395631 -12012.978013079688
          -14538.24225290876 -15035.993077329269 -15533.743901749778 -17267.10555805784 -17742.440137889334 -18217.774717720833
          -17583.509290038703 -18601.991626273528 -19620.473962508353 -14000.327896275352 -12175.42400591774 -10350.520115560128
          70000.58539993818 59590.65145207018 49180.717504202185 334049.95967089315 359200.87648884987 384351.7933068066
          471540.6235013314 401309.2506492343 331077.87779713725 188631.4400422595 -146044.13539184982 -480719.7108259591
          -11511.975587982095 -10070.852828636936 -8629.730069291774 -13872.162656732791 -12428.489466432036 -10984.816276131285
          -16354.015224528042 -14842.907406916162 -13331.79958930428 -17708.680765475412 -15462.490232658329 -13216.29969984125
          -14672.180820242851 -11752.283208367297 -8832.385596491744 4223.1403622923335 9365.121527362404 14507.102692432476
          111426.71816701278 108112.35243467125 104797.98670232971 333034.7348183271 359311.1488581958 385587.5628980645
          379578.16198628594 295531.2769323163 211484.39187834662 49813.19567381683 -265782.7971851283 -581378.7900440736
          -19634.565105390968 -13844.884054100103 -8055.20300280924 -26288.761265849345 -19167.409223086623 -12046.057180323902
          -31612.51669824306 -22700.339810270474 -13788.162922297886 -35607.84257657688 -23415.75554353431 -11223.668510491745
          -33994.30336867935 -18063.493675657603 -2132.683982635865 -6344.36837166282 13561.21533207604 33466.7990358149
          111020.6104249919 122713.14714152769 134405.68385806345 311461.5725238729 330716.1430085932 349970.7134933134
          334077.7028705968 234709.4450499965 135341.1872293962 98092.8708758972 -205808.70773400733 -509710.28634391184
          -37357.20136119486 -33824.89687161886 -30292.592382042865 -49877.35875856539 -45327.30414847548 -40777.249538385564
          -61004.17516486328 -55294.17859847641 -49584.18203208953 -72171.4888678809 -65032.12570340003 -57892.76253891917
          -77544.287315324 -68732.27601608701 -59920.26471684998 -49838.96031152235 -38807.083837227576 -27775.207362932793
          70596.07717715252 75754.83322329586 80913.58926943921 272199.079554845 286804.83083459816 301410.5821143514
          382181.81921022653 329570.8549563561 276959.89070248563 433660.7005167187 268024.1064305971 102387.51234447543
          -55052.15842313964 -59538.04922267192 -64023.9400222042 -58649.56780088605 -65528.1794786036 -72406.79115632114
          -51957.93815999571 -61627.985600951 -71298.03304190627 -10818.249657626846 -22066.773850491103 -33315.29804335536
          97485.69410462334 86967.54431909221 76449.39453356109 228044.47883983798 240647.22805566818 253249.9772714984
          270817.3840949889 292963.7315069883 315110.0789189876 77811.5243330262 97807.05290310083 117802.58147317548
          -1233478.9015123632 -828394.3691961805 -150985.2737010086 -828645.6019001828 -1027523.97597141 -1045381.2190071351
          -375318.6337965927 -694798.0212664851 -821569.0504304571 -1262368.0688180898 -599651.9938921768 -560950.4406327874
          -1205969.2586397822 -1293484.2407144138 -926299.0576905302 -864440.2185727678 -646628.8567412782 -435396.1964311216
          -1190058.3783354275 -1457310.1830542027 -1673034.2877495177 -607124.093460386 -1179443.1621093112 -1478822.0330017798
          -24189.808585344443 -901576.1411644195 -1284609.778254042 1200047.7623719585 -7417015.090489318 27972759.751431502
          26799166.19497013 2993885.541963147 -2276975.8983475277 24059764.130259153 21448393.64584449 4787723.321554337
          2863063.2937942604 20146768.509086803 16097621.096718851 -3709064.22767224 10574402.012870487 10409126.103405088
          4442815.068878288 2341621.90949273 9257621.697197849 7744059.181869156 4845023.99926802 8392308.046657702
          7940841.381525213 5078992.260333222 5247232.929657752 -1095701.834395192 -2023615.1688989538 -4472457.399807223
          -2699935.729910789 -389981.35707442346 -536114.7585677336 -608538.2867248089 -29273.806430580553 315739.12024634506
          951385.6517634869 3255380.826357605 2641388.117049628 3162853.913530915 2333654.4610672835 1560032.2299817894
          2000801.6452380973 1721976.0532873445 1375689.7102585742 749571.7361864167 1035457.4724481925 281098.1930437748
          417724.9594498648 -60888.75760895594 70113.29965828739 210505.46784351135 230718.62380870426 199908.78490555065
          -129871.33731002714 189312.10196758993 -490461.2984287586 -3704710.4849729147 -13300610.311091986 1151738.9962924297
          -6301829.535285277 6008188.477557775 696951.2405214293 -3212822.3029499734 -3380182.9545124937 -3888637.385718021
          -8705648.531076787 -1897117.4491072726 -2334902.621053759 -3109119.2235528636 -7095657.125603302 -581412.5952645715
          -1289622.2875950253 -2329601.0613877056 -5485665.72012982 -5343390.830405251 -5506333.997304014 3766704.420582318
          -1697226.7662280004 -3710562.7201188486 -4381639.068537202 1830161.5467644879 -2597872.7993111126 -2077734.6098324459
          -3256944.1397703877 -106381.3270533422 -3498518.832394225 -21945047.020931214 8914495.862920303 -13564226.768227877
          12684999.47014708 -5183406.515524545 16455503.077373868 -73543.38969317678 578992.3821613049 168762.94891930488
          -370942.7210575219 -213284.05473774768 651367.9888346887 84927.15830781436 -368464.32155228005 -353024.7197823185
          723743.5955080725 1091.3676963238977 -365985.9220470381 42779348.994352266 70477212.42209317 69866897.15960631
          14715885.634927299 39077273.913473986 68091817.20774466 68760216.2525263 14772253.512335803 35375198.832595706
          65706421.99339613 67653535.34544627 14828621.389744306 38414.00959912833 -824205.9365688642 -1670540.962269099
          -727925.4164530652 -265327.8462849231 -809267.8039594768 -1538653.433467372 -999442.1375384934 -569069.7021689746
          -794329.6713500895 -1406765.9046656452 -1270958.8586239216 3690223.8493629396 3905033.43490146 2406345.099559959
          2487561.5175817283 1122466.349756978 1070089.600261996 -3816593.6098167906 -821128.8794271757 2174335.8509624386
          -1471393.1364745714 -379812.98356947117 -1074745.386933695 -837406.4784559252 -678097.6373928187 -1294999.9733423793
          5870163.0873115035 7999986.009596603 1081649.2902124457 3797092.910758032 5457337.105091409 411538.246708647
          1724022.7342045605 2914688.2005862165 -258572.79679515175 2981854.532870448 -1136740.5151440876 -25297.482614032553
          -9467790.6135986 6596054.254101766 7526296.559754958 6409727.5459079575 -4024124.9435494537 10210253.975333085
          16189333.634654002 12844752.574429948 1419540.726499691 12426015.281640679 24010355.56882505 31230200.615941584
          6468740.062786484 16185810.432741415 18850937.20031754 511464.84393229056 8361265.29665778 6471673.784693487
          826368.3578650693 203103.62836954865 609502.0614832964 -173596.85867862066 392635.7651015235 -550297.3457267899
          3236962.8140399177 6896918.346659931 1884738.3453286532 5607334.023474294 532513.8766173895 4317749.700288655
          8610293.864184538 3605939.2780906423 6849528.128227886 2424856.8758678124 5088762.392271235 1243774.4736449837
          42668462.061800465 64716064.00240153 74852083.12174663 9700195.76073864 66535685.89313174 72295159.25801334
          85263079.92981534 30852995.150711693 90402909.72446302 79874254.51362516 95674076.73788404 52005794.540684745
          1817781.3631866411 3228446.8627384435 -4155459.7504901253 1562946.865714715 2690999.8178839167 -1536699.3237750605
          1308112.3682427888 2153552.773029389 1082061.102940004 763014.0171383768 628814.5051712793 385170.7309489006
          182465.64765886343 7327.444759424311 -263883.20985355234 899261.9494971851 705909.9715185892 454207.04656615714
          191348.8504542307 9152.143635129323 -323212.27061012783 5677161.948062283 7592866.380415065 4168999.0673358105
          9494129.600504663 2660836.1866093394 11395392.82059426 2739310.1015595975 1271057.2255898218 1555762.310607436
          842123.6046959148 372214.5196552747 413189.9838020078 -2185564.4542784346 -1815646.873267078 -2005585.2894987199
          -1970903.0769812907 -1457852.5376492254 -1705045.2810138166 -1756241.6996841468 -1100058.2020313726 -1404505.272528913
          -328218.5296906909 149403.17964832226 1184363.1747231146 -182339.30456831295 305389.92353823065 908705.8791685188
          -36460.079445935015 461376.66742813896 633048.5836139229 50842604.605932936 57970610.57529704 27662187.314043485
          34528353.003427215 50838154.81202255 20598603.249416538 18214101.4009215 43705699.04874806 13535019.18478959
          36071371.979995795 46076091.617572956 56080811.25515011 -2923733.7339023994 -2523657.8843523916 -2457308.552913703
          -4217077.893449712 -2470668.6732168957 -1937324.562857705 -2284612.3012463176 -4285274.257626731 -2017603.612531392
          -1350991.2413630188 -2111916.049578932 -4353470.62180375 65310795.48865777 56051437.42535924 51491373.911906116
          51440321.52202704 37671952.33515445 46829205.61869484 -2167958.845711939 -2265375.3190634768 -1697855.1710181576
          -1897513.6017913723 -1227751.4963243762 -1529651.884519268 95733634.37524374 50348721.19268376 102886321.17639802
          52339001.05699892 110039007.97755228 54329280.921314076 7849684.525396596 15882128.048397506 11397334.913746493
          21489928.889986996 14944985.302096391 27097729.731576484 -890238.3742252861 -410715.86268549925 68806.64885428746
          -288153.8489291591 -208127.80651363102 -128101.76409810295 -2298452.298003059 11130269.303288048 4993735.37956831
          11578792.966820708 12285923.057139682 12027316.630353367 2774692.4836741057 1672454.938814369 570217.3939546326
          -2967391.0572024263 -2793271.6957688094 -2619152.3343351916 -1808063.7523508905 -1789592.0193690788 -1771120.286387267
          962686.0216946575 912134.2446485634 861582.4676024694 -635628.1784034887 -875419.6353183205 -1115211.0922331524
          -8456666.745980889 -7849744.104709048 -7242821.463437208 23315088.53651488 27046972.496351708 30778856.456188533
          46577097.6153303 56634824.89220403 66692552.169077754 -4625821.235388257 -2243019.5585529646 139782.11828232766
          -1740829.2529324605 -2230024.5921445508 -2719219.931356641 112077.33190527518 -62525.07616037072 -237127.48422601662
          23227.897226077053 22236.410717289185 21244.924208501314 68283.71550000309 70025.99234158537 71768.26918316766
          55785.453388659545 54773.62122450051 53761.78906034146 97323.45548065571 100373.06578886928 103422.67609708288
          106639.67024781524 105794.20874419046 104948.74724056566 156872.30158773728 159969.71517428086 163067.12876082442
          121065.24421098092 129544.05772117863 138022.8712313763 -84581.03358486391 -75751.88993781163 -66922.74629075939
          -154483.21506958772 -134604.2514490152 -114725.28782844268 -556540.7936956509 -376582.52231826703 -540955.0565688916
          -351042.70208575286 -525369.3194421324 -325502.8818532388 -654926.0450026913 -248456.38779556792 -129525.4007467846
          -372739.05087152205 -727370.7407513994 -238827.4604255734 -93207.73028125927 -382498.7944385463 -799815.4365001079
          -229198.53305557882 -56890.05981573393 -392258.5380055705 352063.2571365741 359775.796086082 367488.33503558993
          -99224.21210056824 -93337.59919893096 -87450.98629729368 568424.0647755482 531837.973649784 495251.88252401986
          58211.46519240869 52536.082444558255 57470.85111767694 51840.15373980222 56730.23704294519 51144.2250350462
          117608.4451853644 121144.15729877554 124679.86941218669 42264.12477930674 40638.892074710224 39013.6593701137
          89992.18404975419 95648.45990549476 101304.73576123534 -54099.36993733872 -52981.97279541541 -51864.57565349208
          -263593.342530952 -277044.3231968096 -290495.3038626673 -265636.8287272253 -252217.2868258983 -238797.7449245713
          -365642.390478988 -366084.081583654 -366525.7726883201 543582.4537387086 406358.22405098507 224479.7052835001
          527707.1696759976 379505.27803463204 203305.5658029971 511831.8856132864 352652.332018279 182131.4263224941
        </DataArray>
        <DataArray type="Float64" Name="peeq" format="ascii" RangeMin="0" RangeMax="0.003188057310742294">
          0 0 0 0 0 0
          0 0 0 0 0 0
          0 0 0 0 0 0
          0 0 0 0 0 0
          0 0 0 0 0 0
          0 0 0 0 0 0
          0 0 0 0 0 0
          0 0 0 0 0 0
          0 0 0 0 0 0
          4.249315730719892e-7 0 2.124657865359946e-7 0 0 0
          0 0 0 0 0 0
          0 0 0 0 0 0
          0 0 0 0 0 0
          0 0 0 0 0 0
          0 0 0 5.339930193192484e-7 3.205176612155602e-7 1.0704230311187206e-7
          0 0 0 0 0 0
          0 0 0 0 0 0
          0 0 0 0 0 0
          0 0 0 0 0 0
          0 0 0 2.26284238340953e-9 4.394834243645359e-8 8.563384248949765e-8
          0 0 0 0 0 0
          0 0 0 0 0 0
          0 0 0 0 0 0
          0 0 0 0 0 0
          0 0 0 0 0 0
          0 0 0 0 0 0
          0 0 0 0 0 0
          0 0 0 0 0 0
          0 0 0 0 0 0
          0 0 0 0 0 0
          0 0 0 0 0 0
          0 0 0 0 0 0
          0 0 0 0 0 0
          0 0 0 0 0 0
          0 0 0 0 0 0
          0 0 0 0 0 0
          0 0 0 0 0 0
          0 0 0 0 0 0
          0 0 0 0 0 0
          0 0 0 0 0 0
          0 0 0 0 0 0
          0 0 0 0 0 0
          0 0 0 0 0 0
          0 0 0 0 0 0
          0 0 0 0 0 0
          0 0 0 0 0 0
          0 0 0 0 0 0
          0 0 0 0 0 0
          0 0 0 0 0 0
          0 0 0 0 0 0
          0 0 0 0 0 0
          0 0 0 0 0 0
          0 0 0 0 0 0
          0 0 0 0.0001729678487413598 0.0001686036015671776 0.0004390029600151525
          0.000331168461909794 0.00014868735622667998 0.00014767473163458496 0.0004050232581790672 0.00031312072719701816 0.00012440686371200017
          0.00012674586170199233 0.00037104355634298193 0.00029507299248424237 0 0 0
          0 0 6.804585094392159e-10 0 0 0
          1.3609170188784319e-9 0 0 0 0 0.000028247400180387192
          0.000005929344910450279 0.000001520541876818108 0.000006169532768515258 0.00003786796902804219 0.00001013737468669061 0.000003041083753636216
          0.000012339065537030516 0.00004748853787569718 0.000014345404462930939 0 0 0
          0 0 0 0 0 0
          0 0 0 0 0 0
          0 0 0 0.0000868129793584122 0.000032221875700471686 0.00008648278199677307
          0.000041120643992214427 0.00008615258463513392 0.00005001941228395719 0 0 0
          0 0 0 0 0 0
          0 0 0 0.000009306979777170722 0.00002782379923257195 0.00016083622097871794
          0.00007026185967198625 0.000005056869241119413 0.000018941981815132125 0.0001296804557515172 0.000048003032924505076 8.067587050681054e-7
          0.000010060164397692293 0.00009852469052431645 0.0000257442061770239 0.0001680718917963262 0.0006092359151633864 0.00013448374519397954
          0.0005510106854977318 0.00010089559859163289 0.0004927854558320771 0 0 0
          0 0 0 0 0 0
          0 0 0 0.0011758672702124528 0.0027826504337992437 0.0025920028143127985
          0.0010125635102555353 0.001113729051538082 0.002678413567111749 0.0024825388939192783 0.0009177000955167301 0.001051590832863711
          0.002574176700424255 0.0023730749735257585 0.0008228366807779247 0 0 0
          0 0 0 0 0 0
          0 0 0 0 0 0
          0 0 0 0.00004912605504920134 0.00004427321703656195 0.00003942037902392256
          0 0 0 0 0 0
          0 0 0 0 0 0
          0 0 0 0.00000650835449648795 0 0.00015066548120552947
          0.00006524414059626895 0.000004698020050531146 0 0.00014319610480336063 0.00004934436182102308 0.0000028876856045743427
          0 0.00013572672840119182 0.000033444583045777206 0.00024189869361150845 0.0003479980682224145 0.0004949797118627232
          0.00019109434479960615 0.00032108517154140714 0.000449519888420666 0.00014028999598770386 0.0002941722748603998 0.0004040600649786088
          0 0 0 0 0 0
          0 0 0 0 0 0
          0 0 1.1340975157320265e-9 0 2.268195031464053e-9 0
          0.0021094578558165707 0.0019052599578872717 0.002522578781439102 0.0023875409171879533 0.0020285525813709044 0.001804598054261193
          0.0024517374057393183 0.0023237641253576096 0.0019476473069252374 0.0017039361506351134 0.002380896030039534 0.0022599873335272655
          0 0.00000650835449648795 0 3.736093798497444e-7 0.000005071629430380891 0.000007438549105715414
          7.472187596994888e-7 0.0000036349043642738316 0.000014877098211430826 0 0 0
          0 0 0 0 0 0
          0 0 0 0.000004338902997658633 0.00000650835449648795 0.0000029385187099789942
          0.000004407778064968491 0.0000015381344222993546 0.000002307201633449032 0 0 0
          0 0 0 0 0 0
          0 0 0 0 0 0
          0 0 0 0 0 0
          0 0 0 0.0006067439337208919 0.001067656567312213 0.0006991467016231759
          0.0005791619426159612 0.0010099998818658392 0.0007119838190929217 0.0005515799515110307 0.0009523431964194651 0.0007248209365626674
          0.0012236437472748414 0.0011883414078046038 0.001153039068334366 0 0 0
          0 0 0 0 0 0
          0 0 0 0.0007552331946175044 0.0013103718583192783 0.0007135712698138885
          0.001238485756264715 0.0006719093450102727 0.001166599654210152 0 0 0
          0 0 0 0.003188057310742294 0.0017446772934629686 0.003113321078309112
          0.0016453024264583439 0.003038584845875929 0.0015459275594537198 0.0003769754107070247 0.0004540557662646222 0.00030462601139852644
          0.00046644728013811224 0.00023227661209002828 0.0004788387940116023 0 0 0
          0 0 0 0.00005639448894116713 0.000026382373056240023 0.00007849044367829044
          0.00003550304597735592 0.00010058639841541375 0.000044623718898471815 0 0 0
          0 0 0 0 0 0
          0 0 0 0 0 0
          0 0 0 0.0003424927352596293 0.0003770670306577288 0.0004116413260558285
          0.00315825189333312 0.0030753672330935864 0.0029924825728540527 1.9814021445641286e-7 9.907010722820643e-8 0
          0 0 0 0 0 0
          0 0 0 0 0 0
          0 0 0 0 0 0
          0 0 0 0 0 0
          0 0 0 0 0 0
          0 0 0 0 0 0
          0 0 0 0 0 0
          0 0 0 0 0 0
          0 0 0 0 0 0
          0 0 0 0 0 0
          0 0 0 0 0 0
          0 0 0 0 0 0
          0 0 0 0 0 0
          0 0 0 0 0 0
          0 0 0 0 0 0
          0 0 0 0 0 0
        </DataArray>
        <DataArray type="Float64" Name="pe11" format="ascii" RangeMin="0" RangeMax="0.003020052385792419">
          0 0 0 0 0 0
          0 0 0 0 0 0
          0 0 0 0 0 0
          0 0 0 0 0 0
          0 0 0 0 0 0
          0 0 0 0 0 0
          0 0 0 0 0 0
          0 0 0 0 0 0
          0 0 0 0 0 0
          4.0538445118014114e-7 0 2.0269222559007057e-7 0 0 0
          0 0 0 0 0 0
          0 0 0 0 0 0
          0 0 0 0 0 0
          0 0 0 0 0 0
          0 0 0 5.094998362775728e-7 3.066259973458529e-7 1.0375215841413298e-7
          0 0 0 0 0 0
          0 0 0 0 0 0
          0 0 0 0 0 0
          0 0 0 0 0 0
          0 0 0 2.215417841917142e-9 4.260857228661176e-8 8.300172673130639e-8
          0 0 0 0 0 0
          0 0 0 0 0 0
          0 0 0 0 0 0
          0 0 0 0 0 0
          0 0 0 0 0 0
          0 0 0 0 0 0
          0 0 0 0 0 0
          0 0 0 0 0 0
          0 0 0 0 0 0
          0 0 0 0 0 0
          0 0 0 0 0 0
          0 0 0 0 0 0
          0 0 0 0 0 0
          0 0 0 0 0 0
          0 0 0 0 0 0
          0 0 0 0 0 0
          0 0 0 0 0 0
          0 0 0 0 0 0
          0 0 0 0 0 0
          0 0 0 0 0 0
          0 0 0 0 0 0
          0 0 0 0 0 0
          0 0 0 0 0 0
          0 0 0 0 0 0
          0 0 0 0 0 0
          0 0 0 0 0 0
          0 0 0 0 0 0
          0 0 0 0 0 0
          0 0 0 0 0 0
          0 0 0 0 0 0
          0 0 0 0 0 0
          0 0 0 0 0 0
          0 0 0 0 0 0
          0 0 0 0.00016437612619385236 0.00016275267473020202 0.0004165860112673807
          0.0003026743056795103 0.0001404498116501887 0.0001428247093222038 0.00038222022553425903 0.00028363920354849335 0.00011652349710652506
          0.0001228967439142056 0.00034785443980113744 0.00026460410141747635 0 0 0
          0 0 6.292567663242385e-10 0 0 0
          1.258513532648477e-9 0 0 0 0 0.000027957692256733873
          0.000005862250627180922 0.000001504982358488601 0.000006138035914974304 0.00003755337091406777 0.000010021231562044255 0.000003009964716977202
          0.000012276071829948608 0.000047149049571401656 0.000014180212496907584 0 0 0
          0 0 0 0 0 0
          0 0 0 0 0 0
          0 0 0 0.00008549379972708259 0.00003175729353542266 0.00008519175105989102
          0.000040653579436311695 0.00008488970239269943 0.00004954986533720073 0 0 0
          0 0 0 0 0 0
          0 0 0 0.000008616432772986134 0.000026205157522261925 0.00014953346389720288
          0.00006569358152189644 0.000004676369408519391 0.00001779356560612755 0.00011837717827150218 0.000044463575251366755 7.363060440526478e-7
          0.000009381973689993173 0.00008722089264580148 0.000023233568980837044 0.00014764575716210758 0.000566814824073967 0.00012077289665098794
          0.0005158540652383942 0.0000939000361398683 0.00046489330640282143 0 0 0
          0 0 0 0 0 0
          0 0 0 0.001033163842322707 0.002640394445909606 0.0024605067842312467
          0.0009037319292194079 0.0009811605942001483 0.0024916043377682714 0.0022913932408686133 0.0008200554064446786 0.0009291573460775899
          0.002342814229626937 0.0021222796975059795 0.0007363788836699494 0 0 0
          0 0 0 0 0 0
          0 0 0 0 0 0
          0 0 0 0.00004776433023066589 0.00004302869983704576 0.000038293069443425634
          0 0 0 0 0 0
          0 0 0 0 0 0
          0 0 0 0.000006318122692787844 0 0.00010129508353170594
          0.00003692569570722181 0.000004577324533586234 0 0.00010724897131291942 0.00003193238414751228 0.000002836526374384625
          0 0.00011320285909413286 0.000026939072587802757 0.00022522330391641356 0.0003166941714904975 0.0004614398685908797
          0.00017390149539293624 0.00028600592522889923 0.0004087126190977154 0.00012257968686945898 0.00025531767896730097 0.000355985369604551
          0 0 0 0 0 0
          0 0 0 0 0 0
          0 0 1.048761277207064e-9 0 2.097522554414128e-9 0
          0.0020172774655220632 0.0018047121361755545 0.002381482014341654 0.002232899880657715 0.0019383782619771528 0.0016969882900244265
          0.002269861581904373 0.00217870994976087 0.0018594790584322424 0.0015892644438732987 0.0021582411494670923 0.0021245200188640245
          0 0.000006318122692787844 0 3.7193883733018975e-7 0.0000049492633709164245 0.0000073855153665414886
          7.438776746603795e-7 0.0000035804040490450044 0.000014771030733082977 0 0 0
          0 0 0 0 0 0
          0 0 0 0.000004212081795191896 0.000006318122692787844 0.0000028594710117535153
          0.000004289206517630273 0.0000015068602283151347 0.000002260290342472702 0 0 0
          0 0 0 0 0 0
          0 0 0 0 0 0
          0 0 0 0 0 0
          0 0 0 0.0005652231590856246 0.0009910693390468629 0.0006426892033630257
          0.0005290087606078858 0.0009364567220239296 0.0006537023983761877 0.0004927943621301472 0.0008818441050009965 0.0006647155933893496
          0.001129705123372944 0.0011070483325167015 0.0010843915416604588 0 0 0
          0 0 0 0 0 0
          0 0 0 0.0007016454001144507 0.0012388750794542942 0.000658209966553934
          0.0011579731900144114 0.0006147745329934175 0.0010770713005745281 0 0 0
          0 0 0 0.003020052385792419 0.001649913582052371 0.0028754693672407463
          0.001515969539655597 0.002730886348689074 0.0013820254972588227 0.00029235203559420094 0.0003733687658216994 0.0002484307696321521
          0.0003933673143870637 0.00020450950367010325 0.00041336586295242806 0 0 0
          0 0 0 0.00003943456730218149 0.0000167184575015314 0.000056395780746058846
          0.00002221893179629447 0.0000733569941899362 0.000027719406091057537 0 0 0
          0 0 0 0 0 0
          0 0 0 0 0 0
          0 0 0 0.00028077928218688187 0.00030995854333035986 0.0003391378044738378
          0.002982380287527683 0.002863221274070258 0.0027440622606128328 1.8355974659518264e-7 9.177987329759132e-8 0
          0 0 0 0 0 0
          0 0 0 0 0 0
          0 0 0 0 0 0
          0 0 0 0 0 0
          0 0 0 0 0 0
          0 0 0 0 0 0
          0 0 0 0 0 0
          0 0 0 0 0 0
          0 0 0 0 0 0
          0 0 0 0 0 0
          0 0 0 0 0 0
          0 0 0 0 0 0
          0 0 0 0 0 0
          0 0 0 0 0 0
          0 0 0 0 0 0
          0 0 0 0 0 0
        </DataArray>
        <DataArray type="Float64" Name="pe22" format="ascii" RangeMin="-0.0014451679991566962" RangeMax="0.0000035133436266770952">
          0 0 0 0 0 0
          0 0 0 0 0 0
          0 0 0 0 0 0
          0 0 0 0 0 0
          0 0 0 0 0 0
          0 0 0 0 0 0
          0 0 0 0 0 0
          0 0 0 0 0 0
          0 0 0 0 0 0
          -1.0366701057653298e-7 0 -5.183350528826649e-8 0 0 0
          0 0 0 0 0 0
          0 0 0 0 0 0
          0 0 0 0 0 0
          0 0 0 0 0 0
          0 0 0 -1.3053640350150436e-7 -8.183626684091703e-8 -3.31361301803297e-8
          0 0 0 0 0 0
          0 0 0 0 0 0
          0 0 0 0 0 0
          0 0 0 0 0 0
          0 0 0 -7.621122246705028e-10 -1.3635508184467132e-8 -2.650890414426376e-8
          0 0 0 0 0 0
          0 0 0 0 0 0
          0 0 0 0 0 0
          0 0 0 0 0 0
          0 0 0 0 0 0
          0 0 0 0 0 0
          0 0 0 0 0 0
          0 0 0 0 0 0
          0 0 0 0 0 0
          0 0 0 0 0 0
          0 0 0 0 0 0
          0 0 0 0 0 0
          0 0 0 0 0 0
          0 0 0 0 0 0
          0 0 0 0 0 0
          0 0 0 0 0 0
          0 0 0 0 0 0
          0 0 0 0 0 0
          0 0 0 0 0 0
          0 0 0 0 0 0
          0 0 0 0 0 0
          0 0 0 0 0 0
          0 0 0 0 0 0
          0 0 0 0 0 0
          0 0 0 0 0 0
          0 0 0 0 0 0
          0 0 0 0 0 0
          0 0 0 0 0 0
          0 0 0 0 0 0
          0 0 0 0 0 0
          0 0 0 0 0 0
          0 0 0 0 0 0
          0 0 0 0 0 0
          0 0 0 -0.00003961185977320916 -0.00005222558402401052 -0.00011131454627602956
          -0.000044798826571591744 -0.00003347679169579648 -0.000047653629481289846 -0.00010441430271601655 -0.00004077916352345469 -0.0000273417236183838
          -0.000043081674938569176 -0.00009751405915600354 -0.00003675950047531765 0 0 0
          0 0 -2.7953563319356414e-10 0 0 0
          -5.590712663871283e-10 0 0 0 0 -0.0000109113813252882
          -0.0000021988131585533197 -6.543073083309614e-7 -0.0000027152241557111412 -0.00001528818818255415 -0.000003964766737742554 -0.0000013086146166619227
          -0.000005430448311422283 -0.0000196649950398201 -0.0000057307203169317875 0 0 0
          0 0 0 0 0 0
          0 0 0 0 0 0
          0 0 0 -0.000031053400896423476 -0.000012368058562845014 -0.000031858279469547844
          -0.00001651407455785539 -0.00003266315804267223 -0.000020660090552865765 0 0 0
          0 0 0 0 0 0
          0 0 0 -0.0000012940723194344992 -0.0000053073372237708415 -0.00002515470308007366
          -0.000011665623926986503 -6.892699217004022e-7 -0.000003615789577774741 -0.000016176718512436708 -0.000007043829338093606 -8.446752396630526e-8
          -0.0000019242419317786413 -0.000007198733944799762 -0.0000024220347492007112 -0.00004126079581260894 -0.00020276486418586577 -0.00003707345226599665
          -0.0001963010025291638 -0.000032886108719384356 -0.00018983714087246183 0 0 0
          0 0 0 0 0 0
          0 0 0 -0.00044323679201606055 -0.0014027456424180794 -0.0012796018741463746
          -0.00039223364106056886 -0.00042124696521909916 -0.001380398210248652 -0.001241380193228922 -0.0003648392196157949 -0.00039925713842213777
          -0.001358050778079225 -0.0012031585123114697 -0.00033744479817102065 0 0 0
          0 0 0 0 0 0
          0 0 0 0 0 0
          0 0 0 -0.000014883715416148472 -0.00001391606203341936 -0.000012948408650690252
          0 0 0 0 0 0
          0 0 0 0 0 0
          0 0 0 -0.0000032227060174747507 0 -0.000011204581957517769
          0.0000035133436266770952 -0.000002287708152150787 0 -0.000021155055027431728 -0.0000011748721219066077 -0.000001352710286826824
          0 -0.000031105528097345694 -0.0000058630878704903085 -0.00003814758189567316 -0.00004052285793762099 -0.0000861112823857093
          -0.000021536382731079466 -0.00002612703203645735 -0.00005375525351222007 -0.000004925183566485773 -0.000011731206135293717 -0.00002139922463873086
          0 0 0 0 0 0
          0 0 0 0 0 0
          0 0 -4.658927219892736e-10 0 -9.317854439785471e-10 0
          -0.0007117305104907511 -0.0006226779467232056 -0.0009299386975695845 -0.0007255082760738313 -0.0007597342664760212 -0.0006430333557150496
          -0.0009580551281897201 -0.0007990279787945652 -0.0008077380224612914 -0.0006633887647068936 -0.0009861715588098557 -0.000872547681515299
          0 -0.0000032227060174747507 0 -1.6959554916286933e-7 -0.000002457303701313657 -0.0000032130156204716257
          -3.3919109832573866e-7 -0.0000016919013851525626 -0.000006426031240943252 0 0 0
          0 0 0 0 0 0
          0 0 0 -0.0000021484706783165006 -0.0000032227060174747507 -0.0000014392087021182021
          -0.0000021588130531773033 -7.29946725919904e-7 -0.000001094920088879856 0 0 0
          0 0 0 0 0 0
          0 0 0 0 0 0
          0 0 0 0 0 0
          0 0 0 -0.00010617784050415897 -0.0002411015898019985 -0.00010346696934969101
          -0.00007935221823814528 -0.00023707476401012363 -0.00010181257882414799 -0.00005252659597213161 -0.0002330479382182487 -0.00010015818829860497
          -0.0002762765292925228 -0.000312739529087013 -0.00034920252888150316 0 0 0
          0 0 0 0 0 0
          0 0 0 -0.00016221246277500903 -0.00044256465758514595 -0.00015158471055057554
          -0.00044266622847591953 -0.00014095695832614204 -0.0004427677993666929 0 0 0
          0 0 0 -0.0014063707000131983 -0.0007493635040009726 -0.0014255407604654268
          -0.0007251497023994653 -0.0014447108209176545 -0.000700935900797958 -0.00006066517751530199 -0.00012099892103132545 -0.000060751030962476555
          -0.00013336742134823932 -0.0000608368844096511 -0.00014573592166515316 0 0 0
          0 0 0 -0.000007919798728722608 -0.0000016888117455434409 -0.000012313704001955883
          -0.0000026738672690156567 -0.00001670760927518916 -0.0000036589227924878727 0 0 0
          0 0 0 0 0 0
          0 0 0 0 0 0
          0 0 0 -0.0000971188318571915 -0.00010661507049774654 -0.0001161113091383016
          -0.0013512657933581957 -0.0013982168962574457 -0.0014451679991566962 -2.7793720533037232e-8 -1.3896860266518616e-8 0
          0 0 0 0 0 0
          0 0 0 0 0 0
          0 0 0 0 0 0
          0 0 0 0 0 0
          0 0 0 0 0 0
          0 0 0 0 0 0
          0 0 0 0 0 0
          0 0 0 0 0 0
          0 0 0 0 0 0
          0 0 0 0 0 0
          0 0 0 0 0 0
          0 0 0 0 0 0
          0 0 0 0 0 0
          0 0 0 0 0 0
          0 0 0 0 0 0
          0 0 0 0 0 0
        </DataArray>
        <DataArray type="Float64" Name="pe33" format="ascii" RangeMin="-0.0016311144941694787" RangeMax="0">
          0 0 0 0 0 0
          0 0 0 0 0 0
          0 0 0 0 0 0
          0 0 0 0 0 0
          0 0 0 0 0 0
          0 0 0 0 0 0
          0 0 0 0 0 0
          0 0 0 0 0 0
          0 0 0 0 0 0
          -3.0171744060360823e-7 0 -1.5085872030180412e-7 0 0 0
          0 0 0 0 0 0
          0 0 0 0 0 0
          0 0 0 0 0 0
          0 0 0 0 0 0
          0 0 0 -3.789634327760686e-7 -2.2478973050493594e-7 -7.06160282338033e-8
          0 0 0 0 0 0
          0 0 0 0 0 0
          0 0 0 0 0 0
          0 0 0 0 0 0
          0 0 0 -1.453305617246639e-9 -2.8973064102144637e-8 -5.649282258704264e-8
          0 0 0 0 0 0
          0 0 0 0 0 0
          0 0 0 0 0 0
          0 0 0 0 0 0
          0 0 0 0 0 0
          0 0 0 0 0 0
          0 0 0 0 0 0
          0 0 0 0 0 0
          0 0 0 0 0 0
          0 0 0 0 0 0
          0 0 0 0 0 0
          0 0 0 0 0 0
          0 0 0 0 0 0
          0 0 0 0 0 0
          0 0 0 0 0 0
          0 0 0 0 0 0
          0 0 0 0 0 0
          0 0 0 0 0 0
          0 0 0 0 0 0
          0 0 0 0 0 0
          0 0 0 0 0 0
          0 0 0 0 0 0
          0 0 0 0 0 0
          0 0 0 0 0 0
          0 0 0 0 0 0
          0 0 0 0 0 0
          0 0 0 0 0 0
          0 0 0 0 0 0
          0 0 0 0 0 0
          0 0 0 0 0 0
          0 0 0 0 0 0
          0 0 0 0 0 0
          0 0 0 0 0 0
          0 0 0 -0.00012476426642064317 -0.0001105270907061915 -0.000305271464991351
          -0.00025787547910791856 -0.00010697301995439222 -0.00009517107984091394 -0.0002778059228182424 -0.0002428600400250386 -0.00008918177348814125
          -0.0000798150689756364 -0.0002503403806451338 -0.00022784460094215863 0 0 0
          0 0 -3.4972113313067433e-10 0 0 0
          -6.994422662613487e-10 0 0 0 0 -0.00001704631093144567
          -0.0000036634374686276035 -8.506750501576392e-7 -0.000003422811759263161 -0.000022265182731513607 -0.0000060564648243017 -0.0000017013501003152783
          -0.000006845623518526322 -0.000027484054531581544 -0.000008449492179975798 0 0 0
          0 0 0 0 0 0
          0 0 0 0 0 0
          0 0 0 -0.00005444039883065912 -0.00001938923497257764 -0.000053333471590343144
          -0.00002413950487845629 -0.00005222654435002718 -0.00002888977478433495 0 0 0
          0 0 0 0 0 0
          0 0 0 -0.000007322360453551631 -0.000020897820298491083 -0.00012437876081712918
          -0.00005402795759490994 -0.000003987099486818986 -0.000014177776028352803 -0.00010220045975906544 -0.00003741974591327313 -6.518385200863424e-7
          -0.000007457731758214529 -0.00008002215870100171 -0.00002081153423163632 -0.00010638496134949861 -0.000364049959888101 -0.00008369944438499127
          -0.00031955306270923026 -0.00006101392742048394 -0.0002750561655303596 0 0 0
          0 0 0 0 0 0
          0 0 0 -0.0005899270503066464 -0.0012376488034915184 -0.0011809049100848675
          -0.000511498288158839 -0.0005599136289810491 -0.001111206127519612 -0.0010500130476396867 -0.00045521618682888384 -0.0005299002076554519
          -0.0009847634515477057 -0.0009191211851945058 -0.0003989340854989285 0 0 0
          0 0 0 0 0 0
          0 0 0 0 0 0
          0 0 0 -0.000032880614814517436 -0.000029112637803626403 -0.00002534466079273538
          0 0 0 0 0 0
          0 0 0 0 0 0
          0 0 0 -0.000003095416675313092 0 -0.00009009050157418816
          -0.0000404390393338989 -0.000002289616381435446 0 -0.00008609391628548765 -0.00003075751202560567 -0.0000014838160875578007
          0 -0.00008209733099678713 -0.00002107598471731244 -0.00018707572202074038 -0.0002761713135528765 -0.0003753285862051704
          -0.00015236511266185677 -0.00025987889319244184 -0.0003549573655854952 -0.00011765450330297317 -0.00024358647283200717 -0.00033458614496582
          0 0 0 0 0 0
          0 0 0 0 0 0
          0 0 -5.828685552177905e-10 0 -1.165737110435581e-9 0
          -0.0013055469550313115 -0.0011820341894523488 -0.001451543316772069 -0.0015073916045838832 -0.0011786439955011312 -0.0010539549343093766
          -0.001311806453714652 -0.0013796819709663041 -0.0010517410359709507 -0.0009258756791664046 -0.0011720695906572351 -0.0012519723373487254
          0 -0.000003095416675313092 0 -2.0234328816732028e-7 -0.0000024919596696027666 -0.0000041724997460698624
          -4.0468657633464056e-7 -0.0000018885026638924414 -0.000008344999492139725 0 0 0
          0 0 0 0 0 0
          0 0 0 -0.0000020636111168753947 -0.000003095416675313092 -0.0000014202623096353123
          -0.000002130393464452969 -7.769135023952305e-7 -0.0000011653702535928459 0 0 0
          0 0 0 0 0 0
          0 0 0 0 0 0
          0 0 0 0 0 0
          0 0 0 -0.00045904531858146546 -0.0007499677492448642 -0.0005392222340133348
          -0.0004496565423697405 -0.0006993819580138059 -0.0005518898195520396 -0.00044026776615801544 -0.0006487961667827473 -0.0005645574050907444
          -0.0008534285940804206 -0.000794308803429688 -0.0007351890127789553 0 0 0
          0 0 0 0 0 0
          0 0 0 -0.0005394329373394415 -0.0007963104218691484 -0.0005066252560033584
          -0.0007153069615384915 -0.0004738175746672754 -0.0006343035012078349 0 0 0
          0 0 0 -0.0016136816857792143 -0.0009005500780513976 -0.0014499286067753137
          -0.0007908198372561309 -0.0012861755277714132 -0.0006810895964608637 -0.0002316868580788989 -0.00025236984479037384 -0.00018767973866967548
          -0.0002599998930388244 -0.00014367261926045212 -0.00026762994128727487 0 0 0
          0 0 0 -0.00003151476857345888 -0.000015029645755987958 -0.00004408207674410295
          -0.00001954506452727881 -0.000056649384914747014 -0.000024060483298569662 0 0 0
          0 0 0 0 0 0
          0 0 0 0 0 0
          0 0 0 -0.0001836604503296903 -0.00020334347283261324 -0.00022302649533553613
          -0.0016311144941694787 -0.0014650043778128043 -0.0012988942614561303 -1.5576602606214536e-7 -7.788301303107268e-8 0
          0 0 0 0 0 0
          0 0 0 0 0 0
          0 0 0 0 0 0
          0 0 0 0 0 0
          0 0 0 0 0 0
          0 0 0 0 0 0
          0 0 0 0 0 0
          0 0 0 0 0 0
          0 0 0 0 0 0
          0 0 0 0 0 0
          0 0 0 0 0 0
          0 0 0 0 0 0
          0 0 0 0 0 0
          0 0 0 0 0 0
          0 0 0 0 0 0
          0 0 0 0 0 0
        </DataArray>
        <DataArray type="Float64" Name="disp_x" format="ascii" RangeMin="0" RangeMax="0.0000023896121778202557">
          1.077629000038521e-7 0 1.0775954283917056e-7 0 1.0774968006291728e-7 0
          1.0765779869804329e-7 0 1.0765390846037546e-7 0 1.0763879839818799e-7 0
          1.0754923359085848e-7 0 1.075427498711775e-7 0 1.0752111953346767e-7 0
          1.0743693473214955e-7 0 1.0742632027538035e-7 0 1.0739391938814431e-7 0
          1.0733938600185495e-7 0 1.0732248904280095e-7 0 1.0727265908991789e-7 0
          1.0730763254243214e-7 0 1.0727540983342481e-7 0 1.0718538611927771e-7 0
          1.074571048275805e-7 0 1.0740595620718524e-7 0 1.0724563751338167e-7 0
          1.0838529541544142e-7 0 1.0824479820500059e-7 0 1.0785340988138694e-7 0
          1.1016148827503921e-7 0 1.0993288763321864e-7 0 1.0915346909442865e-7 0
          1.3180942367145933e-7 0 1.294435175610799e-7 0 1.2211977697030646e-7 0
          2.1553886550019108e-7 2.155337054805103e-7 2.1551387578271774e-7 2.1533792231897858e-7 2.1532983371985117e-7 2.153034408656721e-7
          2.1512871537316078e-7 2.1511711458298212e-7 2.1507712585423486e-7 2.149220235789454e-7 2.1490211560822135e-7 2.1484022233321463e-7
          2.1475593788977294e-7 2.1472312131098748e-7 2.1462102428071348e-7 2.1473645823859964e-7 2.1467491477740717e-7 2.1450306782502224e-7
          2.151613460911667e-7 2.1505746111942513e-7 2.1471122082781912e-7 2.1705103742170677e-7 2.1679603374558605e-7 2.161361047818639e-7
          2.2222050711719217e-7 2.2171123859874457e-7 2.1978831179220305e-7 2.647709600019024e-7 2.610254284861211e-7 2.5078896575351266e-7
          3.2335054300189635e-7 3.233438875744782e-7 3.23315591381209e-7 3.2306828303254683e-7 3.230552347794617e-7 3.2301548129696944e-7
          3.22776684435454e-7 3.22758186568447e-7 3.2269873944410766e-7 3.2250429122600246e-7 3.2247489150223554e-7 3.2238303729920736e-7
          3.223197916710744e-7 3.2227162285715626e-7 3.2212470351452883e-7 3.224064373857823e-7 3.223213196373104e-7 3.220618581833729e-7
          3.233005367339509e-7 3.2314319766649653e-7 3.226829179604973e-7 3.2646057708293003e-7 3.2611421372409303e-7 3.250026619580232e-7
          3.3705393662422914e-7 3.3631144049484227e-7 3.341927194109246e-7 3.98801974447893e-7 3.944651482568493e-7 3.8173740815166543e-7
          4.3121087214903957e-7 4.3120200412560076e-7 4.3116631309379824e-7 4.308641711814205e-7 4.308472669146518e-7 4.3079534326585105e-7
          4.305174515749118e-7 4.304932049439673e-7 4.304160474136443e-7 4.302243540280875e-7 4.3018692200167926e-7 4.300689656251068e-7
          4.300973226291301e-7 4.300356908103688e-7 4.298465153116345e-7 4.3042875680460603e-7 4.303231140022711e-7 4.2999643745557313e-7
          4.3202230364187184e-7 4.318178803093515e-7 4.312151918111309e-7 4.3708539322863184e-7 4.3667220810622256e-7 4.3535802929663417e-7
          4.54507192689045e-7 4.535503828304573e-7 4.507271394197534e-7 5.328324581837623e-7 5.289674687467724e-7 5.185910110628142e-7
          5.391328420927613e-7 5.391220974414898e-7 5.390805012337103e-7 5.38744757226087e-7 5.387249553752675e-7 5.386633180234015e-7
          5.383782238548743e-7 5.383496134221542e-7 5.382581408643119e-7 5.381214089085108e-7 5.380773841168568e-7 5.379381683771898e-7
          5.381466319627578e-7 5.380749153667833e-7 5.378518995585e-7 5.388875829744445e-7 5.387628663561734e-7 5.383795403312672e-7
          5.414689594747941e-7 5.412345459901279e-7 5.40522079722727e-7 5.491349714770486e-7 5.486568537872762e-7 5.471862651087496e-7
          5.741404964385297e-7 5.730900247236858e-7 5.699634687743846e-7 6.654409785048639e-7 6.623430384475009e-7 6.540737528978688e-7
          6.471298004716863e-7 6.471173598304962e-7 6.470721850421739e-7 6.467279514784789e-7 6.467059752133467e-7 6.466381807681728e-7
          6.463839262650691e-7 6.463518887342068e-7 6.462507928441175e-7 6.46229819094814e-7 6.461805773737167e-7 6.460270600346237e-7
          6.465159758311114e-7 6.464358027667697e-7 6.461891694276595e-7 6.478461746248161e-7 6.477078134543173e-7 6.472843994342261e-7
          6.517449670277555e-7 6.514852103196489e-7 6.506974428033232e-7 6.625968536765012e-7 6.620897260225508e-7 6.605298245451462e-7
          6.952946889475232e-7 6.942107980042279e-7 6.910393019106065e-7 7.96216816127387e-7 7.938151700762359e-7 7.872054197992425e-7
          7.552151189625784e-7 7.551998749002038e-7 7.551529856279895e-7 7.548316575430256e-7 7.548067218542654e-7 7.547360737537128e-7
          7.545583219093485e-7 7.545218533805593e-7 7.544156886223843e-7 7.545807790661618e-7 7.545248237353109e-7 7.543633844203941e-7
          7.552443915615444e-7 7.55154406395982e-7 7.548938477084726e-7 7.573533055639128e-7 7.572009291532713e-7 7.567539137936398e-7
          7.628883066890099e-7 7.62610180127062e-7 7.617830706004715e-7 7.773377605548782e-7 7.768183272355588e-7 7.752372218884191e-7
          8.172188301584002e-7 8.161988609146697e-7 8.131276058172701e-7 9.251941744777458e-7 9.232287803408576e-7 9.178778647548528e-7
          8.634038766289691e-7 8.633800584381466e-7 8.633279274586305e-7 8.630779085226632e-7 8.630430735782462e-7 8.629670295075129e-7
          8.629287305805173e-7 8.628790966147002e-7 8.627655019345463e-7 8.632081015299729e-7 8.631330094818637e-7 8.629596540328655e-7
          8.643713746264978e-7 8.642559982828158e-7 8.639779163297052e-7 8.674471804528927e-7 8.672635085637712e-7 8.667933687891799e-7
          8.748968595149322e-7 8.745878498723128e-7 8.737433013860465e-7 8.931188248040194e-7 8.926090813005044e-7 8.910607927287528e-7
          9.393610451787934e-7 9.384462519361131e-7 9.356151025140697e-7 0.0000010516728014666838 0.00000105037000826947 0.0000010459714912802356
          9.715114882996865e-7 9.714586896647899e-7 9.71302688826322e-7 9.72124633674426e-7 9.72047507100214e-7 9.718109543552137e-7
          9.73905812649029e-7 9.737880624920135e-7 9.734281900124862e-7 9.781214936969139e-7 9.779355967925744e-7 9.773683818907211e-7
          9.876869841099814e-7 9.873850012269294e-7 9.86468434248996e-7 0.0000010097098105282032 0.0000010092187715994713 0.000001007743330061178
          0.0000010611769057842071 0.0000010603652612389932 0.00000105804000929289 0.0000011758686203292313 0.000001174823538310194 0.0000011716298658633224
          0.0000015165222021352952 0.0000014196006412982338 0.000001447506213310744 0.0000015451553875768016 0.0000015169958149977234 0.000001419708410821911
          0.0000014478411681172128 0.000001545987160979685 0.0000015197017789675197 0.0000014200635273747707 0.0000014486829694445309 0.0000015492912810439728
          0.0000016088484098535643 0.0000016307451096495567 0.0000016098539702127454 0.000001632007949058894 0.0000016146465095241944 0.0000016375035155469636
          0.000001589024010153824 0.0000016624223973035408 0.0000016576848524184988 0.0000015896112887293638 0.0000016634591385734208 0.000001658664997362791
          0.000001593642058661793 0.000001669004433247762 0.000001663675237145811 2.199139376169208e-7 3.575922578406371e-7 2.7674289210420293e-7
          1.8828054568470216e-7 2.1602589189920317e-7 3.5264785398774674e-7 2.960921111354804e-7 1.9021039848640049e-7 1.8372446000003773e-7
          3.0979948299639483e-7 2.396337366587603e-7 1.5915034085329938e-7 9.942291215169188e-7 0.0000010173747023246763 0.0000011426894281419325
          0.000001056141938398969 9.62290965875176e-7 0.0000010219931860900883 0.0000011445362813976614 0.0000010586075733108195 9.371320586368412e-7
          0.0000010065868197423833 0.0000011375172876351257 0.0000010420967811140443 5.095725050458968e-7 5.512278346247375e-7 4.3628666557156976e-7
          4.013209311116562e-7 5.021387897149045e-7 5.461770098181884e-7 4.333959832812343e-7 3.913818682547233e-7 4.825533270699056e-7
          5.238869961171871e-7 4.0120825366857633e-7 3.768538744185136e-7 9.134703620298532e-7 8.642921291616872e-7 9.959153217354798e-7
          0.0000010402443888410053 9.036313503055177e-7 8.555217958385287e-7 0.00000100076178414448 0.0000010384002978357526 8.940734206035653e-7
          8.469996338030304e-7 9.945071767879858e-7 0.000001031270695024004 0.0000011117757511320288 9.961663592563443e-7 0.0000011107745868016823
          9.948315256792852e-7 0.0000011068070341181999 9.897994245887047e-7 3.571521384409015e-7 4.824244127777877e-7 3.5000530040580104e-7
          4.721413218477757e-7 3.175021841561388e-7 4.3757520061060677e-7 0.0000015348557215248524 0.000001607715552301373 0.0000016219865141608013
          0.0000015233657361993347 0.0000015346741477297945 0.0000016082522054660387 0.0000016227495392782945 0.0000015228573925885395 0.0000015370390861944955
          0.0000016122351873742385 0.0000016273668805773493 0.0000015246891430567064 6.50317863017848e-8 1.4594342785995294e-7 1.029017315790735e-7
          0 6.281073501533968e-8 1.4151138894752767e-7 1.0354597509057231e-7 0 5.5567833184352e-8
          1.264135676829339e-7 7.993712542431797e-8 0 4.5857629038204506e-7 4.449969136985688e-7 4.4699856342663286e-7
          4.16159076200343e-7 4.031601342322043e-7 3.957284118178275e-7 0.0000014690615597873862 0.0000015063434992462179 0.0000016080779356849458
          0.0000015897641630678318 0.0000014694764967153578 0.0000015063962659511881 0.0000016088217149533853 0.000001590652091430265 0.0000014698917902823779
          0.0000015064522679882487 0.000001611216821911153 0.0000015944187339581205 7.247936258974485e-7 4.654941959782926e-7 4.480472278393799e-7
          6.623037246728394e-7 6.96443053193672e-7 4.551845985487257e-7 4.4728756641546367e-7 6.311624091542552e-7 5.917824845181734e-7
          3.696369426035044e-7 3.9204724438526656e-7 5.358454517358905e-7 0.000001709915906928016 0.000001668593001161568 0.0000016607586784184776
          0.000001707354080395331 0.0000017107927064448232 0.000001669427255791798 0.000001661655564747457 0.0000017081314869538962 0.0000017152128637813348
          0.0000016739672004154978 0.0000016663211526932561 0.0000017127080662842017 7.742292091453053e-7 7.929553303956171e-7 7.669126499240087e-7
          7.851562564339691e-7 7.550803039865825e-7 7.721729445699086e-7 2.7407143142191184e-7 2.663303771446333e-7 2.4505177882563804e-7
          0.0000014462274424111725 0.000001352669307587203 0.0000014456039595696426 0.0000013525113657413861 0.0000014459197846766268 0.0000013514084442346
          0.0000012520541573018096 0.0000011719796281094222 0.0000013026735797809248 0.0000012519448968394012 0.0000011731088090395189 0.0000013028883245592853
          0.000001248790918754976 0.000001169436059516706 0.0000013011851442564143 7.215708158491518e-7 8.597725728553894e-7 8.336324973919033e-7
          5.71671783686425e-7 7.198280692630691e-7 8.322015335948939e-7 7.944077367347345e-7 5.638332927438351e-7 7.01783250895447e-7
          8.212497968728309e-7 7.369099241661832e-7 5.361062119470495e-7 0 1.0849748849465833e-7 0
          0 1.0036872345725004e-7 0 0 8.303063313156664e-8 0
          0.0000011330959323602241 8.905033154519089e-7 0.0000011333179057071262 8.87949441727059e-7 0.0000011296462754111674 8.814961130009299e-7
          0.0000012453415057118243 0.0000012457098983312052 0.0000012430537656240269 0.0000012453567438342674 0.0000012339891830075289 0.0000012290229466485164
          0.0000010235730953176168 0.0000011581653514253814 0.0000010189874507018465 0.0000011570856199949915 0.0000010078664716468445 0.000001151633893688321
          0 1.1065449345092959e-7 2.0192528538517823e-7 0 0 2.0746012379384222e-7
          2.0957004664370316e-7 0 0 8.566857480218625e-8 2.0400381831117895e-7 0
          6.782728956815738e-7 7.129813386163392e-7 5.919980470665566e-7 6.714082124346488e-7 7.063707141268036e-7 5.828751924797991e-7
          6.548703154530497e-7 6.881422328197344e-7 5.574522002093539e-7 0.0000013431157884563894 0.000001360034489988786 0.000001342686976571846
          0.000001359954549797646 0.0000013407929153928325 0.0000013588225614268153 6.479324387003995e-7 7.658017825205874e-7 6.413635488415709e-7
          7.629803663155819e-7 6.278451054327113e-7 7.537795025846948e-7 8.966049724248177e-7 8.800946621813246e-7 8.9023110918665e-7
          8.638129981144399e-7 8.773230329660306e-7 8.412704299716443e-7 0.000001035787725432734 0.0000011956761787601469 0.0000010326876451936235
          0.0000011937214658476641 0.0000010241791823972944 0.0000011893041733481477 0.0000017053277897620212 0.0000016738617790324375 0.0000017078085476516717
          0.0000017060104030435527 0.0000016748880507146848 0.0000017084449746654197 0.0000017112473088089007 0.000001680952319280601 0.000001714017808020794
          0.0000013133891028131606 0.0000014057557771554222 0.0000011979498336721207 0.0000013127213618542258 0.0000014052378398768388 0.0000011974857487336696
          0.0000013102847704884687 0.0000014036618298910722 0.000001193698927843426 9.635764912032082e-8 6.965321666948599e-8 0
          9.951291011331428e-8 6.837927957287333e-8 0 7.332480670245906e-8 8.162652632717399e-8 0
          0 0 0 0.0000017228384946200128 0.000001691585989734351 0.0000016948031495598567
          0.0000017355623980929415 0.0000017233161044697355 0.0000016925762129957779 0.0000016957945537855995 0.000001735957150412467 0.0000017293753949704037
          0.0000016992782959681397 0.0000017022954316407042 0.0000017421587744334977 1.8096772054975284e-7 2.6161283238548906e-7 1.9988270278085783e-7
          2.7557887781308306e-7 1.5765554787462623e-7 2.1904558548880351e-7 0.0000016839440229074917 0.0000017134914954968792 0.0000016849855090460864
          0.0000017140566958495185 0.000001691438935522989 0.0000017199323058238812 1.9995078306594744e-7 4.3305653440151094e-7 1.471611842907995e-7
          4.498352925477539e-7 1.854442648501816e-7 3.5724821836278087e-7 6.561128270796507e-7 8.336407219384967e-7 6.219484236134867e-7
          7.63588027221098e-7 5.425996892145669e-7 6.909872699755384e-7 0.0000016515890819719276 0.0000016528259158669655 0.0000016586154650825452
          0.0000012355249533494638 0.0000012347376935190858 0.000001231838516794396 9.606695651374933e-7 0.0000010509596462625024 9.350897427885098e-7
          0.0000010505760833751563 8.735142333182394e-7 0.000001026129379645029 0.0000011003327577593185 0.0000011004801554027902 0.0000010955516494161193
          0.0000013626250942985159 0.0000013600327544221014 0.0000013557295008167611 0.0000017054894505518226 0.0000017062195058417856 0.0000017110974360227437
          0.000001338790407203516 0.0000013383316364440985 0.0000013359632349907838 0.000001697921553121061 0.000001699421648170753 0.000001704252524696794
          0.0000013966661465684007 0.0000013942462866159432 0.0000013905013763259114 9.131063281970328e-7 9.186080671300751e-7 8.522441738393009e-7
          0 0 0 0 0 0
          0.0000017517724467514543 0.0000017526285400063408 0.0000017581815257722899 0.0000017108404927827433 0.000001711675186423043 0.000001716190661311877
          0.0000014104632631911748 0.000001410371808863769 0.0000014100807405592212 0.0000018523944962884554 0.0000018523118917663733 0.0000018520729675172747
          0.0000014155077040997776 0.0000014153778239753846 0.0000014149661346485026 0.0000018612116993209148 0.0000018610993331740867 0.00000186078289820105
          0.000001425063668052322 0.0000014248795567080677 0.0000014242932833336278 0.0000014431609299145203 0.000001442901452577082 0.000001442091761011262
          0.0000014773871632919409 0.0000014770410978064593 0.0000014759865711329306 0.0000015403084049376173 0.0000015398833524148196 0.000001538672795040063
          0.0000016476318566571115 0.0000016472826824775347 0.0000016462073824506833 0.000001431665015458721 0.000001516057274355064 0.0000014310545212072853
          0.0000015157133948983238 0.0000014291534875259553 0.0000015143676923496825 0.0000017936216025768727 0.0000018732407483592507 0.0000016915628591800628
          0.000001601135955316109 0.0000017938258538731584 0.0000018739098814861295 0.0000016921922873868867 0.0000016010569908220364 0.000001794294563303588
          0.0000018759502806780829 0.00000169410260453139 0.0000016010399135882306 0.0000017760121302617827 0.000001777201723895934 0.0000017811456012531622
          0.0000017319483087506785 0.0000017318204593917045 0.0000017313956151776661 0.0000019804462503413085 0.0000019814221940999173 0.0000019847731821903545
          0.000002308693173835902 0.0000022965679526201018 0.0000023086110700369213 0.0000022965006950407796 0.0000023083568500433018 0.0000022962932513356865
          0.0000018759996562213423 0.000001875857353616391 0.000001875453087282605 0.000002327201873592423 0.000002327105748924165 0.0000023268098587061903
          0.00000190061859264144 0.0000019004420408153925 0.0000018999419929271983 0.000001940745994623839 0.000001940544803227545 0.0000019399686375723115
          0.0000020030246235709732 0.0000020028496770009493 0.0000020022989273325853 0.000002089223064380128 0.000002089159970557312 0.0000020889818518588996
          0.0000020395691192513263 0.0000020397115342218462 0.00000204016490773017 0.00000228795084748362 0.0000020923048232208157 0.00000238795782466769
          0.000002288580052199507 0.0000020928191312276 0.0000023883916153008132 0.0000022906922323602746 0.000002094391384042419 0.0000023896121778202557
        </DataArray>
        <DataArray type="Float64" Name="disp_y" format="ascii" RangeMin="-0.000003795050612521164" RangeMax="-0.000002305693138316415">
          -0.0000023060686429035726 -0.0000023058844952711145 -0.0000023060207578574017 -0.0000023058346793197813 -0.0000023058814148416127 -0.000002305693138316415
          -0.0000024126355566817334 -0.0000024123953427369354 -0.0000024125739464506564 -0.0000024123304170251343 -0.0000024123879568593085 -0.000002412139732581823
          -0.000002516616210821683 -0.000002516298030006991 -0.0000025165339840215858 -0.0000025162132242543037 -0.0000025162859578421707 -0.0000025159612305828107
          -0.000002617240484855975 -0.000002616804066650148 -0.0000026171261596426787 -0.000002616685371811728 -0.0000026167830681203135 -0.0000026163359359702867
          -0.0000027133772204584927 -0.000002712756700183183 -0.0000027132140641787658 -0.0000027125868678099265 -0.00000271272038567347 -0.0000027120850715919337
          -0.0000028033508148957985 -0.000002802436865885858 -0.000002803098063041354 -0.000002802175268947773 -0.0000028023515826260505 -0.0000028014152926321898
          -0.000002884527572686523 -0.0000028830966716273946 -0.000002884120405189884 -0.0000028826795428366048 -0.00000288286710581675 -0.000002881404421422672
          -0.0000029525575332121618 -0.0000029501672605250037 -0.000002951974379617457 -0.0000029495549808523526 -0.000002950092369717629 -0.0000029476359635690017
          -0.0000030003196601026147 -0.000002995615471369898 -0.000002998604467719664 -0.0000029939709097108066 -0.0000029940201395296327 -0.0000029892869831648227
          -0.0000030216475437461566 -0.000003006126279924456 -0.000003016079286902449 -0.000002999290013978728 -0.000002998682203511923 -0.000002979508659587935
          -0.0000023066220696345005 -0.0000023065778167672955 -0.000002306441541663927 -0.000002413346435754706 -0.0000024132885546687474 -0.000002413106481742329
          -0.000002517560227853235 -0.00000251748108212051 -0.0000025172377816570417 -0.0000026185311507493918 -0.000002618421408993913 -0.000002618083617350065
          -0.0000027152033388968477 -0.0000027150465426962487 -0.000002714563493845336 -0.0000028060389482362753 -0.0000028057944112955108 -0.0000028050600274602243
          -0.0000028887301955006874 -0.0000028883561687042816 -0.000002887182233825397 -0.0000029595929466880106 -0.000002958988038188825 -0.0000029571241226006095
          -0.0000030143463424750473 -0.000003012902488961974 -0.00000300881513047237 -0.000003060947669248538 -0.0000030566040714773235 -0.0000030446038110672146
          -0.0000023075549379511715 -0.0000023075105342119766 -0.0000023073748799286617 -0.00000241455173191738 -0.0000024144946050191554 -0.00000241431478781471
          -0.0000025191479417874026 -0.0000025190705767364966 -0.0000025188306128167384 -0.00000262067772411643 -0.0000026205710334774727 -0.00000262024059078227
          -0.000002718209397379699 -0.0000027180591975076035 -0.00000271759133464455 -0.0000028104495918806066 -0.0000028102134775987094 -0.0000028095120915984507
          -0.0000028955517309709038 -0.000002895223262840604 -0.0000028941259905159888 -0.000002971033985706031 -0.000002970405998878729 -0.000002968737513244029
          -0.000003036852685019435 -0.0000030358254052979074 -0.0000030321009780152336 -0.000003109952954113085 -0.000003106794439225244 -0.0000031014890569350786
          -0.0000023088419062794027 -0.0000023087986505555856 -0.0000023086656921899934 -0.0000024162088445430414 -0.000002416153416627575 -0.000002415977567982119
          -0.000002521328170198162 -0.0000025212535693616364 -0.0000025210201114879218 -0.000002623623013199594 -0.0000026235207504592588 -0.00000262320264321208
          -0.000002722325118383752 -0.0000027221815865567326 -0.0000027217352020670043 -0.0000028164514304675027 -0.0000028162346340515283 -0.0000028155813982169335
          -0.00000290476043036282 -0.0000029044519853014375 -0.0000029034538678714955 -0.0000029863401658915644 -0.0000029858276642769817 -0.0000029843706288412667
          -0.0000030654752153897255 -0.0000030645379194836643 -0.000003061743136852892 -0.0000031606949990385343 -0.0000031595208500226175 -0.0000031569458487028125
          -0.0000023104720480171164 -0.0000023104301949041776 -0.0000023103010151071663 -0.000002418301364530763 -0.000002418247967339909 -0.0000024180776674961455
          -0.0000025240751819757495 -0.0000025240037829165153 -0.000002523779173505195 -0.000002627322862247423 -0.0000026272257378486047 -0.000002626922709689725
          -0.0000027274703433955807 -0.000002727335740634532 -0.0000027269173662389897 -0.000002823891873979152 -0.000002823694668107267 -0.0000028230956668068906
          -0.000002916062821489984 -0.000002915792589091723 -0.0000029149231373877545 -0.0000030047983267365833 -0.0000030043610420902343 -0.0000030031345261990063
          -0.0000030973512371140397 -0.000003096757635899989 -0.0000030948887878515513 -0.0000032107088349653305 -0.0000032101591097718007 -0.0000032095147153764266
          -0.00000231243034927264 -0.0000023123900177631324 -0.0000023122653399224896 -0.000002420807285963534 -0.0000024207561401820218 -0.0000024205925290486486
          -0.000002527355519849202 -0.0000025272876018900666 -0.0000025270733191128674 -0.0000026317221028579115 -0.000002631630785202992 -0.000002631345195600128
          -0.000002733546255100651 -0.0000027334217909161292 -0.000002733034917533393 -0.0000028325912494601978 -0.0000028324160644295215 -0.0000028318807789212545
          -0.0000029291061592130182 -0.0000029288784142122515 -0.00000292814416033305 -0.0000030254942619886534 -0.000003025139446843737 -0.000003024184619708615
          -0.0000031303379063863177 -0.0000031300755944524233 -0.0000031289722249631117 -0.000003258359778013085 -0.0000032580520484991966 -0.0000032586591897798504
          -0.0000023146991410312765 -0.000002314660400876608 -0.0000023145405372205725 -0.000002423699287882415 -0.0000024236505340021736 -0.000002423494366490894
          -0.000002531130030080437 -0.000002531065849184595 -0.000002530862759117521 -0.0000026367563212721468 -0.0000026366712431442045 -0.0000026364042971626105
          -0.0000027404407143048575 -0.00000274032749996658 -0.000002739974954083246 -0.0000028423477291677626 -0.0000028421960388846343 -0.000002841729019371958
          -0.00000294349243233609 -0.000002943306111051646 -0.0000029427125020479163 -0.000003047470295407642 -0.000003047225500735816 -0.0000030465549256485575
          -0.000003163168492345116 -0.000003163060423659958 -0.0000031625568940838064 -0.000003301619670281006 -0.0000033019320872423147 -0.000003303424505286259
          -0.0000023172567094110374 -0.0000023172192315190953 -0.0000023171047122210137 -0.0000024269448239823406 -0.0000024268985416664774 -0.0000024267505672429987
          -0.000002535356233871012 -0.00000253529514531878 -0.0000025351037791217804 -0.0000026423542092610315 -0.0000026422753969052544 -0.0000026420277606707427
          -0.0000027480316347880163 -0.0000027479302328441365 -0.000002747613475032746 -0.0000028529475438892906 -0.000002852819199931492 -0.000002852422090373853
          -0.0000029587875195442183 -0.0000029586445779519953 -0.0000029581918327081093 -0.0000030699443436557742 -0.000003069804590262993 -0.0000030694062498136326
          -0.0000031947728737730786 -0.0000031947815292169862 -0.0000031947776545531285 -0.000003340370506789198 -0.000003341190083171969 -0.0000033432174270037352
          -0.0000025399930967727644 -0.000002539934117445394 -0.0000025397525285456925 -0.000002648436821363708 -0.0000026483650909910914 -0.0000026481365732481825
          -0.0000027561907367079207 -0.000002756103657450126 -0.0000027558210491629873 -0.000002864166907595564 -0.000002864062270181834 -0.000002863733272018601
          -0.0000029745833299681234 -0.0000029744800828424704 -0.000002974164778745516 -0.000003092256163234961 -0.0000030921885445282057 -0.00000309205009997128
          -0.0000032245353797100316 -0.00000322466055403719 -0.0000032251416525964426 -0.000003374954887804074 -0.000003375849397595025 -0.0000033780924175949473
          -0.0000034961974247778927 -0.000003490429827797822 -0.000003531209798619109 -0.000003552830882368959 -0.000003501559978307944 -0.00000349519516025116
          -0.000003535580985790309 -0.0000035574082512374907 -0.000003519338080417917 -0.0000035120330788067607 -0.000003550205605087394 -0.000003572354176614601
          -0.000003520093252746061 -0.000003567234924466601 -0.0000035256089254230085 -0.0000035720784475539802 -0.0000035426585289163362 -0.0000035871109937086217
          -0.000003461968981611385 -0.000003523686667890502 -0.000003476816692432759 -0.0000034682170813061818 -0.0000035294113501669175 -0.0000034831267455713048
          -0.0000034871223728682214 -0.0000035464760300881417 -0.000003501475503000909 -0.0000030374364854131933 -0.0000030967649498057866 -0.000003041886829151332
          -0.0000030155447154908444 -0.0000030364931286485597 -0.0000030953824796144857 -0.0000030527325293968114 -0.0000030112865490720093 -0.000003004143701329854
          -0.00000307407790978821 -0.000003006673775483366 -0.000002974198736707891 -0.0000032288828050358874 -0.0000033425685634763035 -0.0000033164368289548186
          -0.0000032210528510430493 -0.000003255960090649827 -0.000003340875595361507 -0.000003324456138810996 -0.0000032530651489859244 -0.0000032604287732859382
          -0.0000033503353031467923 -0.0000033419926240302563 -0.0000032718596571051643 -0.0000031626147582709883 -0.0000031859215321561235 -0.0000031351507720637644
          -0.0000031190593998336085 -0.0000031599381351460856 -0.000003181383544103759 -0.0000031336547000111526 -0.00000311468088083744 -0.00000315835206055364
          -0.000003178921561569649 -0.000003116229900161652 -0.0000030922336602549103 -0.0000033355006199188024 -0.000003313322467527984 -0.0000033719120792240162
          -0.000003391227578006334 -0.0000033389002642168477 -0.0000033126815241396088 -0.0000033718651802936165 -0.000003398945937636634 -0.000003344713275114007
          -0.0000033169211028137624 -0.0000033768003743526125 -0.000003406349217453642 -0.000003386342700790494 -0.0000033465581962180507 -0.000003387620093824581
          -0.0000033477097317937787 -0.0000033912146575923136 -0.0000033508163059884255 -0.0000031003940518477674 -0.0000031527579603279344 -0.000003096496385644516
          -0.000003148254783089531 -0.000003077590647399353 -0.0000031341104178326416 -0.000003399657898419194 -0.000003399952838556112 -0.0000033220666081537106
          -0.0000032952471146152663 -0.0000034061992425966103 -0.0000034068997826103514 -0.0000033291019469839936 -0.000003302062261480914 -0.000003426989506071845
          -0.000003426947642804458 -0.0000033493029387738164 -0.0000033244566909784255 -0.0000030086100371045173 -0.0000030220470526528808 -0.0000030055640608197552
          -0.000003000196400200042 -0.0000030013205286094507 -0.0000030171321688187947 -0.0000029961541014175873 -0.000002990495838848232 -0.000002974411656785377
          -0.0000029890299766068665 -0.000002958336143253557 -0.000002956658517361783 -0.000003124916360932597 -0.000003082512664312084 -0.0000031190913086111996
          -0.0000030917965678650634 -0.000003103925971424031 -0.0000030598550568730772 -0.000003561265196752389 -0.0000035830408747498606 -0.000003617250453001772
          -0.000003599298390629951 -0.0000035650339060691324 -0.0000035859171773152976 -0.0000036203794773194675 -0.0000036029891708794535 -0.000003576750609595268
          -0.000003594217638267211 -0.0000036292471124668305 -0.0000036148558372108287 -0.0000031739259325525804 -0.000003250898728679721 -0.000003186391828006366
          -0.0000031186410683548767 -0.000003157591705549213 -0.0000032328587333146953 -0.0000031564999063294726 -0.000003115855378523123 -0.0000031362696284524637
          -0.0000032069108779672054 -0.000003155190912088385 -0.000003081825970430128 -0.0000033887390564422957 -0.00000338284196377383 -0.000003423436472285603
          -0.00000344241031832828 -0.000003395805482817282 -0.0000033899608905631824 -0.0000034303182807221704 -0.0000034490908783671336 -0.0000034150564061400147
          -0.0000034093933771951665 -0.0000034494865816339107 -0.0000034679296482349537 -0.0000032736768932474836 -0.0000032849200264984053 -0.000003275190661901408
          -0.0000032860897037304086 -0.0000032782441085059884 -0.0000032905650923373087 -0.000003065248979081724 -0.0000030610789368020513 -0.0000030450098839520934
          -0.0000034245958263113177 -0.0000034409763467643373 -0.000003430021086007353 -0.000003445616161132961 -0.000003450290608748472 -0.000003463977768584722
          -0.0000033888757069059183 -0.0000034051175194502526 -0.0000034661703518301373 -0.000003392273199757613 -0.0000034086521895234958 -0.0000034705681001820737
          -0.000003410597774956136 -0.000003424479043976938 -0.00000348615306685826 -0.0000032402737040468854 -0.0000032237819154863715 -0.0000031079908709055945
          -0.0000031848142563844064 -0.0000032444117241459624 -0.0000032364464347598145 -0.000003137152076724499 -0.0000031827805402990314 -0.000003251825723104989
          -0.0000032355929132047546 -0.000003157709835518931 -0.0000031649764822594824 -0.0000029968578559932526 -0.0000030016473548564264 -0.0000030008530301497127
          -0.000002987829806584615 -0.000002980604989162355 -0.0000029819295802591556 -0.000002933596209205711 -0.0000029376910366688028 -0.0000029048713485137197
          -0.0000034178255661641947 -0.00000331340093785838 -0.0000034198502247491413 -0.0000033118222067228538 -0.000003424794859326764 -0.000003314639840704286
          -0.000003291075301572626 -0.000003187667987538455 -0.0000033027826499909663 -0.0000032072602801799387 -0.0000033252415388189712 -0.0000032359726274852257
          -0.0000033679783672140378 -0.0000034360287514918314 -0.000003371402306331625 -0.0000034412216484699258 -0.0000033828434012215303 -0.0000034540298650041963
          -0.000003003139082040072 -0.000002998093003128256 -0.000003032878495297334 -0.0000030413407017649823 -0.000003065401058565987 -0.0000029717056465136363
          -0.000003021652216075452 -0.0000031528769541358797 -0.0000029129319873804666 -0.0000029343452205975357 -0.00000299275718311437 -0.000002983557389238209
          -0.0000032357941728470965 -0.000003247132459906689 -0.000003196057645280983 -0.000003235934721469699 -0.000003246861283037811 -0.0000031942241170973376
          -0.000003238434529016028 -0.0000032523058422515328 -0.000003192161786688856 -0.0000035139212465592363 -0.0000035042712631043236 -0.0000035178157908250168
          -0.00000350869182550253 -0.0000035299792545120695 -0.00000352285239071367 -0.000003217741686863255 -0.000003265673054801649 -0.0000032181522812193247
          -0.000003264251289671616 -0.0000032183535177702365 -0.0000032661499054776847 -0.0000033301260479960627 -0.0000033114872101914747 -0.0000033303298993672204
          -0.0000033020270131616926 -0.000003337439947504631 -0.0000033111523325878943 -0.0000033886343339355546 -0.00000346154147254352 -0.0000033931524873109607
          -0.000003464855949085712 -0.0000034026643555283313 -0.000003474009852704927 -0.0000035315516096291146 -0.000003559183132830904 -0.0000035668370846089275
          -0.0000035372443612632393 -0.0000035643912037484477 -0.000003572001153720348 -0.0000035541782890867066 -0.0000035800309241949882 -0.0000035875035800885148
          -0.000003484718141861332 -0.000003538408783898099 -0.0000034592066682793963 -0.0000034863764001773138 -0.000003540616865557354 -0.0000034610099521528205
          -0.0000034917018093813927 -0.00000354752572778779 -0.000003467984283749676 -0.00000300305650208124 -0.0000030058306153541414 -0.0000030146836407708576
          -0.0000029681631123196692 -0.000002967302793379034 -0.0000029869374266664038 -0.0000029176042390260853 -0.00000289997830257934 -0.0000028913272442605807
          -0.0000030033756757389573 -0.0000029751029627484413 -0.0000029034877244802086 -0.000003622180559354341 -0.0000036100289361121396 -0.0000036304916206474897
          -0.000003643947687702636 -0.000003626210853393389 -0.000003614262999381417 -0.000003634148569877083 -0.0000036474520135039292 -0.000003638074401643245
          -0.000003626806913133346 -0.0000036449414792066386 -0.000003657022057446074 -0.000002984017623603051 -0.000003014113717122164 -0.000002980533396036559
          -0.0000030043730019367072 -0.0000029487151342786686 -0.000002977805575991782 -0.000003587807506146176 -0.0000035965729547415184 -0.00000359250583235866
          -0.000003601193946412974 -0.000003606602207145837 -0.000003614966788171258 -0.0000030667832987731194 -0.000003092533555134202 -0.0000030536806438797884
          -0.0000030661652776852654 -0.0000030256616493850055 -0.0000030722289641838888 -0.0000031129819468378855 -0.0000031197858077767187 -0.0000031229300302586047
          -0.0000031253998758489564 -0.0000030911817780711642 -0.000003134961950894277 -0.0000036028874836598245 -0.0000036069917576293916 -0.0000036196305846391232
          -0.0000034292661370748394 -0.000003430614229880672 -0.0000034343499933401386 -0.000003110629987446981 -0.0000030984911959640925 -0.000003132947581727789
          -0.000003113603265079749 -0.0000031728930723323457 -0.0000031639335293495873 -0.000003417568113612609 -0.000003419424520175547 -0.0000034259702979789156
          -0.0000033438589389588745 -0.0000033503679569774307 -0.0000033733857094214217 -0.0000034902361582329075 -0.000003496422696383675 -0.000003514490337325049
          -0.000003519866211809334 -0.0000035229957802248795 -0.0000035324545389911235 -0.00000364394280239979 -0.0000036472276121742273 -0.000003655843987382078
          -0.000003251006086347784 -0.000003260407781334854 -0.000003284897841440969 -0.00000313445459476759 -0.0000031295289381048817 -0.0000031552106128129613
          -0.0000030429871039366984 -0.000003123222788808062 -0.000003065098194152141 -0.000003004528118612839 -0.0000029970707220382905 -0.0000029704695192620583
          -0.000003664245515023621 -0.000003667241097065533 -0.000003674576509056892 -0.0000033313639641224404 -0.0000033385738416178237 -0.0000033579416390883104
          -0.000002676260834564109 -0.0000026762223074980033 -0.000002676111556033396 -0.0000027057495101456185 -0.0000027057438143064426 -0.0000027057220045737144
          -0.0000027923581623182377 -0.0000027923230425350303 -0.0000027922183406150105 -0.000002828522194143755 -0.0000028285287225911412 -0.000002828543958786229
          -0.0000029115603966770492 -0.0000029115448814701372 -0.0000029114876198574185 -0.0000030364865782737203 -0.0000030365060437948558 -0.0000030365698773121886
          -0.0000031705550009586643 -0.000003170675723919528 -0.000003170991497971991 -0.0000033161494957734736 -0.0000033165054146163277 -0.0000033175198849759977
          -0.0000034698109652577666 -0.000003470505540368385 -0.000003472674790372228 -0.0000034845838679728615 -0.0000035336825367956218 -0.0000034857875598513524
          -0.0000035350906368106954 -0.0000034894246918487375 -0.000003539465332196007 -0.000003624945977993003 -0.0000036787485515836685 -0.0000036485317352258667
          -0.0000035929279861646 -0.0000036262172739516783 -0.0000036800935007243185 -0.000003650501686110484 -0.0000035947934609850996 -0.000003630021273116884
          -0.000003684118641870629 -0.0000036572269883678206 -0.0000036002917893955875 -0.0000036794661134390653 -0.00000368167396149772 -0.000003687853643424823
          -0.0000035617966339773234 -0.0000035628952795109516 -0.0000035659103472967935 -0.0000037650919384735955 -0.0000037663883342952997 -0.0000037696663358285126
          -0.0000028603289982267654 -0.0000027333099550151 -0.000002860356343567849 -0.0000027333197787017974 -0.000002860438973565942 -0.0000027333556309023566
          -0.000002955404967142882 -0.000002955432612279586 -0.0000029555244631297496 -0.000002991007799172666 -0.000002991065087057206 -0.0000029912272644117936
          -0.000003088007339539643 -0.0000030880819865255333 -0.0000030883135659452736 -0.000003227273892830821 -0.0000032274363804303394 -0.0000032279034524540896
          -0.0000033716805151270613 -0.0000033719969541176387 -0.0000033729389764370405 -0.0000035146247151187995 -0.0000035151032881968544 -0.0000035165790831582753
          -0.000003618686491712617 -0.0000036194222180513958 -0.0000036214836241803412 -0.0000037925810467133186 -0.0000037008356529599208 -0.0000037240350576017918
          -0.0000037931535825164948 -0.0000037017114891193475 -0.0000037245187928515117 -0.000003795050612521164 -0.000003704408418596788 -0.0000037260685724902984
        </DataArray>
        <DataArray type="Float64" Name="disp_z" format="ascii" RangeMin="-6.737445050729181e-7" RangeMax="6.755247831733615e-9">
          0 0 -4.55871791347093e-8 -4.559085190228884e-8 -9.117128385849243e-8 -9.117634090092974e-8
          0 0 -4.588389951320105e-8 -4.588950352354741e-8 -9.176839701720025e-8 -9.177877645852923e-8
          0 0 -4.627600699694157e-8 -4.628375996431824e-8 -9.255292663917636e-8 -9.256669783218027e-8
          0 0 -4.681171736427104e-8 -4.6820994974886215e-8 -9.362419841136845e-8 -9.364156861586918e-8
          0 0 -4.7569070088727465e-8 -4.757964537251402e-8 -9.51376576694631e-8 -9.516153174354484e-8
          0 0 -4.868107675238737e-8 -4.8703490944974904e-8 -9.737221049782174e-8 -9.741053894997261e-8
          0 0 -5.0460082503241553e-8 -5.0483813727319234e-8 -1.0090010666473222e-7 -1.0098034530040393e-7
          0 0 -5.3504648080765077e-8 -5.366482107728346e-8 -1.0694533448287702e-7 -1.0713553783300641e-7
          0 0 -5.826174719360533e-8 -5.817699618508898e-8 -1.172197960034244e-7 -1.1753102593405722e-7
          0 0 -7.654189067485822e-8 -7.955659290598944e-8 -1.5173855641065204e-7 -1.563509632691466e-7
          0 -4.55803971650617e-8 -9.116080405974488e-8 0 -4.5873083535529255e-8 -9.174705397710673e-8
          0 -4.6260177375988666e-8 -9.25209899728796e-8 0 -4.678779053228798e-8 -9.3576065116939e-8
          0 -4.753113132755276e-8 -9.506302942952283e-8 0 -4.861787638343184e-8 -9.724360387389003e-8
          0 -5.0343757383499715e-8 -1.0066307515606534e-7 0 -5.318696804629007e-8 -1.0637865423906338e-7
          0 -5.7881307309459274e-8 -1.1609160775651653e-7 0 -7.097043143777574e-8 -1.4150991633295122e-7
          0 -4.556871668785644e-8 -9.113718605970644e-8 0 -4.5856064281088483e-8 -9.171299869307255e-8
          0 -4.6234910147826765e-8 -9.247068414041693e-8 0 -4.674908998413781e-8 -9.34994646944517e-8
          0 -4.7468695830379246e-8 -9.493842495775343e-8 0 -4.851038765977304e-8 -9.703307436983862e-8
          0 -5.0151238884219963e-8 -1.0025665036438249e-7 0 -5.269941624626439e-8 -1.0553227020360096e-7
          0 -5.7050914417301937e-8 -1.1381999480224006e-7 0 -6.494052569021002e-8 -1.3142109274621306e-7
          0 -4.555208649448162e-8 -9.110420808146022e-8 0 -4.583188835889967e-8 -9.166537440895345e-8
          0 -4.619946629366799e-8 -9.240073366442252e-8 0 -4.669555431480671e-8 -9.339355753265515e-8
          0 -4.7383030465570407e-8 -9.476879849284292e-8 0 -4.836725749159193e-8 -9.674423004720144e-8
          0 -4.987568989536787e-8 -9.972207788683913e-8 0 -5.2124220643387554e-8 -1.043389360922721e-7
          0 -5.568414606256304e-8 -1.111566075912052e-7 0 -6.018446541377343e-8 -1.2157465436422384e-7
          0 -4.553102059798468e-8 -9.106259219223887e-8 0 -4.580167305727963e-8 -9.160576486544919e-8
          0 -4.615514940023018e-8 -9.23132273669576e-8 0 -4.662905429599669e-8 -9.326165699350979e-8
          0 -4.727721605537763e-8 -9.455899591689175e-8 0 -4.8190594025777946e-8 -9.638891614609185e-8
          0 -4.9538443851563484e-8 -9.905984415502301e-8 0 -5.143918935720904e-8 -1.0294842318796091e-7
          0 -5.4169291700556106e-8 -1.0810430302977713e-7 0 -5.6191480651626004e-8 -1.1367045116459933e-7
          0 -4.550722882877129e-8 -9.101456849607913e-8 0 -4.576739074993537e-8 -9.15370208885194e-8
          0 -4.610457622660857e-8 -9.221183002396223e-8 0 -4.655337492487526e-8 -9.310955669537562e-8
          0 -4.7157135472064237e-8 -9.431766425420033e-8 0 -4.7988362265413144e-8 -9.5980694654643e-8
          0 -4.915557465970684e-8 -9.830121141900146e-8 0 -5.068810777537549e-8 -1.0142437744551228e-7
          0 -5.259616076472133e-8 -1.0500592783517378e-7 0 -5.300761978166151e-8 -1.0703771594699663e-7
          0 -4.548433608079779e-8 -9.096510241987498e-8 0 -4.5733317605181564e-8 -9.146484814582402e-8
          0 -4.605326651410474e-8 -9.210399358450738e-8 0 -4.647650346167733e-8 -9.294827250917084e-8
          0 -4.7033739625674534e-8 -9.406059975456878e-8 0 -4.7775826956340353e-8 -9.554262735992374e-8
          0 -4.8752831464542364e-8 -9.748819175313409e-8 0 -4.9905018601866806e-8 -9.984555494800263e-8
          0 -5.103308257462039e-8 -1.0196521805373679e-7 0 -5.0423148754218354e-8 -1.015110613402732e-7
          0 -4.5470402420833045e-8 -9.092058451881154e-8 0 -4.5709711263706404e-8 -9.139672838077203e-8
          0 -4.601392577458102e-8 -9.199987625084622e-8 0 -4.641679730888625e-8 -9.27918143080796e-8
          0 -4.6930857940856017e-8 -9.380669544750738e-8 0 -4.758588932851442e-8 -9.510364474172009e-8
          0 -4.837087939985484e-8 -9.666762465723231e-8 0 -4.912847329588955e-8 -9.827619704517884e-8
          0 -4.9486193319163784e-8 -9.903655929083214e-8 0 -4.800818638998651e-8 -9.674640515534486e-8
          0 -4.597419217481077e-8 -9.196376076506913e-8 0 -4.63531386910012e-8 -9.273480760023339e-8
          0 -4.6820762879013725e-8 -9.367934561976064e-8 0 -4.7388169426062044e-8 -9.482268025392677e-8
          0 -4.798537668710507e-8 -9.60212330889195e-8 0 -4.8382503704709794e-8 -9.680521875046458e-8
          0 -4.806516052791481e-8 -9.601072342782214e-8 0 -4.5829317207649265e-8 -9.146189782342743e-8
          0 0 0 0 -1.7069802339045914e-8 -2.469337797273328e-8
          -2.600442948095984e-8 -1.9629261580011307e-8 -3.409943828852372e-8 -4.963139520995017e-8 -5.185956583597412e-8 -3.917731406882013e-8
          0 0 -1.0987208944171339e-8 -1.3022510729239453e-8 -2.2128355630157264e-8 -2.57864727770934e-8
          0 0 0 -9.37327074221481e-9 -6.376431673917656e-9 -4.385656555863781e-9
          -1.8735159728673453e-8 -1.2430610494637286e-8 -8.777046090817448e-9 0 0 0
          0 -1.0295911191163159e-7 -9.208641418875248e-8 -1.1768923050012157e-7 -1.204111596948809e-7 -1.9381635683025353e-7
          -1.7202535744146373e-7 -2.238581282908065e-7 -2.3517570784483284e-7 0 0 0
          0 -3.252600479824348e-8 -3.740988352916162e-8 -3.3869735552050954e-8 -3.94087513040486e-8 -6.484445113750703e-8
          -8.220779119957601e-8 -7.30519085713146e-8 -8.886843166492637e-8 0 0 0
          0 -6.304460673481329e-8 -6.320769563838918e-8 -7.004023465716966e-8 -6.814193177491581e-8 -1.285429245843068e-7
          -1.2654780637529165e-7 -1.3898061255963272e-7 -1.322242666351558e-7 0 0 0
          0 -4.89035566318808e-8 -4.984842582494083e-8 -4.669322950118551e-8 -4.463150467905397e-8 -9.999330011979163e-8
          -1.0290382009245657e-7 -9.505035597903964e-8 -9.160401698224966e-8 0 0 -4.6427887344208684e-8
          -4.848375150264484e-8 -9.237823143865361e-8 -9.711005929982542e-8 0 0 -8.024180221617988e-8
          -7.244993562342261e-8 -1.5585662848225134e-7 -1.4380842290191908e-7 0 0 0
          0 -1.164209793159786e-8 -5.9525853015098385e-9 -3.312179434561707e-9 -1.1261344488907605e-8 -2.1512791711434416e-8
          -1.1386941533528404e-8 -5.116422777057215e-9 -2.0519438369416996e-8 0 0 0
          0 -8.840482337284995e-8 -8.811218219417825e-8 -1.0698032111436395e-7 -9.886982485535496e-8 -1.7433019289915682e-7
          -1.727559867729366e-7 -2.1107053326259554e-7 -1.93660165174459e-7 0 0 -9.28968103598041e-8
          -1.1817499859963453e-7 -1.6480971335320532e-7 -2.1152582044369642e-7 0 0 0
          0 -2.860762065462627e-8 -3.227949950886506e-8 -2.6946990103497553e-8 -2.2319672730873577e-8 -5.769422516253318e-8
          -6.363296014803814e-8 -5.418704606617482e-8 -4.4505903097803414e-8 0 0 0
          0 -1.3062150209779912e-7 -1.943225410094453e-7 -1.8214404468490538e-7 -1.3426237483015306e-7 -2.6976513567843654e-7
          -3.8402184511349536e-7 -3.3452846238736235e-7 -2.299247857463727e-7 0 0 0
          0 2.999703674801508e-9 -5.710200849465979e-10 -2.244586854676687e-9 1.4093663208672346e-9 4.539984240720582e-9
          -1.3262659657011083e-9 -4.609445303656455e-9 1.9657016202971958e-9 0 0 -5.425641575387123e-8
          -5.387837877341158e-8 -1.0855486719517634e-7 -1.0833338784624256e-7 0 -7.962301047519887e-8 -1.5904683793896575e-7
          0 0 -1.8768546615262947e-8 -2.6531333411008472e-8 -3.7716479255176585e-8 -5.3557715051536086e-8
          0 0 0 -3.1008088330695464e-8 -3.670232905172669e-8 -3.192966927945132e-8
          -6.279095502279473e-8 -7.395397264022625e-8 -6.364411205659109e-8 0 0 0
          0 -6.066038967024366e-8 -4.207112563477297e-8 -8.030392915219496e-8 -6.690164786466765e-8 -1.1741160293678962e-7
          -5.273542510031796e-8 -1.6649528306708448e-7 -1.3463835451333921e-7 0 0 0
          -1.1329557919778935e-7 -1.28838585061723e-7 -1.3672772826513642e-7 -2.3193009584707886e-7 -2.588908737467078e-7 -2.8160228351608257e-7
          0 0 -4.524176770002314e-8 -5.034462183127675e-8 -8.964026265698751e-8 -1.015284873153648e-7
          0 0 -3.004607249864048e-8 -2.9450133164509493e-8 -6.125211932350565e-8 -6.964278274951898e-8
          0 0 -4.306896573495208e-8 -3.955187880629256e-8 -8.909898271847705e-8 -7.991656356397902e-8
          0 0 0 0 -2.694303674212698e-7 -2.7958933953433275e-7
          -2.9875059650550136e-7 -3.009004503630253e-7 -4.426772084542492e-7 -4.1652558148078495e-7 -5.554491962241175e-7 -6.120012563005614e-7
          0 0 0 -5.795601689823642e-8 -5.770914888804769e-8 -6.286161759302624e-8
          -1.1701707739168047e-7 -1.1724044973615781e-7 -1.2748327499407863e-7 0 0 -3.3423954833582257e-8
          -3.073408118323329e-8 -6.715247128511925e-8 -6.165806425678067e-8 0 0 -5.760586929220851e-8
          -5.350405563142537e-8 -1.1633790237445604e-7 -1.080894546773959e-7 0 0 -4.8780321019170934e-8
          -4.8125068618787536e-8 -1.0107014652575092e-7 -1.0466732302845524e-7 0 0 -4.416151662121826e-8
          -4.0528430800074693e-8 -9.119251061825829e-8 -8.124533975548046e-8 0 0 0
          -2.5136830052465536e-9 -7.988964590552062e-9 -4.858727844122744e-9 -5.122950086847184e-9 -1.5618489255468093e-8 -9.662677330264709e-9
          0 0 0 -4.1334109823528845e-8 -3.7223448115536914e-8 -4.2048471163129905e-8
          -8.227429895682809e-8 -7.405589123323856e-8 -8.383731666054957e-8 0 0 0
          -1.43199245546132e-7 -1.7288554018259627e-7 -1.4898275295118103e-7 -3.050167637640147e-7 -3.530280628981446e-7 -3.3020833265776505e-7
          0 -2.0740447315856562e-7 -3.7912369655718334e-7 0 0 0
          0 -1.0394717767037879e-8 -1.2479672849203457e-8 -1.5953286067235364e-8 -1.3509534065686806e-8 -2.047899419885875e-8
          -2.413893883715846e-8 -3.126930710596817e-8 -2.635332384005608e-8 0 0 -1.4275536661477677e-7
          -1.594239737448972e-7 -2.9782140554363847e-7 -3.247254360211655e-7 0 0 -9.993389197140366e-9
          -7.505070697864337e-9 -1.9540707852652725e-8 -1.4845853837946268e-8 0 0 -3.1106665553873893e-7
          -1.663099758645437e-7 -4.895926374097737e-7 -2.8312615087666854e-7 0 0 -1.0476077787316733e-7
          -9.955506430216282e-8 -1.9996849557035101e-7 -2.1406861430419466e-7 0 -1.608275154709879e-8 -3.1028514768365004e-8
          0 -4.422401561601135e-8 -8.769534410684727e-8 0 0 -6.224219715937183e-8
          -4.555059777445859e-8 -1.1437880418274206e-7 -9.448714194374272e-8 0 -4.465568602942987e-8 -8.880237012683059e-8
          0 -2.2711477041675984e-8 -4.630803062955153e-8 0 -4.3302719612650927e-10 -1.1773280434332852e-9
          0 -3.6007248559387936e-8 -7.199968545636631e-8 0 -2.109244465598675e-8 -4.329156322634883e-8
          0 -2.037855406353511e-8 -4.153390136851558e-8 0 -7.833967768557354e-8 -1.7537439428708042e-7
          0 -4.0313020089223313e-7 -6.737445050729181e-7 0 -8.717473959820404e-8 -1.725844960624723e-7
          0 -1.625426968247237e-8 -3.47512291516102e-8 0 4.154898749257397e-9 6.755247831733615e-9
          0 -4.57503307982256e-8 -9.148494327410232e-8 0 -4.524466232840175e-8 -9.049658079798567e-8
          0 -4.594843233527156e-8 -9.187720769941859e-8 0 -4.526313565687376e-8 -9.05393529317464e-8
          0 -4.6094689744263466e-8 -9.216470643291524e-8 0 -4.6091072086326516e-8 -9.216004006090359e-8
          0 -4.5762883568667345e-8 -9.149026112889691e-8 0 -4.4727141609221376e-8 -8.949275449741077e-8
          0 -4.17710106611568e-8 -8.362050647758278e-8 0 0 -4.170812720519617e-8
          -3.947252303497809e-8 -8.361068403888831e-8 -7.908200035844533e-8 0 0 0
          0 -3.5976386322389046e-8 -3.212181432575269e-8 -3.014703179070082e-8 -3.566550914973008e-8 -7.227863581592433e-8
          -6.401193972433503e-8 -6.100149163419031e-8 -7.11519302317368e-8 0 -2.5190447984676e-8 -4.7900856857723615e-8
          0 -3.862919404338136e-8 -7.685374449147516e-8 0 -2.7273753336641063e-8 -5.4858085194433996e-8
          0 0 -4.4695168341877014e-8 -4.480062715325046e-8 -8.938647746262375e-8 -8.959831403486567e-8
          0 -4.5161857106234517e-8 -9.033328807984591e-8 0 -4.4471466910777025e-8 -8.894051474038525e-8
          0 -4.487200135064305e-8 -8.97664368982472e-8 0 -4.424323874749858e-8 -8.848606827452062e-8
          0 -4.3049958002493716e-8 -8.609543198468962e-8 0 -4.07370900836505e-8 -8.145593294977769e-8
          0 -3.8035188739127385e-8 -7.607588516395056e-8 0 0 0
          -3.296538200008447e-8 -3.491325296076904e-8 -3.698305967955295e-8 -6.565721162627432e-8 -6.968849858444176e-8 -7.407370999468712e-8
        </DataArray>
      </PointData>
      <CellData>
        <DataArray type="Int32" Name="libmesh_elem_id" format="ascii" RangeMin="40" RangeMax="1373">
          40 41 42 43 44 45
          46 47 48 49 50 51
          52 53 54 55 56 57
          98 99 100 101 102 103
          104 105 106 107 108 109
          110 111 112 113 114 115
          156 157 158 159 160 161
          162 163 164 165 166 167
          168 169 170 171 172 173
          214 215 216 217 218 219
          220 221 222 223 224 225
          226 227 228 229 230 231
          272 273 274 275 276 277
          278 279 280 281 282 283
          284 285 286 287 288 289
          330 331 332 333 334 335
          336 337 338 339 340 341
          342 343 344 345 346 347
          388 389 390 391 392 393
          394 395 396 397 398 399
          400 401 402 403 404 405
          446 447 448 449 450 451
          452 453 454 455 456 457
          458 459 460 461 462 463
          508 509 510 511 512 513
          514 515 516 517 518 519
          520 521 522 523 524 525
          526 527 528 529 530 531
          532 533 534 535 536 537
          538 539 540 541 542 543
          544 545 546 547 548 549
          550 551 552 553 554 555
          556 557 558 559 560 561
          562 563 564 565 566 567
          568 569 570 571 572 573
          574 575 576 577 578 579
          580 581 582 583 584 585
          586 587 588 589 590 591
          592 593 594 595 596 597
          598 599 600 601 602 603
          604 605 606 607 608 609
          610 611 612 613 614 615
          616 617 618 619 620 621
          622 623 624 625 626 627
          628 629 630 631 632 633
          634 635 636 637 638 639
          640 641 642 643 644 645
          646 647 648 649 650 651
          652 653 654 655 656 657
          658 659 660 661 662 663
          664 665 666 667 668 669
          670 671 672 673 674 675
          676 677 678 679 680 681
          682 683 684 685 686 687
          688 689 690 691 692 693
          694 695 696 697 698 699
          700 701 702 703 704 705
          706 707 708 709 710 711
          712 713 714 715 716 717
          718 719 720 721 722 723
          724 725 726 727 728 729
          730 731 732 733 734 735
          736 737 738 739 740 741
          742 743 744 745 746 747
          748 749 750 751 752 753
          754 755 756 757 758 759
          760 761 762 763 764 765
          766 767 768 769 770 771
          1186 1187 1188 1189 1190 1191
          1204 1205 1206 1207 1208 1209
          1222 1223 1224 1225 1240 1241
          1242 1243 1258 1259 1260 1261
          1276 1277 1278 1279 1300 1301
          1304 1305 1306 1307 1314 1315
          1316 1317 1326 1327 1328 1329
          1330 1331 1338 1339 1344 1345
          1348 1349 1356 1357 1358 1359
          1360 1361 1366 1367 1372 1373
        </DataArray>
        <DataArray type="Int32" Name="subdomain_id" format="ascii" RangeMin="103" RangeMax="143">
          103 103 103 103 103 103
          103 103 103 103 103 103
          103 103 103 103 103 103
          103 103 103 103 103 103
          103 103 103 103 103 103
          103 103 103 103 103 103
          103 103 103 103 103 103
          103 103 103 103 103 103
          103 103 103 103 103 103
          103 103 103 103 103 103
          103 103 103 103 103 103
          103 103 103 103 103 103
          103 103 103 103 103 103
          103 103 103 103 103 103
          103 103 103 103 103 103
          103 103 103 103 103 103
          103 103 103 103 103 103
          103 103 103 103 103 103
          103 103 103 103 103 103
          103 103 103 103 103 103
          103 103 103 103 103 103
          103 103 103 103 103 103
          103 103 103 103 103 103
          103 103 103 103 103 103
          103 103 103 103 103 103
          103 103 103 103 103 103
          103 103 104 104 104 104
          104 104 104 104 104 104
          104 104 104 104 104 104
          104 104 104 104 104 104
          104 104 104 104 104 104
          104 104 104 104 104 104
          104 104 104 104 104 104
          104 104 104 104 104 104
          104 104 104 104 104 104
          104 104 104 104 104 104
          104 104 104 104 104 104
          104 104 104 104 104 104
          104 104 104 104 104 104
          104 104 104 104 104 104
          104 104 104 104 104 104
          104 104 104 104 104 104
          104 104 104 104 104 104
          104 104 104 104 104 104
          104 104 104 104 104 104
          104 104 104 104 104 104
          104 104 104 104 104 104
          104 104 104 104 104 104
          104 104 104 104 104 104
          104 104 104 104 104 104
          104 104 104 104 104 104
          104 104 104 104 104 104
          104 104 104 104 104 104
          104 104 104 104 104 104
          104 104 104 104 104 104
          104 104 104 104 104 104
          104 104 104 104 104 104
          104 104 104 104 104 104
          104 104 104 104 104 104
          141 141 141 141 141 141
          141 141 141 141 141 141
          141 141 141 141 141 141
          141 141 141 141 141 141
          141 141 141 141 141 141
          141 141 141 141 141 141
          141 141 141 141 141 141
          141 141 141 141 141 141
          141 141 141 141 141 141
          105 105 105 105 105 105
          105 105 105 105 105 105
          105 105 105 105 105 105
          105 105 105 105 105 105
          105 105 105 105 106 106
          106 106 106 106 106 106
          106 106 106 106 106 106
          106 106 106 106 106 106
          106 106 106 106 106 106
          143 143 143 143 143 143
        </DataArray>
        <DataArray type="Int32" Name="processor_id" format="ascii" RangeMin="5" RangeMax="5">
          5 5 5 5 5 5
          5 5 5 5 5 5
          5 5 5 5 5 5
          5 5 5 5 5 5
          5 5 5 5 5 5
          5 5 5 5 5 5
          5 5 5 5 5 5
          5 5 5 5 5 5
          5 5 5 5 5 5
          5 5 5 5 5 5
          5 5 5 5 5 5
          5 5 5 5 5 5
          5 5 5 5 5 5
          5 5 5 5 5 5
          5 5 5 5 5 5
          5 5 5 5 5 5
          5 5 5 5 5 5
          5 5 5 5 5 5
          5 5 5 5 5 5
          5 5 5 5 5 5
          5 5 5 5 5 5
          5 5 5 5 5 5
          5 5 5 5 5 5
          5 5 5 5 5 5
          5 5 5 5 5 5
          5 5 5 5 5 5
          5 5 5 5 5 5
          5 5 5 5 5 5
          5 5 5 5 5 5
          5 5 5 5 5 5
          5 5 5 5 5 5
          5 5 5 5 5 5
          5 5 5 5 5 5
          5 5 5 5 5 5
          5 5 5 5 5 5
          5 5 5 5 5 5
          5 5 5 5 5 5
          5 5 5 5 5 5
          5 5 5 5 5 5
          5 5 5 5 5 5
          5 5 5 5 5 5
          5 5 5 5 5 5
          5 5 5 5 5 5
          5 5 5 5 5 5
          5 5 5 5 5 5
          5 5 5 5 5 5
          5 5 5 5 5 5
          5 5 5 5 5 5
          5 5 5 5 5 5
          5 5 5 5 5 5
          5 5 5 5 5 5
          5 5 5 5 5 5
          5 5 5 5 5 5
          5 5 5 5 5 5
          5 5 5 5 5 5
          5 5 5 5 5 5
          5 5 5 5 5 5
          5 5 5 5 5 5
          5 5 5 5 5 5
          5 5 5 5 5 5
          5 5 5 5 5 5
          5 5 5 5 5 5
          5 5 5 5 5 5
          5 5 5 5 5 5
          5 5 5 5 5 5
          5 5 5 5 5 5
          5 5 5 5 5 5
          5 5 5 5 5 5
          5 5 5 5 5 5
          5 5 5 5 5 5
          5 5 5 5 5 5
          5 5 5 5 5 5
          5 5 5 5 5 5
          5 5 5 5 5 5
          5 5 5 5 5 5
          5 5 5 5 5 5
          5 5 5 5 5 5
          5 5 5 5 5 5
        </DataArray>
      </CellData>
      <Points>
        <DataArray type="Float64" Name="Points" NumberOfComponents="3" format="ascii" RangeMin="0.0082758620689774" RangeMax="0.013139935358843113">
          0.00011111111111123 0.0082758620689751 0 0 0.0082758620689774 0
          0.00011111111111123 0.0082758620689751 0.00015 0 0.0082758620689774 0.00015
          0.00011111111111123 0.0082758620689751 0.0003 0 0.0082758620689774 0.0003
          0.00011111111111125 0.0086896551724226 0 0 0.0086896551724246 0
          0.00011111111111125 0.0086896551724226 0.00015 0 0.0086896551724246 0.00015
          0.00011111111111125 0.0086896551724226 0.0003 0 0.0086896551724246 0.0003
          0.00011111111111126 0.0091034482758696 0 0 0.0091034482758716 0
          0.00011111111111126 0.0091034482758696 0.00015 0 0.0091034482758716 0.00015
          0.00011111111111126 0.0091034482758696 0.0003 0 0.0091034482758716 0.0003
          0.00011111111111128 0.0095172413793168 0 0 0.0095172413793185 0
          0.00011111111111128 0.0095172413793168 0.00015 0 0.0095172413793185 0.00015
          0.00011111111111128 0.0095172413793168 0.0003 0 0.0095172413793185 0.0003
          0.00011111111111129 0.0099310344827632 0 0 0.0099310344827645 0
          0.00011111111111129 0.0099310344827632 0.00015 0 0.0099310344827645 0.00015
          0.00011111111111129 0.0099310344827632 0.0003 0 0.0099310344827645 0.0003
          0.00011111111111131 0.01034482758621 0 0 0.01034482758621 0
          0.00011111111111131 0.01034482758621 0.00015 0 0.01034482758621 0.00015
          0.00011111111111131 0.01034482758621 0.0003 0 0.01034482758621 0.0003
          0.00011111111111132 0.010758620689657 0 0 0.010758620689657 0
          0.00011111111111132 0.010758620689657 0.00015 0 0.010758620689657 0.00015
          0.00011111111111132 0.010758620689657 0.0003 0 0.010758620689657 0.0003
          0.00011111111111134 0.011172413793104 0 0 0.011172413793104 0
          0.00011111111111134 0.011172413793104 0.00015 0 0.011172413793104 0.00015
          0.00011111111111134 0.011172413793104 0.0003 0 0.011172413793104 0.0003
          0.00011111111111135 0.011586206896551 0 0 0.011586206896551 0
          0.00011111111111135 0.011586206896551 0.00015 0 0.011586206896551 0.00015
          0.00011111111111135 0.011586206896551 0.0003 0 0.011586206896551 0.0003
          0.00011111111111137 0.012 0 0 0.012 0
          0.00011111111111137 0.012 0.00015 0 0.012 0.00015
          0.00011111111111137 0.012 0.0003 0 0.012 0.0003
          0.00022222222222243 0.0082758620689727 0 0.00022222222222243 0.0082758620689727 0.00015
          0.00022222222222243 0.0082758620689727 0.0003 0.00022222222222246 0.0086896551724206 0
          0.00022222222222246 0.0086896551724206 0.00015 0.00022222222222246 0.0086896551724206 0.0003
          0.00022222222222249 0.0091034482758676 0 0.00022222222222249 0.0091034482758676 0.00015
          0.00022222222222249 0.0091034482758676 0.0003 0.00022222222222253 0.0095172413793151 0
          0.00022222222222253 0.0095172413793151 0.00015 0.00022222222222253 0.0095172413793151 0.0003
          0.00022222222222256 0.0099310344827619 0 0.00022222222222256 0.0099310344827619 0.00015
          0.00022222222222256 0.0099310344827619 0.0003 0.0002222222222226 0.010344827586209 0
          0.0002222222222226 0.010344827586209 0.00015 0.0002222222222226 0.010344827586209 0.0003
          0.00022222222222263 0.010758620689656 0 0.00022222222222263 0.010758620689656 0.00015
          0.00022222222222263 0.010758620689656 0.0003 0.00022222222222266 0.011172413793103 0
          0.00022222222222266 0.011172413793103 0.00015 0.00022222222222266 0.011172413793103 0.0003
          0.0002222222222227 0.011586206896551 0 0.0002222222222227 0.011586206896551 0.00015
          0.0002222222222227 0.011586206896551 0.0003 0.00022222222222273 0.012 0
          0.00022222222222273 0.012 0.00015 0.00022222222222273 0.012 0.0003
          0.00033333333333363 0.0082758620689704 0 0.00033333333333363 0.0082758620689704 0.00015
          0.00033333333333363 0.0082758620689704 0.0003 0.00033333333333368 0.0086896551724185 0
          0.00033333333333368 0.0086896551724185 0.00015 0.00033333333333368 0.0086896551724185 0.0003
          0.00033333333333373 0.0091034482758657 0 0.00033333333333373 0.0091034482758657 0.00015
          0.00033333333333373 0.0091034482758657 0.0003 0.00033333333333379 0.0095172413793133 0
          0.00033333333333379 0.0095172413793133 0.00015 0.00033333333333379 0.0095172413793133 0.0003
          0.00033333333333384 0.0099310344827607 0 0.00033333333333384 0.0099310344827607 0.00015
          0.00033333333333384 0.0099310344827607 0.0003 0.00033333333333389 0.010344827586208 0
          0.00033333333333389 0.010344827586208 0.00015 0.00033333333333389 0.010344827586208 0.0003
          0.00033333333333394 0.010758620689656 0 0.00033333333333394 0.010758620689656 0.00015
          0.00033333333333394 0.010758620689656 0.0003 0.000333333333334 0.011172413793103 0
          0.000333333333334 0.011172413793103 0.00015 0.000333333333334 0.011172413793103 0.0003
          0.00033333333333405 0.011586206896551 0 0.00033333333333405 0.011586206896551 0.00015
          0.00033333333333405 0.011586206896551 0.0003 0.0003333333333341 0.012 0
          0.0003333333333341 0.012 0.00015 0.0003333333333341 0.012 0.0003
          0.00044444444444486 0.0082758620689681 0 0.00044444444444486 0.0082758620689681 0.00015
          0.00044444444444486 0.0082758620689681 0.0003 0.00044444444444493 0.0086896551724165 0
          0.00044444444444493 0.0086896551724165 0.00015 0.00044444444444493 0.0086896551724165 0.0003
          0.00044444444444501 0.0091034482758637 0 0.00044444444444501 0.0091034482758637 0.00015
          0.00044444444444501 0.0091034482758637 0.0003 0.00044444444444508 0.0095172413793116 0
          0.00044444444444508 0.0095172413793116 0.00015 0.00044444444444508 0.0095172413793116 0.0003
          0.00044444444444516 0.0099310344827594 0 0.00044444444444516 0.0099310344827594 0.00015
          0.00044444444444516 0.0099310344827594 0.0003 0.00044444444444523 0.010344827586207 0
          0.00044444444444523 0.010344827586207 0.00015 0.00044444444444523 0.010344827586207 0.0003
          0.00044444444444531 0.010758620689655 0 0.00044444444444531 0.010758620689655 0.00015
          0.00044444444444531 0.010758620689655 0.0003 0.00044444444444538 0.011172413793103 0
          0.00044444444444538 0.011172413793103 0.00015 0.00044444444444538 0.011172413793103 0.0003
          0.00044444444444546 0.011586206896551 0 0.00044444444444546 0.011586206896551 0.00015
          0.00044444444444546 0.011586206896551 0.0003 0.00044444444444553 0.012 0
          0.00044444444444553 0.012 0.00015 0.00044444444444553 0.012 0.0003
          0.00055555555555597 0.0082758620689657 0 0.00055555555555597 0.0082758620689657 0.00015
          0.00055555555555597 0.0082758620689657 0.0003 0.00055555555555605 0.0086896551724145 0
          0.00055555555555605 0.0086896551724145 0.00015 0.00055555555555605 0.0086896551724145 0.0003
          0.00055555555555613 0.0091034482758618 0 0.00055555555555613 0.0091034482758618 0.00015
          0.00055555555555613 0.0091034482758618 0.0003 0.00055555555555621 0.0095172413793099 0
          0.00055555555555621 0.0095172413793099 0.00015 0.00055555555555621 0.0095172413793099 0.0003
          0.00055555555555629 0.0099310344827581 0 0.00055555555555629 0.0099310344827581 0.00015
          0.00055555555555629 0.0099310344827581 0.0003 0.00055555555555636 0.010344827586206 0
          0.00055555555555636 0.010344827586206 0.00015 0.00055555555555636 0.010344827586206 0.0003
          0.00055555555555644 0.010758620689655 0 0.00055555555555644 0.010758620689655 0.00015
          0.00055555555555644 0.010758620689655 0.0003 0.00055555555555652 0.011172413793102 0
          0.00055555555555652 0.011172413793102 0.00015 0.00055555555555652 0.011172413793102 0.0003
          0.0005555555555566 0.011586206896551 0 0.0005555555555566 0.011586206896551 0.00015
          0.0005555555555566 0.011586206896551 0.0003 0.00055555555555667 0.012 0
          0.00055555555555667 0.012 0.00015 0.00055555555555667 0.012 0.0003
          0.00066666666666675 0.0082758620689634 0 0.00066666666666675 0.0082758620689634 0.00015
          0.00066666666666675 0.0082758620689634 0.0003 0.00066666666666679 0.0086896551724125 0
          0.00066666666666679 0.0086896551724125 0.00015 0.00066666666666679 0.0086896551724125 0.0003
          0.00066666666666684 0.0091034482758598 0 0.00066666666666684 0.0091034482758598 0.00015
          0.00066666666666684 0.0091034482758598 0.0003 0.00066666666666688 0.0095172413793081 0
          0.00066666666666688 0.0095172413793081 0.00015 0.00066666666666688 0.0095172413793081 0.0003
          0.00066666666666693 0.0099310344827568 0 0.00066666666666693 0.0099310344827568 0.00015
          0.00066666666666693 0.0099310344827568 0.0003 0.00066666666666697 0.010344827586205 0
          0.00066666666666697 0.010344827586205 0.00015 0.00066666666666697 0.010344827586205 0.0003
          0.00066666666666701 0.010758620689654 0 0.00066666666666701 0.010758620689654 0.00015
          0.00066666666666701 0.010758620689654 0.0003 0.00066666666666706 0.011172413793102 0
          0.00066666666666706 0.011172413793102 0.00015 0.00066666666666706 0.011172413793102 0.0003
          0.0006666666666671 0.01158620689655 0 0.0006666666666671 0.01158620689655 0.00015
          0.0006666666666671 0.01158620689655 0.0003 0.00066666666666715 0.012 0
          0.00066666666666715 0.012 0.00015 0.00066666666666715 0.012 0.0003
          0.00077777777777787 0.0082758620689611 0 0.00077777777777787 0.0082758620689611 0.00015
          0.00077777777777787 0.0082758620689611 0.0003 0.00077777777777791 0.0086896551724104 0
          0.00077777777777791 0.0086896551724104 0.00015 0.00077777777777791 0.0086896551724104 0.0003
          0.00077777777777794 0.0091034482758578 0 0.00077777777777794 0.0091034482758578 0.00015
          0.00077777777777794 0.0091034482758578 0.0003 0.00077777777777797 0.0095172413793064 0
          0.00077777777777797 0.0095172413793064 0.00015 0.00077777777777797 0.0095172413793064 0.0003
          0.000777777777778 0.0099310344827555 0 0.000777777777778 0.0099310344827555 0.00015
          0.000777777777778 0.0099310344827555 0.0003 0.00077777777777803 0.010344827586205 0
          0.00077777777777803 0.010344827586205 0.00015 0.00077777777777803 0.010344827586205 0.0003
          0.00077777777777806 0.010758620689654 0 0.00077777777777806 0.010758620689654 0.00015
          0.00077777777777806 0.010758620689654 0.0003 0.00077777777777809 0.011172413793101 0
          0.00077777777777809 0.011172413793101 0.00015 0.00077777777777809 0.011172413793101 0.0003
          0.00077777777777813 0.01158620689655 0 0.00077777777777813 0.01158620689655 0.00015
          0.00077777777777813 0.01158620689655 0.0003 0.00077777777777816 0.012 0
          0.00077777777777816 0.012 0.00015 0.00077777777777816 0.012 0.0003
          0.0008888888888888 0.0082758620689588 0 0.0008888888888888 0.0082758620689588 0.00015
          0.0008888888888888 0.0082758620689588 0.0003 0.00088888888888881 0.0086896551724084 0
          0.00088888888888881 0.0086896551724084 0.00015 0.00088888888888881 0.0086896551724084 0.0003
          0.00088888888888882 0.0091034482758559 0 0.00088888888888882 0.0091034482758559 0.00015
          0.00088888888888882 0.0091034482758559 0.0003 0.00088888888888883 0.0095172413793047 0
          0.00088888888888883 0.0095172413793047 0.00015 0.00088888888888883 0.0095172413793047 0.0003
          0.00088888888888884 0.0099310344827542 0 0.00088888888888884 0.0099310344827542 0.00015
          0.00088888888888884 0.0099310344827542 0.0003 0.00088888888888885 0.010344827586204 0
          0.00088888888888885 0.010344827586204 0.00015 0.00088888888888885 0.010344827586204 0.0003
          0.00088888888888885 0.010758620689653 0 0.00088888888888885 0.010758620689653 0.00015
          0.00088888888888885 0.010758620689653 0.0003 0.00088888888888886 0.011172413793101 0
          0.00088888888888886 0.011172413793101 0.00015 0.00088888888888886 0.011172413793101 0.0003
          0.00088888888888887 0.01158620689655 0 0.00088888888888887 0.01158620689655 0.00015
          0.00088888888888887 0.01158620689655 0.0003 0.00088888888888888 0.012 0
          0.00088888888888888 0.012 0.00015 0.00088888888888888 0.012 0.0003
          0.001 0.0091034482758539 0 0.001 0.0091034482758539 0.00015
          0.001 0.0091034482758539 0.0003 0.001 0.0095172413793029 0
          0.001 0.0095172413793029 0.00015 0.001 0.0095172413793029 0.0003
          0.001 0.0099310344827529 0 0.001 0.0099310344827529 0.00015
          0.001 0.0099310344827529 0.0003 0.001 0.010344827586203 0
          0.001 0.010344827586203 0.00015 0.001 0.010344827586203 0.0003
          0.001 0.010758620689653 0 0.001 0.010758620689653 0.00015
          0.001 0.010758620689653 0.0003 0.001 0.0111724137931 0
          0.001 0.0111724137931 0.00015 0.001 0.0111724137931 0.0003
          0.001 0.01158620689655 0 0.001 0.01158620689655 0.00015
          0.001 0.01158620689655 0.0003 0.001 0.012 0
          0.001 0.012 0.00015 0.001 0.012 0.0003
          0.00067947077571632 0.012798245728111 0 0.00068678568032061 0.012710429785181 0
          0.00076344362314339 0.012698069087358 0 0.00078000626700894 0.012788238676479 0
          0.00067947077571632 0.012798245728111 0.00015 0.00068678568032061 0.012710429785181 0.00015
          0.00076344362314339 0.012698069087358 0.00015 0.00078000626700894 0.012788238676479 0.00015
          0.00067947077571632 0.012798245728111 0.0003 0.00068678568032061 0.012710429785181 0.0003
          0.00076344362314339 0.012698069087358 0.0003 0.00078000626700894 0.012788238676479 0.0003
          0.0007101811699723 0.012881232243155 0 0.00078737528777453 0.012884598822829 0
          0.0007101811699723 0.012881232243155 0.00015 0.00078737528777453 0.012884598822829 0.00015
          0.0007101811699723 0.012881232243155 0.0003 0.00078737528777453 0.012884598822829 0.0003
          0.00063149088332091 0.012876508075697 0 0.00071156048039536 0.012943694476106 0
          0.00064992343237843 0.012944046337553 0 0.00063149088332091 0.012876508075697 0.00015
          0.00071156048039536 0.012943694476106 0.00015 0.00064992343237843 0.012944046337553 0.00015
          0.00063149088332091 0.012876508075697 0.0003 0.00071156048039536 0.012943694476106 0.0003
          0.00064992343237843 0.012944046337553 0.0003 0.00014271480927744 0.012184528409521 0
          0.00021074182908597 0.012239195039162 0 0.00014617236906556 0.012274772666576 0
          0.00010836971036758 0.0122326927564 0 0.00014271480927744 0.012184528409521 0.00015
          0.00021074182908597 0.012239195039162 0.00015 0.00014617236906556 0.012274772666576 0.00015
          0.00010836971036758 0.0122326927564 0.00015 0.00014271480927744 0.012184528409521 0.0003
          0.00021074182908597 0.012239195039162 0.0003 0.00014617236906556 0.012274772666576 0.0003
          0.00010836971036758 0.0122326927564 0.0003 0.00040316247653445 0.012523054457121 0
          0.00050524235438491 0.012516470580574 0 0.00047556583290331 0.012611926172403 0
          0.00040677839563254 0.01259579728731 0 0.00040316247653445 0.012523054457121 0.00015
          0.00050524235438491 0.012516470580574 0.00015 0.00047556583290331 0.012611926172403 0.00015
          0.00040677839563254 0.01259579728731 0.00015 0.00040316247653445 0.012523054457121 0.0003
          0.00050524235438491 0.012516470580574 0.0003 0.00047556583290331 0.012611926172403 0.0003
          0.00040677839563254 0.01259579728731 0.0003 0.00038389728538556 0.012111104172094 0
          0.00037958632650406 0.012195366170904 0 0.00029855370140418 0.012181148574691 0
          0.00029802321336891 0.012105931916082 0 0.00038389728538556 0.012111104172094 0.00015
          0.00037958632650406 0.012195366170904 0.00015 0.00029855370140418 0.012181148574691 0.00015
          0.00029802321336891 0.012105931916082 0.00015 0.00038389728538556 0.012111104172094 0.0003
          0.00037958632650406 0.012195366170904 0.0003 0.00029855370140418 0.012181148574691 0.0003
          0.00029802321336891 0.012105931916082 0.0003 0.00062435778703091 0.012280526392523 0
          0.00063694887874418 0.012191685157308 0 0.00075163746499696 0.012211869018538 0
          0.0007101306235237 0.012330652999586 0 0.00062435778703091 0.012280526392523 0.00015
          0.00063694887874418 0.012191685157308 0.00015 0.00075163746499696 0.012211869018538 0.00015
          0.0007101306235237 0.012330652999586 0.00015 0.00062435778703091 0.012280526392523 0.0003
          0.00063694887874418 0.012191685157308 0.0003 0.00075163746499696 0.012211869018538 0.0003
          0.0007101306235237 0.012330652999586 0.0003 0.00090036231429234 0.012108977226849 0
          0.00080269198720626 0.012096984730608 0 0.00090036231429234 0.012108977226849 0.00015
          0.00080269198720626 0.012096984730608 0.00015 0.00090036231429234 0.012108977226849 0.0003
          0.00080269198720626 0.012096984730608 0.0003 0.00023865656240352 0.012177237347116 0
          0.00029061852669854 0.01224857812735 0 0.00023865656240352 0.012177237347116 0.00015
          0.00029061852669854 0.01224857812735 0.00015 0.00023865656240352 0.012177237347116 0.0003
          0.00029061852669854 0.01224857812735 0.0003 0.00056164385173704 0.012835416164401 0
          0.00056508360468666 0.012898794448667 0 0.00049240387645224 0.012913175910861 0
          0.00046984631090009 0.012828989929731 0 0.00056164385173704 0.012835416164401 0.00015
          0.00056508360468666 0.012898794448667 0.00015 0.00049240387645224 0.012913175910861 0.00015
          0.00046984631090009 0.012828989929731 0.00015 0.00056164385173704 0.012835416164401 0.0003
          0.00056508360468666 0.012898794448667 0.0003 0.00049240387645224 0.012913175910861 0.0003
          0.00046984631090009 0.012828989929731 0.0003 0.000050495613361417 0.012066083920595 0
          0.00011131843390441 0.012086989142678 0 0.000069577205110887 0.012153607960951 0
          0 0.012111111111109 0 0.000050495613361417 0.012066083920595 0.00015
          0.00011131843390441 0.012086989142678 0.00015 0.000069577205110887 0.012153607960951 0.00015
          0 0.012111111111109 0.00015 0.000050495613361417 0.012066083920595 0.0003
          0.00011131843390441 0.012086989142678 0.0003 0.000069577205110887 0.012153607960951 0.0003
          0 0.012111111111109 0.0003 0.00022470825547396 0.012306913365418 0
          0.00017103954025546 0.012340304715306 0 0.00022470825547396 0.012306913365418 0.00015
          0.00017103954025546 0.012340304715306 0.00015 0.00022470825547396 0.012306913365418 0.0003
          0.00017103954025546 0.012340304715306 0.0003 0.00085640575367095 0.012657655614724 0
          0.001 0.012571428571438 0 0.001 0.012714285714292 0
          0.00089085524488654 0.012778191533234 0 0.00085640575367095 0.012657655614724 0.00015
          0.001 0.012571428571438 0.00015 0.001 0.012714285714292 0.00015
          0.00089085524488654 0.012778191533234 0.00015 0.00085640575367095 0.012657655614724 0.0003
          0.001 0.012571428571438 0.0003 0.001 0.012714285714292 0.0003
          0.00089085524488654 0.012778191533234 0.0003 0.00017101007138246 0.012530153689505 0
          0.000086824088695593 0.01250759612347 0 0.00010015626416536 0.012463076177022 0
          0.00018026894988108 0.012457509098897 0 0.00017101007138246 0.012530153689505 0.00015
          0.000086824088695593 0.01250759612347 0.00015 0.00010015626416536 0.012463076177022 0.00015
          0.00018026894988108 0.012457509098897 0.00015 0.00017101007138246 0.012530153689505 0.0003
          0.000086824088695593 0.01250759612347 0.0003 0.00010015626416536 0.012463076177022 0.0003
          0.00018026894988108 0.012457509098897 0.0003 0.00055555555555552 0.013 0
          0.00054972466987376 0.012958523613261 0 0.00059017772624368 0.012950117696029 0
          0.00061111111111072 0.013 0 0.00055555555555552 0.013 0.00015
          0.00054972466987376 0.012958523613261 0.00015 0.00059017772624368 0.012950117696029 0.00015
          0.00061111111111072 0.013 0.00015 0.00055555555555552 0.013 0.0003
          0.00054972466987376 0.012958523613261 0.0003 0.00059017772624368 0.012950117696029 0.0003
          0.00061111111111072 0.013 0.0003 0.00056012017374448 0.012193168747791 0
          0.00054338833040714 0.012250054231166 0 0.00056012017374448 0.012193168747791 0.00015
          0.00054338833040714 0.012250054231166 0.00015 0.00056012017374448 0.012193168747791 0.0003
          0.00054338833040714 0.012250054231166 0.0003 0.00020164702899907 0.012111009853496 0
          0.00020164702899907 0.012111009853496 0.00015 0.00020164702899907 0.012111009853496 0.0003
          0.00058698867508036 0.01276393301723 0 0.00061242021253103 0.012689969395149 0
          0.00058698867508036 0.01276393301723 0.00015 0.00061242021253103 0.012689969395149 0.00015
          0.00058698867508036 0.01276393301723 0.0003 0.00061242021253103 0.012689969395149 0.0003
          0.00054704952286259 0.01264760123259 0 0.00058547756026548 0.012574831423214 0
          0.00066845126455385 0.012625352450745 0 0.00054704952286259 0.01264760123259 0.00015
          0.00058547756026548 0.012574831423214 0.00015 0.00066845126455385 0.012625352450745 0.00015
          0.00054704952286259 0.01264760123259 0.0003 0.00058547756026548 0.012574831423214 0.0003
          0.00066845126455385 0.012625352450745 0.0003 0.00040316497174951 0.012375710115571 0
          0.00038996592658543 0.012448925709731 0 0.00030251984068288 0.012451026681152 0
          0.00030273327950676 0.012339921797294 0 0.00040316497174951 0.012375710115571 0.00015
          0.00038996592658543 0.012448925709731 0.00015 0.00030251984068288 0.012451026681152 0.00015
          0.00030273327950676 0.012339921797294 0.00015 0.00040316497174951 0.012375710115571 0.0003
          0.00038996592658543 0.012448925709731 0.0003 0.00030251984068288 0.012451026681152 0.0003
          0.00030273327950676 0.012339921797294 0.0003 0 0.012166666666663 0
          0.000060257043043922 0.012213388328671 0 0 0.012222222222217 0
          0 0.012166666666663 0.00015 0.000060257043043922 0.012213388328671 0.00015
          0 0.012222222222217 0.00015 0 0.012166666666663 0.0003
          0.000060257043043922 0.012213388328671 0.0003 0 0.012222222222217 0.0003
          0.00086766031505541 0.012218873949421 0 0.00070802748250363 0.01210226547145 0
          0.00086766031505541 0.012218873949421 0.00015 0.00070802748250363 0.01210226547145 0.00015
          0.00086766031505541 0.012218873949421 0.0003 0.00070802748250363 0.01210226547145 0.0003
          0.00045681564832724 0.012667985356076 0 0.00038302222240927 0.012678606196169 0
          0.00045681564832724 0.012667985356076 0.00015 0.00038302222240927 0.012678606196169 0.00015
          0.00045681564832724 0.012667985356076 0.0003 0.00038302222240927 0.012678606196169 0.0003
          0.00057343997443155 0.012462111372123 0 0.00067467937701806 0.012497336760124 0
          0.00057343997443155 0.012462111372123 0.00015 0.00067467937701806 0.012497336760124 0.00015
          0.00057343997443155 0.012462111372123 0.0003 0.00067467937701806 0.012497336760124 0.0003
          0 0.012388888888886 0 0.00004805763346656 0.012364070531781 0
          0.000052775834931525 0.012418323433379 0 0 0.012444444444443 0
          0 0.012388888888886 0.00015 0.00004805763346656 0.012364070531781 0.00015
          0.000052775834931525 0.012418323433379 0.00015 0 0.012444444444443 0.00015
          0 0.012388888888886 0.0003 0.00004805763346656 0.012364070531781 0.0003
          0.000052775834931525 0.012418323433379 0.0003 0 0.012444444444443 0.0003
          0.0004655657017567 0.012222981448331 0 0.0004403524252846 0.012306679111378 0
          0.00036518397892919 0.012268658791136 0 0.0004655657017567 0.012222981448331 0.00015
          0.0004403524252846 0.012306679111378 0.00015 0.00036518397892919 0.012268658791136 0.00015
          0.0004655657017567 0.012222981448331 0.0003 0.0004403524252846 0.012306679111378 0.0003
          0.00036518397892919 0.012268658791136 0.0003 0.00079059026611164 0.012574208252283 0
          0.00074033738884001 0.012629472897336 0 0.00079059026611164 0.012574208252283 0.00015
          0.00074033738884001 0.012629472897336 0.00015 0.00079059026611164 0.012574208252283 0.0003
          0.00074033738884001 0.012629472897336 0.0003 0.00049134001885305 0.012124425854677 0
          0.00060162315338905 0.012101782274206 0 0.00049134001885305 0.012124425854677 0.00015
          0.00060162315338905 0.012101782274206 0.00015 0.00049134001885305 0.012124425854677 0.0003
          0.00060162315338905 0.012101782274206 0.0003 0.00055165526617401 0.012365152711649 0
          0.00046621557592763 0.012427373679685 0 0.00055165526617401 0.012365152711649 0.00015
          0.00046621557592763 0.012427373679685 0.00015 0.00055165526617401 0.012365152711649 0.0003
          0.00046621557592763 0.012427373679685 0.0003 0.00065175768920993 0.012395993188634 0
          0.00078658012555766 0.01242031863996 0 0.00065175768920993 0.012395993188634 0.00015
          0.00078658012555766 0.01242031863996 0.00015 0.00065175768920993 0.012395993188634 0.0003
          0.00078658012555766 0.01242031863996 0.0003 0.00072222222222142 0.013 0
          0.00076767785213736 0.012949407633443 0 0.00077777777777722 0.013 0
          0.00072222222222142 0.013 0.00015 0.00076767785213736 0.012949407633443 0.00015
          0.00077777777777722 0.013 0.00015 0.00072222222222142 0.013 0.0003
          0.00076767785213736 0.012949407633443 0.0003 0.00077777777777722 0.013 0.0003
          0.001 0.01228571428572 0 0.001 0.012428571428581 0
          0.00085243404696798 0.012340254950119 0 0.001 0.01228571428572 0.00015
          0.001 0.012428571428581 0.00015 0.00085243404696798 0.012340254950119 0.00015
          0.001 0.01228571428572 0.0003 0.001 0.012428571428581 0.0003
          0.00085243404696798 0.012340254950119 0.0003 0.000047305708530005 0.012255757186949 0
          0.000035989657241992 0.012305788523607 0 0 0.012277777777773 0
          0.000047305708530005 0.012255757186949 0.00015 0.000035989657241992 0.012305788523607 0.00015
          0 0.012277777777773 0.00015 0.000047305708530005 0.012255757186949 0.0003
          0.000035989657241992 0.012305788523607 0.0003 0 0.012277777777773 0.0003
          0 0.01233333333333 0 0 0.01233333333333 0.00015
          0 0.01233333333333 0.0003 0.00088888888888861 0.013 0
          0.00086852226729803 0.012945143609779 0 0.00092105077811413 0.012923509600428 0
          0.0009444444444442 0.013 0 0.00088888888888861 0.013 0.00015
          0.00086852226729803 0.012945143609779 0.00015 0.00092105077811413 0.012923509600428 0.00015
          0.0009444444444442 0.013 0.00015 0.00088888888888861 0.013 0.0003
          0.00086852226729803 0.012945143609779 0.0003 0.00092105077811413 0.012923509600428 0.0003
          0.0009444444444442 0.013 0.0003 0.000088322519872331 0.012287262323421 0
          0.000098057359918883 0.01234321954228 0 0.000088322519872331 0.012287262323421 0.00015
          0.000098057359918883 0.01234321954228 0.00015 0.000088322519872331 0.012287262323421 0.0003
          0.000098057359918883 0.01234321954228 0.0003 0.00082037799021753 0.012949927278989 0
          0.00083333333333302 0.013 0 0.00082037799021753 0.012949927278989 0.00015
          0.00083333333333302 0.013 0.00015 0.00082037799021753 0.012949927278989 0.0003
          0.00083333333333302 0.013 0.0003 0.000055423585756317 0.01245648439217 0
          0.00011750487062481 0.01240389197138 0 0.000055423585756317 0.01245648439217 0.00015
          0.00011750487062481 0.01240389197138 0.00015 0.000055423585756317 0.01245648439217 0.0003
          0.00011750487062481 0.01240389197138 0.0003 0.00022703795328819 0.012397087263253 0
          0.00024412512388832 0.012487409031957 0 0.00022703795328819 0.012397087263253 0.00015
          0.00024412512388832 0.012487409031957 0.00015 0.00022703795328819 0.012397087263253 0.0003
          0.00024412512388832 0.012487409031957 0.0003 0.00086622784349606 0.012879340816766 0
          0.00086622784349606 0.012879340816766 0.00015 0.00086622784349606 0.012879340816766 0.0003
          0.001 0.01214285714286 0 0.001 0.01214285714286 0.00015
          0.001 0.01214285714286 0.0003 0.00032807036377433 0.012530514194312 0
          0.00032139380548758 0.012616977778981 0 0.00032807036377433 0.012530514194312 0.00015
          0.00032139380548758 0.012616977778981 0.00015 0.00032807036377433 0.012530514194312 0.0003
          0.00032139380548758 0.012616977778981 0.0003 0.00078653837511981 0.012300730611142 0
          0.00078653837511981 0.012300730611142 0.00015 0.00078653837511981 0.012300730611142 0.0003
          0.00050187285486533 0.012723776617989 0 0.00050187285486533 0.012723776617989 0.00015
          0.00050187285486533 0.012723776617989 0.0003 0.00066666666666612 0.013 0
          0.00066666666666612 0.013 0.00015 0.00066666666666612 0.013 0.0003
          0.00086640285866826 0.012499721374928 0 0.00086640285866826 0.012499721374928 0.00015
          0.00086640285866826 0.012499721374928 0.0003 0.001 0.012857142857146 0
          0.001 0.012857142857146 0.00015 0.001 0.012857142857146 0.0003
          0.00043301270230906 0.012750000000722 0 0.00043301270230906 0.012750000000722 0.00015
          0.00043301270230906 0.012750000000722 0.0003 0.00025000000019401 0.01256698729822 0
          0.00025000000019401 0.01256698729822 0.00015 0.00025000000019401 0.01256698729822 0.0003
          0 0.0125 0 0 0.0125 0.00015
          0 0.0125 0.0003 0 0.012055555555554 0
          0 0.012055555555554 0.00015 0 0.012055555555554 0.0003
          0.001 0.013 0 0.001 0.013 0.00015
          0.001 0.013 0.0003 0.0005 0.013 0
          0.0005 0.013 0.00015 0.0005 0.013 0.0003
          0.0014444444444451 0.0095172413793029 0 0.0014444444444451 0.0095172413793029 0.00015
          0.0014444444444451 0.0095172413793029 0.0003 0.0018888888888902 0.0095172413793029 0
          0.0018888888888902 0.0095172413793029 0.00015 0.0018888888888902 0.0095172413793029 0.0003
          0.0014444444444452 0.0099310344827529 0 0.0014444444444452 0.0099310344827529 0.00015
          0.0014444444444452 0.0099310344827529 0.0003 0.0018888888888903 0.0099310344827529 0
          0.0018888888888903 0.0099310344827529 0.00015 0.0018888888888903 0.0099310344827529 0.0003
          0.0014444444444452 0.010344827586203 0 0.0014444444444452 0.010344827586203 0.00015
          0.0014444444444452 0.010344827586203 0.0003 0.0014444444444453 0.010758620689653 0
          0.0014444444444453 0.010758620689653 0.00015 0.0014444444444453 0.010758620689653 0.0003
          0.0014444444444453 0.0111724137931 0 0.0014444444444453 0.0111724137931 0.00015
          0.0014444444444453 0.0111724137931 0.0003 0.0014444444444454 0.01158620689655 0
          0.0014444444444454 0.01158620689655 0.00015 0.0014444444444454 0.01158620689655 0.0003
          0.0014444444444455 0.012 0 0.0014444444444455 0.012 0.00015
          0.0014444444444455 0.012 0.0003 0.0011659770658264 0.012184916069452 0
          0.0011978981211319 0.012291694091132 0 0.0011659770658264 0.012184916069452 0.00015
          0.0011978981211319 0.012291694091132 0.00015 0.0011659770658264 0.012184916069452 0.0003
          0.0011978981211319 0.012291694091132 0.0003 0.0014134281085546 0.012468353283698 0
          0.001412897365997 0.01265802692797 0 0.0011710921098332 0.012660749606473 0
          0.0011928404820732 0.012464476127519 0 0.0014134281085546 0.012468353283698 0.00015
          0.001412897365997 0.01265802692797 0.00015 0.0011710921098332 0.012660749606473 0.00015
          0.0011928404820732 0.012464476127519 0.00015 0.0014134281085546 0.012468353283698 0.0003
          0.001412897365997 0.01265802692797 0.0003 0.0011710921098332 0.012660749606473 0.0003
          0.0011928404820732 0.012464476127519 0.0003 0.0011801499871676 0.012824831216028 0
          0.0011801499871676 0.012824831216028 0.00015 0.0011801499871676 0.012824831216028 0.0003
          0.0014335559245349 0.012265987585326 0 0.0014335559245349 0.012265987585326 0.00015
          0.0014335559245349 0.012265987585326 0.0003 0.0014444444444455 0.013 0
          0.0014444444444455 0.013 0.00015 0.0014444444444455 0.013 0.0003
          0.0023333333333355 0.0099310344827529 0 0.0023333333333353 0.0095172413793029 0
          0.0023333333333355 0.0099310344827529 0.00015 0.0023333333333353 0.0095172413793029 0.00015
          0.0023333333333355 0.0099310344827529 0.0003 0.0023333333333353 0.0095172413793029 0.0003
          0.0018888888888904 0.010344827586203 0 0.0018888888888904 0.010344827586203 0.00015
          0.0018888888888904 0.010344827586203 0.0003 0.0023333333333357 0.010344827586203 0
          0.0023333333333357 0.010344827586203 0.00015 0.0023333333333357 0.010344827586203 0.0003
          0.0018888888888905 0.010758620689653 0 0.0018888888888905 0.010758620689653 0.00015
          0.0018888888888905 0.010758620689653 0.0003 0.0018888888888907 0.0111724137931 0
          0.0018888888888907 0.0111724137931 0.00015 0.0018888888888907 0.0111724137931 0.0003
          0.0018888888888908 0.01158620689655 0 0.0018888888888908 0.01158620689655 0.00015
          0.0018888888888908 0.01158620689655 0.0003 0.0018888888888909 0.012 0
          0.0018888888888909 0.012 0.00015 0.0018888888888909 0.012 0.0003
          0.0017386847932316 0.012348636106575 0 0.0017386847932316 0.012348636106575 0.00015
          0.0017386847932316 0.012348636106575 0.0003 0.0018888888888909 0.013 0
          0.001702980389272 0.012655949584096 0 0.0020604062010233 0.012679406151259 0
          0.0018888888888909 0.013 0.00015 0.001702980389272 0.012655949584096 0.00015
          0.0020604062010233 0.012679406151259 0.00015 0.0018888888888909 0.013 0.0003
          0.001702980389272 0.012655949584096 0.0003 0.0020604062010233 0.012679406151259 0.0003
          <InformationKey name="L2_NORM_RANGE" location="vtkDataArray" length="2">
            <Value index="0">
              0.008275862069
            </Value>
            <Value index="1">
              0.013139935359
            </Value>
          </InformationKey>
        </DataArray>
      </Points>
      <Cells>
        <DataArray type="Int64" Name="connectivity" format="ascii" RangeMin="0" RangeMax="755">
          1 0 6 7 3 2
          8 9 3 2 8 9
          5 4 10 11 7 6
          12 13 9 8 14 15
          9 8 14 15 11 10
          16 17 13 12 18 19
          15 14 20 21 15 14
          20 21 17 16 22 23
          19 18 24 25 21 20
          26 27 21 20 26 27
          23 22 28 29 25 24
          30 31 27 26 32 33
          27 26 32 33 29 28
          34 35 31 30 36 37
          33 32 38 39 33 32
          38 39 35 34 40 41
          37 36 42 43 39 38
          44 45 39 38 44 45
          41 40 46 47 43 42
          48 49 45 44 50 51
          45 44 50 51 47 46
          52 53 49 48 54 55
          51 50 56 57 51 50
          56 57 53 52 58 59
          0 60 63 6 2 61
          64 8 2 61 64 8
          4 62 65 10 6 63
          66 12 8 64 67 14
          8 64 67 14 10 65
          68 16 12 66 69 18
          14 67 70 20 14 67
          70 20 16 68 71 22
          18 69 72 24 20 70
          73 26 20 70 73 26
          22 71 74 28 24 72
          75 30 26 73 76 32
          26 73 76 32 28 74
          77 34 30 75 78 36
          32 76 79 38 32 76
          79 38 34 77 80 40
          36 78 81 42 38 79
          82 44 38 79 82 44
          40 80 83 46 42 81
          84 48 44 82 85 50
          44 82 85 50 46 83
          86 52 48 84 87 54
          50 85 88 56 50 85
          88 56 52 86 89 58
          60 90 93 63 61 91
          94 64 61 91 94 64
          62 92 95 65 63 93
          96 66 64 94 97 67
          64 94 97 67 65 95
          98 68 66 96 99 69
          67 97 100 70 67 97
          100 70 68 98 101 71
          69 99 102 72 70 100
          103 73 70 100 103 73
          71 101 104 74 72 102
          105 75 73 103 106 76
          73 103 106 76 74 104
          107 77 75 105 108 78
          76 106 109 79 76 106
          109 79 77 107 110 80
          78 108 111 81 79 109
          112 82 79 109 112 82
          80 110 113 83 81 111
          114 84 82 112 115 85
          82 112 115 85 83 113
          116 86 84 114 117 87
          85 115 118 88 85 115
          118 88 86 116 119 89
          90 120 123 93 91 121
          124 94 91 121 124 94
          92 122 125 95 93 123
          126 96 94 124 127 97
          94 124 127 97 95 125
          128 98 96 126 129 99
          97 127 130 100 97 127
          130 100 98 128 131 101
          99 129 132 102 100 130
          133 103 100 130 133 103
          101 131 134 104 102 132
          135 105 103 133 136 106
          103 133 136 106 104 134
          137 107 105 135 138 108
          106 136 139 109 106 136
          139 109 107 137 140 110
          108 138 141 111 109 139
          142 112 109 139 142 112
          110 140 143 113 111 141
          144 114 112 142 145 115
          112 142 145 115 113 143
          146 116 114 144 147 117
          115 145 148 118 115 145
          148 118 116 146 149 119
          120 150 153 123 121 151
          154 124 121 151 154 124
          122 152 155 125 123 153
          156 126 124 154 157 127
          124 154 157 127 125 155
          158 128 126 156 159 129
          127 157 160 130 127 157
          160 130 128 158 161 131
          129 159 162 132 130 160
          163 133 130 160 163 133
          131 161 164 134 132 162
          165 135 133 163 166 136
          133 163 166 136 134 164
          167 137 135 165 168 138
          136 166 169 139 136 166
          169 139 137 167 170 140
          138 168 171 141 139 169
          172 142 139 169 172 142
          140 170 173 143 141 171
          174 144 142 172 175 145
          142 172 175 145 143 173
          176 146 144 174 177 147
          145 175 178 148 145 175
          178 148 146 176 179 149
          150 180 183 153 151 181
          184 154 151 181 184 154
          152 182 185 155 153 183
          186 156 154 184 187 157
          154 184 187 157 155 185
          188 158 156 186 189 159
          157 187 190 160 157 187
          190 160 158 188 191 161
          159 189 192 162 160 190
          193 163 160 190 193 163
          161 191 194 164 162 192
          195 165 163 193 196 166
          163 193 196 166 164 194
          197 167 165 195 198 168
          166 196 199 169 166 196
          199 169 167 197 200 170
          168 198 201 171 169 199
          202 172 169 199 202 172
          170 200 203 173 171 201
          204 174 172 202 205 175
          172 202 205 175 173 203
          206 176 174 204 207 177
          175 205 208 178 175 205
          208 178 176 206 209 179
          180 210 213 183 181 211
          214 184 181 211 214 184
          182 212 215 185 183 213
          216 186 184 214 217 187
          184 214 217 187 185 215
          218 188 186 216 219 189
          187 217 220 190 187 217
          220 190 188 218 221 191
          189 219 222 192 190 220
          223 193 190 220 223 193
          191 221 224 194 192 222
          225 195 193 223 226 196
          193 223 226 196 194 224
          227 197 195 225 228 198
          196 226 229 199 196 226
          229 199 197 227 230 200
          198 228 231 201 199 229
          232 202 199 229 232 202
          200 230 233 203 201 231
          234 204 202 232 235 205
          202 232 235 205 203 233
          236 206 204 234 237 207
          205 235 238 208 205 235
          238 208 206 236 239 209
          210 240 243 213 211 241
          244 214 211 241 244 214
          212 242 245 215 213 243
          246 216 214 244 247 217
          214 244 247 217 215 245
          248 218 216 246 249 219
          217 247 250 220 217 247
          250 220 218 248 251 221
          219 249 252 222 220 250
          253 223 220 250 253 223
          221 251 254 224 222 252
          255 225 223 253 256 226
          223 253 256 226 224 254
          257 227 225 255 258 228
          226 256 259 229 226 256
          259 229 227 257 260 230
          228 258 261 231 229 259
          262 232 229 259 262 232
          230 260 263 233 231 261
          264 234 232 262 265 235
          232 262 265 235 233 263
          266 236 234 264 267 237
          235 265 268 238 235 265
          268 238 236 266 269 239
          246 270 273 249 247 271
          274 250 247 271 274 250
          248 272 275 251 249 273
          276 252 250 274 277 253
          250 274 277 253 251 275
          278 254 252 276 279 255
          253 277 280 256 253 277
          280 256 254 278 281 257
          255 279 282 258 256 280
          283 259 256 280 283 259
          257 281 284 260 258 282
          285 261 259 283 286 262
          259 283 286 262 260 284
          287 263 261 285 288 264
          262 286 289 265 262 286
          289 265 263 287 290 266
          264 288 291 267 265 289
          292 268 265 289 292 268
          266 290 293 269 294 295
          296 297 298 299 300 301
          298 299 300 301 302 303
          304 305 306 294 297 307
          308 298 301 309 308 298
          301 309 310 302 305 311
          312 306 313 314 315 308
          316 317 315 308 316 317
          318 310 319 320 321 322
          323 324 325 326 327 328
          325 326 327 328 329 330
          331 332 333 334 335 336
          337 338 339 340 337 338
          339 340 341 342 343 344
          345 346 347 348 349 350
          351 352 349 350 351 352
          353 354 355 356 357 358
          359 360 361 362 363 364
          361 362 363 364 365 366
          367 368 267 369 370 237
          268 371 372 238 268 371
          372 238 269 373 374 239
          375 347 376 322 377 351
          378 326 377 351 378 326
          379 355 380 330 381 382
          383 384 385 386 387 388
          385 386 387 388 389 390
          391 392 393 394 395 396
          397 398 399 400 397 398
          399 400 401 402 403 404
          323 322 405 406 327 326
          407 408 327 326 407 408
          331 330 409 410 411 412
          413 414 415 416 417 418
          415 416 417 418 419 420
          421 422 423 424 425 426
          427 428 429 430 427 428
          429 430 431 432 433 434
          435 436 437 438 439 440
          441 442 439 440 441 442
          443 444 445 446 447 358
          357 448 449 362 361 450
          449 362 361 450 451 366
          365 452 54 87 453 394
          56 88 454 398 56 88
          454 398 58 89 455 402
          456 457 295 294 458 459
          299 298 458 459 299 298
          460 461 303 302 457 462
          463 464 459 465 466 467
          459 465 466 467 461 468
          469 470 456 294 312 381
          458 298 315 385 458 298
          315 385 460 302 318 389
          471 472 473 474 475 476
          477 478 475 476 477 478
          479 480 481 482 483 395
          484 485 486 399 487 488
          486 399 487 488 489 403
          490 491 370 492 359 493
          372 494 363 495 372 494
          363 495 374 496 367 497
          237 370 493 207 238 372
          495 208 238 372 495 208
          239 374 497 209 336 335
          498 499 340 339 500 501
          340 339 500 501 344 343
          502 503 463 334 504 505
          466 338 506 507 466 338
          506 507 469 342 508 509
          510 511 512 513 514 515
          516 517 514 515 516 517
          518 519 520 521 522 523
          524 346 525 526 527 350
          525 526 527 350 528 529
          530 354 531 532 464 505
          533 534 467 507 533 534
          467 507 535 536 470 509
          537 147 177 538 539 148
          178 540 539 148 178 540
          541 149 179 542 523 543
          544 471 526 545 546 475
          526 545 546 475 529 547
          548 479 549 360 550 505
          551 364 552 507 551 364
          552 507 553 368 554 509
          555 313 556 557 558 316
          559 560 558 316 559 560
          561 319 562 563 564 565
          566 492 567 568 569 494
          567 568 569 494 570 571
          572 496 573 574 575 485
          576 577 578 488 576 577
          578 488 579 580 581 491
          582 574 511 510 583 577
          515 514 583 577 515 514
          584 580 519 518 87 117
          348 453 88 118 352 454
          88 118 352 454 89 119
          356 455 504 334 544 543
          506 338 546 545 506 338
          546 545 508 342 548 547
          585 586 587 588 589 590
          591 592 589 590 591 592
          593 594 595 596 574 597
          598 511 577 599 600 515
          577 599 600 515 580 601
          602 519 375 322 321 453
          377 326 325 454 377 326
          325 454 379 330 329 455
          557 556 603 604 560 559
          605 606 560 559 605 606
          563 562 607 608 425 609
          512 610 429 611 516 612
          429 611 516 612 433 613
          520 614 207 493 538 177
          208 495 540 178 208 495
          540 178 209 497 542 179
          615 473 616 426 617 477
          618 430 617 477 618 430
          619 481 620 434 297 414
          621 307 301 418 622 309
          301 418 622 309 305 422
          623 311 492 369 624 564
          494 371 625 567 494 371
          625 567 496 373 626 570
          627 333 336 628 629 337
          340 630 629 337 340 630
          631 341 344 632 360 633
          566 550 364 634 569 552
          364 634 569 552 368 635
          572 554 457 456 636 462
          459 458 637 465 459 458
          637 465 461 460 638 468
          357 360 549 543 361 364
          551 545 361 364 551 545
          365 368 553 547 295 464
          532 296 299 467 534 300
          299 467 534 300 303 470
          536 304 639 314 313 555
          640 317 316 558 640 317
          316 558 641 320 319 561
          471 474 524 523 475 478
          527 526 475 478 527 526
          479 482 530 529 426 610
          406 615 430 612 408 617
          430 612 408 617 434 614
          410 619 504 543 549 505
          506 545 551 507 506 545
          551 507 508 547 553 509
          566 565 642 550 569 568
          643 552 569 568 643 552
          572 571 644 554 610 512
          511 598 612 516 515 600
          612 516 515 600 614 520
          519 602 621 414 645 587
          622 418 646 591 622 418
          646 591 623 422 647 595
          405 474 615 406 407 478
          617 408 407 478 617 408
          409 482 619 410 381 384
          636 456 385 388 637 458
          385 388 637 458 389 392
          638 460 648 499 498 636
          649 501 500 637 649 501
          500 637 650 503 502 638
          616 651 423 426 618 652
          427 430 618 652 427 430
          620 653 431 434 324 597
          573 484 328 599 576 487
          328 599 576 487 332 601
          579 490 642 412 411 531
          643 416 415 533 643 416
          415 533 644 420 419 535
          538 358 447 537 540 362
          449 539 540 362 449 539
          542 366 451 541 524 376
          347 346 527 378 351 350
          527 378 351 350 530 380
          355 354 627 651 616 473
          629 652 618 477 629 652
          618 477 631 653 620 481
          405 322 376 474 407 326
          378 478 407 326 378 478
          409 330 380 482 306 307
          556 313 308 309 559 316
          308 309 559 316 310 311
          562 319 345 117 147 537
          349 118 148 539 349 118
          148 539 353 119 149 541
          414 297 296 411 418 301
          300 415 418 301 300 415
          422 305 304 419 621 586
          603 307 622 590 605 309
          622 590 605 309 623 594
          607 311 544 334 333 472
          546 338 337 476 546 338
          337 476 548 342 341 480
          348 347 375 453 352 351
          377 454 352 351 377 454
          356 355 379 455 531 505
          550 642 533 507 552 643
          533 507 552 643 535 509
          554 644 321 324 484 395
          325 328 487 399 325 328
          487 399 329 332 490 403
          598 597 323 406 600 599
          327 408 600 599 327 408
          602 601 331 410 447 448
          522 537 449 450 525 539
          449 450 525 539 451 452
          528 541 513 512 609 654
          517 516 611 655 517 516
          611 655 521 520 613 656
          604 603 586 585 606 605
          590 589 606 605 590 589
          608 607 594 593 463 462
          335 334 466 465 339 338
          466 465 339 338 469 468
          343 342 438 437 314 639
          442 441 317 640 442 441
          317 640 446 445 320 641
          436 383 382 437 440 387
          386 441 440 387 386 441
          444 391 390 445 393 657
          55 54 397 658 57 56
          397 658 57 56 401 659
          59 58 312 314 437 382
          315 317 441 386 315 317
          441 386 318 320 445 390
          346 345 537 522 350 349
          539 525 350 349 539 525
          354 353 541 528 498 335
          462 636 500 339 465 637
          500 339 465 637 502 343
          468 638 369 267 291 624
          371 268 292 625 371 268
          292 625 373 269 293 626
          358 538 493 359 362 540
          495 363 362 540 495 363
          366 542 497 367 394 453
          321 395 398 454 325 399
          398 454 325 399 402 455
          329 403 587 645 660 588
          591 646 661 592 591 646
          661 592 595 647 662 596
          448 543 523 522 450 545
          526 525 450 545 526 525
          452 547 529 528 472 333
          627 473 476 337 629 477
          476 337 629 477 480 341
          631 481 436 435 663 383
          440 439 664 387 440 439
          664 387 444 443 665 391
          411 296 532 531 415 300
          534 533 415 300 534 533
          419 304 536 535 609 425
          424 654 611 429 428 655
          611 429 428 655 613 433
          432 656 492 566 633 359
          494 569 634 363 494 569
          634 363 496 572 635 367
          393 394 54 397 398 56
          397 398 56 401 402 58
          413 414 645 417 418 646
          417 418 646 421 422 647
          628 627 651 630 629 652
          630 629 652 632 631 653
          117 348 345 118 352 349
          118 352 349 119 356 353
          565 642 412 568 643 416
          568 643 416 571 644 420
          457 295 464 459 299 467
          459 299 467 461 303 470
          463 464 505 466 467 507
          466 467 507 469 470 509
          499 336 628 501 340 630
          501 340 630 503 344 632
          384 636 648 388 637 649
          388 637 649 392 638 650
          492 369 370 494 371 372
          494 371 372 496 373 374
          473 474 615 477 478 617
          477 478 617 481 482 619
          381 382 312 385 386 315
          385 386 315 389 390 318
          471 472 544 475 476 546
          475 476 546 479 480 548
          582 574 575 583 577 578
          583 577 578 584 580 581
          312 306 294 315 308 298
          315 308 298 318 310 302
          524 376 474 527 378 478
          527 378 478 530 380 482
          396 393 657 400 397 658
          400 397 658 404 401 659
          483 395 396 486 399 400
          486 399 400 489 403 404
          357 448 543 361 450 545
          361 450 545 365 452 547
          485 573 484 488 576 487
          488 576 487 491 579 490
          621 586 587 622 590 591
          622 590 591 623 594 595
          324 597 323 328 599 327
          328 599 327 332 601 331
          603 307 556 605 309 559
          605 309 559 607 311 562
          610 425 426 612 429 430
          612 429 430 614 433 434
          360 633 359 364 634 363
          364 634 363 368 635 367
          598 610 406 600 612 408
          600 612 408 602 614 410
          574 597 573 577 599 576
          577 599 576 580 601 579
          672 276 273 666 673 277
          274 667 673 277 274 667
          674 278 275 668 675 672
          666 669 676 673 667 670
          676 673 667 670 677 674
          668 671 720 675 669 721
          722 676 670 723 722 676
          670 723 724 677 671 725
          678 279 276 672 679 280
          277 673 679 280 277 673
          680 281 278 674 726 678
          672 675 727 679 673 676
          727 679 673 676 728 680
          674 677 729 726 675 720
          730 727 676 722 730 727
          676 722 731 728 677 724
          681 282 279 678 682 283
          280 679 682 283 280 679
          683 284 281 680 732 681
          678 726 733 682 679 727
          733 682 679 727 734 683
          680 728 684 285 282 681
          685 286 283 682 685 286
          283 682 686 287 284 683
          735 684 681 732 736 685
          682 733 736 685 682 733
          737 686 683 734 687 288
          285 684 688 289 286 685
          688 289 286 685 689 290
          287 686 738 687 684 735
          739 688 685 736 739 688
          685 736 740 689 686 737
          690 291 288 687 691 292
          289 688 691 292 289 688
          692 293 290 689 741 690
          687 738 742 691 688 739
          742 691 688 739 743 692
          689 740 693 694 564 624
          695 696 567 625 695 696
          567 625 697 698 570 626
          699 700 701 702 703 704
          705 706 703 704 705 706
          707 708 709 710 702 701
          412 565 706 705 416 568
          706 705 416 568 710 709
          420 571 413 701 711 645
          417 705 712 646 417 705
          712 646 421 709 713 647
          690 741 744 714 691 742
          745 715 691 742 745 715
          692 743 746 716 714 699
          702 694 715 703 706 696
          715 703 706 696 716 707
          710 698 694 702 565 564
          696 706 568 567 696 706
          568 567 698 710 571 570
          747 717 748 749 750 718
          751 752 750 718 751 752
          753 719 754 755 699 744
          748 700 703 745 751 704
          703 745 751 704 707 746
          754 708 711 701 700 717
          712 705 704 718 712 705
          704 718 713 709 708 719
          714 694 693 690 715 696
          695 691 715 696 695 691
          716 698 697 692 291 690
          693 624 292 691 695 625
          292 691 695 625 293 692
          697 626 711 717 660 645
          712 718 661 646 712 718
          661 646 713 719 662 647
          714 699 744 715 703 745
          715 703 745 716 707 746
          748 700 717 751 704 718
          751 704 718 754 708 719
          413 701 412 417 705 416
          417 705 416 421 709 420
        </DataArray>
        <DataArray type="Int64" Name="offsets" format="ascii" RangeMin="8" RangeMax="3624">
          8 16 24 32 40 48
          56 64 72 80 88 96
          104 112 120 128 136 144
          152 160 168 176 184 192
          200 208 216 224 232 240
          248 256 264 272 280 288
          296 304 312 320 328 336
          344 352 360 368 376 384
          392 400 408 416 424 432
          440 448 456 464 472 480
          488 496 504 512 520 528
          536 544 552 560 568 576
          584 592 600 608 616 624
          632 640 648 656 664 672
          680 688 696 704 712 720
          728 736 744 752 760 768
          776 784 792 800 808 816
          824 832 840 848 856 864
          872 880 888 896 904 912
          920 928 936 944 952 960
          968 976 984 992 1000 1008
          1016 1024 1032 1040 1048 1056
          1064 1072 1080 1088 1096 1104
          1112 1120 1128 1136 1144 1152
          1160 1168 1176 1184 1192 1200
          1208 1216 1224 1232 1240 1248
          1256 1264 1272 1280 1288 1296
          1304 1312 1320 1328 1336 1344
          1352 1360 1368 1376 1384 1392
          1400 1408 1416 1424 1432 1440
          1448 1456 1464 1472 1480 1488
          1496 1504 1512 1520 1528 1536
          1544 1552 1560 1568 1576 1584
          1592 1600 1608 1616 1624 1632
          1640 1648 1656 1664 1672 1680
          1688 1696 1704 1712 1720 1728
          1736 1744 1752 1760 1768 1776
          1784 1792 1800 1808 1816 1824
          1832 1840 1848 1856 1864 1872
          1880 1888 1896 1904 1912 1920
          1928 1936 1944 1952 1960 1968
          1976 1984 1992 2000 2008 2016
          2024 2032 2040 2048 2056 2064
          2072 2080 2088 2096 2104 2112
          2120 2128 2136 2144 2152 2160
          2168 2176 2184 2192 2200 2208
          2216 2224 2232 2240 2248 2256
          2264 2272 2280 2288 2296 2304
          2312 2320 2328 2336 2344 2352
          2360 2368 2376 2384 2392 2400
          2408 2416 2424 2432 2440 2448
          2456 2464 2472 2480 2488 2496
          2504 2512 2520 2528 2536 2544
          2552 2560 2568 2576 2584 2592
          2600 2608 2616 2624 2632 2640
          2648 2656 2664 2672 2680 2688
          2696 2704 2712 2720 2728 2736
          2744 2752 2760 2768 2776 2784
          2792 2800 2808 2816 2824 2832
          2838 2844 2850 2856 2862 2868
          2874 2880 2886 2892 2898 2904
          2910 2916 2922 2928 2934 2940
          2946 2952 2958 2964 2970 2976
          2982 2988 2994 3000 3006 3012
          3018 3024 3030 3036 3042 3048
          3054 3060 3066 3072 3078 3084
          3090 3096 3102 3108 3114 3120
          3126 3132 3138 3144 3150 3156
          3164 3172 3180 3188 3196 3204
          3212 3220 3228 3236 3244 3252
          3260 3268 3276 3284 3292 3300
          3308 3316 3324 3332 3340 3348
          3356 3364 3372 3380 3388 3396
          3404 3412 3420 3428 3436 3444
          3452 3460 3468 3476 3484 3492
          3500 3508 3516 3524 3532 3540
          3548 3556 3564 3572 3580 3588
          3594 3600 3606 3612 3618 3624
        </DataArray>
        <DataArray type="UInt8" Name="types" format="ascii" RangeMin="12" RangeMax="13">
          12 12 12 12 12 12
          12 12 12 12 12 12
          12 12 12 12 12 12
          12 12 12 12 12 12
          12 12 12 12 12 12
          12 12 12 12 12 12
          12 12 12 12 12 12
          12 12 12 12 12 12
          12 12 12 12 12 12
          12 12 12 12 12 12
          12 12 12 12 12 12
          12 12 12 12 12 12
          12 12 12 12 12 12
          12 12 12 12 12 12
          12 12 12 12 12 12
          12 12 12 12 12 12
          12 12 12 12 12 12
          12 12 12 12 12 12
          12 12 12 12 12 12
          12 12 12 12 12 12
          12 12 12 12 12 12
          12 12 12 12 12 12
          12 12 12 12 12 12
          12 12 12 12 12 12
          12 12 12 12 12 12
          12 12 12 12 12 12
          12 12 12 12 12 12
          12 12 12 12 12 12
          12 12 12 12 12 12
          12 12 12 12 12 12
          12 12 12 12 12 12
          12 12 12 12 12 12
          12 12 12 12 12 12
          12 12 12 12 12 12
          12 12 12 12 12 12
          12 12 12 12 12 12
          12 12 12 12 12 12
          12 12 12 12 12 12
          12 12 12 12 12 12
          12 12 12 12 12 12
          12 12 12 12 12 12
          12 12 12 12 12 12
          12 12 12 12 12 12
          12 12 12 12 12 12
          12 12 12 12 12 12
          12 12 12 12 12 12
          12 12 12 12 12 12
          12 12 12 12 12 12
          12 12 12 12 12 12
          12 12 12 12 12 12
          12 12 12 12 12 12
          12 12 12 12 12 12
          12 12 12 12 12 12
          12 12 12 12 12 12
          12 12 12 12 12 12
          12 12 12 12 12 12
          12 12 12 12 12 12
          12 12 12 12 12 12
          12 12 12 12 12 12
          13 13 13 13 13 13
          13 13 13 13 13 13
          13 13 13 13 13 13
          13 13 13 13 13 13
          13 13 13 13 13 13
          13 13 13 13 13 13
          13 13 13 13 13 13
          13 13 13 13 13 13
          13 13 13 13 13 13
          12 12 12 12 12 12
          12 12 12 12 12 12
          12 12 12 12 12 12
          12 12 12 12 12 12
          12 12 12 12 12 12
          12 12 12 12 12 12
          12 12 12 12 12 12
          12 12 12 12 12 12
          12 12 12 12 12 12
          13 13 13 13 13 13
        </DataArray>
      </Cells>
    </Piece>
  </UnstructuredGrid>
</VTKFile>
