<?xml version="1.0"?>
<VTKFile type="UnstructuredGrid" version="0.1" byte_order="LittleEndian" header_type="UInt32" compressor="vtkZLibDataCompressor">
  <UnstructuredGrid>
    <Piece NumberOfPoints="780" NumberOfCells="454">
      <PointData>
        <DataArray type="Int32" Name="libmesh_node_id" format="ascii" RangeMin="1278" RangeMax="5063">
          1278 1279 1280 1281 1282 1283
          1284 1285 1286 1287 1288 1289
          1290 1291 1292 1293 1294 1295
          1296 1297 1298 1299 1300 1301
          1302 1303 1304 1305 1306 1307
          1308 1309 1310 1311 1312 1313
          1314 1315 1316 1317 1318 1319
          1320 1321 1322 1323 1324 1325
          1329 1330 1331 1332 1333 1334
          1335 1336 1337 1338 1339 1340
          1341 1342 1343 1344 1345 1346
          1347 1348 1349 1350 1351 1352
          1356 1357 1358 1359 1360 1361
          1362 1363 1364 1365 1366 1367
          1368 1369 1370 1371 1372 1373
          1374 1375 1376 1377 1378 1379
          1383 1384 1385 1386 1387 1388
          1389 1390 1391 1392 1393 1394
          1395 1396 1397 1398 1399 1400
          1401 1402 1403 1404 1405 1406
          1410 1411 1412 1413 1414 1415
          1416 1417 1418 1419 1420 1421
          1422 1423 1424 1425 1426 1427
          1428 1429 1430 1431 1432 1433
          1437 1438 1439 1440 1441 1442
          1443 1444 1445 1446 1447 1448
          1449 1450 1451 1452 1453 1454
          1455 1456 1457 1458 1459 1460
          1461 1462 1463 1464 1465 1466
          1467 1468 1469 1470 1471 1472
          1473 1474 1475 1476 1477 1478
          1479 1480 1481 1482 1483 1484
          1485 1486 1487 1488 1489 1490
          1491 1492 1493 1494 1495 1496
          1497 1498 1499 1500 1501 1502
          1503 1504 1505 1506 1507 1508
          1509 1510 1511 1512 1513 1514
          1515 1516 1517 1518 1519 1520
          1521 1522 1523 1524 1525 1526
          1527 1528 1529 1530 1531 1532
          1533 1534 1535 1536 1537 1538
          1539 1540 1541 1542 1543 1544
          1545 1546 1547 1548 1549 1550
          1551 1552 1553 1554 1555 1556
          1557 1558 1559 1560 1561 1562
          1563 1564 1565 1566 1567 1568
          1569 1570 1571 1572 1573 1574
          1575 1576 1577 1578 1579 1580
          1581 1582 1583 1584 1585 1586
          1587 1588 1589 1590 1591 1592
          1593 1594 1595 1596 1597 1598
          1599 1600 1601 1602 1603 1604
          1605 1606 1607 1608 1609 1610
          1611 1612 1613 1614 1615 1616
          1617 1618 1619 1620 1621 1622
          1623 1624 1625 1626 1627 1628
          1629 1630 1631 1632 1633 1634
          1635 1636 1637 1638 1639 1640
          1641 1642 1643 1644 1645 1646
          1647 1648 1649 1650 1651 1652
          1653 1654 1655 1656 1657 1658
          1659 1660 1661 1662 1663 1664
          1665 1666 1667 1668 1669 1670
          1671 1672 1673 1674 1675 1676
          1680 1681 1682 1683 1684 1685
          1686 1687 1688 1689 1690 1691
          1692 1693 1694 1695 1696 1697
          1698 1699 1700 1701 1702 1703
          1707 1708 1709 1710 1711 1712
          1713 1714 1715 1716 1717 1718
          1719 1720 1721 1722 1723 1724
          1725 1726 1727 1728 1729 1730
          1734 1735 1736 1737 1738 1739
          1740 1741 1742 1743 1744 1745
          1746 1747 1748 1749 1750 1751
          1752 1753 1754 1755 1756 1757
          1761 1762 1763 1764 1765 1766
          1767 1768 1769 1770 1771 1772
          1773 1774 1775 1776 1777 1778
          1779 1780 1781 1782 1783 1784
          1791 1792 1793 1794 1795 1796
          1797 1798 1799 1800 1801 1802
          1803 1804 1805 1806 1807 1808
          1809 1810 1811 1818 1819 1820
          1821 1822 1823 1824 1825 1826
          1827 1828 1829 1830 1831 1832
          1833 1834 1835 1836 1837 1838
          1845 1846 1847 1848 1849 1850
          1851 1852 1853 1854 1855 1856
          1857 1858 1859 1860 1861 1862
          1872 1873 1874 1875 1876 1877
          1878 1879 1880 1881 1882 1883
          1884 1885 1886 2184 2185 2186
          2187 2188 2189 2190 2191 2192
          2193 2194 2195 2196 2197 2198
          2199 2200 2201 2202 2203 2204
          2205 2206 2207 2208 2210 2211
          2212 2214 2215 2216 2218 2219
          2244 2246 2248 2262 2263 2264
          2265 2266 2267 2268 2269 2270
          2271 2272 2273 2592 2593 2594
          2595 2596 2597 2913 2914 2915
          2916 2917 2918 2919 2920 2921
          3336 3337 3338 3339 3340 3341
          3582 3583 3584 3585 3586 3587
          3688 3690 3692 3699 3700 3701
          3702 3703 3704 4161 4162 4163
          4164 4165 4166 4527 4528 4529
          4530 4531 4532 4536 4537 4538
          4539 4540 4541 4671 4672 4673
          4698 4699 4700 4701 4702 4703
          4725 4726 4727 4770 4771 4772
          4884 4885 4886 4905 4906 4907
          4983 4984 4985 5034 5035 5036
          5061 5062 5063 1863 1864 1865
          1887 1888 1889 1890 1891 1892
          1902 1899 1903 1900 1904 1901
          1905 1906 1907 1908 1909 1910
          1911 1912 1913 1914 1915 1916
          2209 2213 2217 2245 2247 2249
          2526 2525 2530 2529 2534 2533
          3234 3235 3236 3237 3238 3239
          3300 3301 3302 3303 3304 3305
          3366 3367 3368 3663 3665 3667
          3687 3386 3689 3389 3691 3392
          3705 3706 3707 3939 3940 3941
          3942 3943 3944 4467 4468 4469
          3455 3458 3461 3210 3120 3212
          3124 3214 3128 4441 4443 4445
          3119 3123 3127 3231 3232 3233
        </DataArray>
        <DataArray type="Float64" Name="resid_x" format="ascii" RangeMin="-0.0007380437201067735" RangeMax="0.0010417154088777636">
          -0.000005849828760062792 -0.0000027994445339629692 0.000001647194894260906 0.000005200788519843513 0.000010575073408070068 0.000008823784819700364
          -0.0000013182425404600906 -0.0000026109858777267902 -0.0000026370840755518543 -0.0000061777153956832365 0.000009211455481494824 0.000003500736070805033
          0.000013805471505090594 0.0000033065559463807404 0.000001921735233612054 -0.000003243877386704952 0.0000211157697651565 0.00001191422067314818
          0.000013534952284732782 0.0000031302881438044494 -0.000005791638791219356 -0.000006229995150430767 0.000021524274330886328 0.000012794978263563905
          0.000017594994774494666 0.000005242946569339324 -0.0000048198589532866265 -0.000005839321133738196 0.000027961956023947465 0.00001625843851726927
          0.000022536987821286658 0.000007823176970678247 -0.0000038004943072600383 -0.000005381746872146209 0.00003429411994959608 0.000019643527048973652
          0.000027515722252235975 0.00001038686959864421 -0.0000025978914335311742 -0.000004844995324937429 0.00004054306950251885 0.00002289452066817077
          0.000044028014376529256 0.000027338682177191487 0.0000223463136426183 0.000026019162881585345 0.00004346518343423256 0.000032996899105963706
          -0.000004827438589316557 -5.686970236951083e-7 0.00000666881779842754 0.000004362565105164862 8.130196929023725e-7 0.00000900730054498311
          0.00001624962559754195 0.0000036244516459227327 0.000017967439333244073 0.000018440456403645555 4.2380821474452546e-7 0.000020913288138579844
          0.000024355747168414155 0.000002869807160355009 0.00002829862621789303 0.000030639137379662174 0.000004802556270888658 0.00003530307220023232
          0.00003499350859481609 0.0000037979395348664013 0.000040601263444628444 0.000034210844684468 -0.000002291673627086155 0.00003651401059556747
          -0.000010448849756095058 -0.000010091138140211342 -0.0000013528259161788014 0.0000032052173399854667 -5.311215702796801e-7 0.000003499821446428797
          0.000009520178096966703 -0.000005487360461575719 0.00000781827694718018 0.000012845716354625836 -0.000005134640254755851 0.000012005250856095273
          0.000018402289817309736 -0.000003000187036583668 0.000018519532418714846 0.000024202614004043 -0.000001452804606838498 0.00002459225590012437
          0.000031777871368543487 0.000006505551880309213 0.00003323933527665801 0.00003180044882622468 -0.000005503155409591898 0.000029150397683253004
          -0.000018501957474548192 -0.000022204301316719466 -0.000009300553434954395 0.000001001766820607486 -0.000001554452226493197 -0.0000011713846843619535
          0.000003369995819291205 -0.000010796713089789023 -2.2982006031568858e-7 0.000007134815763976121 -0.000008341475948636656 0.0000047755480223621305
          0.000012370317032051048 -0.000006104290362074494 0.000010876696993733503 0.000017809047318184668 -0.000004382044920703265 0.000016454894598894043
          0.000024118547746088126 0.000001315949716751419 0.000023474604009532385 0.000027405413918657473 -0.000007008283721354758 0.00002140357902291612
          -0.00002702158147993572 -0.000035405116719289254 -0.000017395750985471636 -0.0000012440575494210293 -0.000002680950836442264 -0.000005843484131240473
          -0.000003020727880276297 -0.000016089323415346968 -0.000008476093515064065 8.764474173084125e-7 -0.000011848290319971255 -0.0000028290563642840993
          0.000005628167481841473 -0.000009551854078360122 0.000002736426323313168 0.00001049734397406965 -0.000007734474367637745 0.00000762562956024837
          0.000015168834953005472 -0.000004863811993605083 0.000012548235967191346 0.000021737430488499854 -0.000008637974246994418 0.00001320987153352604
          0.0000025283470570514055 0.000027741287444982277 0.000007026328762371747 -0.000003375827156926192 -0.000010337955380190778 -0.00002153513921498984
          -0.000009109341998936316 -0.00002130279349188413 -0.000016311773900490323 -0.000005291734005652415 -0.00001552350631905952 -0.000010117173177004446
          -0.0000010808025625586026 -0.000013143283196015432 -0.000005017669090889854 0.000003207043760333761 -0.0000112185394285369 -7.260784884444149e-7
          0.000006127405578926215 -0.00001154943851622292 0.0000019530225632280462 0.000016139511825219444 -0.000009986907171244397 0.000004824293853733508
          -0.00004828329272532628 -0.00003942399631728932 -0.000014938044555989904 0.000009120640102278088 0.00004662918674203098 0.00001421209348562158
          -0.000003488295594156199 -0.000011943384015999925 -0.000030875866689150655 -0.000014563659516575456 -0.00002629422996891506 -0.000023361560210322097
          -0.000010842501800834015 -0.000019187914054530353 -0.000016512994854611662 -0.000007053083058483622 -0.00001662900279253421 -0.000011610877495904504
          -0.0000031792807706487736 -0.000014578824999667006 -0.000007613447976506649 -0.0000016676717629060533 -0.00001762650493697393 -0.000006699035454360569
          0.000011407517599648642 -0.000011106756349299474 -0.0000028767742494828497 -0.000047363698099545104 -0.00006220194289419112 -0.000034208107360100826
          -0.00001911460644077323 -0.000006467437720480973 -0.000022118379251256925 -0.000017463806445849883 -0.000023891673062603758 -0.00002969058167856531
          -0.000018740765563851625 -0.000027866986896274426 -0.00002781766526904761 -0.00001532074020582641 -0.000021966925147776095 -0.0000210193446568141
          -0.000011783447359192678 -0.00001980524396794081 -0.000016563255245571895 -0.000008007121216291324 -0.000017536349488977976 -0.000012375380082474408
          -0.00000741564908057768 -0.000023021414325974376 -0.000012591484115365148 0.000008694426279376444 -0.000011812915795772483 -0.00000797436584454303
          -0.00005156322527355428 -0.0000635612803030483 -0.00003212477400005298 -0.0000037563991632794114 0.000005587458038469606 -0.000014202861344347895
          -0.00002142401162386065 -0.000029424423207302652 -0.00003334583271286107 -0.000021608219335611523 -0.000027909688286698042 -0.000029379524666417467
          -0.000018606516607011514 -0.000024691268618148854 -0.000024361931537431047 -0.00001505919046929094 -0.000022530993986080716 -0.000019695794066354466
          -0.00001096092716679209 -0.000019955804933413646 -0.000014776450750986214 -0.00001064533724459693 -0.000027305195394067283 -0.00001503547979586628
          0.000008582653381772332 -0.00001201053177934952 -0.000008694320193125549 -0.00005584072229325443 -0.00006779785537247562 -0.00003212846537792302
          -0.000009151937602425164 -0.00000845971508045551 -0.000022765309663164146 -0.00002622050820422217 -0.00004097277760450879 -0.00004028686434587314
          -0.000023778575394484136 -0.00003103516362568115 -0.00003213550226277562 -0.00002077451932080976 -0.000027369863323745136 -0.000026588455206422168
          -0.00001683072540892283 -0.000024756511286749827 -0.00002106655214317854 -0.00001197022176846474 -0.00002161652215626475 -0.000014771520357559353
          -0.000011162260254327094 -0.000030418203728288518 -0.000014190506919753432 0.000011799334685536067 -0.00001232618708213451 -0.00000585461705648882
          -0.00005939437277913129 -0.00006875213241741562 -0.00003051849120705441 -0.000009465441614953107 -0.000009387267882576822 -0.000024146666816271534
          -0.000027559624876882793 -0.000044611224049528886 -0.0000427991233671321 -0.000025237562219171394 -0.00003414323494244087 -0.000034007530135049535
          -0.000021818755859825956 -0.000029758669276347405 -0.000027546169137693255 -0.000017145272221519292 -0.000026455962650828724 -0.000020844301073186244
          -0.000011183603476627724 -0.000022522896496735 -0.000012826493115625226 -0.000009086855476514444 -0.00003126225462946053 -0.00000991399809890936
          0.00001824134131211963 -0.00001370827286839571 0.000002683465398778395 -0.00006278134563952875 -0.00006938556786906247 -0.00002843479877867594
          -0.000009668686528296888 -0.000010353374966687312 -0.000025282610208066103 -0.000028612040916531356 -0.00004868062466645284 -0.00004494038788482868
          -0.000025859057407817687 -0.00003712904448649468 -0.00003484325012470535 -0.000021751017720283983 -0.000031864552796356804 -0.000027196392387462964
          -0.000016086815785243402 -0.00002769436073002396 -0.000019165343775551236 -0.000008754470786964674 -0.00002267394721400251 -0.000009358786853930212
          -0.0000053851088335221675 -0.000028604226209871797 -0.0000034065758329759888 0.000013584957119672225 -0.000012188154458137035 0.000009607407233325205
          -0.00006430334471207999 -0.00006607009785852824 -0.000024974267424759944 -0.000009842883256894197 -0.000011375106230282483 -0.000025743885844420333
          -0.000028936080162189626 -0.00005265913876906225 -0.00004588150550022263 -0.00002568621654086556 -0.000040004264646231746 -0.000034444703457481296
          -0.00002041883873626915 -0.00003364853237242116 -0.000025309528433048456 -0.000013592931717987256 -0.000028501465500596623 -0.000015872338135825004
          -0.00000504663467149058 -0.00002283782694822989 -0.000004623438992990003 7.687537637579567e-7 -0.000030147896214582914 0.000002156994942659196
          0.000021934289238245697 -0.000013002453321142582 0.00001772808149258509 -0.0000656670903498302 -0.000060179596939491375 -0.000006572920850267394
          -0.00010524159397329313 -0.0002033820219331517 -0.00009575642771109116 -0.000011668977092149646 -0.000019996808532596333 -0.000018766258465863217
          -0.000024300221551420975 -0.000042684357865585554 -0.00003234326637624463 -0.00001748932491851818 -0.00003480228233510019 -0.00002147579620626061
          -0.000009443836952449658 -0.000028712210768944146 -0.000010694816930278961 5.450713520538386e-7 -0.00002157916185474562 0.0000023288775796714845
          0.000009167807824006502 -0.000024338109677390918 0.000011983099089896143 0.000029302998015623416 -0.000012792547080309191 0.000024708561496833426
          -0.00012538072528744948 -0.00022159612315419963 -0.00009302984038139783 -0.000011158406373112939 -0.000023442611875701402 -0.00002186471396026235
          -0.00001960164246739282 -0.00004527076210436576 -0.00002776779879898328 -0.000013027852649560856 -0.00003675493465804536 -0.00001685912601656625
          -0.0000034659451269014596 -0.000028290921031626226 -0.000003540384609035385 0.000007722045073599304 -0.000020370086587284675 0.00001089744667837067
          0.00001765785775553752 -0.00002163719174497203 0.00002224362367986288 0.00003710772335718815 -0.000012667691961176786 0.00003484375232032377
          -0.00007239044349560686 -0.000060019207944961295 -0.0000032642120029180433 -0.000004390163446554851 -0.000011761657303210882 -0.000011724044590266658
          -0.000012971453316357184 -0.000050572080056543456 -0.00002470645334140542 -0.0000061318792470288486 -0.0000371118576651952 -0.000009325327279707807
          0.0000044610728253680065 -0.000026969937453991122 0.000005528064672688515 0.00001680846368223854 -0.000018077808695782238 0.000020913619965590158
          0.000028746993153916378 -0.000015992550245425008 0.000035614107073644874 0.0000477854859268767 -0.00001063799122302811 0.000052633100485088846
          -0.00007335673657937747 -0.0000532836233215761 0.000011289609627596064 -0.000001898014515333557 -0.000011660373216315634 -0.0000038920437988032575
          -0.0000026756608257905157 -0.000046480804897441885 -0.000012794525038106741 0.000003314632866846523 -0.000035814174311532554 0.0000013462143351183897
          0.00001435138917704748 -0.000024538667604101505 0.000016508106430279668 0.000027540450168839214 -0.00001450559511662064 0.00003206715026227158
          0.000040662306137306814 -0.000009292333060351154 0.00004805329021762006 0.00005738407310618143 -0.000010117030118550474 0.00006098217959271679
          -0.00007277947286743469 -0.00004270538843620386 0.000041021102736849 -0.00011362838574147105 -0.0002448404337993537 -0.000081357377129887
          0.00002537159002535816 -0.000003788816763439229 0.000027173251129219977 0.000014597587320697158 -0.000034562269374038834 0.00001334360492322162
          0.000025932852053323074 -0.000021558971729174203 0.000029229025710009182 0.00003944332108307691 -0.000010685929899612034 0.00004436346863911922
          0.00005322841083987839 -0.0000027911424393955997 0.000059663772643325785 0.0000579311401431859 -0.000010582493613409127 0.00004987059777894487
          -0.00010730326097174725 -0.00019550164315340623 -0.00003565005036154645 0.000011834588216963482 -0.000013843590823015006 0.00001999735462643315
          0.00003100468869554618 -0.000020137317052082437 0.00003360723804002319 0.000039179409770273566 -0.000019605963251123626 0.000042269276294693015
          0.00005290112399247704 -0.000005918570775698129 0.000059183295664677615 0.00006603517959513638 0.0000022595788005119744 0.00007277991137089046
          0.00007522739643750498 -0.000004626058071721673 0.00006625442229557521 0.0000031862270031268736 0.00010779432524188337 0.00011258332637709145
          0.000021377480404094484 0.000001712945944198907 0.00003234136589203018 0.00004694261809801148 -0.000022428011929864766 0.00004500707944421478
          0.000054620592077281316 -0.0000139185918883733 0.000059585199815526124 0.0000693099326571911 0.0000015612287347366305 0.0000770668472300784
          0.00015136185572472982 0.00014775861791793687 0.00014226262123617772 0.00020869942348089587 0.0002386971589543041 0.0001725798332068429
          0.00004589362200313474 0.0001999179532248263 0.00016775275925073885 0.000028052462873517925 0.000008732966424673805 0.00004653505664409252
          0.00006136489242303256 -0.000017459812877707037 0.00007013276445499983 0.00007467194937760269 4.941399920355138e-7 0.00009233709001588153
          0.00017326944409790102 0.00018077890291889886 0.00016997830757903287 0.0002399925320020202 0.0003115300478260252 0.0001864338954753464
          0.00025776155370849096 0.0005793533801927708 0.00028395132571112924 0.000045986287246613244 0.000020636941684859522 0.00005799326328137511
          0.00004928212499599738 0.000011789942119921903 0.00009028576435232694 0.00009839848006043539 0.00005237675805425113 0.000108917498770289
          0.000173309277075262 0.00021238428768466378 0.00014995205874868134 0.00000197855958949944 0.000030302626539580046 0.00001281675577002872
          -0.000022321103802624975 0.000007708416386975614 -0.00001724864466012832 0.00000431176583770565 -0.000029766645870399344 0.00006292378934835696
          0.000028820179989175188 0.000046549281711438795 0.00001835553756235342 0.00001708668201727548 0.000010934788446714805 -0.00002026395562282346
          -0.000016776211497315785 0.00002806850029557495 0.00002726669431418749 -0.00004160160430055626 -0.00000954481743864477 0.000015352218534214757
          0.000013688714692650095 -0.00001774452595748599 3.822613070525449e-8 0.00013753872720556615 0.0001998928595208227 0.0001242742546008202
          0.0002747955872273167 0.00030180459214967925 0.00018075067592260297 0.0001821502665961816 0.00018810411440561836 0.00012771007456846561
          0.00018157469326629538 0.0003209732155591283 0.00019218583880853402 0.000041237445750574864 0.0000016225501378031026 -0.000007659673778803722
          -0.000007424342585160559 -2.3841561880288964e-7 -0.000030438038358671093 -0.000019703678619142906 0.0000045430261685908135 0.000022647855767665703
          -0.000008959428897004074 0.00000809796245682115 0.00003153763563279455 0.000009018221432288698 0.000008288894260743973 0.000019331369627728634
          -0.000020147641008883 0.000016249007569246743 -0.000012032696194097525 0.00005632402801447611 0.000035798814669085743 0.00007269572677248703
          0.00006112942911506991 0.00005324618175528428 -0.00000943428374622357 0.000010369407575261391 -0.000011216188685381212 0.000011366129062828634
          0.000008461223414135688 0.000023458001472409507 -0.00003215282620949722 0.00004245460439289417 -0.000008019909286449689 0.000031224203835833464
          0.00008553582509573943 0.00010880869609941612 -0.000009677291696763568 0.00017456290349487924 0.00006296879612621709 0.0001699052873606055
          0.00006146932811557093 0.00012272702028859328 0.00006013720344011375 0.00016430116628551872 0.0005198405478967771 0.00027442283380807453
          0.0010417154088777636 0.0001165811485952517 0.00036549139800623465 0.00006850603092933838 0.00006866675599592753 -0.00006715694050507537
          -0.00003640655209924404 0.0000024054070562051777 0.000012852787306005808 0.00002982232491405279 0.000013234878271206618 5.232341262484397e-7
          0.00000982632621726598 5.756936023448844e-7 0.000017033635323238094 -0.00002179787995260085 0.000025119462734535247 -0.000044332832691784674
          0.00004102332411481946 -0.000027321127950896695 0.000017761425321061175 0.000019027215484745952 -0.00002658599746596657 0.000004617197144618501
          0.00002677676291584774 0.000024251621221882402 0.000010203042033918308 -0.00001559037156684262 0.0000309721727163037 0.000019585568352464833
          0.000006266443594693527 0.00000788699011211591 0.000006103520732381185 0.00006716313599453017 0.00007813519874755315 0.000058481655374809094
          0.00011290858297963169 0.00003223890887493752 0.00003553709092907198 0.00009584457209377284 0.00012394402750715017 0.0000714931028766852
          0.00007518720133425916 0.00010394163139970658 0.00006322379108603116 0.0000826895476864209 0.00011923995468920978 0.00006823518907284054
          0.00006878056456427473 0.00009122601117184104 0.000055070753461450295 0.00016992136246063438 0.0003879143452465428 0.00025032052773710234
          0.00018249573321282853 0.0004885966733132463 0.0003243922038276281 0.00006290070804482184 0.00013737735599761436 0.00015076803919056303
          0.000061064030146607 0.00012814735715105385 0.00006301087075621936 0.00035004042868092 0.0001035862241329788 0.00022123867405143827
          -0.00003979755478189517 0.000058368375606576706 0.00015979189908010838 0.00004282863470406184 0.0001038709396348203 0.00019102318054153855
          0.00015892887447899184 0.0002105644817578245 0.0002171116743414636 0.00010050985516540933 0.0003078831228791046 0.000292049055657273
          0.00032687107850293273 0.0004575586011554833 0.0002910589534454999 0.0002895082884961653 0.0004504023578402183 0.00028816603274606223
          0.00001198249580092181 0.000066049709847249 -0.000010974738328783928 0.0001473095954604986 -0.000003809297078660734 0.0000950817665703596
          0.00027298425055377606 0.000292048813137491 0.0005448215986092464 0.00047318246540761777 0.00024583064814986955 0.00019502468295762299
          -0.000010418700988168439 -0.000023278909438317896 -0.00007708522544902507 -0.00008913566634660697 -0.00005824335097770472 -0.000074840096118578
          0.00000661639111143586 -0.00001721706314050664 -0.00002223399018763672 0.00020586592457849662 0.0003855613789447432 0.0002017712526471982
          0.00001946666915397799 0.000015175924455768097 -0.000005690865497953723 -0.000028947476666374428 -0.00000183923908991801 -0.00002898330270895144
          0.00016231231356833575 0.0002591071100219722 0.00020537874614667828 -0.00032231582816777404 -0.00008115292013544106 -0.0007380437201067735
          -0.00022044568331924808 -0.0001669255175977824 -0.0000652871524637888 0.0001877005915802421 0.00029318033662262266 0.00020235487879149971
          0.00003441490661071356 0.00005584760042509629 0.00002030167128985738 0.000055920602038739275 0.00009402098762656408 0.00009603796612722704
          0.00019879084693386062 0.00005112893151792974 0.00010516603329868701 0.00007641591155493899 0.0001195138618061975 0.000057490865269294034
          0.00007302310199364115 0.00014570392436041857 0.00007488694771939919 0.000221927150283463 0.0002990163517555544 0.00022223181771341416
        </DataArray>
        <DataArray type="Float64" Name="resid_y" format="ascii" RangeMin="-0.10813504974965" RangeMax="0.0016992824221297442">
          0.000005775453823672616 -0.05406259563149371 0.000011013327566988113 -0.10813504974965 0.000018034442110355375 -0.054082686329861754
          1.114792895703931e-7 -0.05033187689768696 2.2374410943784562e-7 -0.10067063814895505 0.000014138678246625874 -0.050346525266916374
          0.000004436049657850771 -0.04610056552174453 2.056181835907722e-9 -0.09220729717822423 0.000013966375100378514 -0.04611212708886536
          0.000004446988852158107 -0.04150169625426517 -0.0000010031072216233616 -0.08300893365212461 0.000012145825883026762 -0.04151032749790061
          0.0000050191404857048705 -0.03667295912331403 -7.378316625034076e-7 -0.07335030081578893 0.000010875336931295831 -0.03667839429185
          0.000005785731844074396 -0.0317452131442344 -3.517035691256998e-7 -0.06349318465220684 0.000009716016670394123 -0.03174906167149279
          0.0000066301953227689 -0.026823164907416867 1.2893842743499917e-7 -0.05364511590722517 0.000008931427666386896 -0.026801142603254675
          -0.0000014823981703358108 -0.02361024460251651 -0.000017244927605917885 -0.04722416598461547 6.469606981564235e-7 -0.023461193030339986
          0.00001878879182055232 0.000019917129995643962 0.00003910852146497487 0.00001597709922912527 -0.000004680748042058813 0.000032152314710872515
          0.00001974478311358302 -0.000006217038636086719 0.000031975910618427944 0.000015906877392102975 -0.000010110158349996984 0.000026562536069821285
          0.000013632776404844463 -0.000011769687170660667 0.000023200659828935544 0.000011633165987720573 -0.000013337005070069782 0.000020001579557150928
          0.000011693391167084954 -0.000012135492773727996 0.000018674236971655614 0.000016545041833831292 -0.000002763960620358677 0.0000186424658237868
          0.00004123826472331865 0.000039698021905804765 0.00006089848606179171 0.000030240982037597897 -2.551513139624484e-7 0.00004909875805713185
          0.000035197114247837585 -0.0000018357760090438602 0.00004992994049160884 0.000032072012541298905 -0.000001943353291573857 0.00004460136367667733
          0.000029150627889456063 -0.000002557724963311858 0.00004076653656294796 0.000026529735304682556 -0.0000030766246061526836 0.00003716686849668596
          0.00002286656451066897 -0.000008065799096765996 0.00003173077794270569 0.00002297552100062085 -0.000003918326477864165 0.00002681048869599724
          0.00006009133244745321 0.000054947780247522476 0.00007993015440985185 0.00004354469378424833 8.34805807193445e-7 0.00006499993466311388
          0.00004998270179095224 -0.0000017166664735973614 0.00006658532544530013 0.00004625713777077836 -8.973630881807526e-7 0.000059685596883976566
          0.000042295886426825524 -0.0000016308295411812668 0.00005477250203072062 0.00003860860391767529 -0.0000023864875096264726 0.00005004433432009847
          0.00003457639373030848 -0.0000057262787047825114 0.000044401368531621355 0.000029589251636469045 -0.000004939625505330069 0.000035715510856205394
          0.0000796359536313282 0.00007060804858392139 0.00009992338557206562 0.000057440172773957215 0.0000018416889545139203 0.00008156523343672353
          0.0000652566329814204 -0.0000018471584426610343 0.00008375011874592331 0.00006095469046029506 -2.0490727401303865e-8 0.00007528120129612209
          0.000056002203383503923 -7.933092129493169e-7 0.00006932730199252224 0.000051304668008405815 -0.0000017226957959703276 0.00006353470390535465
          0.00004708641121854099 -0.0000028526669377587285 0.00005799057758466494 0.000037683129993160494 -0.000004813582851349862 0.00004707106012678472
          0.000053992234581794196 -0.000004764237098216911 0.00008659107452858514 0.00007213148353391735 0.000006472996305496859 0.00010671801708075912
          0.00008138486432724204 -0.000002035245578072692 0.00010176264226971835 0.00007634585045027988 8.455879186592546e-7 0.00009162270505316122
          0.00007038205745565213 5.52393426989789e-8 0.00008458924858896141 0.00006469807587236413 -0.0000010298918830210432 0.00007770761095867405
          0.00006040247875531424 3.215257378882952e-7 0.00007237304207871609 0.000047550288100431035 -0.000003134435537569674 0.00006029371038242942
          0.00018935206083324843 0.00041565815660107863 0.00029558745753549553 0.00010474422979419445 0.00006495882894582555 0.00015226229427925744
          0.0000875891211494749 0.000007396424997033885 0.0001256425219403473 0.00009837604829764264 -0.000002294707081363853 0.0001205863182218922
          0.00009243654640981105 0.000001660992497239458 0.00010858394300068686 0.00008537470103592466 8.394904486789395e-7 0.00010035041249893163
          0.00007865223621779643 -3.650924417925028e-7 0.0000922849652420692 0.00007417569082191627 0.00000307301459454316 0.00008689666828194968
          0.00005785920626079008 -0.0000021683881657446474 0.00007309050855404224 0.00008789290888224985 0.00012599982857014122 0.00015002015571233956
          0.00010146013375996951 0.000006364700265531348 0.00013678469756025352 0.00012488405584227397 -0.000008154227747910608 0.00014529910329513437
          0.00011737774415166227 -7.09050374761433e-7 0.00013420487752475486 0.00010899040296855067 0.0000024352618925964353 0.000125778269487958
          0.00010071982935273838 0.0000014647932185009316 0.0001162489852633234 0.00009280161417905917 1.1151573687650379e-7 0.00010679903064585942
          0.0000879897030194685 0.0000056016677275575345 0.00010129620865562952 0.00006868850359774935 -5.733405567653199e-7 0.00008532002774998618
          0.00019007908122760375 0.0001874234910142908 0.0002257024271813679 0.000138093914933083 0.000034583195210373396 0.00018187504325892223
          0.00014673891318124285 0.000005608211716651851 0.00017477989970559465 0.0001358483696925726 0.0000042094774907429355 0.00015485946039750856
          0.00012592452876809997 0.000003168187550086146 0.000143374683868323 0.00011610248718958022 0.0000018255145628944675 0.00013190638277488839
          0.00010674752509900239 3.5891522825060723e-7 0.00012082700858598305 0.00010121374708744518 0.000007525563548933037 0.00011476451514715546
          0.00007827449384738283 8.931648750355736e-7 0.00009518702317065642 0.00019660122497950142 0.00016538453028377975 0.0002269417496295785
          0.00014659197186901035 0.00000816870239011766 0.00018766585572103228 0.00016400218405181188 -0.0000027932935144046878 0.0001930611570311047
          0.00015474177588963717 0.000004748097464892659 0.00017435682924081194 0.00014289867482718526 0.0000034549548414723394 0.0001606495058544665
          0.0001311888500346056 0.000001872298369483185 0.0001469945077845901 0.00012004185648095851 2.066688167678553e-7 0.0001338638622155963
          0.00011341779120661519 0.000008784929332964712 0.00012696239963020783 0.00008674052133648448 0.0000011432689593689899 0.00010634658371572528
          0.00022374163611485476 0.0001887048001003172 0.00025656643319126385 0.00016697731640426955 0.00000913692806736241 0.00021072731701232347
          0.0001855350786065385 -0.000003091311407878855 0.00021628383593538456 0.0001739201554800899 0.0000050556260066201425 0.00019397233857294804
          0.00015973346991481757 0.000003438285941429961 0.00017757481460498308 0.00014571203737837198 0.000001532144652483837 0.00016125528487049992
          0.0001323258112931173 -3.5597173838664876e-7 0.00014559527950401942 0.00012418791489189618 0.00000816539862408261 0.00013692589016765094
          0.0001001572799175527 0.0000021008723138406238 0.00013769548476091388 0.00025152169410544434 0.0002117513161385004 0.0002875726980533719
          0.00018762916572372806 0.000010007634878846788 0.00023427160364736244 0.00020723931375062066 -0.000003844242130403644 0.0002394303164535913
          0.00019317336855583823 0.0000050658643300782735 0.0002134414736521227 0.00017627126883416845 0.000003106563511407791 0.0001940071366835286
          0.00015952664355256877 8.48915659829334e-7 0.0001746087952185292 0.00014344395554181412 -0.0000014286470409845264 0.0001559852856415113
          0.00013266371640194285 0.000007052185369364403 0.00014356440722504155 0.00010025184378369134 -0.0000043643612643168295 0.00011345295323857228
          0.0002793167809197264 0.00023511931398915997 0.0003185928648989436 0.00020856039207377275 0.000010672235858915496 0.00025799064788012416
          0.00022934053252424494 -0.000004958722461720008 0.00026277870842977835 0.00021236497436254165 0.0000047550398042262715 0.00023264983894566438
          0.00019236187493051502 0.0000024613292442415597 0.000209829074630157 0.0001725986860676527 -1.2677726508782822e-7 0.0001871140491213879
          0.00015363971691975415 -0.000002411105829326979 0.00016538700889572478 0.0001394712745624322 0.000008011326306487515 0.00015123451818863098
          0.00011243174269932009 0.00001768747420302294 0.00013271069804361713 0.0006313208219072206 0.0009024624843075174 0.0005735042556484077
          0.0003480024590424985 0.0002475869386291685 0.00035015661182950797 0.00025795258707886 -0.0000025499376896179204 0.00028472593418420004
          0.00023115211784944687 0.000004130511105875263 0.00025115942809389663 0.00020790401938519621 0.0000014383413030859271 0.00022493702410959727
          0.00018481169324513925 -0.0000015172179604608024 0.00019869859786923912 0.00016255021148063944 -0.000004390085530313684 0.00017331129661205674
          0.00014423090883435713 0.000002144902162541651 0.00015386151716334853 0.00011617393408547803 0.000007707373421356363 0.00013202787662594789
          0.000261961756758744 0.0000656957478930853 0.0002667899576684202 0.00021208082719703994 -0.000011343213484553416 0.0002766387190501311
          0.00024613750033355736 -0.0000018430114004326702 0.0002819494773495543 0.000222850650598818 -3.049290379095529e-7 0.00023960492376706288
          0.00019621182248915833 -0.0000033381152510780776 0.0002094282789153884 0.00017064272209772226 -0.000006160298280297877 0.0001805495265550603
          0.00014919492106288228 3.7411285689140095e-8 0.00015784128703024564 0.00012174505303970407 0.000006407215860551596 0.00013467457366950902
          0.0003522144478825262 0.00029403953383705383 0.00038441591750060927 0.0002500941323866175 0.0000054237354324051384 0.0002978373968506257
          0.0002645440628711252 -0.000014560355424771479 0.00029618655967413553 0.00023684756134412233 -0.0000032016658264733683 0.0002527049565252664
          0.00020674761020056734 -0.000005794793192539366 0.00021915882332248365 0.0001776478594954431 -0.000008449522349206207 0.0001866276887225425
          0.00015215963322886064 -0.0000042288970465431674 0.0001592940386289307 0.000123263390509282 0.0000035809383745167515 0.00013427989920156537
          0.0003682189439598929 0.00031278733693596017 0.000414488344105568 0.0002664843861587924 0.0000033987558987449073 0.0003158558884610085
          0.0002823015429076446 -0.000018484743000334036 0.0003124438538231432 0.00025045517629093683 -0.0000063514037058065576 0.0002653465754088903
          0.0002166737376624768 -0.000008789743910445763 0.00022815218158998146 0.00018390650784777182 -0.000011520980446648454 0.00019162671323800715
          0.00015422686498589924 -0.000008480003827054938 0.00015942049191217458 0.00012498790080376493 0.0000022110313283620064 0.00012720622315318814
          0.0007973097697710624 0.0011793467379522249 0.0007388916701923237 0.0004280783940214944 0.0002950460141358524 0.0004236904384441881
          0.00030850386488487716 -0.00001955737793976446 0.00032851774879472627 0.00026350567833376137 -0.00001031648479538419 0.00027696081051981417
          0.00022605796951434207 -0.000012231700187308875 0.000236136682201845 0.00019001877407217801 -0.000014433888118701305 0.00019616755791542623
          0.00015597461934658066 -0.000010889067499231936 0.00015981434797601377 0.00010925684001755753 -0.00000568465809914695 0.00010568752274147178
          0.0002818395107061916 0.00002987302028262251 0.00029492742683338846 0.00024334498985000702 -0.000030887006585416515 0.00030831656560632165
          0.0002721913268818252 -0.000023026091613708582 0.0003007155798828362 0.00023490456560346096 -0.00001618941986558306 0.0002424787767420604
          0.00019575615331013374 -0.000017176442168288786 0.00019977210411328827 0.00015910201797188217 -0.00001383579812885144 0.00016138232919891277
          0.00010379911394426712 -0.0000140441916139291 0.00011214360694005582 0.00038569958250254943 0.00031752193038422916 0.00042526337089504596
          0.00027856555822999146 -0.000018090524085707244 0.0003150717172895959 0.0002850020317710922 -0.00003714937825060466 0.00030250133234232396
          0.00024132285625783068 -0.0000210916819366469 0.00024462743736836795 0.00020001686623756162 -0.000019835990407116727 0.0002015949816553883
          0.00024323620489030348 0.0001455909906811735 0.00022409819894960575 0.0003462442845135437 0.000446151538418333 0.0002988339690843146
          0.0003753643487043462 0.0002969388325254063 0.00043128129173061747 0.0002853021253322943 -0.000026423105833527083 0.00030530846571893283
          0.0002884226596814657 -0.000044252745530930226 0.00028774894585283095 0.0002451974358602671 -0.00002464324579495164 0.00023611131457194207
          0.00029619378609323926 0.0001547255997331326 0.0002691297568787679 0.0003842303171002724 0.00042826529981290426 0.00029316070463239474
          0.0010284077835854 0.0016209407712925727 0.0009904481190467912 0.001095667610540238 0.0015993572257517671 0.0009229046780668826
          0.0009742820215930467 0.0013443997106444075 0.0007996848181441168 0.0007748595891996363 0.0010603982999079845 0.0006267735172236152
          0.0005480142796620395 0.0007068666259284276 0.0004124151599663138 -0.000004111864788537874 0.000027249149832306307 0.00004949150656300555
          -0.0000064785786428084476 0.00001526866402298474 0.0000024947060850571967 0.00009915849877061185 0.00003469486168528697 0.00014096336252183202
          0.00011945297268373123 0.00017981313541937452 0.00014518859034935456 0.00004165334610488347 0.000014991751982210665 0.00003646461654344471
          0.00003970187758136831 0.00010530689580206566 0.00006118436471268945 0.00003292012164044216 0.0000809825989012726 0.0001110747627804335
          0.00008101369117783936 0.00008472486248446362 0.00011753385170332501 0.00010922783690207882 0.00020074095890364532 0.00007993081275571925
          0.0002167284261557047 0.00036693179580064156 0.00007708176292731475 0.00014445627236309763 0.00024448249152340257 0.00009135807495738377
          0.00012162516514180322 0.0002268763042891659 0.0001295817144499386 0.0001391647182969833 0.00004633153440996261 0.00003564661319649094
          0.00012642241852757127 0.00012175137734624433 0.000024483343289175355 0.00007952187451123815 0.00015121649503821444 0.0001490986907704151
          0.00006770974324836823 0.00008968852995441486 0.00016335393493114268 0.00007020224221837047 0.00008573262586549185 0.0000730705916960582
          0.00004945919781044268 0.00007113182767338327 0.0000718002214689646 0.00005332298689936406 -0.000014272827755696521 0.00010704455416540165
          0.00002700619996231536 -0.0000434186967794882 0.00031461721453240996 0.00006559880088384366 0.0001425211684145302 0.00032019346891445314
          0.00006075561494087861 0.000043305015580291824 0.000017732596364878825 0.000031958776614351286 0.00004654159439634008 0.00004060321733773825
          0.00010385629087290502 0.00013416550503696223 0.000014067804921743393 0.00018443551454237067 0.00010896115934036499 0.00016715124501805179
          0.00013307622811444767 0.0002480212558051741 0.00015995728682207527 0.000010259818668305332 -0.0003869666470223982 -0.00015692771436348792
          -0.0007329103133853331 0.00000190726870156685 -0.00025834888822555413 0.0001923109867172576 0.00013465559606681485 0.000127113490036866
          0.00010970935583047917 0.00013339186837111033 0.00009655577744411073 0.00013795752337789503 0.00008426600029422379 0.00011285859796951719
          0.000054806172857385215 0.00009207785916981806 0.00007104681692647738 0.00010172066906515096 0.00009840863139830031 0.000059728336759014115
          0.000029439521786141232 0.00007692337826144518 0.00006874701010840638 0.000048660721803771984 0.000012673460787634983 0.00003539233360913552
          0.0000035335339363968404 0.00003189300704734433 -0.000006364909545739962 0.00001623608772362891 0.000014573980815463065 0.00003156576417125481
          0.000118564923530632 0.0000707336320395803 0.00005695112837802649 0.000003894007358777596 -0.000009657551473538431 0.000007174188200812122
          0.0001676094433703066 0.00009970944517639566 0.00008863472063603411 0.00002154619956649083 0.000026943816893781544 0.000018028647724595975
          0.000045838158252551014 0.00002676218463249511 0.0000314800811334929 0.000026923886158849086 0.000023912595479461162 0.000022739482102593443
          0.00002379101936693124 0.000023508049958160214 0.000017917710857207406 0.00031281957789979463 0.0005102871137002175 0.0002993480400887878
          0.0001983498474092127 0.0005990924244000592 0.0004176881864367127 0.00006305306646750553 0.0002690896323559108 0.0002780587626866199
          0.0004814595720801229 0.0007340719469206697 0.0013075502435780928 0.0016992824221297442 0.000929801973054159 0.0010025473006212739
          0.00048136010815508223 0.0011206948339266276 0.000856037584200442 0.00046182483094210636 0.00103045898342502 0.0007259584180183826
          0.0003976249876595228 0.0008165113863926043 0.000580685608753545 0.00009659318107859555 0.0002020007706986307 0.0002213631496699106
          0.0001722247627581495 0.0003173782936918071 0.00021383573579441748 0.00020702822430009905 0.000275759608516446 0.00015178041966163944
          0.00003352119657033716 0.00027859962692310114 0.00010267963864378678 0.0005672969168420729 0.00012699433238151214 0.00028232533692689604
          0.0001741636986898054 0.00025151790774810556 0.00035450525822061305 0.00048649196061668204 0.00034534425168365225 0.0002633506979939741
          0.00012592257336320814 0.000026278782169290513 0.00012896883579187335 0.00007141162645458998 0.000112821682257392 0.00009693570419251445
          0.000036858404472688705 0.00009356291341892226 0.00008908516249143093 0.0001406451034625042 0.0002276806031859431 0.0000987668458400405
          0.00016857696386185332 0.00006445592556593438 0.00020510000022916364 0.000054303243953814084 0.0001388570392093242 0.00009381546220911009
          -0.0006006386608084328 -0.0011873267039655341 -0.00036185631322138354 0.000497461937420958 0.0006449247088756438 0.0011096707115145488
          0.0014206152973381056 0.0003645473581277807 0.0004929735449165674 0.00022426621845698935 0.00043521997570997173 0.00028579180867256
          0.00002410530783251031 0.00007344936512570024 0.0000726423288040668 -0.01975416756246389 -0.000001218693322176459 -0.03954106230792139
          0.00001470555645755045 -0.019838202122015265 0.000024064383178167004 0.00006102694131090904 0.00005872216324615161 0.00004423609109228954
          -3.744438095785313e-7 5.060258134702289e-7 0.00001577784006693249 0.0000999233268446642 0.00016568549734046617 0.00013530459778947
        </DataArray>
        <DataArray type="Float64" Name="resid_z" format="ascii" RangeMin="0" RangeMax="0">
          0 0 0 0 0 0
          0 0 0 0 0 0
          0 0 0 0 0 0
          0 0 0 0 0 0
          0 0 0 0 0 0
          0 0 0 0 0 0
          0 0 0 0 0 0
          0 0 0 0 0 0
          0 0 0 0 0 0
          0 0 0 0 0 0
          0 0 0 0 0 0
          0 0 0 0 0 0
          0 0 0 0 0 0
          0 0 0 0 0 0
          0 0 0 0 0 0
          0 0 0 0 0 0
          0 0 0 0 0 0
          0 0 0 0 0 0
          0 0 0 0 0 0
          0 0 0 0 0 0
          0 0 0 0 0 0
          0 0 0 0 0 0
          0 0 0 0 0 0
          0 0 0 0 0 0
          0 0 0 0 0 0
          0 0 0 0 0 0
          0 0 0 0 0 0
          0 0 0 0 0 0
          0 0 0 0 0 0
          0 0 0 0 0 0
          0 0 0 0 0 0
          0 0 0 0 0 0
          0 0 0 0 0 0
          0 0 0 0 0 0
          0 0 0 0 0 0
          0 0 0 0 0 0
          0 0 0 0 0 0
          0 0 0 0 0 0
          0 0 0 0 0 0
          0 0 0 0 0 0
          0 0 0 0 0 0
          0 0 0 0 0 0
          0 0 0 0 0 0
          0 0 0 0 0 0
          0 0 0 0 0 0
          0 0 0 0 0 0
          0 0 0 0 0 0
          0 0 0 0 0 0
          0 0 0 0 0 0
          0 0 0 0 0 0
          0 0 0 0 0 0
          0 0 0 0 0 0
          0 0 0 0 0 0
          0 0 0 0 0 0
          0 0 0 0 0 0
          0 0 0 0 0 0
          0 0 0 0 0 0
          0 0 0 0 0 0
          0 0 0 0 0 0
          0 0 0 0 0 0
          0 0 0 0 0 0
          0 0 0 0 0 0
          0 0 0 0 0 0
          0 0 0 0 0 0
          0 0 0 0 0 0
          0 0 0 0 0 0
          0 0 0 0 0 0
          0 0 0 0 0 0
          0 0 0 0 0 0
          0 0 0 0 0 0
          0 0 0 0 0 0
          0 0 0 0 0 0
          0 0 0 0 0 0
          0 0 0 0 0 0
          0 0 0 0 0 0
          0 0 0 0 0 0
          0 0 0 0 0 0
          0 0 0 0 0 0
          0 0 0 0 0 0
          0 0 0 0 0 0
          0 0 0 0 0 0
          0 0 0 0 0 0
          0 0 0 0 0 0
          0 0 0 0 0 0
          0 0 0 0 0 0
          0 0 0 0 0 0
          0 0 0 0 0 0
          0 0 0 0 0 0
          0 0 0 0 0 0
          0 0 0 0 0 0
          0 0 0 0 0 0
          0 0 0 0 0 0
          0 0 0 0 0 0
          0 0 0 0 0 0
          0 0 0 0 0 0
          0 0 0 0 0 0
          0 0 0 0 0 0
          0 0 0 0 0 0
          0 0 0 0 0 0
          0 0 0 0 0 0
          0 0 0 0 0 0
          0 0 0 0 0 0
          0 0 0 0 0 0
          0 0 0 0 0 0
          0 0 0 0 0 0
          0 0 0 0 0 0
          0 0 0 0 0 0
          0 0 0 0 0 0
          0 0 0 0 0 0
          0 0 0 0 0 0
          0 0 0 0 0 0
          0 0 0 0 0 0
          0 0 0 0 0 0
          0 0 0 0 0 0
          0 0 0 0 0 0
          0 0 0 0 0 0
          0 0 0 0 0 0
          0 0 0 0 0 0
          0 0 0 0 0 0
          0 0 0 0 0 0
          0 0 0 0 0 0
          0 0 0 0 0 0
          0 0 0 0 0 0
          0 0 0 0 0 0
          0 0 0 0 0 0
          0 0 0 0 0 0
          0 0 0 0 0 0
          0 0 0 0 0 0
          0 0 0 0 0 0
          0 0 0 0 0 0
        </DataArray>
        <DataArray type="Float64" Name="stress_zz" format="ascii" RangeMin="-21311.472429011505" RangeMax="52536.082444558255">
          -1327.0695487372022 -1383.4244144924162 -1256.9005372139038 -1287.0488863826824 -1186.7315256906054 -1190.673358272949
          -997.774807060051 -1055.7688168727245 -1000.4625415488833 -1027.375693931832 -1003.1502760377159 -998.9825709909398
          -706.3578850046924 -750.4934833132768 -697.2085033356583 -713.8980791438472 -688.0591216666243 -677.3026749744175
          -429.69335770464403 -472.7030770256379 -426.0881374840432 -440.31830207070163 -422.48291726344223 -407.9335271157654
          -173.98742361066388 -199.71753318828442 -151.49931400787577 -162.12890283209762 -129.01120440508765 -124.54027247591081
          -29.210798797552314 -24.01263022700244 -4.64715742871888 46.72305279093572 19.916483940114553 117.45873580887387
          853.7765123397703 465.0787698436057 798.7158796360623 385.0382330790315 743.6552469323541 304.99769631445724
          3907.552526515596 2159.195683058903 4120.520940530862 2245.441445649739 4333.489354546127 2331.6872082405753
          -1278.701049166813 -1230.7957612960129 -1182.8904734252133 -960.7917774787135 -989.2230356933868 -1017.6542939080603
          -678.1120541789226 -689.7791037162162 -701.4461532535101 -385.20894277137063 -406.13501028448076 -427.06107779759094
          -141.28483815644793 -128.69494644744805 -116.10505473844813 -2.7491368900448547 -30.047021332139607 -57.34490577423436
          1201.1774030268118 1173.270854025656 1145.3643050245 3971.8552139761678 4036.5841319680876 4101.313049960008
          -1308.4341312850775 -1257.0744483710064 -1205.7147654569349 -1003.1064164870492 -1023.2321535148083 -1043.357890542567
          -703.1241926988221 -703.5442422699011 -703.9642918409802 -376.3408128961597 -389.7052577820234 -403.06970266788704
          -112.76890831547502 -92.7672085128141 -72.7655087101532 70.19385505654392 43.632863283518496 17.07187151049307
          1188.322862797719 1181.2529762385968 1174.183089679475 2092.529098604593 2042.097957221691 1991.6668158387897
          -1361.0860280617258 -1303.431812296153 -1245.7775965305805 -1029.8721248727659 -1051.639172475498 -1073.4062200782305
          -711.6397678174749 -707.027154826088 -702.4145418347011 -341.9302302033541 -352.8184342664799 -363.70663832960577
          -48.699876898998376 -26.49464861743158 -4.289420335864783 155.1892926154022 133.08641082373032 110.9835290320584
          1260.07311048967 1254.953076131725 1249.83304177378 2398.301626309714 2490.979038644264 2583.656450978815
          -1432.2965341359204 -1386.292369544698 -1340.288204953475 -1072.2203490524157 -1091.7200887135562 -1111.2198283746968
          -695.650022122662 -690.9365941908823 -686.2231662591022 -275.90733613417103 -287.447283869402 -298.98723160463294
          48.74097477958272 70.72560128871473 92.71022779784671 260.33635234544624 235.41069428261014 210.485036219774
          1380.2344124092701 1361.2343222896407 1342.234232170011 2728.6763775115846 2805.025607430789 2881.374837349994
          -1428.5112498173887 -1362.6928572586412 -1296.874464699894 -1121.9400847645863 -1135.6254650123276 -1149.3108452600688
          -667.7446853054014 -655.798018284093 -643.8513512627844 -181.16450700082294 -193.93454117684783 -206.70457535287284
          174.848157522659 196.26867420346005 217.68919088426105 409.9091996195845 384.0761671030828 358.2431345865811
          1534.6793634867204 1520.3008455848812 1505.9223276830419 2494.3023057373503 2567.377775668341 2640.453245599332
          -3128.262455233187 -3099.3118819662604 -3070.3613086993337 -1534.8030735807408 -1440.770222746809 -1346.7373719128768
          -1145.6400616113763 -1171.5482613940683 -1197.4564611767598 -605.7730080375404 -589.0707678488271 -572.3685276601136
          -56.1852810289939 -70.98593065768607 -85.78658028637825 334.7991042877219 355.5997878090375 376.40047133035307
          607.1429345437183 581.207793753612 555.2726529635056 1703.5529987546543 1685.2548739930028 1666.9567492313513
          2395.5893520029945 2497.7891691069776 2599.9889862109617 -3330.7944629553695 -3384.2333290949837 -3437.672195234597
          -1603.56223535202 -1544.1278904351327 -1484.6935455182454 -1102.1751372403012 -1136.7304512290625 -1171.2857652178238
          -483.70736738015745 -473.8645597815229 -464.02175218288846 112.11980609863178 98.64050404121997 85.16120198380816
          533.162119034025 552.1372835782389 571.1124481224529 830.65156004907 807.2852560574519 783.9189520658338
          1991.3630042475543 1964.6717658056755 1937.9805273637974 2375.7228677420753 2483.9076361389793 2592.0924045358843
          -3633.991859177151 -3748.0433935099663 -3862.0949278427797 -1608.7058691314016 -1561.6378178455957 -1514.56976655979
          -1020.5389421210068 -1058.1489738099779 -1095.7590054989487 -315.9697430292146 -310.2670788916488 -304.56441475408303
          349.3357855587918 336.9230651711691 324.5103447835463 810.2023021389152 830.7635500710626 851.3247980032097
          1050.3554696774308 1020.0164432033075 989.677416729184 2365.396102418098 2331.5135174828974 2297.6309325476964
          2908.938813658353 3055.3272041279392 3201.7155945975264 -4183.029745073185 -4272.433132785975 -4361.836520498766
          -1741.8617003958443 -1665.9044157067065 -1589.9471310175686 -924.3060364492171 -969.2991385493385 -1014.2922406494598
          -79.13268817641904 -72.22950036027912 -65.32631254413923 676.1173352498264 662.636570486927 649.1558057240277
          1182.1176444776067 1206.1021058509104 1230.086567224214 1430.871737373613 1401.2942716536904 1371.7168059337678
          2409.511615286602 2385.6529025994364 2361.794189912271 3929.285742833001 4005.9375595304264 4082.58937622785
          -4711.023892262341 -4811.029414412401 -4911.034936562461 -1777.5209331906667 -1684.2081761110826 -1590.895419031498
          -737.2918239073172 -786.7904633839851 -836.2891028606533 265.1709993901028 273.8802251073145 282.5894508245263
          1106.4464989889661 1096.0385877946849 1085.6306766004036 1652.863774431603 1664.8789910609796 1676.8942076903563
          1886.9119849405686 1894.0617056696778 1901.2114263987874 2579.7326733800946 2524.7618546829026 2469.791035985711
          5423.549516302025 5580.10583348519 5736.662150668351 -5359.248479714962 -5435.008993588818 -5510.769507462674
          -1774.1235921074976 -1640.5138041513203 -1506.904016195143 -430.2948371302146 -487.1104967967821 -543.9261564633498
          748.3329572219585 759.3264824715104 770.3200077210624 1666.1870631749664 1659.8521113680483 1653.5171595611303
          2233.3471389078595 2229.0249633567973 2224.702787805735 2355.9811328764654 2388.3582202497264 2420.7353076229874
          2789.3723154880927 2693.78740538293 2598.202495277768 6625.845745185321 6610.023643843518 6594.201542501715
          -6111.520085458773 -6265.597677398103 -6419.675269337433 -1625.3849038027613 -1490.7489583222402 -1356.1130128417194
          104.12723447657385 41.55857143711081 -21.010091602352247 1411.4694665507855 1417.3163045040676 1423.16314245735
          2414.357773248807 2410.2607693918735 2406.1637655349405 2945.891527858931 2939.9484103810564 2934.0052929031817
          3033.492849171639 3058.83231565648 3084.1717821413213 2805.0200026931993 2791.0698643584356 2777.1197260236713
          3850.9284348559163 3736.547974579444 3622.1675143029715 -6634.261802706005 -6829.0568129887515 -7023.851823271499
          -1492.9972131656327 -1347.8728898498819 -1202.7485665341305 738.5628631260757 657.2146527893887 575.8664424527017
          2318.4594378979264 2336.4946791224975 2354.5299203470686 3415.0127898511755 3411.8540455394923 3408.6953012278086
          3855.8517272536355 3851.1799162514017 3846.5081052491673 3771.764037538895 3787.7323513638885 3803.700665188881
          3204.2871874839097 3199.922996413598 3195.5588053432866 2897.7290137024083 2875.562232661954 2853.3954516215003
          -755.2648330440547 -550.3371853424865 -345.40953764091824 1737.257027310714 1609.7146039681684 1482.1721806256235
          3590.407029472606 3639.3408433275554 3688.274657182504 4713.5547249668725 4706.085104155193 4698.615483343514
          4967.430607363096 4964.348359402705 4961.266111442313 4568.895072535518 4597.451208563423 4626.0073445913295
          3582.8275405895774 3561.8647347149285 3540.901928840279 3593.191828369457 3539.1728195180713 3485.153810666687
          417.53042035539625 717.9882023639359 1018.4459843724758 3302.132439916958 3194.381375666866 3086.630311416774
          5369.321116727712 5435.089197557604 5500.857278387496 6351.783581329345 6344.449891746829 6337.116202164314
          6220.833451661181 6213.577980612226 6206.322509563272 5422.4099236203765 5472.672681840434 5522.9354400604925
          3497.563379511034 3462.313744754728 3427.0641099984227 3287.848045384017 3508.019858245981 3728.1916711079452
          1868.7779910502823 2159.412013826443 2450.0460366026036 5594.110304311208 5446.497551239794 5298.88479816838
          7819.727334849858 7899.829433466812 7979.931532083765 8341.32167001572 8335.450146424859 8329.578622833997
          7605.7019547217815 7580.487882828878 7555.273810935976 6167.42834869135 6222.3363179848575 6277.244287278367
          3812.8118338510885 3768.233103435426 3723.654373019764 -4109.317613584821 -4207.598051042819 -4305.878488500817
          4745.915799432751 5090.7460213200575 5435.576243207364 8624.85693494611 8390.529560984889 8156.202187023668
          10837.606220190379 10933.692223815207 11029.778227440038 10676.89507152193 10692.229128079633 10707.563184637334
          8999.082883092655 8964.567494962588 8930.052106832522 6898.661307417294 6954.427194973771 7010.19308253025
          2571.6383103842677 2709.1719025865145 2846.705494788762 -10835.328112246912 -11147.441280975456 -11459.554449704001
          13620.989866047137 13342.045242699347 13063.10061935156 14799.96746243085 14875.436461447094 14950.905460463338
          13299.673625803134 13309.58369139007 13319.493756977 10126.602830482903 10047.871130959284 9969.139431435664
          6763.912312494155 6852.894659844598 6941.8770071950385 -181.16111892554716 -3.913033923411149 173.33505107872463
          -7876.400425080254 -8115.950555329349 -8355.500685578443 20550.14664982652 20450.267865522103 20350.38908121768
          19440.10061223034 19757.61880300447 20075.13699377859 15501.434708303763 15652.520198928063 15803.605689552369
          10234.18404529008 10265.584708677457 10296.985372064835 5125.544737806709 5314.001050422551 5502.457363038393
          -2676.705348593302 -2685.1741940232073 -2693.643039453112 -6684.3457349570745 -7117.656300253342 -7550.966865549611
          29823.42863479451 29273.397250066664 28723.36586533882 24553.527445306037 24612.654740102324 24671.782034898602
          16754.578017471766 16690.350029966216 16626.122042460665 8606.842753219496 8405.314897652326 8203.787042085154
          2247.654974890578 2345.5787327315497 2443.5024905725213 -6697.54580973875 -6556.820048782812 -6416.094287826874
          41620.763511790195 40532.0530321963 39443.34255260239 28169.02461831065 28248.828679406935 28328.632740503228
          14758.34269707244 14853.719718156037 14949.096739239634 3921.942577266558 3728.0929583141165 3534.243339361675
          -2655.425256348519 -2327.0483807672194 -1998.67150518592 -7609.269680187548 333.8827777090246 3864.9418787996788
          -2686.719550462474 -7870.944610591189 313.0357509820525 4121.228097035326 -2502.2985796222474 -8132.61954099483
          292.18872425508016 4377.5143152709725 -2317.8776087820206 -1361.7631536526212 -2610.916679443173 -5.280245531602191
          19.88958256097186 -1414.4498336292756 -2837.467089698603 -92.57959769066588 30.283769062586316 -1467.1365136059303
          -3064.0174999540322 -179.87894984972957 40.67795556420083 -5505.490323418962 -1578.810532155827 -5924.914205797411
          -5543.2687392421085 -1382.290354375204 -5861.846611856294 -5581.047155065254 -1185.7701765945806 -5798.779017915176
          -9257.796363236988 -9847.843342641403 -10437.890322045821 5796.822325500398 9604.291969739354 7265.752478018823
          4404.815402164677 5804.42651627284 9987.865230930052 7462.66444986348 4568.477232944731 5812.03070704528
          10371.43849212075 7659.576421708136 4732.139063724786 791.5290249464274 1051.009221275315 833.9346076442877
          1119.2140071794645 876.3401903421479 1187.4187930836142 -10990.799212521139 -5048.358048455587 -931.8218291842522
          -11661.193159099255 -5418.808920373248 -804.553615133146 -12331.587105677376 -5789.25979229091 -677.2854010820398
          1751.7468371056666 810.0662969456625 1722.095886251159 780.2396452735878 1692.4449353966525 750.4129936015132
          -6437.845113790948 -5016.737847725579 -6430.529715354218 -5305.028878982712 -6423.214316917487 -5593.319910239848
          908.7188563426182 737.8363856547555 566.9539149668926 -10749.168695391283 -8838.247437572089 -11232.95074697608
          -9623.880736203953 -11716.732798560879 -10409.514034835818 -1695.468390806024 -9239.38441706604 -1521.0007842218452
          -9690.852192296696 -1346.5331776376659 -10142.319967527352 8622.429823301269 4422.520762406087 9401.72119032286
          4483.349445142348 10181.012557344451 4544.1781278786075 1219.984059334518 1829.283570327769 1128.7591422437768
          1608.269772139057 1037.5342251530358 1387.2559739503454 1828.0010312228424 1732.1095800978155 1636.218128972789
          2810.0566582218244 3244.0304233173215 2777.9459132239112 3317.0135979019515 2745.835168225998 3389.996772486582
          -1974.2522710462465 -2141.85207703145 -2309.4518830166535 2343.1144493823276 2302.8552450158636 2262.5960406493996
          -12951.451223541537 -13207.87063116452 -13464.290038787503 3585.9761968516564 3923.0798341200516 4260.183471388446
          676.7030421605482 552.0851421862822 427.46724221201623 2649.6283328045574 2789.1078010006822 2928.587269196808
          2879.65822910856 3148.978811299521 3418.299393490482 -11657.872058870074 -11861.783874518387 -12065.6956901667
          -12829.528446800592 -12335.440382802626 -11841.352318804662 -18582.02970439784 -18823.650592883445 -19065.271481369047
          27532.23075579107 52536.082444558255 28372.437176829902 51840.15373980222 29212.64359786874 51144.2250350462
          7841.577999792409 8417.35109867089 8993.12419754937 -4850.079263729965 -4664.720344453913 -4479.36142517786
          -10913.657925756575 -10187.930826586038 -9462.203727415497 -21311.472429011505 -21022.265265178085 -20733.05810134466
          -3558.303700918168 -3284.783059465077 -3011.2624180119865 923.4672814827754 1046.3703044046433 1169.2733273265121
          467.90613906865747 -1202.6354654994702 397.6480634140062 -1407.027099076698 327.3899877593558 -1611.418732653926
          -3037.804458309868 3583.088622369475 -3065.6479387233976 4029.0773729242346 -3093.491419136927 4475.066123478994
          1789.7860794361652 -658.2145770312443 1852.4492415551813 -618.9715472092726 1915.1124036741976 -579.7285173873008
          1547.4398968870019 1539.7129024177675 1531.9859079485332 5599.70455525214 5912.867496797626 6226.030438343111
          1671.2871375096804 -3578.912863880203 1519.548383598075 -3610.0687337372374 1367.8096296864692 -3641.2246035942717
          -5779.953103679523 -6341.327354381403 -6902.701605083282 984.1881619370229 -2856.6595474314436 710.665580595733
          -3299.228404037594 437.1429992544445 -3741.7972606437443 -4210.582522118946 -3755.845459083871 -3301.108396048796
          522.0031155619502 534.812416901921 547.6217182418918 2039.6163130234345 -547.1902004332762 2129.155678330492
          -589.489043287391 2218.695043637549 -631.787886141506 -27.532419238155455 36.412130325464034 100.35667988908358
          -1435.3597044877215 -1377.391287017882 -1319.422869548042 -6141.8412933658465 -5748.004732840569 -5354.168172315289
        </DataArray>
        <DataArray type="Float64" Name="peeq" format="ascii" RangeMin="0" RangeMax="0">
          0 0 0 0 0 0
          0 0 0 0 0 0
          0 0 0 0 0 0
          0 0 0 0 0 0
          0 0 0 0 0 0
          0 0 0 0 0 0
          0 0 0 0 0 0
          0 0 0 0 0 0
          0 0 0 0 0 0
          0 0 0 0 0 0
          0 0 0 0 0 0
          0 0 0 0 0 0
          0 0 0 0 0 0
          0 0 0 0 0 0
          0 0 0 0 0 0
          0 0 0 0 0 0
          0 0 0 0 0 0
          0 0 0 0 0 0
          0 0 0 0 0 0
          0 0 0 0 0 0
          0 0 0 0 0 0
          0 0 0 0 0 0
          0 0 0 0 0 0
          0 0 0 0 0 0
          0 0 0 0 0 0
          0 0 0 0 0 0
          0 0 0 0 0 0
          0 0 0 0 0 0
          0 0 0 0 0 0
          0 0 0 0 0 0
          0 0 0 0 0 0
          0 0 0 0 0 0
          0 0 0 0 0 0
          0 0 0 0 0 0
          0 0 0 0 0 0
          0 0 0 0 0 0
          0 0 0 0 0 0
          0 0 0 0 0 0
          0 0 0 0 0 0
          0 0 0 0 0 0
          0 0 0 0 0 0
          0 0 0 0 0 0
          0 0 0 0 0 0
          0 0 0 0 0 0
          0 0 0 0 0 0
          0 0 0 0 0 0
          0 0 0 0 0 0
          0 0 0 0 0 0
          0 0 0 0 0 0
          0 0 0 0 0 0
          0 0 0 0 0 0
          0 0 0 0 0 0
          0 0 0 0 0 0
          0 0 0 0 0 0
          0 0 0 0 0 0
          0 0 0 0 0 0
          0 0 0 0 0 0
          0 0 0 0 0 0
          0 0 0 0 0 0
          0 0 0 0 0 0
          0 0 0 0 0 0
          0 0 0 0 0 0
          0 0 0 0 0 0
          0 0 0 0 0 0
          0 0 0 0 0 0
          0 0 0 0 0 0
          0 0 0 0 0 0
          0 0 0 0 0 0
          0 0 0 0 0 0
          0 0 0 0 0 0
          0 0 0 0 0 0
          0 0 0 0 0 0
          0 0 0 0 0 0
          0 0 0 0 0 0
          0 0 0 0 0 0
          0 0 0 0 0 0
          0 0 0 0 0 0
          0 0 0 0 0 0
          0 0 0 0 0 0
          0 0 0 0 0 0
          0 0 0 0 0 0
          0 0 0 0 0 0
          0 0 0 0 0 0
          0 0 0 0 0 0
          0 0 0 0 0 0
          0 0 0 0 0 0
          0 0 0 0 0 0
          0 0 0 0 0 0
          0 0 0 0 0 0
          0 0 0 0 0 0
          0 0 0 0 0 0
          0 0 0 0 0 0
          0 0 0 0 0 0
          0 0 0 0 0 0
          0 0 0 0 0 0
          0 0 0 0 0 0
          0 0 0 0 0 0
          0 0 0 0 0 0
          0 0 0 0 0 0
          0 0 0 0 0 0
          0 0 0 0 0 0
          0 0 0 0 0 0
          0 0 0 0 0 0
          0 0 0 0 0 0
          0 0 0 0 0 0
          0 0 0 0 0 0
          0 0 0 0 0 0
          0 0 0 0 0 0
          0 0 0 0 0 0
          0 0 0 0 0 0
          0 0 0 0 0 0
          0 0 0 0 0 0
          0 0 0 0 0 0
          0 0 0 0 0 0
          0 0 0 0 0 0
          0 0 0 0 0 0
          0 0 0 0 0 0
          0 0 0 0 0 0
          0 0 0 0 0 0
          0 0 0 0 0 0
          0 0 0 0 0 0
          0 0 0 0 0 0
          0 0 0 0 0 0
          0 0 0 0 0 0
          0 0 0 0 0 0
          0 0 0 0 0 0
          0 0 0 0 0 0
          0 0 0 0 0 0
          0 0 0 0 0 0
          0 0 0 0 0 0
        </DataArray>
        <DataArray type="Float64" Name="pe11" format="ascii" RangeMin="0" RangeMax="0">
          0 0 0 0 0 0
          0 0 0 0 0 0
          0 0 0 0 0 0
          0 0 0 0 0 0
          0 0 0 0 0 0
          0 0 0 0 0 0
          0 0 0 0 0 0
          0 0 0 0 0 0
          0 0 0 0 0 0
          0 0 0 0 0 0
          0 0 0 0 0 0
          0 0 0 0 0 0
          0 0 0 0 0 0
          0 0 0 0 0 0
          0 0 0 0 0 0
          0 0 0 0 0 0
          0 0 0 0 0 0
          0 0 0 0 0 0
          0 0 0 0 0 0
          0 0 0 0 0 0
          0 0 0 0 0 0
          0 0 0 0 0 0
          0 0 0 0 0 0
          0 0 0 0 0 0
          0 0 0 0 0 0
          0 0 0 0 0 0
          0 0 0 0 0 0
          0 0 0 0 0 0
          0 0 0 0 0 0
          0 0 0 0 0 0
          0 0 0 0 0 0
          0 0 0 0 0 0
          0 0 0 0 0 0
          0 0 0 0 0 0
          0 0 0 0 0 0
          0 0 0 0 0 0
          0 0 0 0 0 0
          0 0 0 0 0 0
          0 0 0 0 0 0
          0 0 0 0 0 0
          0 0 0 0 0 0
          0 0 0 0 0 0
          0 0 0 0 0 0
          0 0 0 0 0 0
          0 0 0 0 0 0
          0 0 0 0 0 0
          0 0 0 0 0 0
          0 0 0 0 0 0
          0 0 0 0 0 0
          0 0 0 0 0 0
          0 0 0 0 0 0
          0 0 0 0 0 0
          0 0 0 0 0 0
          0 0 0 0 0 0
          0 0 0 0 0 0
          0 0 0 0 0 0
          0 0 0 0 0 0
          0 0 0 0 0 0
          0 0 0 0 0 0
          0 0 0 0 0 0
          0 0 0 0 0 0
          0 0 0 0 0 0
          0 0 0 0 0 0
          0 0 0 0 0 0
          0 0 0 0 0 0
          0 0 0 0 0 0
          0 0 0 0 0 0
          0 0 0 0 0 0
          0 0 0 0 0 0
          0 0 0 0 0 0
          0 0 0 0 0 0
          0 0 0 0 0 0
          0 0 0 0 0 0
          0 0 0 0 0 0
          0 0 0 0 0 0
          0 0 0 0 0 0
          0 0 0 0 0 0
          0 0 0 0 0 0
          0 0 0 0 0 0
          0 0 0 0 0 0
          0 0 0 0 0 0
          0 0 0 0 0 0
          0 0 0 0 0 0
          0 0 0 0 0 0
          0 0 0 0 0 0
          0 0 0 0 0 0
          0 0 0 0 0 0
          0 0 0 0 0 0
          0 0 0 0 0 0
          0 0 0 0 0 0
          0 0 0 0 0 0
          0 0 0 0 0 0
          0 0 0 0 0 0
          0 0 0 0 0 0
          0 0 0 0 0 0
          0 0 0 0 0 0
          0 0 0 0 0 0
          0 0 0 0 0 0
          0 0 0 0 0 0
          0 0 0 0 0 0
          0 0 0 0 0 0
          0 0 0 0 0 0
          0 0 0 0 0 0
          0 0 0 0 0 0
          0 0 0 0 0 0
          0 0 0 0 0 0
          0 0 0 0 0 0
          0 0 0 0 0 0
          0 0 0 0 0 0
          0 0 0 0 0 0
          0 0 0 0 0 0
          0 0 0 0 0 0
          0 0 0 0 0 0
          0 0 0 0 0 0
          0 0 0 0 0 0
          0 0 0 0 0 0
          0 0 0 0 0 0
          0 0 0 0 0 0
          0 0 0 0 0 0
          0 0 0 0 0 0
          0 0 0 0 0 0
          0 0 0 0 0 0
          0 0 0 0 0 0
          0 0 0 0 0 0
          0 0 0 0 0 0
          0 0 0 0 0 0
          0 0 0 0 0 0
          0 0 0 0 0 0
          0 0 0 0 0 0
          0 0 0 0 0 0
        </DataArray>
        <DataArray type="Float64" Name="pe22" format="ascii" RangeMin="0" RangeMax="0">
          0 0 0 0 0 0
          0 0 0 0 0 0
          0 0 0 0 0 0
          0 0 0 0 0 0
          0 0 0 0 0 0
          0 0 0 0 0 0
          0 0 0 0 0 0
          0 0 0 0 0 0
          0 0 0 0 0 0
          0 0 0 0 0 0
          0 0 0 0 0 0
          0 0 0 0 0 0
          0 0 0 0 0 0
          0 0 0 0 0 0
          0 0 0 0 0 0
          0 0 0 0 0 0
          0 0 0 0 0 0
          0 0 0 0 0 0
          0 0 0 0 0 0
          0 0 0 0 0 0
          0 0 0 0 0 0
          0 0 0 0 0 0
          0 0 0 0 0 0
          0 0 0 0 0 0
          0 0 0 0 0 0
          0 0 0 0 0 0
          0 0 0 0 0 0
          0 0 0 0 0 0
          0 0 0 0 0 0
          0 0 0 0 0 0
          0 0 0 0 0 0
          0 0 0 0 0 0
          0 0 0 0 0 0
          0 0 0 0 0 0
          0 0 0 0 0 0
          0 0 0 0 0 0
          0 0 0 0 0 0
          0 0 0 0 0 0
          0 0 0 0 0 0
          0 0 0 0 0 0
          0 0 0 0 0 0
          0 0 0 0 0 0
          0 0 0 0 0 0
          0 0 0 0 0 0
          0 0 0 0 0 0
          0 0 0 0 0 0
          0 0 0 0 0 0
          0 0 0 0 0 0
          0 0 0 0 0 0
          0 0 0 0 0 0
          0 0 0 0 0 0
          0 0 0 0 0 0
          0 0 0 0 0 0
          0 0 0 0 0 0
          0 0 0 0 0 0
          0 0 0 0 0 0
          0 0 0 0 0 0
          0 0 0 0 0 0
          0 0 0 0 0 0
          0 0 0 0 0 0
          0 0 0 0 0 0
          0 0 0 0 0 0
          0 0 0 0 0 0
          0 0 0 0 0 0
          0 0 0 0 0 0
          0 0 0 0 0 0
          0 0 0 0 0 0
          0 0 0 0 0 0
          0 0 0 0 0 0
          0 0 0 0 0 0
          0 0 0 0 0 0
          0 0 0 0 0 0
          0 0 0 0 0 0
          0 0 0 0 0 0
          0 0 0 0 0 0
          0 0 0 0 0 0
          0 0 0 0 0 0
          0 0 0 0 0 0
          0 0 0 0 0 0
          0 0 0 0 0 0
          0 0 0 0 0 0
          0 0 0 0 0 0
          0 0 0 0 0 0
          0 0 0 0 0 0
          0 0 0 0 0 0
          0 0 0 0 0 0
          0 0 0 0 0 0
          0 0 0 0 0 0
          0 0 0 0 0 0
          0 0 0 0 0 0
          0 0 0 0 0 0
          0 0 0 0 0 0
          0 0 0 0 0 0
          0 0 0 0 0 0
          0 0 0 0 0 0
          0 0 0 0 0 0
          0 0 0 0 0 0
          0 0 0 0 0 0
          0 0 0 0 0 0
          0 0 0 0 0 0
          0 0 0 0 0 0
          0 0 0 0 0 0
          0 0 0 0 0 0
          0 0 0 0 0 0
          0 0 0 0 0 0
          0 0 0 0 0 0
          0 0 0 0 0 0
          0 0 0 0 0 0
          0 0 0 0 0 0
          0 0 0 0 0 0
          0 0 0 0 0 0
          0 0 0 0 0 0
          0 0 0 0 0 0
          0 0 0 0 0 0
          0 0 0 0 0 0
          0 0 0 0 0 0
          0 0 0 0 0 0
          0 0 0 0 0 0
          0 0 0 0 0 0
          0 0 0 0 0 0
          0 0 0 0 0 0
          0 0 0 0 0 0
          0 0 0 0 0 0
          0 0 0 0 0 0
          0 0 0 0 0 0
          0 0 0 0 0 0
          0 0 0 0 0 0
          0 0 0 0 0 0
          0 0 0 0 0 0
          0 0 0 0 0 0
        </DataArray>
        <DataArray type="Float64" Name="pe33" format="ascii" RangeMin="0" RangeMax="0">
          0 0 0 0 0 0
          0 0 0 0 0 0
          0 0 0 0 0 0
          0 0 0 0 0 0
          0 0 0 0 0 0
          0 0 0 0 0 0
          0 0 0 0 0 0
          0 0 0 0 0 0
          0 0 0 0 0 0
          0 0 0 0 0 0
          0 0 0 0 0 0
          0 0 0 0 0 0
          0 0 0 0 0 0
          0 0 0 0 0 0
          0 0 0 0 0 0
          0 0 0 0 0 0
          0 0 0 0 0 0
          0 0 0 0 0 0
          0 0 0 0 0 0
          0 0 0 0 0 0
          0 0 0 0 0 0
          0 0 0 0 0 0
          0 0 0 0 0 0
          0 0 0 0 0 0
          0 0 0 0 0 0
          0 0 0 0 0 0
          0 0 0 0 0 0
          0 0 0 0 0 0
          0 0 0 0 0 0
          0 0 0 0 0 0
          0 0 0 0 0 0
          0 0 0 0 0 0
          0 0 0 0 0 0
          0 0 0 0 0 0
          0 0 0 0 0 0
          0 0 0 0 0 0
          0 0 0 0 0 0
          0 0 0 0 0 0
          0 0 0 0 0 0
          0 0 0 0 0 0
          0 0 0 0 0 0
          0 0 0 0 0 0
          0 0 0 0 0 0
          0 0 0 0 0 0
          0 0 0 0 0 0
          0 0 0 0 0 0
          0 0 0 0 0 0
          0 0 0 0 0 0
          0 0 0 0 0 0
          0 0 0 0 0 0
          0 0 0 0 0 0
          0 0 0 0 0 0
          0 0 0 0 0 0
          0 0 0 0 0 0
          0 0 0 0 0 0
          0 0 0 0 0 0
          0 0 0 0 0 0
          0 0 0 0 0 0
          0 0 0 0 0 0
          0 0 0 0 0 0
          0 0 0 0 0 0
          0 0 0 0 0 0
          0 0 0 0 0 0
          0 0 0 0 0 0
          0 0 0 0 0 0
          0 0 0 0 0 0
          0 0 0 0 0 0
          0 0 0 0 0 0
          0 0 0 0 0 0
          0 0 0 0 0 0
          0 0 0 0 0 0
          0 0 0 0 0 0
          0 0 0 0 0 0
          0 0 0 0 0 0
          0 0 0 0 0 0
          0 0 0 0 0 0
          0 0 0 0 0 0
          0 0 0 0 0 0
          0 0 0 0 0 0
          0 0 0 0 0 0
          0 0 0 0 0 0
          0 0 0 0 0 0
          0 0 0 0 0 0
          0 0 0 0 0 0
          0 0 0 0 0 0
          0 0 0 0 0 0
          0 0 0 0 0 0
          0 0 0 0 0 0
          0 0 0 0 0 0
          0 0 0 0 0 0
          0 0 0 0 0 0
          0 0 0 0 0 0
          0 0 0 0 0 0
          0 0 0 0 0 0
          0 0 0 0 0 0
          0 0 0 0 0 0
          0 0 0 0 0 0
          0 0 0 0 0 0
          0 0 0 0 0 0
          0 0 0 0 0 0
          0 0 0 0 0 0
          0 0 0 0 0 0
          0 0 0 0 0 0
          0 0 0 0 0 0
          0 0 0 0 0 0
          0 0 0 0 0 0
          0 0 0 0 0 0
          0 0 0 0 0 0
          0 0 0 0 0 0
          0 0 0 0 0 0
          0 0 0 0 0 0
          0 0 0 0 0 0
          0 0 0 0 0 0
          0 0 0 0 0 0
          0 0 0 0 0 0
          0 0 0 0 0 0
          0 0 0 0 0 0
          0 0 0 0 0 0
          0 0 0 0 0 0
          0 0 0 0 0 0
          0 0 0 0 0 0
          0 0 0 0 0 0
          0 0 0 0 0 0
          0 0 0 0 0 0
          0 0 0 0 0 0
          0 0 0 0 0 0
          0 0 0 0 0 0
          0 0 0 0 0 0
          0 0 0 0 0 0
          0 0 0 0 0 0
        </DataArray>
        <DataArray type="Float64" Name="disp_x" format="ascii" RangeMin="0.0000014076234098741592" RangeMax="0.00000706054142207902">
          0.000001845036518413199 0.0000018450556199991717 0.0000018450346939772326 0.0000018450539002525985 0.0000018450293455356242 0.000001845048666454966
          0.0000022795298931726175 0.0000022795501287710707 0.0000022795277922511452 0.0000022795480131428664 0.0000022795213475191914 0.0000022795416532788955
          0.0000027142317828137836 0.0000027142516268997413 0.0000027142292721204456 0.000002714249194474423 0.0000027142220534627735 0.0000027142421408622035
          0.000003149161517208651 0.000003149179550294698 0.0000031491587876487328 0.0000031491769315110947 0.000003149150944556679 0.0000031491692679327204
          0.0000035843313666065266 0.000003584346178822385 0.000003584328492296029 0.000003584343351128028 0.000003584320187434229 0.000003584335255699291
          0.000004019745385447669 0.000004019755563172033 0.00000401974239282149 0.000004019752697234784 0.000004019734033752465 0.00000401974426713705
          0.000004455401140858684 0.000004455404459130781 0.000004455397769043269 0.000004455401309176573 0.00000445538840088537 0.000004455393119751671
          0.0000048912832717227945 0.000004891288191982785 0.0000048912802974114734 0.000004891284929902836 0.000004891269896524333 0.000004891275753941955
          0.0000018449793459081509 0.000001844977447031491 0.0000018449719056721322 0.0000022794690873755576 0.0000022794668544849914 0.0000022794601859448456
          0.0000027141718895748497 0.0000027141692887485973 0.0000027141618270626566 0.0000031491072210998583 0.000003149104388974223 0.0000031490962937220465
          0.0000035842869105004977 0.000003584283944119758 0.0000035842754152327295 0.000004019714793463447 0.0000040197116224071194 0.0000040197030448592025
          0.000004455387981437508 0.000004455384681879405 0.000004455375089239962 0.000004891294706357031 0.000004891291451253665 0.000004891283101260472
          0.0000018448842268619408 0.000001844882223107118 0.0000018448763682084562 0.000002279368051716447 0.0000022793657066127293 0.000002279358632416883
          0.0000027140726938414573 0.0000027140699663734425 0.000002714062080335051 0.000003149017640726993 0.0000031490146887635318 0.0000031490061498817812
          0.000003584213956873428 0.0000035842108659577425 0.000003584201891681315 0.0000040196644214340775 0.000004019661134993427 0.000004019652073237201
          0.000004455364316132764 0.000004455360947905704 0.000004455350961989507 0.000004891297655543946 0.000004891294210517665 0.000004891285004987512
          0.0000018447520083896168 0.000001844749864063521 0.000001844743552633261 0.0000022792283032703835 0.0000022792257856466796 0.0000022792181597680743
          0.0000027139365623034765 0.0000027139336654416506 0.0000027139251995476077 0.000003148896025183797 0.0000031488928984424073 0.000003148883755725367
          0.0000035841167300464865 0.000003584113465722181 0.0000035841038801732473 0.0000040195996281932586 0.000004019596177135288 0.000004019586525777109
          0.000004455337657905027 0.000004455334067747591 0.000004455323429580297 0.000004891313558205368 0.000004891310069457269 0.0000048913002555385264
          0.0000018445836957629062 0.0000018445813380462494 0.0000018445744010253647 0.0000022790519672060944 0.0000022790492345299248 0.000002279040911189333
          0.0000027137664678630416 0.000002713763340955457 0.00000271375410461365 0.000003148746797291078 0.000003148743434423168 0.000003148733492458295
          0.000003584001337183384 0.000003583997843360452 0.0000035839874564447204 0.000004019528608128546 0.000004019524928134984 0.000004019514495532066
          0.000004455318711661129 0.000004455314912185366 0.000004455303460786606 0.000004891351745480216 0.00000489134811524179 0.0000048913377483959805
          0.0000018443820559890944 0.0000018443794430110666 0.0000018443714994572812 0.0000022788411100633034 0.00000227883802364605 0.0000022788287905447673
          0.0000027135662862357204 0.000002713562860442323 0.0000027135526264199484 0.000003148575855712585 0.0000031485721873627925 0.000003148561245458013
          0.000003583875993122553 0.0000035838721982509147 0.0000035838608106309625 0.00000401946199147558 0.0000040194580258757955 0.000004019446613359139
          0.0000044553200413100264 0.000004455315993299313 0.000004455303666609542 0.000004891425738422106 0.000004891421828375151 0.000004891410633200278
          0.00000140994998937643 0.0000014099478582401262 0.0000014099399358752501 0.000001844145397780209 0.0000018441423821422552 0.0000018441339090050813
          0.000002278598211349141 0.0000022785947648499384 0.000002278584202283131 0.000002713340947519967 0.0000027133371162808498 0.0000027133256898675394
          0.0000031483908719579322 0.000003148386821081454 0.0000031483746329917706 0.000003583751160918456 0.0000035837469828527793 0.0000035837343681371743
          0.000004019412945484572 0.000004019408628210063 0.000004019396045335246 0.0000044553573007053974 0.000004455352929421141 0.000004455339569881108
          0.000004891554431266538 0.000004891550330731519 0.000004891538322369066 0.0000014097085213420238 0.0000014097057380691982 0.0000014096965624020942
          0.0000018438740789232914 0.0000018438707817132801 0.0000018438607331238906 0.000002278326310724003 0.0000022783224651741965 0.0000022783107285735915
          0.0000027130970839895153 0.0000027130927974896134 0.0000027130798433417813 0.0000031482018876184712 0.000003148197343232766 0.0000031481836383852373
          0.000003583640117896864 0.000003583635467720108 0.000003583621366727727 0.0000040193977967112045 0.000004019393036359958 0.000004019379056810766
          0.000004455449743737712 0.000004455444986789641 0.000004455430401897562 0.0000048917589743408 0.000004891754552191083 0.000004891741680585408
          0.0000014094367257698233 0.0000014094336160273636 0.000001409423020100532 0.0000018435732621836804 0.0000018435692790149657 0.0000018435577659783699
          0.000002278031606328467 0.0000022780272073953227 0.000002278013693629797 0.000002712843892591431 0.000002712839009526789 0.000002712824232910002
          0.000003148022119849019 0.000003148016973103212 0.000003148001408434925 0.00000358356022014767 0.0000035835549824014282 0.0000035835391048319787
          0.0000040194369723008744 0.0000040194316774903665 0.000004019416009629003 0.000004455620640521351 0.000004455615350447439 0.000004455599261192186
          0.000004892063977633358 0.000004892059181838225 0.000004892044793037972 0.0000014091346145904796 0.000001409130953822535 0.00000140911860244688
          0.0000018432455790520655 0.0000018432408969190857 0.0000018432273522725054 0.000002277721311429417 0.0000022777161838486844 0.00000227770050819658
          0.000002712593488649349 0.000002712587859686935 0.0000027125708230111785 0.0000031478691194090172 0.0000031478632261080854 0.000003147845429720254
          0.0000035835343526754433 0.0000035835284241045178 0.000003583510375173266 0.000004019558212681595 0.000004019552211558849 0.000004019534629149167
          0.000004455897820028076 0.000004455891959245819 0.00000445587381392487 0.000004892505904656415 0.00000489250038081766 0.0000048924845146517145
          0.0000014088033414520243 0.000001408799013357967 0.0000014087844225211705 0.0000018428958365077326 0.0000018428903143376633 0.0000018428743678436724
          0.000002277405500208321 0.0000022773994876866646 0.000002277381123365378 0.000002712362263284831 0.0000027123557132856464 0.0000027123359276456215
          0.0000031477660600074885 0.0000031477592759099873 0.000003147738786517625 0.000003583592433429692 0.000003583585634936747 0.0000035835650663886424
          0.000004019797907738614 0.0000040197911868372125 0.000004019771226869949 0.000004456325867592305 0.000004456319162563327 0.000004456298883281742
          0.000004893107919645586 0.000004893101823292729 0.000004893083388552973 0.0000014084444698001797 0.0000014084392890086612 0.0000014084218857154563
          0.000001842530598408516 0.0000018425240227004006 0.0000018425050421388999 0.00000227709783313684 0.000002277090716555529 0.000002277069029642105
          0.0000027121723430979744 0.000002712164660653925 0.000002712141515248585 0.000003147743545958223 0.0000031477356926220494 0.0000031477119763277566
          0.0000035837728433843875 0.0000035837649926635215 0.000003583741453226549 0.000004020200877819846 0.000004020193387024861 0.00000402017067607899
          0.000004456957814349278 0.000004456950433062283 0.000004456929476770029 0.000004893970235273466 0.0000048939631104351194 0.000004893940930967091
          0.0000014080607941748416 0.000001408054498223921 0.0000014080334896533292 0.000001842159493076375 0.0000018421515559910786 0.000001842128626289685
          0.000002276817824096516 0.000002276809326358323 0.000002276783463737225 0.0000027120540829918717 0.000002712045028198554 0.0000027120177899271704
          0.0000031478422181812754 0.0000031478330501452827 0.000003147805455425257 0.0000035841248275783317 0.0000035841158126098695 0.000003584088757715043
          0.000004020822525409763 0.000004020813912204128 0.000004020788204637828 0.000004457844561030758 0.000004457836481752917 0.000004457812494097738
          0.000004895098378586726 0.000004895090694197563 0.000004895068598125024 0.000001407656340820841 0.0000014076487736637533 0.0000014076234098741592
          0.0000018417974052918216 0.0000018417878801288214 0.0000018417599614063941 0.0000022765946917303176 0.0000022765845038977636 0.000002276553754793616
          0.0000027120491820827817 0.000002712038437975364 0.000002712006146745944 0.00000314811637235553 0.000003148105631284516 0.0000031480733866803913
          0.00000358471322990341 0.0000035847027982277468 0.0000035846716322482804 0.000004021733628151634 0.000004021723840641741 0.000004021694555940401
          0.000004459063569277079 0.0000044590544918768565 0.000004459027942209592 0.000004896591706312073 0.000004896583338219062 0.000004896558669465384
          0.0000018414718436023708 0.000001841460412275201 0.0000018414281406916577 0.000002276467563219819 0.0000022764553329985027 0.0000022764176166431533
          0.0000027122145959400314 0.000002712201673519562 0.0000027121633033884883 0.0000031486392196689585 0.000003148626605392536 0.0000031485887498780635
          0.0000035856236084899 0.000003585611525700954 0.000003585575549875608 0.0000040230274062662995 0.000004023016233641404 0.000004022982934581286
          0.0000044607084813784705 0.000004460698380856006 0.0000044606688603935066 0.000004898540721775154 0.000004898531529674051 0.000004898505495884135
          0.0000018412171043748727 0.000001841203346664032 0.0000018411626548702985 0.000002276492732119201 0.0000022764777426005282 0.000002276432230955518
          0.0000027126298774767427 0.0000027126143696073455 0.000002712568306201078 0.0000031495101950537352 0.0000031494952906323187 0.0000031494507694928115
          0.00000358696868456865 0.0000035869546955262732 0.00000358691311244321 0.000004024823598261075 0.000004024810943084331 0.00000402477332234785
          0.000004462897893442147 0.000004462886412024445 0.000004462853053201178 0.000004901037007874853 0.0000049010272361098655 0.000004900996789874767
          0.0000018410756752846029 0.0000018410581718099874 0.0000018410071489172407 0.00000227675123774003 0.00000227673285569051 0.0000022766768575622295
          0.000002713407742660728 0.0000027133890247978908 0.000002713333564549566 0.0000031508649696392207 0.0000031508473822874695 0.0000031507949256682307
          0.0000035888967974525195 0.000003588880565647447 0.0000035888325620874396 0.000004027271460636898 0.000004027257221751143 0.000004027214683001906
          0.00000446578193270722 0.000004465769496615991 0.000004465734606446101 0.000004904263487507613 0.0000049042527762304756 0.000004904220354357016
          0.0000018411290503642879 0.0000018411072400072983 0.00000184104312872012 0.0000022773654977598467 0.000002277342816816393 0.0000022772734395742063
          0.0000027147095670085878 0.0000027146869192804167 0.00000271462025092606 0.000003152888625289022 0.0000031528678602294233 0.000003152805977294549
          0.000003591602402248566 0.0000035915836604229296 0.0000035915285552556356 0.0000040305610825928825 0.000004030544898268691 0.000004030496447122186
          0.000004469516402133586 0.000004469503325392454 0.0000044694651100766675 0.000004908268872703187 0.000004908256951978472 0.000004908226167484621
          0.0000022785245542186635 0.000002278496839054648 0.0000022784129022798432 0.000002716761586130616 0.0000027167344735532207 0.000002716653200031386
          0.0000031558327045533785 0.0000031558081571278547 0.0000031557355240416976 0.000003595339795490454 0.0000035953183750144952 0.000003595255253801972
          0.000004034930587787784 0.000004034912628923024 0.00000403485929904547 0.00000447432876385693 0.000004474314308350005 0.000004474272917781602
          0.000004913372233044379 0.000004913360021629765 0.000004913325118992857 0.0000022804986759990825 0.0000022804645087940875 0.000002280358309138768
          0.000002719887724001841 0.0000027198547703597222 0.0000027197570920632102 0.00000316003825253569 0.000003160009539175121 0.00000315992443757541
          0.000003600436123968531 0.0000036004117930081465 0.000003600340551922913 0.000004040670195365315 0.000004040650721651777 0.0000040405922744025105
          0.000004480459349535541 0.000004480444124889345 0.000004480401819021932 0.000004919655899089806 0.0000049196423855810606 0.000004919605073822425
          0.0000022836868283208026 0.0000022836436686803746 0.0000022835105058262016 0.0000027245493785977606 0.0000027245097557934664 0.000002724392052044843
          0.000003165964975960046 0.0000031659317283208433 0.0000031658335034050443 0.0000036073032953883167 0.0000036072763200344 0.0000036071971814041205
          0.000004048118843599979 0.000004048097889190595 0.000004048035834953378 0.000004488149111349086 0.000004488132834821086 0.000004488088978830764
          0.0000022887261427670438 0.0000022886716674926873 0.000002288503738352873 0.0000027314047917847205 0.000002731357620631776 0.00000273121775320414
          0.0000031742218415310972 0.0000031741842676366823 0.0000031740723570357967 0.000003616445493333578 0.000003616415735480878 0.0000036163301943620097
          0.000004057651314662245 0.000004057629850499002 0.000004057563257962264 0.000005746112136986947 0.000005288164051877606 0.000005282843838464967
          0.000005676268941593963 0.000005746106232886523 0.0000052881562571774175 0.000005282836946730661 0.000005676262898170712 0.000005746086400803144
          0.00000528813359672602 0.00000528281489811195 0.000005676246842144711 0.000005634051286371757 0.000005592453121029618 0.000005246202225135751
          0.000005258940993172213 0.00000563404723129481 0.000005592449078616099 0.0000052461978119512295 0.0000052589373005343956 0.000005634034783411105
          0.0000055924358303764475 0.000005246186337540717 0.000005258926258061164 0.000005544264854178567 0.000005287447041859465 0.000005223571361786567
          0.000005544256165408378 0.000005287436669348012 0.000005223560999850636 0.00000554423290610218 0.000005287403450493652 0.000005223529006541277
          0.000005797198739858251 0.00000579719093428392 0.000005797166915503407 0.0000052584321029798826 0.000005232637483199976 0.000005575675396551463
          0.0000056437061546446894 0.000005258424734159148 0.000005232631344017688 0.000005575669948989472 0.000005643700793045544 0.000005258404426246967
          0.000005232611353039413 0.000005575655456754268 0.000005643683425936948 0.00000562181687366974 0.000005253223798679146 0.000005621813447076466
          0.000005253219984818879 0.000005621802935509032 0.0000052532093110273265 0.000006051973913721665 0.000006322561944426365 0.000006107748485417476
          0.000006051967298020121 0.000006322556468153951 0.000006107741270475972 0.0000060519499148357005 0.000006322540439873027 0.000006107720868293718
          0.000005240233587250101 0.000005589967343924174 0.00000524023000500005 0.000005589964199068233 0.00000524022032068965 0.000005589954333360526
          0.000005322654188984265 0.000005816074207599276 0.0000053226446843487145 0.000005816066920024196 0.000005322617891833238 0.000005816043758065974
          0.000005658307847202769 0.000005658303191939102 0.00000565828836972717 0.000006066726985256769 0.000006473427983295365 0.00000606672118608853
          0.000006473422748113021 0.000006066705314722952 0.000006473404877467406 0.000005297275133190083 0.000005602692533207472 0.000005297265734403687
          0.000005602683532341786 0.00000529724343130776 0.0000056026630027058215 0.00000522055075342806 0.000005465091537095587 0.0000052205443439213786
          0.000005465086303213453 0.000005220528260745758 0.0000054650717488757414 0.000005255190762138721 0.0000053324863585343135 0.000005255186108298025
          0.000005332481344689973 0.00000525517323351173 0.0000053324668455325365 0.0000052245943336444815 0.000005224590942071375 0.000005224582307602692
          0.0000052217132291497156 0.0000052089438693890295 0.000005221710588505641 0.000005208940486703702 0.000005221701525189074 0.000005208932321217481
          0.000005513871599166344 0.00000551386736403251 0.00000551385380120391 0.000005208839166987041 0.0000052088361453728505 0.000005208830048397644
          0.000005141786154462051 0.000005141774498032051 0.00000514174046805799 0.0000051514109482261475 0.000005151407400852419 0.000005151400340646751
          0.000005553948761992797 0.000005553945670722218 0.000005553936192570518 0.00000552742307046307 0.000005527419914199007 0.000005527411775514108
          0.0000054327736787663305 0.0000054327705306388165 0.000005432762559465187 0.000004927291367047267 0.000004927280045233137 0.000004927241801472225
          0.000004497655513118246 0.0000044976422028094225 0.00000449760222771632 0.000004936464640083873 0.000004936453078737477 0.0000049364203460486084
          0.000002741380679482849 0.0000022965679526201018 0.0000027413251824551904 0.0000022965006950407796 0.0000027411614608170845 0.0000022962932513356865
          0.0000031855789520649165 0.000003185539556419034 0.000003185417751977447 0.0000036284353128876126 0.0000036284061532523303 0.0000036283186692566488
          0.0000040696453534417155 0.00000406962511131342 0.00000406956314447494 0.000004509203853458849 0.000004509192445905166 0.000004509161505883179
          0.000005767565836260028 0.000005767558100521908 0.000005767537519927605 0.000006067047178235772 0.0000060670401858232526 0.0000060670187504967104
          0.000005927586676264006 0.000006114246287560196 0.0000059275819396291875 0.000006114241391976036 0.000005927567861538286 0.00000611422710584069
          0.000006708330834636694 0.000006448990609070456 0.0000067083265060459516 0.000006448985116460056 0.0000067083135023621894 0.000006448971726283936
          0.000006032521405741258 0.000006009572670091843 0.00000603251754714126 0.000006009568613652712 0.000006032506130649309 0.000006009556507497345
          0.000005994446792336535 0.000005994443343755593 0.000005994433802214779 0.00000624424386328565 0.0000062442380218069785 0.000006244218481989245
          0.0000058050489253913595 0.000006175872875621605 0.000005805044395102998 0.000006175868664191276 0.000005805030264821209 0.000006175857942467758
          0.0000069302681814608436 0.000006930263679902517 0.000006930251284759261 0.00000706054142207902 0.000006588878996344095 0.000007060537510082806
          0.000006588873892491949 0.000007060526923987692 0.0000065888596523587704 0.000005294611477735497 0.000005294601163091668 0.000005294570069554964
          0.000005944064220989497 0.00000594406112829682 0.00000594405199830953 0.0000053944582661909795 0.000005584291924641208 0.000005394455386186034
          0.000005584289452408393 0.000005394446603345899 0.000005584281571973658 0.000005886479346150917 0.0000058864762243713575 0.000005886467237858421
          0.000005798807847508857 0.000005798805066265024 0.0000057987967915580145 0.0000056902565177371746 0.000005690250053450838 0.00000569023481661282
        </DataArray>
        <DataArray type="Float64" Name="disp_y" format="ascii" RangeMin="-0.000002810238399527198" RangeMax="0">
          -1.1833899896516138e-7 0 -1.1833866375822608e-7 0 -1.1833765746436945e-7 0
          -1.1859615740709096e-7 0 -1.1859584631788138e-7 0 -1.1859497300325296e-7 0
          -1.1888668989402871e-7 0 -1.1888648300042938e-7 0 -1.1888576323563285e-7 0
          -1.1920145780099548e-7 0 -1.1920130172711355e-7 0 -1.1920075683962801e-7 0
          -1.1953083212807092e-7 0 -1.1953074604092047e-7 0 -1.1953036379452445e-7 0
          -1.198654869431251e-7 0 -1.198654267091223e-7 0 -1.1986520997714693e-7 0
          -1.201967999264835e-7 0 -1.2019689754351288e-7 0 -1.2019667616956437e-7 0
          -1.2052009626578184e-7 0 -1.2052000914305728e-7 0 -1.2052115321545982e-7 0
          -2.3666306936532922e-7 -2.366623897276872e-7 -2.3666025079774776e-7 -2.371817566605543e-7 -2.3718128209067813e-7 -2.3717941495734517e-7
          -2.3776758504238804e-7 -2.3776723696043567e-7 -2.3776568629181244e-7 -2.384018253970931e-7 -2.384015756488328e-7 -2.3840038697277212e-7
          -2.3906510232596433e-7 -2.390649618329462e-7 -2.3906411996798225e-7 -2.3973865667917203e-7 -2.397386171228548e-7 -2.39738108417845e-7
          -2.404050175297923e-7 -2.4040506900082557e-7 -2.404048943253177e-7 -2.410494005608289e-7 -2.4104959413412276e-7 -2.410491940969355e-7
          -3.549569007280907e-7 -3.549559612576851e-7 -3.5495278602265806e-7 -3.557464946410791e-7 -3.5574578296475093e-7 -3.557430274252453e-7
          -3.566371238949244e-7 -3.5663661571288924e-7 -3.5663434187297874e-7 -3.5760019857715417e-7 -3.5759984013928904e-7 -3.575981223078126e-7
          -3.5860626855483794e-7 -3.586060738639402e-7 -3.586048913657365e-7 -3.59626698611106e-7 -3.596266718818897e-7 -3.5962603102279826e-7
          -3.6063483008416264e-7 -3.6063495262726494e-7 -3.6063486933720503e-7 -3.616052757571846e-7 -3.616056341469407e-7 -3.6160621237847755e-7
          -4.732057169431807e-7 -4.732044956453087e-7 -4.732002269634726e-7 -4.742803019449693e-7 -4.7427936647901647e-7 -4.74275669741703e-7
          -4.7549030763232686e-7 -4.7548965158279645e-7 -4.7548660442330174e-7 -4.7679656971587903e-7 -4.767961192061892e-7 -4.767938405890919e-7
          -4.781588402273434e-7 -4.781586168311169e-7 -4.781570726812753e-7 -4.795379430300918e-7 -4.795379421927428e-7 -4.795371388112746e-7
          -4.808972407961475e-7 -4.808974651714501e-7 -4.808973759426223e-7 -4.822020941833679e-7 -4.822025883628836e-7 -4.822032473002835e-7
          -5.913945957990434e-7 -5.913930441801863e-7 -5.913877187015493e-7 -5.927735515908178e-7 -5.927723690719636e-7 -5.927676474868128e-7
          -5.943226904167349e-7 -5.943218701137582e-7 -5.943180176024335e-7 -5.95991843039052e-7 -5.959912939917236e-7 -5.959884376863988e-7
          -5.9772852842184e-7 -5.977282730981396e-7 -5.977263661341432e-7 -5.994821776211999e-7 -5.994822051764903e-7 -5.99481242285758e-7
          -6.012059104497189e-7 -6.012062204509298e-7 -6.01206167346482e-7 -6.028583975826982e-7 -6.028589296688594e-7 -6.028596891298982e-7
          -7.09509677375365e-7 -7.095077468039046e-7 -7.09500901374304e-7 -7.112163877781518e-7 -7.112149023876833e-7 -7.112090454702833e-7
          -7.131309891635413e-7 -7.131299999577827e-7 -7.131252952452877e-7 -7.151884879251936e-7 -7.151878394576222e-7 -7.151843880736201e-7
          -7.173230400947935e-7 -7.17322760797033e-7 -7.173205001015492e-7 -7.19471524833671e-7 -7.194716002233042e-7 -7.194705121960666e-7
          -7.215764280581789e-7 -7.215768363186294e-7 -7.215768491276506e-7 -7.235884649395876e-7 -7.235891173341466e-7 -7.235900279388359e-7
          -8.257874980774995e-7 -8.257837070337364e-7 -8.257745419521424e-7 -8.275327691030515e-7 -8.275307605136068e-7 -8.275223777059428e-7
          -8.296006166795784e-7 -8.295987257764793e-7 -8.295917539315329e-7 -8.319133560274543e-7 -8.319122235424504e-7 -8.31906588739526e-7
          -8.343911796030738e-7 -8.343904241294479e-7 -8.343863723155075e-7 -8.369526617253448e-7 -8.369523755725439e-7 -8.369497855156292e-7
          -8.395208453671481e-7 -8.395209844188517e-7 -8.395198296495908e-7 -8.420264128178036e-7 -8.420269756620967e-7 -8.420271372600996e-7
          -8.444114268825926e-7 -8.444121741266629e-7 -8.444133054849958e-7 -9.433673133779195e-7 -9.433635395507273e-7 -9.433523929282824e-7
          -9.454515576360813e-7 -9.454490001158995e-7 -9.454391262900613e-7 -9.479184114515377e-7 -9.479165951875163e-7 -9.479082392961801e-7
          -9.50670365010658e-7 -9.506689700163374e-7 -9.506624890190758e-7 -9.536073019986314e-7 -9.53606471100003e-7 -9.536017905612699e-7
          -9.56630798841955e-7 -9.56630514077522e-7 -9.566276561097643e-7 -9.596482963484862e-7 -9.59648553454648e-7 -9.596474113002647e-7
          -9.625770336486611e-7 -9.625777264548952e-7 -9.625782083053753e-7 -9.653495969378798e-7 -9.653508413467026e-7 -9.653526244387254e-7
          -0.0000010607773821684092 -0.0000010607735680416125 -0.0000010607602616238917 -0.0000010632498663334524 -0.0000010632467647183168 -0.0000010632349877421087
          -0.0000010661649585469057 -0.0000010661627020238676 -0.0000010661529244741294 -0.0000010694050767426875 -0.0000010694034672323516 -0.0000010693959782620933
          -0.0000010728478584136692 -0.0000010728469408071423 -0.000001072841670708524 -0.000001076374575728682 -0.0000010763743292846299 -0.0000010763712642783254
          -0.0000010798758006078515 -0.0000010798761883115521 -0.000001079875220141746 -0.0000010832540484349125 -0.0000010832550560587859 -0.0000010832559836780223
          -0.0000010864268521167998 -0.0000010864283727094012 -0.0000010864312265285726 -0.0000011779974231952634 -0.0000011779928288471945 -0.0000011779771251243022
          -0.0000011809125956193076 -0.0000011809089808332828 -0.0000011808951734338684 -0.0000011843362583936338 -0.0000011843336406289227 -0.0000011843222890298805
          -0.0000011881244024928687 -0.0000011881225687010968 -0.0000011881140440173038 -0.0000011921284453464364 -0.0000011921274567825691 -0.0000011921216279057465
          -0.000001196206251993643 -0.000001196206065585817 -0.000001196202887269426 -0.0000012002290144586728 -0.0000012002295959586607 -0.0000012002288998635061
          -0.0000012040872489983422 -0.0000012040885097533693 -0.0000012040902414940482 -0.0000012076806545617059 -0.0000012076826115497125 -0.0000012076865581926185
          -0.000001294998908079682 -0.0000012949935318923677 -0.0000012949750868035562 -0.000001298425633506045 -0.0000012984213893264009 -0.0000012984053030204279
          -0.0000013024317787720774 -0.0000013024287477075406 -0.000001302415704075278 -0.0000013068402264783396 -0.000001306838164994271 -0.0000013068285813626838
          -0.0000013114708546914887 -0.0000013114698187458405 -0.0000013114635092761005 -0.0000013161543956024632 -0.0000013161543208600123 -0.0000013161511534354956
          -0.0000013207411502365523 -0.0000013207419371166742 -0.0000013207417235254679 -0.00000132510472070904 -0.0000013251063311692806 -0.0000013251082898969496
          -0.0000013291570399960295 -0.0000013291588978178078 -0.0000013291637842258732 -0.0000014117539975314904 -0.0000014117474486639956 -0.0000014117256748603237
          -0.0000014157770273037088 -0.0000014157720519495737 -0.0000014157532892124536 -0.0000014204559350248379 -0.0000014204524489325317 -0.0000014204375698754473
          -0.0000014255712680983375 -0.000001425568985192355 -0.0000014255583546364367 -0.0000014309047094361103 -0.000001430903672996756 -0.0000014308970142227876
          -0.0000014362559196773045 -0.0000014362560193718885 -0.000001436253126759893 -0.0000014414518533045058 -0.0000014414529917372714 -0.0000014414534299479015
          -0.0000014463529500863182 -0.000001446354853252901 -0.0000014463582006020812 -0.0000014508561179652335 -0.000001450858812529349 -0.0000014508631913398628
          -0.0000015282319269832848 -0.000001528224401939482 -0.0000015281979594292557 -0.0000015329576388620373 -0.0000015329518290715034 -0.0000015329302284374558
          -0.0000015384202321710698 -0.0000015384162553402734 -0.0000015383994796511632 -0.000001544345405328684 -0.0000015443429396979162 -0.00000154433134756599
          -0.0000015504695982917398 -0.0000015504686289447847 -0.0000015504618546867463 -0.0000015565570582965112 -0.0000015565574531959293 -0.0000015565551483575457
          -0.0000015624099462762856 -0.000001562411529857119 -0.0000015624131713973894 -0.0000015678747381556956 -0.000001567877339046438 -0.0000015678823857264515
          -0.0000015728396851274048 -0.0000015728426246517813 -0.0000015728503377643521 -0.0000016443967528871804 -0.0000016443882814956293 -0.0000016443606556284724
          -0.000001649965197822431 -0.0000016499585601571995 -0.0000016499339355396824 -0.0000016563460418438432 -0.0000016563417160148689 -0.0000016563228222512602
          -0.000001663202319884688 -0.000001663199653375246 -0.0000016631872878986117 -0.0000016702177707195085 -0.000001670216997626793 -0.0000016702104351975907
          -0.0000016771156229250063 -0.0000016771164494016781 -0.0000016771152157053843 -0.0000016836722625132556 -0.0000016836744945058912 -0.000001683677811348784
          -0.0000016897203737765043 -0.0000016897236793779306 -0.0000016897308049711208 -0.000001695151669010292 -0.0000016951560272947051 -0.000001695165382832429
          -0.0000017668076055946846 -0.0000017668003553979357 -0.000001766772197688815 -0.0000017742674372316447 -0.0000017742616824990695 -0.0000017742409891937946
          -0.0000017821976123314407 -0.0000017821950492192375 -0.0000017821818788374716 -0.0000017902178614508578 -0.0000017902173972454095 -0.0000017902116287454204
          -0.0000017980036436096085 -0.0000017980051304695542 -0.00000179800557002255 -0.0000018053057471666595 -0.0000018053088157444448 -0.0000018053145187527131
          -0.0000018119516079593818 -0.000001811955859620637 -0.0000018119657743918174 -0.000001817829725986922 -0.0000018178350535702168 -0.000001817849071595468
          -0.0000018834949752589678 -0.0000018834852084593392 -0.0000018834532763042629 -0.0000018922340783226626 -0.0000018922282855049746 -0.0000018922055305700271
          -0.0000019014091328683674 -0.0000019014066511495543 -0.0000019013934952798744 -0.000001910559167025366 -0.000001910559318149708 -0.000001910555046460447
          -0.000001919310151511914 -0.0000019193125815262834 -0.000001919315624252494 -0.0000019273902834003425 -0.0000019273944897327875 -0.0000019274034482721565
          -0.0000019346272664145325 -0.0000019346327628495153 -0.0000019346459223093945 -0.0000019409349312698788 -0.0000019409410891352756 -0.000001940956791669557
          -0.000002000065015533434 -0.000002000054171751881 -0.0000020000163991723735 -0.0000020103267644972263 -0.0000020103205192183694 -0.000002010296354560963
          -0.0000020209436405255546 -0.0000020209415879453864 -0.000002020929337470803 -0.0000020313566812897543 -0.0000020313578287096036 -0.000002031356214827471
          -0.000002041142665059127 -0.0000020411464467091923 -0.000002041153345321282 -0.0000020500175794661068 -0.0000020500234029862033 -0.000002050036908701518
          -0.0000020578163637973458 -0.0000020578234270008843 -0.000002057842075799682 -0.0000020645035094912023 -0.0000020645113176098224 -0.0000020645302043894964
          -0.0000021165742978461004 -0.000002116562386025787 -0.000002116524174826099 -0.000002128666429467676 -0.0000021286602225524916 -0.000002128635623130874
          -0.0000021409465272319934 -0.0000021409455694155693 -0.0000021409354328359854 -0.0000021527552638618945 -0.0000021527578767056 -0.00000215276065276406
          -0.0000021636286308529264 -0.0000021636343559483844 -0.0000021636467608280663 -0.0000021732842718038853 -0.000002173292125345887 -0.0000021733118198700953
          -0.0000021815950416141015 -0.0000021816043785779666 -0.0000021816291470817945 -0.0000021885098770054367 -0.000002188519472299378 -0.000002188547500499923
          -0.000002247428925188531 -0.000002247423504782293 -0.0000022473999728479488 -0.0000022616105648993536 -0.000002261610186728731 -0.0000022616047849206173
          -0.000002274934347880371 -0.0000022749395384544947 -0.0000022749486975305628 -0.000002286912836639782 -0.0000022869211960180527 -0.000002286941502303853
          -0.0000022972939571511996 -0.00000229730456997915 -0.000002297332085725688 -0.0000023060067837110958 -0.0000023060184020732104 -0.000002306050167777416
          -0.0000023131013242151223 -0.000002313113889504906 -0.000002313147267631775 -0.0000023668522547353724 -0.000002366846468491982 -0.0000023668265777828623
          -0.0000023831849359137516 -0.000002383187653787875 -0.0000023831899175188857 -0.0000023981098200932672 -0.0000023981181983421083 -0.0000023981373818104724
          -0.0000024111522797323566 -0.0000024111641579123216 -0.000002411195161027373 -0.0000024221392887097724 -0.0000024221532891683615 -0.0000024221913072385382
          -0.0000024311058966771123 -0.000002431120963262564 -0.0000024311623113612836 -0.000002438226829070973 -0.0000024382421736276978 -0.000002438284592958744
          -0.0000024872889618978142 -0.0000024872865952546508 -0.0000024872743840486194 -0.000002505992379963343 -0.000002506000009694906 -0.0000025060149053231253
          -0.000002522525160078623 -0.0000025225390509085534 -0.0000025225729059783723 -0.0000025364978452565594 -0.0000025365150960950764 -0.000002536560656710452
          -0.0000025478853303108684 -0.000002547904303741657 -0.000002547955661625166 -0.0000025568833785906595 -0.0000025569030493734598 -0.000002556958857369536
          -0.000002609217676669624 -0.000002609221574832606 -0.000002609229402946981 -0.0000026304218839596656 -0.0000026304374994889646 -0.0000026304787082521646
          -0.000002648431833488042 -0.0000026484537045162678 -0.000002648513686046341 -0.0000026630612110222426 -0.0000026630856656788676 -0.0000026631548928016117
          -0.0000026745387196886127 -0.000002674564404185818 -0.00000267463641096692 -0.0000018584460945752844 -0.000001836901185648259 -0.0000017100126738382808
          -0.0000017156323370232932 -0.0000018584520295502945 -0.0000018369064573380017 -0.0000017100163122799393 -0.0000017156356853744397 -0.000001858469280558378
          -0.0000018369214375770476 -0.0000017100273514200751 -0.0000017156479932524654 -8.946774795316245e-7 -0.0000010297451231009722 -0.000001047608732432998
          -9.234325115593617e-7 -8.946781930311685e-7 -0.0000010297462288254144 -0.0000010476100641829388 -9.234330663782845e-7 -8.946801334105714e-7
          -0.0000010297506803569356 -0.0000010476138584210292 -9.234349327509124e-7 -0.000002216757327527805 -0.000002393891898412722 -0.000002272911756792636
          -0.000002216767337706068 -0.00000239390551563723 -0.000002272923725152862 -0.000002216799461084478 -0.0000023939471537880345 -0.000002272959774971829
          -0.000002166554492338037 -0.0000021665641595022205 -0.000002166593704274709 -0.000001585996776429505 -0.0000014659593773499446 -0.0000014539257562455214
          -0.0000015805434903693836 -0.0000015860002215619818 -0.0000014659624756340613 -0.000001453928675377304 -0.0000015805474360615357 -0.0000015860093007271486
          -0.00000146596779766937 -0.0000014539384175673497 -0.0000015805570829317067 -7.527521012291783e-7 -7.970428971866334e-7 -7.527532828802372e-7
          -7.970440631814679e-7 -7.527561060096073e-7 -7.97045925390486e-7 -0.00000181279736730969 -0.0000018582432261076597 -0.0000019488697912978836
          -0.0000018128034553103194 -0.000001858249694433683 -0.000001948876630388771 -0.000001812822285491589 -0.0000018582718468153698 -0.000001948899198855305
          -6.687267882103799e-7 -6.192881269561817e-7 -6.6872781039386e-7 -6.192891317064277e-7 -6.687295698668228e-7 -6.192915298491396e-7
          -0.0000020997526232699773 -0.000002055471892982624 -0.0000020997611978287438 -0.0000020554802147641542 -0.0000020997834210203285 -0.0000020555039714275045
          -0.0000011799656859116837 -0.0000011799676125269032 -0.0000011799737222421594 -0.000001721451893178035 -0.0000017557356190181133 -0.0000017214583253396213
          -0.0000017557404031617366 -0.0000017214704628081365 -0.0000017557542062458872 -0.000001956771338812921 -0.0000019591677420723793 -0.0000019567788926864958
          -0.000001959175958196939 -0.0000019568006966103068 -0.0000019591972154511797 -0.0000013840479012325027 -0.0000013443133065492983 -0.0000013840518045191472
          -0.0000013443162937079767 -0.0000013840604406227537 -0.0000013443270493623704 -0.0000011557319009722332 -0.0000012513846679627562 -0.0000011557343033902758
          -0.0000012513881023817192 -0.00000115573841132263 -0.0000012513947562948907 -5.434015301341265e-7 -5.434023358424829e-7 -5.434035932197652e-7
          -3.028756998879527e-7 -4.2444770420437587e-7 -3.0287570066813476e-7 -4.2444828270109725e-7 -3.0287719667168497e-7 -4.244489689193605e-7
          -0.000001120774347167852 -0.0000011207779928490933 -0.0000011207851421944595 -1.9478660746621777e-7 -1.9478697898955453e-7 -1.9478588601473593e-7
          -0.0000021904552557945487 -0.000002190467227491835 -0.0000021904953866689553 -1.1748086996217051e-7 -1.1748092996053564e-7 -1.1747955531903788e-7
          -4.896265988856437e-7 -4.896272207844543e-7 -4.896288628649616e-7 -3.526505883078069e-7 -3.5265142623763934e-7 -3.5265185198634437e-7
          -2.906903439864288e-7 -2.906909026906925e-7 -2.9069288446321135e-7 -0.000002563797588521357 -0.0000025638153564217196 -0.000002563868032738002
          -0.0000026832767380709436 -0.000002683297515449864 -0.000002683365996760089 -0.0000026897276466331143 -0.0000026897478600543374 -0.000002689807635767948
          -0.000002756960072546763 -0.0000027333099550151 -0.0000027569817171562726 -0.0000027333197787017974 -0.0000027570520783623927 -0.0000027333556309023566
          -0.00000277608038088883 -0.0000027761087782074344 -0.0000027761964309928935 -0.000002790899805530395 -0.000002790930046011778 -0.000002791023318866424
          -0.00000280201903174663 -0.000002802048943874139 -0.000002802139701574443 -0.0000028101273700381245 -0.0000028101552314491813 -0.000002810238399527198
          -0.0000023402504738050503 -0.0000023402626424179033 -0.0000023402991420326352 -0.000002209288639292107 -0.0000022092992306458945 -0.000002209329215839303
          -0.000001408403604905809 -0.0000015638293270065447 -0.0000014084065027484354 -0.000001563833027623584 -0.0000014084157712598499 -0.0000015638460393091308
          -0.000001925492778392539 -0.000002017420670755469 -0.0000019254999547659614 -0.0000020174292871593654 -0.000001925523351388618 -0.0000020174544775318394
          -8.723955866891902e-7 -0.0000010598466699144045 -8.723975842168044e-7 -0.000001059848282271614 -8.724018891401694e-7 -0.0000010598533193501634
          -7.166302346257812e-7 -7.166311023514237e-7 -7.166347158540215e-7 -0.0000021083560055351584 -0.0000021083648925251944 -0.0000021083914255738446
          -0.0000012822943827049 -0.0000012116441803554717 -0.0000012822979185724673 -0.0000012116468367570548 -0.0000012823051545320255 -0.000001211654940982086
          -0.000001818904029838132 -0.0000018189097764529286 -0.0000018189256196429403 -0.0000016957550283570206 -0.000001638710612980663 -0.0000016957598346685478
          -0.000001638714828998792 -0.000001695774394355035 -0.000001638730120978245 -0.0000025220514674096474 -0.0000025220674298497056 -0.0000025221157889131096
          -5.725533808902191e-7 -5.725539287683101e-7 -5.725557801057631e-7 0 -1.9056733968747717e-7 0
          -1.9056705785334738e-7 0 -1.9056711397364495e-7 -4.4021702252299944e-7 -4.402179997065126e-7 -4.4021978961727704e-7
          -3.1780442457312833e-7 -3.178048186800503e-7 -3.178070490049834e-7 -0.0000025024377193496587 -0.0000025024525499130527 -0.0000025024960633806587
        </DataArray>
        <DataArray type="Float64" Name="disp_z" format="ascii" RangeMin="-8.973942231279524e-8" RangeMax="0">
          0 0 -4.44086090212783e-8 -4.4407909989650284e-8 -8.88173689550093e-8 -8.881579030886359e-8
          0 0 -4.439682571816357e-8 -4.4396242828985375e-8 -8.879364613141264e-8 -8.879230042461356e-8
          0 0 -4.4383079906100515e-8 -4.438259528337627e-8 -8.876621747606934e-8 -8.876513699142203e-8
          0 0 -4.436799162210357e-8 -4.436766514813366e-8 -8.873599966295119e-8 -8.873521263507324e-8
          0 0 -4.4351722088113294e-8 -4.4351566473022015e-8 -8.87035130048777e-8 -8.870300513537409e-8
          0 0 -4.433478100788118e-8 -4.433466210582204e-8 -8.866948160914485e-8 -8.866934327176295e-8
          0 0 -4.431776189163949e-8 -4.431738200250244e-8 -8.863550487971994e-8 -8.863425667060103e-8
          0 0 -4.429636479478925e-8 -4.430115985124218e-8 -8.859278960589294e-8 -8.860351283075073e-8
          0 -4.44113002884442e-8 -8.882271332552256e-8 0 -4.4399098378879496e-8 -8.879816005122058e-8
          0 -4.438494797769184e-8 -8.876993721895602e-8 0 -4.436940000509863e-8 -8.873879395750193e-8
          0 -4.4352672313128554e-8 -8.870541340353317e-8 0 -4.4335384947839724e-8 -8.867058728327885e-8
          0 -4.431783805043241e-8 -8.863600363188815e-8 0 -4.429756369329474e-8 -8.85949351151303e-8
          0 -4.441574184055472e-8 -8.883161441812075e-8 0 -4.440286270521528e-8 -8.880566425790396e-8
          0 -4.4387982489474315e-8 -8.877598347314424e-8 0 -4.437165597257027e-8 -8.87432955687417e-8
          0 -4.435415283877568e-8 -8.870834361571228e-8 0 -4.433607888659398e-8 -8.867199620321195e-8
          0 -4.431767052935466e-8 -8.863556033110004e-8 0 -4.4296808393378335e-8 -8.859304556144254e-8
          0 -4.442205291670235e-8 -8.884423560780326e-8 0 -4.4408156024115173e-8 -8.881624475777177e-8
          0 -4.43922318276707e-8 -8.878448799590285e-8 0 -4.437478656831488e-8 -8.874955893348635e-8
          0 -4.435614517362445e-8 -8.871233811226875e-8 0 -4.43369292849013e-8 -8.867369056235205e-8
          0 -4.431745192754518e-8 -8.863513179517327e-8 0 -4.4295081377636123e-8 -8.858995593662795e-8
          0 -4.4430252327751156e-8 -8.886070768180936e-8 0 -4.441506680179951e-8 -8.883007535460926e-8
          0 -4.439776504630389e-8 -8.879554600479309e-8 0 -4.4378827647472763e-8 -8.875764380573152e-8
          0 -4.435867341897742e-8 -8.871739775103408e-8 0 -4.433797561521257e-8 -8.867577022393893e-8
          0 -4.431704461240349e-8 -8.863435102837719e-8 0 -4.429323243043451e-8 -8.858617530159023e-8
          0 -4.4440353783764565e-8 -8.888075691316727e-8 0 -4.44237945977886e-8 -8.884756552249425e-8
          0 -4.440463083509122e-8 -8.880927329997016e-8 0 -4.438380185438605e-8 -8.876759751953584e-8
          0 -4.436172780612863e-8 -8.872350280833789e-8 0 -4.433914873874292e-8 -8.867812482593297e-8
          0 -4.431640941105092e-8 -8.863307207088678e-8 0 -4.429109441102345e-8 -8.858191409061706e-8
          0 -4.4468111162657e-8 -8.893503597403663e-8 0 -4.445317530585566e-8 -8.890675348528654e-8
          0 -4.4434437929726216e-8 -8.886865224272296e-8 0 -4.441293395380767e-8 -8.882592119600603e-8
          0 -4.438973569128527e-8 -8.877945614737359e-8 0 -4.4365264257505817e-8 -8.873057671549196e-8
          0 -4.434036679718213e-8 -8.868056645276747e-8 0 -4.43154830098649e-8 -8.863121498880472e-8
          0 -4.42884094853387e-8 -8.857654682268195e-8 0 -4.448652749983511e-8 -8.897262983775434e-8
          0 -4.446840134442513e-8 -8.893702204307472e-8 0 -4.444707827706346e-8 -8.88940819011791e-8
          0 -4.442279817674374e-8 -8.884562090354882e-8 0 -4.439661936747791e-8 -8.879322839541168e-8
          0 -4.436921637182332e-8 -8.873848115750965e-8 0 -4.434149743603393e-8 -8.868282562221873e-8
          0 -4.431403055097374e-8 -8.862831886398894e-8 0 -4.4284920373618315e-8 -8.85696241112892e-8
          0 -4.450736932259285e-8 -8.901430574705525e-8 0 -4.448659986330396e-8 -8.897345687086231e-8
          0 -4.446206552907019e-8 -8.892407512788026e-8 0 -4.4434261558679526e-8 -8.886853971908896e-8
          0 -4.440444694948102e-8 -8.880888807747903e-8 0 -4.4373453054434247e-8 -8.874694459841896e-8
          0 -4.434236383801847e-8 -8.868459441696813e-8 0 -4.431171786035124e-8 -8.862356211232243e-8
          0 -4.427971799653448e-8 -8.855940902120066e-8 0 -4.453281274189922e-8 -8.906487217066386e-8
          0 -4.4508227049243e-8 -8.901675073252173e-8 0 -4.447960453453721e-8 -8.895912540002961e-8
          0 -4.444741992391838e-8 -8.889486466815985e-8 0 -4.4413176270238965e-8 -8.882633604376548e-8
          0 -4.4377843985163634e-8 -8.875576532446746e-8 0 -4.4342630161172585e-8 -8.868500408617523e-8
          0 -4.430831105646106e-8 -8.861715476308696e-8 0 -4.427220647206206e-8 -8.854377242607877e-8
          0 -4.45625729375875e-8 -8.912427334680026e-8 0 -4.4533562628964473e-8 -8.906748455913175e-8
          0 -4.449989404587243e-8 -8.89996969114017e-8 0 -4.446233121603391e-8 -8.892469019105363e-8
          0 -4.4422703582136444e-8 -8.88453974009143e-8 0 -4.4382210203937026e-8 -8.876446547279365e-8
          0 -4.4342163978395485e-8 -8.868419767262088e-8 0 -4.430326385476375e-8 -8.860653763428444e-8
          0 -4.4262311673956355e-8 -8.852485518270954e-8 0 -4.4597678491563054e-8 -8.91945491361134e-8
          0 -4.456318545561829e-8 -8.912676424074837e-8 0 -4.452320242672452e-8 -8.904630055605059e-8
          0 -4.447900522793634e-8 -8.895803745513667e-8 0 -4.4432847011331394e-8 -8.886569752609688e-8
          0 -4.438622861464714e-8 -8.877243619954286e-8 0 -4.434048237615005e-8 -8.868109730918504e-8
          0 -4.429729593212205e-8 -8.859412232748612e-8 0 -4.425674681314913e-8 -8.851474345118822e-8
          0 -4.463982231465968e-8 -8.927789146434406e-8 0 -4.4597805828295845e-8 -8.919612756002034e-8
          0 -4.4549739784742804e-8 -8.90993272151134e-8 0 -4.4497376079827944e-8 -8.899479536517836e-8
          0 -4.4443282617222003e-8 -8.888655710158908e-8 0 -4.438932097302176e-8 -8.877865561973185e-8
          0 -4.4337106953730944e-8 -8.867419947478612e-8 0 -4.428803762239003e-8 -8.857604827296386e-8
          0 -4.424240681061907e-8 -8.848443582926683e-8 0 -4.469044048860891e-8 -8.938038171743798e-8
          0 -4.463744080424329e-8 -8.927500884362155e-8 0 -4.457959568336458e-8 -8.915922994780088e-8
          0 -4.451718777832869e-8 -8.903438203177703e-8 0 -4.445348577338322e-8 -8.890698256372326e-8
          0 -4.4390806492757e-8 -8.878159745119501e-8 0 -4.433097855683565e-8 -8.866202866457903e-8
          0 -4.427550200996584e-8 -8.855080637045962e-8 0 -4.422558148590932e-8 -8.845122735808718e-8
          0 -4.4684170801479184e-8 -8.936960382986043e-8 0 -4.461314033429376e-8 -8.922582466116257e-8
          0 -4.453807021098868e-8 -8.907627157501387e-8 0 -4.4462712935533855e-8 -8.892541857744148e-8
          0 -4.43896649472524e-8 -8.877930999200808e-8 0 -4.4321089508964676e-8 -8.864225909356215e-8
          0 -4.4258373854470765e-8 -8.851670873992526e-8 0 -4.420424909078054e-8 -8.840903254845762e-8
          0 -4.473617372241256e-8 -8.947355729427908e-8 0 -4.4650183724531484e-8 -8.929986980237863e-8
          0 -4.455935025616785e-8 -8.911881892649387e-8 0 -4.44697791063135e-8 -8.893955247803925e-8
          0 -4.4384537931629123e-8 -8.876907965836723e-8 0 -4.430596410332091e-8 -8.861197155069221e-8
          0 -4.423573696377275e-8 -8.847105913144842e-8 0 -4.417200608182003e-8 -8.834433229800468e-8
          0 -4.4797627722863144e-8 -8.959586258054118e-8 0 -4.469038057116258e-8 -8.938029078312405e-8
          0 -4.457972453381444e-8 -8.915955459274469e-8 0 -4.4472960762889446e-8 -8.894593524082961e-8
          0 -4.437347132076769e-8 -8.874687883342756e-8 0 -4.428356739964629e-8 -8.856741885508317e-8
          0 -4.4206055048628625e-8 -8.841162802722932e-8 0 -4.414336093355162e-8 -8.828823926505374e-8
          0 -4.48683761487893e-8 -8.973942231279524e-8 0 -4.473216579172208e-8 -8.946319438318128e-8
          0 -4.4597040847501335e-8 -8.919446734604267e-8 0 -4.446966526625097e-8 -8.893932378462228e-8
          0 -4.4353752856490224e-8 -8.870733105269435e-8 0 -4.425154529092909e-8 -8.850360107301203e-8
          0 -4.416249558082202e-8 -8.832435084069111e-8 0 -4.409933674962056e-8 -8.819807107169072e-8
          0 -4.477450289737364e-8 -8.95488974833571e-8 0 -4.460848855227265e-8 -8.921678760017359e-8
          0 -4.44561564666668e-8 -8.891241915794257e-8 0 -4.432180650368471e-8 -8.864349377663958e-8
          0 -4.420624895195284e-8 -8.841278707320642e-8 0 -4.41105706363277e-8 -8.822102490132965e-8
          0 -4.4039141321938215e-8 -8.807819680417356e-8 0 -4.481122397593964e-8 -8.962170931982332e-8
          0 -4.4608471568194134e-8 -8.921713682619064e-8 0 -4.4427338048015234e-8 -8.88550203433853e-8
          0 -4.4272700063231876e-8 -8.854530081142027e-8 0 -4.41444679711222e-8 -8.828998925625286e-8
          0 -4.4041900569680816e-8 -8.8081521664911e-8 0 -4.397259021684351e-8 -8.794731300163751e-8
          0 -4.484001385452297e-8 -8.967749498853586e-8 0 -4.459042889487938e-8 -8.918001838902841e-8
          0 -4.4376510212024023e-8 -8.875226139036794e-8 0 -4.4200970255555826e-8 -8.840115681006456e-8
          0 -4.4060741309245184e-8 -8.812103196767237e-8 0 -4.3953759021787286e-8 -8.790768737703845e-8
          0 -4.484396939347087e-8 -8.9689439330998e-8 0 -4.454088278565502e-8 -8.908339679037568e-8
          0 -4.429153978988506e-8 -8.85842344903109e-8 0 -4.4096930192466134e-8 -8.819391774213811e-8
          0 -4.394859028192242e-8 -8.790043334895597e-8 0 0 0
          0 -4.41098294395999e-8 -4.415748883657434e-8 -4.41811469272067e-8 -4.414598096541293e-8 -8.821767255200551e-8
          -8.831582468781185e-8 -8.836158814439141e-8 -8.829128185966128e-8 0 0 0
          0 -4.4249856888240084e-8 -4.4247485951222074e-8 -4.426345660705057e-8 -4.426890566827575e-8 -8.849920568189822e-8
          -8.849585181266373e-8 -8.852698762151305e-8 -8.853765466172982e-8 0 0 0
          -4.400312622801616e-8 -4.3933876170246504e-8 -4.4010917110460964e-8 -8.800653446409755e-8 -8.786829823492216e-8 -8.802007436827143e-8
          0 -4.400421098362008e-8 -8.80127130341736e-8 0 0 0
          0 -4.4206357748489204e-8 -4.421945548810983e-8 -4.419591796540216e-8 -4.4173577652638154e-8 -8.841301215008638e-8
          -8.843976942098183e-8 -8.83916262126828e-8 -8.834781964728749e-8 0 0 -4.4256358316322036e-8
          -4.4273268504558556e-8 -8.85125421129038e-8 -8.85468429927236e-8 0 0 0
          -4.4101815836220946e-8 -4.406450278619631e-8 -4.404326013507967e-8 -8.820731463865268e-8 -8.812793496347447e-8 -8.808569722736249e-8
          0 0 -4.4277863577684034e-8 -4.426342413521177e-8 -8.855609601784481e-8 -8.852669001687171e-8
          0 0 -4.406996193408984e-8 -4.40401621773036e-8 -8.813781643376398e-8 -8.808040597877295e-8
          0 -4.422557298564115e-8 -8.845020239525683e-8 0 0 -4.41206501400229e-8
          -4.408369557176361e-8 -8.824120402730321e-8 -8.816888692424558e-8 0 0 -4.4118489807802867e-8
          -4.409856470739909e-8 -8.82346774027977e-8 -8.820238125221472e-8 0 0 -4.422692392342688e-8
          -4.4222286860753825e-8 -8.844916136782066e-8 -8.844591326448191e-8 0 0 -4.425397622816687e-8
          -4.42446841504613e-8 -8.850756167706113e-8 -8.849114644347508e-8 0 -4.4281898799896126e-8 -8.85640257269552e-8
          0 0 -4.4285625249267383e-8 -4.428412836566914e-8 -8.857174193098791e-8 -8.856862100665672e-8
          0 -4.424139564544017e-8 -8.848201844475679e-8 0 -4.4289161619693965e-8 -8.858053968035861e-8
          0 -4.40677869224286e-8 -8.813773501986328e-8 0 -4.428352019549214e-8 -8.856323074585526e-8
          0 -4.4269523424026264e-8 -8.853877732202591e-8 0 -4.4272795695688375e-8 -8.854650006773891e-8
          0 -4.4274722875191745e-8 -8.854534117690186e-8 0 -4.3882208417053145e-8 -8.776481825686259e-8
          0 -4.3834520507898195e-8 -8.766467192476607e-8 0 -4.378016647624324e-8 -8.756336852899729e-8
          0 0 -4.443229662331515e-8 -4.480062715325046e-8 -8.886381963912175e-8 -8.959831403486567e-8
          0 -4.4150554653316935e-8 -8.829975839311936e-8 0 -4.39432457556303e-8 -8.788498690684757e-8
          0 -4.379519463343708e-8 -8.75906386052866e-8 0 -4.36958187931459e-8 -8.738889477737897e-8
          0 -4.391287953941226e-8 -8.782496412115531e-8 0 -4.3950381203068915e-8 -8.789893063181512e-8
          0 0 -4.4183359933437506e-8 -4.414359165156739e-8 -8.836710120793797e-8 -8.828612161158096e-8
          0 0 -4.40165167911711e-8 -4.3995461917625e-8 -8.80321222824548e-8 -8.799171755065737e-8
          0 0 -4.422855579179461e-8 -4.4217387670072914e-8 -8.845697267614304e-8 -8.843485036771641e-8
          0 -4.424200407874036e-8 -8.848426841574583e-8 0 -4.397338788305231e-8 -8.79458613526713e-8
          0 0 -4.4206686360216106e-8 -4.4194524723041293e-8 -8.841346247258857e-8 -8.838936189317467e-8
          0 -4.404026070831747e-8 -8.808214610731196e-8 0 0 -4.405695518493363e-8
          -4.409540372098552e-8 -8.811513365963147e-8 -8.819096269605083e-8 0 -4.384587072307655e-8 -8.768935288988426e-8
          0 -4.425004585982726e-8 -8.85000488644897e-8 0 0 -4.4278238082773996e-8
          -4.427625599240911e-8 -8.85572797813667e-8 -8.855300495143467e-8 0 -4.425612579047682e-8 -8.85122092030707e-8
          0 -4.42633474648541e-8 -8.852639727536678e-8 0 -4.3826535702671064e-8 -8.765496219522538e-8
        </DataArray>
      </PointData>
      <CellData>
        <DataArray type="Int32" Name="libmesh_elem_id" format="ascii" RangeMin="776" RangeMax="3207">
          776 777 778 779 780 781
          782 783 784 785 786 787
          788 789 794 795 796 797
          798 799 800 801 802 803
          804 805 806 807 812 813
          814 815 816 817 818 819
          820 821 822 823 824 825
          830 831 832 833 834 835
          836 837 838 839 840 841
          842 843 848 849 850 851
          852 853 854 855 856 857
          858 859 860 861 866 867
          868 869 870 871 872 873
          874 875 876 877 878 879
          884 885 886 887 888 889
          890 891 892 893 894 895
          896 897 900 901 902 903
          904 905 906 907 908 909
          910 911 912 913 914 915
          918 919 920 921 922 923
          924 925 926 927 928 929
          930 931 932 933 936 937
          938 939 940 941 942 943
          944 945 946 947 948 949
          950 951 954 955 956 957
          958 959 960 961 962 963
          964 965 966 967 968 969
          972 973 974 975 976 977
          978 979 980 981 982 983
          984 985 986 987 990 991
          992 993 994 995 996 997
          998 999 1000 1001 1002 1003
          1004 1005 1008 1009 1010 1011
          1012 1013 1014 1015 1016 1017
          1018 1019 1020 1021 1022 1023
          1028 1029 1030 1031 1032 1033
          1034 1035 1036 1037 1038 1039
          1040 1041 1046 1047 1048 1049
          1050 1051 1052 1053 1054 1055
          1056 1057 1058 1059 1064 1065
          1066 1067 1068 1069 1070 1071
          1072 1073 1074 1075 1076 1077
          1082 1083 1084 1085 1086 1087
          1088 1089 1090 1091 1092 1093
          1094 1095 1102 1103 1104 1105
          1106 1107 1108 1109 1110 1111
          1112 1113 1120 1121 1122 1123
          1124 1125 1126 1127 1128 1129
          1130 1131 1138 1139 1140 1141
          1142 1143 1144 1145 1146 1147
          1148 1149 1156 1157 1158 1159
          1160 1161 1162 1163 1164 1165
          1166 1167 1174 1175 1176 1177
          1178 1179 1180 1181 1182 1183
          1374 1375 1376 1377 1378 1379
          1384 1385 1388 1389 1404 1405
          1458 1459 1536 1537 1542 1543
          1624 1625 1648 1649 1658 1659
          1672 1673 1770 1771 1810 1811
          1818 1819 1828 1829 1830 1831
          1866 1867 2074 2075 2078 2079
          2116 2117 2124 2125 2288 2289
          2290 2291 2336 2337 2342 2343
          2348 2349 2352 2353 2356 2357
          2358 2359 2424 2425 2452 2453
          2464 2465 2496 2497 2526 2527
          2530 2531 2532 2533 2554 2555
          2560 2561 2590 2591 2594 2595
          2622 2623 2736 2737 2740 2741
          2762 2763 2768 2769 2794 2795
          2800 2801 2864 2865 2890 2891
          2904 2905 2920 2921 2956 2957
          2986 2987 3018 3019 3036 3037
          3088 3089 3114 3115 3144 3145
          3156 3157 3176 3177 3184 3185
          3190 3191 3206 3207
        </DataArray>
        <DataArray type="Int32" Name="subdomain_id" format="ascii" RangeMin="105" RangeMax="107">
          105 105 105 105 105 105
          105 105 105 105 105 105
          105 105 105 105 105 105
          105 105 105 105 105 105
          105 105 105 105 105 105
          105 105 105 105 105 105
          105 105 105 105 105 105
          105 105 105 105 105 105
          105 105 105 105 105 105
          105 105 105 105 105 105
          105 105 105 105 105 105
          105 105 105 105 105 105
          105 105 105 105 105 105
          105 105 105 105 105 105
          105 105 105 105 105 105
          105 105 105 105 105 105
          105 105 105 105 105 105
          105 105 105 105 105 105
          105 105 105 105 105 105
          105 105 105 105 105 105
          105 105 105 105 105 105
          105 105 105 105 105 105
          105 105 105 105 105 105
          105 105 105 105 105 105
          105 105 105 105 105 105
          105 105 105 105 105 105
          105 105 105 105 105 105
          105 105 105 105 105 105
          105 105 105 105 105 105
          105 105 105 105 105 105
          105 105 105 105 105 105
          105 105 105 105 105 105
          105 105 105 105 105 105
          105 105 105 105 105 105
          105 105 105 105 105 105
          105 105 105 105 105 105
          105 105 105 105 105 105
          105 105 105 105 105 105
          105 105 105 105 105 105
          105 105 105 105 105 105
          105 105 105 105 105 105
          105 105 105 105 105 105
          105 105 105 105 105 105
          105 105 105 105 105 105
          105 105 105 105 105 105
          105 105 105 105 105 105
          105 105 105 105 105 105
          105 105 105 105 105 105
          105 105 105 105 105 105
          105 105 105 105 105 105
          105 105 105 105 105 105
          105 105 105 105 105 105
          105 105 105 105 105 105
          105 105 105 105 105 105
          107 107 107 107 107 107
          107 107 107 107 107 107
          107 107 107 107 107 107
          107 107 107 107 107 107
          107 107 107 107 107 107
          107 107 107 107 107 107
          107 107 107 107 107 107
          107 107 107 107 107 107
          107 107 107 107 107 107
          107 107 107 107 107 107
          107 107 107 107 107 107
          107 107 107 107 107 107
          107 107 107 107 107 107
          107 107 107 107 107 107
          107 107 107 107 107 107
          107 107 107 107 107 107
          107 107 107 107 107 107
          107 107 107 107 107 107
          107 107 107 107 107 107
          107 107 107 107 107 107
          107 107 107 107 107 107
          107 107 107 107
        </DataArray>
        <DataArray type="Int32" Name="processor_id" format="ascii" RangeMin="6" RangeMax="6">
          6 6 6 6 6 6
          6 6 6 6 6 6
          6 6 6 6 6 6
          6 6 6 6 6 6
          6 6 6 6 6 6
          6 6 6 6 6 6
          6 6 6 6 6 6
          6 6 6 6 6 6
          6 6 6 6 6 6
          6 6 6 6 6 6
          6 6 6 6 6 6
          6 6 6 6 6 6
          6 6 6 6 6 6
          6 6 6 6 6 6
          6 6 6 6 6 6
          6 6 6 6 6 6
          6 6 6 6 6 6
          6 6 6 6 6 6
          6 6 6 6 6 6
          6 6 6 6 6 6
          6 6 6 6 6 6
          6 6 6 6 6 6
          6 6 6 6 6 6
          6 6 6 6 6 6
          6 6 6 6 6 6
          6 6 6 6 6 6
          6 6 6 6 6 6
          6 6 6 6 6 6
          6 6 6 6 6 6
          6 6 6 6 6 6
          6 6 6 6 6 6
          6 6 6 6 6 6
          6 6 6 6 6 6
          6 6 6 6 6 6
          6 6 6 6 6 6
          6 6 6 6 6 6
          6 6 6 6 6 6
          6 6 6 6 6 6
          6 6 6 6 6 6
          6 6 6 6 6 6
          6 6 6 6 6 6
          6 6 6 6 6 6
          6 6 6 6 6 6
          6 6 6 6 6 6
          6 6 6 6 6 6
          6 6 6 6 6 6
          6 6 6 6 6 6
          6 6 6 6 6 6
          6 6 6 6 6 6
          6 6 6 6 6 6
          6 6 6 6 6 6
          6 6 6 6 6 6
          6 6 6 6 6 6
          6 6 6 6 6 6
          6 6 6 6 6 6
          6 6 6 6 6 6
          6 6 6 6 6 6
          6 6 6 6 6 6
          6 6 6 6 6 6
          6 6 6 6 6 6
          6 6 6 6 6 6
          6 6 6 6 6 6
          6 6 6 6 6 6
          6 6 6 6 6 6
          6 6 6 6 6 6
          6 6 6 6 6 6
          6 6 6 6 6 6
          6 6 6 6 6 6
          6 6 6 6 6 6
          6 6 6 6 6 6
          6 6 6 6 6 6
          6 6 6 6 6 6
          6 6 6 6 6 6
          6 6 6 6 6 6
          6 6 6 6 6 6
          6 6 6 6
        </DataArray>
      </CellData>
      <Points>
        <DataArray type="Float64" Name="Points" NumberOfComponents="3" format="ascii" RangeMin="0.0018888888888872" RangeMax="0.010555613193541787">
          0.0018888888888873 0.00041379310344749 0 0.0018888888888872 0 0
          0.0018888888888873 0.00041379310344749 0.00015 0.0018888888888872 0 0.00015
          0.0018888888888873 0.00041379310344749 0.0003 0.0018888888888872 0 0.0003
          0.0023333333333313 0.00041379310344749 0 0.0023333333333311 0 0
          0.0023333333333313 0.00041379310344749 0.00015 0.0023333333333311 0 0.00015
          0.0023333333333313 0.00041379310344749 0.0003 0.0023333333333311 0 0.0003
          0.0027777777777734 0.00041379310344749 0 0.0027777777777731 0 0
          0.0027777777777734 0.00041379310344749 0.00015 0.0027777777777731 0 0.00015
          0.0027777777777734 0.00041379310344749 0.0003 0.0027777777777731 0 0.0003
          0.003222222222218 0.00041379310344749 0 0.0032222222222177 0 0
          0.003222222222218 0.00041379310344749 0.00015 0.0032222222222177 0 0.00015
          0.003222222222218 0.00041379310344749 0.0003 0.0032222222222177 0 0.0003
          0.0036666666666636 0.00041379310344749 0 0.0036666666666634 0 0
          0.0036666666666636 0.00041379310344749 0.00015 0.0036666666666634 0 0.00015
          0.0036666666666636 0.00041379310344749 0.0003 0.0036666666666634 0 0.0003
          0.0041111111111091 0.00041379310344749 0 0.004111111111109 0 0
          0.0041111111111091 0.00041379310344749 0.00015 0.004111111111109 0 0.00015
          0.0041111111111091 0.00041379310344749 0.0003 0.004111111111109 0 0.0003
          0.0045555555555554 0.00041379310344749 0 0.0045555555555553 0 0
          0.0045555555555554 0.00041379310344749 0.00015 0.0045555555555553 0 0.00015
          0.0045555555555554 0.00041379310344749 0.0003 0.0045555555555553 0 0.0003
          0.005 0.00041379310344749 0 0.005 0 0
          0.005 0.00041379310344749 0.00015 0.005 0 0.00015
          0.005 0.00041379310344749 0.0003 0.005 0 0.0003
          0.0018888888888875 0.00082758620689497 0 0.0018888888888875 0.00082758620689497 0.00015
          0.0018888888888875 0.00082758620689497 0.0003 0.0023333333333315 0.00082758620689497 0
          0.0023333333333315 0.00082758620689497 0.00015 0.0023333333333315 0.00082758620689497 0.0003
          0.0027777777777737 0.00082758620689497 0 0.0027777777777737 0.00082758620689497 0.00015
          0.0027777777777737 0.00082758620689497 0.0003 0.0032222222222183 0.00082758620689497 0
          0.0032222222222183 0.00082758620689497 0.00015 0.0032222222222183 0.00082758620689497 0.0003
          0.0036666666666638 0.00082758620689497 0 0.0036666666666638 0.00082758620689497 0.00015
          0.0036666666666638 0.00082758620689497 0.0003 0.0041111111111093 0.00082758620689497 0
          0.0041111111111093 0.00082758620689497 0.00015 0.0041111111111093 0.00082758620689497 0.0003
          0.0045555555555554 0.00082758620689497 0 0.0045555555555554 0.00082758620689497 0.00015
          0.0045555555555554 0.00082758620689497 0.0003 0.005 0.00082758620689497 0
          0.005 0.00082758620689497 0.00015 0.005 0.00082758620689497 0.0003
          0.0018888888888876 0.0012413793103426 0 0.0018888888888876 0.0012413793103426 0.00015
          0.0018888888888876 0.0012413793103426 0.0003 0.0023333333333317 0.0012413793103426 0
          0.0023333333333317 0.0012413793103426 0.00015 0.0023333333333317 0.0012413793103426 0.0003
          0.002777777777774 0.0012413793103426 0 0.002777777777774 0.0012413793103426 0.00015
          0.002777777777774 0.0012413793103426 0.0003 0.0032222222222186 0.0012413793103426 0
          0.0032222222222186 0.0012413793103426 0.00015 0.0032222222222186 0.0012413793103426 0.0003
          0.003666666666664 0.0012413793103426 0 0.003666666666664 0.0012413793103426 0.00015
          0.003666666666664 0.0012413793103426 0.0003 0.0041111111111095 0.0012413793103426 0
          0.0041111111111095 0.0012413793103426 0.00015 0.0041111111111095 0.0012413793103426 0.0003
          0.0045555555555554 0.0012413793103426 0 0.0045555555555554 0.0012413793103426 0.00015
          0.0045555555555554 0.0012413793103426 0.0003 0.005 0.0012413793103426 0
          0.005 0.0012413793103426 0.00015 0.005 0.0012413793103426 0.0003
          0.0018888888888877 0.0016551724137901 0 0.0018888888888877 0.0016551724137901 0.00015
          0.0018888888888877 0.0016551724137901 0.0003 0.0023333333333319 0.0016551724137901 0
          0.0023333333333319 0.0016551724137901 0.00015 0.0023333333333319 0.0016551724137901 0.0003
          0.0027777777777743 0.0016551724137901 0 0.0027777777777743 0.0016551724137901 0.00015
          0.0027777777777743 0.0016551724137901 0.0003 0.0032222222222189 0.0016551724137901 0
          0.0032222222222189 0.0016551724137901 0.00015 0.0032222222222189 0.0016551724137901 0.0003
          0.0036666666666642 0.0016551724137901 0 0.0036666666666642 0.0016551724137901 0.00015
          0.0036666666666642 0.0016551724137901 0.0003 0.0041111111111096 0.0016551724137901 0
          0.0041111111111096 0.0016551724137901 0.00015 0.0041111111111096 0.0016551724137901 0.0003
          0.0045555555555555 0.0016551724137901 0 0.0045555555555555 0.0016551724137901 0.00015
          0.0045555555555555 0.0016551724137901 0.0003 0.005 0.0016551724137901 0
          0.005 0.0016551724137901 0.00015 0.005 0.0016551724137901 0.0003
          0.0018888888888879 0.0020689655172371 0 0.0018888888888879 0.0020689655172371 0.00015
          0.0018888888888879 0.0020689655172371 0.0003 0.002333333333332 0.0020689655172371 0
          0.002333333333332 0.0020689655172371 0.00015 0.002333333333332 0.0020689655172371 0.0003
          0.0027777777777746 0.0020689655172371 0 0.0027777777777746 0.0020689655172371 0.00015
          0.0027777777777746 0.0020689655172371 0.0003 0.0032222222222192 0.0020689655172371 0
          0.0032222222222192 0.0020689655172371 0.00015 0.0032222222222192 0.0020689655172371 0.0003
          0.0036666666666643 0.0020689655172371 0 0.0036666666666643 0.0020689655172371 0.00015
          0.0036666666666643 0.0020689655172371 0.0003 0.0041111111111098 0.0020689655172371 0
          0.0041111111111098 0.0020689655172371 0.00015 0.0041111111111098 0.0020689655172371 0.0003
          0.0045555555555555 0.0020689655172371 0 0.0045555555555555 0.0020689655172371 0.00015
          0.0045555555555555 0.0020689655172371 0.0003 0.005 0.0020689655172371 0
          0.005 0.0020689655172371 0.00015 0.005 0.0020689655172371 0.0003
          0.001888888888888 0.0024827586206843 0 0.001888888888888 0.0024827586206843 0.00015
          0.001888888888888 0.0024827586206843 0.0003 0.0023333333333322 0.0024827586206843 0
          0.0023333333333322 0.0024827586206843 0.00015 0.0023333333333322 0.0024827586206843 0.0003
          0.0027777777777749 0.0024827586206843 0 0.0027777777777749 0.0024827586206843 0.00015
          0.0027777777777749 0.0024827586206843 0.0003 0.0032222222222196 0.0024827586206843 0
          0.0032222222222196 0.0024827586206843 0.00015 0.0032222222222196 0.0024827586206843 0.0003
          0.0036666666666645 0.0024827586206843 0 0.0036666666666645 0.0024827586206843 0.00015
          0.0036666666666645 0.0024827586206843 0.0003 0.0041111111111099 0.0024827586206843 0
          0.0041111111111099 0.0024827586206843 0.00015 0.0041111111111099 0.0024827586206843 0.0003
          0.0045555555555555 0.0024827586206843 0 0.0045555555555555 0.0024827586206843 0.00015
          0.0045555555555555 0.0024827586206843 0.0003 0.005 0.0024827586206843 0
          0.005 0.0024827586206843 0.00015 0.005 0.0024827586206843 0.0003
          0.0014444444444442 0.0028965517241314 0 0.0014444444444442 0.0028965517241314 0.00015
          0.0014444444444442 0.0028965517241314 0.0003 0.0018888888888881 0.0028965517241314 0
          0.0018888888888881 0.0028965517241314 0.00015 0.0018888888888881 0.0028965517241314 0.0003
          0.0023333333333324 0.0028965517241314 0 0.0023333333333324 0.0028965517241314 0.00015
          0.0023333333333324 0.0028965517241314 0.0003 0.0027777777777753 0.0028965517241314 0
          0.0027777777777753 0.0028965517241314 0.00015 0.0027777777777753 0.0028965517241314 0.0003
          0.0032222222222199 0.0028965517241314 0 0.0032222222222199 0.0028965517241314 0.00015
          0.0032222222222199 0.0028965517241314 0.0003 0.0036666666666647 0.0028965517241314 0
          0.0036666666666647 0.0028965517241314 0.00015 0.0036666666666647 0.0028965517241314 0.0003
          0.0041111111111101 0.0028965517241314 0 0.0041111111111101 0.0028965517241314 0.00015
          0.0041111111111101 0.0028965517241314 0.0003 0.0045555555555556 0.0028965517241314 0
          0.0045555555555556 0.0028965517241314 0.00015 0.0045555555555556 0.0028965517241314 0.0003
          0.005 0.0028965517241314 0 0.005 0.0028965517241314 0.00015
          0.005 0.0028965517241314 0.0003 0.0014444444444442 0.0033103448275785 0
          0.0014444444444442 0.0033103448275785 0.00015 0.0014444444444442 0.0033103448275785 0.0003
          0.0018888888888882 0.0033103448275785 0 0.0018888888888882 0.0033103448275785 0.00015
          0.0018888888888882 0.0033103448275785 0.0003 0.0023333333333326 0.0033103448275785 0
          0.0023333333333326 0.0033103448275785 0.00015 0.0023333333333326 0.0033103448275785 0.0003
          0.0027777777777756 0.0033103448275785 0 0.0027777777777756 0.0033103448275785 0.00015
          0.0027777777777756 0.0033103448275785 0.0003 0.0032222222222202 0.0033103448275785 0
          0.0032222222222202 0.0033103448275785 0.00015 0.0032222222222202 0.0033103448275785 0.0003
          0.0036666666666649 0.0033103448275785 0 0.0036666666666649 0.0033103448275785 0.00015
          0.0036666666666649 0.0033103448275785 0.0003 0.0041111111111102 0.0033103448275785 0
          0.0041111111111102 0.0033103448275785 0.00015 0.0041111111111102 0.0033103448275785 0.0003
          0.0045555555555556 0.0033103448275785 0 0.0045555555555556 0.0033103448275785 0.00015
          0.0045555555555556 0.0033103448275785 0.0003 0.005 0.0033103448275785 0
          0.005 0.0033103448275785 0.00015 0.005 0.0033103448275785 0.0003
          0.0014444444444443 0.0037241379310256 0 0.0014444444444443 0.0037241379310256 0.00015
          0.0014444444444443 0.0037241379310256 0.0003 0.0018888888888884 0.0037241379310256 0
          0.0018888888888884 0.0037241379310256 0.00015 0.0018888888888884 0.0037241379310256 0.0003
          0.0023333333333328 0.0037241379310256 0 0.0023333333333328 0.0037241379310256 0.00015
          0.0023333333333328 0.0037241379310256 0.0003 0.0027777777777759 0.0037241379310256 0
          0.0027777777777759 0.0037241379310256 0.00015 0.0027777777777759 0.0037241379310256 0.0003
          0.0032222222222205 0.0037241379310256 0 0.0032222222222205 0.0037241379310256 0.00015
          0.0032222222222205 0.0037241379310256 0.0003 0.003666666666665 0.0037241379310256 0
          0.003666666666665 0.0037241379310256 0.00015 0.003666666666665 0.0037241379310256 0.0003
          0.0041111111111104 0.0037241379310256 0 0.0041111111111104 0.0037241379310256 0.00015
          0.0041111111111104 0.0037241379310256 0.0003 0.0045555555555556 0.0037241379310256 0
          0.0045555555555556 0.0037241379310256 0.00015 0.0045555555555556 0.0037241379310256 0.0003
          0.005 0.0037241379310256 0 0.005 0.0037241379310256 0.00015
          0.005 0.0037241379310256 0.0003 0.0014444444444444 0.0041379310344727 0
          0.0014444444444444 0.0041379310344727 0.00015 0.0014444444444444 0.0041379310344727 0.0003
          0.0018888888888885 0.0041379310344727 0 0.0018888888888885 0.0041379310344727 0.00015
          0.0018888888888885 0.0041379310344727 0.0003 0.002333333333333 0.0041379310344727 0
          0.002333333333333 0.0041379310344727 0.00015 0.002333333333333 0.0041379310344727 0.0003
          0.0027777777777762 0.0041379310344727 0 0.0027777777777762 0.0041379310344727 0.00015
          0.0027777777777762 0.0041379310344727 0.0003 0.0032222222222208 0.0041379310344727 0
          0.0032222222222208 0.0041379310344727 0.00015 0.0032222222222208 0.0041379310344727 0.0003
          0.0036666666666652 0.0041379310344727 0 0.0036666666666652 0.0041379310344727 0.00015
          0.0036666666666652 0.0041379310344727 0.0003 0.0041111111111105 0.0041379310344727 0
          0.0041111111111105 0.0041379310344727 0.00015 0.0041111111111105 0.0041379310344727 0.0003
          0.0045555555555557 0.0041379310344727 0 0.0045555555555557 0.0041379310344727 0.00015
          0.0045555555555557 0.0041379310344727 0.0003 0.005 0.0041379310344727 0
          0.005 0.0041379310344727 0.00015 0.005 0.0041379310344727 0.0003
          0.0014444444444444 0.0045517241379199 0 0.0014444444444444 0.0045517241379199 0.00015
          0.0014444444444444 0.0045517241379199 0.0003 0.0018888888888886 0.0045517241379199 0
          0.0018888888888886 0.0045517241379199 0.00015 0.0018888888888886 0.0045517241379199 0.0003
          0.0023333333333331 0.0045517241379199 0 0.0023333333333331 0.0045517241379199 0.00015
          0.0023333333333331 0.0045517241379199 0.0003 0.0027777777777765 0.0045517241379199 0
          0.0027777777777765 0.0045517241379199 0.00015 0.0027777777777765 0.0045517241379199 0.0003
          0.0032222222222211 0.0045517241379199 0 0.0032222222222211 0.0045517241379199 0.00015
          0.0032222222222211 0.0045517241379199 0.0003 0.0036666666666654 0.0045517241379199 0
          0.0036666666666654 0.0045517241379199 0.00015 0.0036666666666654 0.0045517241379199 0.0003
          0.0041111111111107 0.0045517241379199 0 0.0041111111111107 0.0045517241379199 0.00015
          0.0041111111111107 0.0045517241379199 0.0003 0.0045555555555557 0.0045517241379199 0
          0.0045555555555557 0.0045517241379199 0.00015 0.0045555555555557 0.0045517241379199 0.0003
          0.005 0.0045517241379199 0 0.005 0.0045517241379199 0.00015
          0.005 0.0045517241379199 0.0003 0.0014444444444445 0.0049655172413669 0
          0.0014444444444445 0.0049655172413669 0.00015 0.0014444444444445 0.0049655172413669 0.0003
          0.0018888888888888 0.0049655172413669 0 0.0018888888888888 0.0049655172413669 0.00015
          0.0018888888888888 0.0049655172413669 0.0003 0.0023333333333333 0.0049655172413669 0
          0.0023333333333333 0.0049655172413669 0.00015 0.0023333333333333 0.0049655172413669 0.0003
          0.0027777777777768 0.0049655172413669 0 0.0027777777777768 0.0049655172413669 0.00015
          0.0027777777777768 0.0049655172413669 0.0003 0.0032222222222214 0.0049655172413669 0
          0.0032222222222214 0.0049655172413669 0.00015 0.0032222222222214 0.0049655172413669 0.0003
          0.0036666666666656 0.0049655172413669 0 0.0036666666666656 0.0049655172413669 0.00015
          0.0036666666666656 0.0049655172413669 0.0003 0.0041111111111108 0.0049655172413669 0
          0.0041111111111108 0.0049655172413669 0.00015 0.0041111111111108 0.0049655172413669 0.0003
          0.0045555555555557 0.0049655172413669 0 0.0045555555555557 0.0049655172413669 0.00015
          0.0045555555555557 0.0049655172413669 0.0003 0.005 0.0049655172413669 0
          0.005 0.0049655172413669 0.00015 0.005 0.0049655172413669 0.0003
          0.0014444444444445 0.0053793103448139 0 0.0014444444444445 0.0053793103448139 0.00015
          0.0014444444444445 0.0053793103448139 0.0003 0.0018888888888889 0.0053793103448139 0
          0.0018888888888889 0.0053793103448139 0.00015 0.0018888888888889 0.0053793103448139 0.0003
          0.0023333333333335 0.0053793103448139 0 0.0023333333333335 0.0053793103448139 0.00015
          0.0023333333333335 0.0053793103448139 0.0003 0.0027777777777771 0.0053793103448139 0
          0.0027777777777771 0.0053793103448139 0.00015 0.0027777777777771 0.0053793103448139 0.0003
          0.0032222222222217 0.0053793103448139 0 0.0032222222222217 0.0053793103448139 0.00015
          0.0032222222222217 0.0053793103448139 0.0003 0.0036666666666658 0.0053793103448139 0
          0.0036666666666658 0.0053793103448139 0.00015 0.0036666666666658 0.0053793103448139 0.0003
          0.004111111111111 0.0053793103448139 0 0.004111111111111 0.0053793103448139 0.00015
          0.004111111111111 0.0053793103448139 0.0003 0.0045555555555558 0.0053793103448139 0
          0.0045555555555558 0.0053793103448139 0.00015 0.0045555555555558 0.0053793103448139 0.0003
          0.005 0.0053793103448139 0 0.005 0.0053793103448139 0.00015
          0.005 0.0053793103448139 0.0003 0.0014444444444446 0.0057931034482612 0
          0.0014444444444446 0.0057931034482612 0.00015 0.0014444444444446 0.0057931034482612 0.0003
          0.001888888888889 0.0057931034482612 0 0.001888888888889 0.0057931034482612 0.00015
          0.001888888888889 0.0057931034482612 0.0003 0.0023333333333337 0.0057931034482612 0
          0.0023333333333337 0.0057931034482612 0.00015 0.0023333333333337 0.0057931034482612 0.0003
          0.0027777777777774 0.0057931034482612 0 0.0027777777777774 0.0057931034482612 0.00015
          0.0027777777777774 0.0057931034482612 0.0003 0.003222222222222 0.0057931034482612 0
          0.003222222222222 0.0057931034482612 0.00015 0.003222222222222 0.0057931034482612 0.0003
          0.0036666666666659 0.0057931034482612 0 0.0036666666666659 0.0057931034482612 0.00015
          0.0036666666666659 0.0057931034482612 0.0003 0.0041111111111112 0.0057931034482612 0
          0.0041111111111112 0.0057931034482612 0.00015 0.0041111111111112 0.0057931034482612 0.0003
          0.0045555555555558 0.0057931034482612 0 0.0045555555555558 0.0057931034482612 0.00015
          0.0045555555555558 0.0057931034482612 0.0003 0.005 0.0057931034482612 0
          0.005 0.0057931034482612 0.00015 0.005 0.0057931034482612 0.0003
          0.0018888888888891 0.0062068965517097 0 0.0018888888888891 0.0062068965517097 0.00015
          0.0018888888888891 0.0062068965517097 0.0003 0.0023333333333339 0.0062068965517097 0
          0.0023333333333339 0.0062068965517097 0.00015 0.0023333333333339 0.0062068965517097 0.0003
          0.0027777777777778 0.0062068965517097 0 0.0027777777777778 0.0062068965517097 0.00015
          0.0027777777777778 0.0062068965517097 0.0003 0.0032222222222224 0.0062068965517097 0
          0.0032222222222224 0.0062068965517097 0.00015 0.0032222222222224 0.0062068965517097 0.0003
          0.0036666666666661 0.0062068965517097 0 0.0036666666666661 0.0062068965517097 0.00015
          0.0036666666666661 0.0062068965517097 0.0003 0.0041111111111113 0.0062068965517097 0
          0.0041111111111113 0.0062068965517097 0.00015 0.0041111111111113 0.0062068965517097 0.0003
          0.0045555555555558 0.0062068965517097 0 0.0045555555555558 0.0062068965517097 0.00015
          0.0045555555555558 0.0062068965517097 0.0003 0.005 0.0062068965517097 0
          0.005 0.0062068965517097 0.00015 0.005 0.0062068965517097 0.0003
          0.0018888888888893 0.0066206896551586 0 0.0018888888888893 0.0066206896551586 0.00015
          0.0018888888888893 0.0066206896551586 0.0003 0.002333333333334 0.0066206896551586 0
          0.002333333333334 0.0066206896551586 0.00015 0.002333333333334 0.0066206896551586 0.0003
          0.0027777777777781 0.0066206896551586 0 0.0027777777777781 0.0066206896551586 0.00015
          0.0027777777777781 0.0066206896551586 0.0003 0.0032222222222227 0.0066206896551586 0
          0.0032222222222227 0.0066206896551586 0.00015 0.0032222222222227 0.0066206896551586 0.0003
          0.0036666666666663 0.0066206896551586 0 0.0036666666666663 0.0066206896551586 0.00015
          0.0036666666666663 0.0066206896551586 0.0003 0.0041111111111115 0.0066206896551586 0
          0.0041111111111115 0.0066206896551586 0.00015 0.0041111111111115 0.0066206896551586 0.0003
          0.0045555555555559 0.0066206896551586 0 0.0045555555555559 0.0066206896551586 0.00015
          0.0045555555555559 0.0066206896551586 0.0003 0.005 0.0066206896551586 0
          0.005 0.0066206896551586 0.00015 0.005 0.0066206896551586 0.0003
          0.0018888888888894 0.0070344827586082 0 0.0018888888888894 0.0070344827586082 0.00015
          0.0018888888888894 0.0070344827586082 0.0003 0.0023333333333342 0.0070344827586082 0
          0.0023333333333342 0.0070344827586082 0.00015 0.0023333333333342 0.0070344827586082 0.0003
          0.0027777777777784 0.0070344827586082 0 0.0027777777777784 0.0070344827586082 0.00015
          0.0027777777777784 0.0070344827586082 0.0003 0.003222222222223 0.0070344827586082 0
          0.003222222222223 0.0070344827586082 0.00015 0.003222222222223 0.0070344827586082 0.0003
          0.0036666666666665 0.0070344827586082 0 0.0036666666666665 0.0070344827586082 0.00015
          0.0036666666666665 0.0070344827586082 0.0003 0.0041111111111116 0.0070344827586082 0
          0.0041111111111116 0.0070344827586082 0.00015 0.0041111111111116 0.0070344827586082 0.0003
          0.0045555555555559 0.0070344827586082 0 0.0045555555555559 0.0070344827586082 0.00015
          0.0045555555555559 0.0070344827586082 0.0003 0.005 0.0070344827586082 0
          0.005 0.0070344827586082 0.00015 0.005 0.0070344827586082 0.0003
          0.0018888888888895 0.0074482758620575 0 0.0018888888888895 0.0074482758620575 0.00015
          0.0018888888888895 0.0074482758620575 0.0003 0.0023333333333344 0.0074482758620575 0
          0.0023333333333344 0.0074482758620575 0.00015 0.0023333333333344 0.0074482758620575 0.0003
          0.0027777777777787 0.0074482758620575 0 0.0027777777777787 0.0074482758620575 0.00015
          0.0027777777777787 0.0074482758620575 0.0003 0.0032222222222233 0.0074482758620575 0
          0.0032222222222233 0.0074482758620575 0.00015 0.0032222222222233 0.0074482758620575 0.0003
          0.0036666666666666 0.0074482758620576 0 0.0036666666666666 0.0074482758620576 0.00015
          0.0036666666666666 0.0074482758620576 0.0003 0.0041111111111118 0.0074482758620576 0
          0.0041111111111118 0.0074482758620576 0.00015 0.0041111111111118 0.0074482758620576 0.0003
          0.0045555555555559 0.0074482758620576 0 0.0045555555555559 0.0074482758620576 0.00015
          0.0045555555555559 0.0074482758620576 0.0003 0.005 0.0074482758620575 0
          0.005 0.0074482758620575 0.00015 0.005 0.0074482758620575 0.0003
          0.0023333333333346 0.0078620689655065 0 0.0023333333333346 0.0078620689655065 0.00015
          0.0023333333333346 0.0078620689655065 0.0003 0.002777777777779 0.0078620689655065 0
          0.002777777777779 0.0078620689655065 0.00015 0.002777777777779 0.0078620689655065 0.0003
          0.0032222222222236 0.0078620689655065 0 0.0032222222222236 0.0078620689655065 0.00015
          0.0032222222222236 0.0078620689655065 0.0003 0.0036666666666668 0.0078620689655065 0
          0.0036666666666668 0.0078620689655065 0.00015 0.0036666666666668 0.0078620689655065 0.0003
          0.0041111111111119 0.0078620689655065 0 0.0041111111111119 0.0078620689655065 0.00015
          0.0041111111111119 0.0078620689655065 0.0003 0.004555555555556 0.0078620689655065 0
          0.004555555555556 0.0078620689655065 0.00015 0.004555555555556 0.0078620689655065 0.0003
          0.005 0.0078620689655065 0 0.005 0.0078620689655065 0.00015
          0.005 0.0078620689655065 0.0003 0.0023333333333348 0.0082758620689564 0
          0.0023333333333348 0.0082758620689564 0.00015 0.0023333333333348 0.0082758620689564 0.0003
          0.0027777777777793 0.0082758620689564 0 0.0027777777777793 0.0082758620689564 0.00015
          0.0027777777777793 0.0082758620689564 0.0003 0.0032222222222239 0.0082758620689564 0
          0.0032222222222239 0.0082758620689564 0.00015 0.0032222222222239 0.0082758620689564 0.0003
          0.003666666666667 0.0082758620689564 0 0.003666666666667 0.0082758620689564 0.00015
          0.003666666666667 0.0082758620689564 0.0003 0.0041111111111121 0.0082758620689564 0
          0.0041111111111121 0.0082758620689564 0.00015 0.0041111111111121 0.0082758620689564 0.0003
          0.004555555555556 0.0082758620689564 0 0.004555555555556 0.0082758620689564 0.00015
          0.004555555555556 0.0082758620689564 0.0003 0.005 0.0082758620689564 0
          0.005 0.0082758620689564 0.00015 0.005 0.0082758620689564 0.0003
          0.002333333333335 0.0086896551724064 0 0.002333333333335 0.0086896551724064 0.00015
          0.002333333333335 0.0086896551724064 0.0003 0.0027777777777796 0.0086896551724064 0
          0.0027777777777796 0.0086896551724064 0.00015 0.0027777777777796 0.0086896551724064 0.0003
          0.0032222222222242 0.0086896551724064 0 0.0032222222222242 0.0086896551724064 0.00015
          0.0032222222222242 0.0086896551724064 0.0003 0.0036666666666672 0.0086896551724064 0
          0.0036666666666672 0.0086896551724064 0.00015 0.0036666666666672 0.0086896551724064 0.0003
          0.0041111111111122 0.0086896551724064 0 0.0041111111111122 0.0086896551724064 0.00015
          0.0041111111111122 0.0086896551724064 0.0003 0.004555555555556 0.0086896551724064 0
          0.004555555555556 0.0086896551724064 0.00015 0.004555555555556 0.0086896551724064 0.0003
          0.0023333333333351 0.0091034482758539 0 0.0023333333333351 0.0091034482758539 0.00015
          0.0023333333333351 0.0091034482758539 0.0003 0.0027777777777799 0.0091034482758539 0
          0.0027777777777799 0.0091034482758539 0.00015 0.0027777777777799 0.0091034482758539 0.0003
          0.0032222222222245 0.0091034482758539 0 0.0032222222222245 0.0091034482758539 0.00015
          0.0032222222222245 0.0091034482758539 0.0003 0.0036666666666673 0.0091034482758539 0
          0.0036666666666673 0.0091034482758539 0.00015 0.0036666666666673 0.0091034482758539 0.0003
          0.0041111111111124 0.0091034482758539 0 0.0041111111111124 0.0091034482758539 0.00015
          0.0041111111111124 0.0091034482758539 0.0003 0.0058597010152523 0.0063127004857001 0
          0.0053951839928307 0.0062556571299739 0 0.0053921082338215 0.005828945826549 0
          0.0057916174309905 0.0058352682535246 0 0.0058597010152523 0.0063127004857001 0.00015
          0.0053951839928307 0.0062556571299739 0.00015 0.0053921082338215 0.005828945826549 0.00015
          0.0057916174309905 0.0058352682535246 0.00015 0.0058597010152523 0.0063127004857001 0.0003
          0.0053951839928307 0.0062556571299739 0.0003 0.0053921082338215 0.005828945826549 0.0003
          0.0057916174309905 0.0058352682535246 0.0003 0.0057558905586118 0.0030553709280972 0
          0.0057130501801562 0.0035159257865852 0 0.005360618756523 0.0035837068269911 0
          0.0053739732009329 0.0031599138809835 0 0.0057558905586118 0.0030553709280972 0.00015
          0.0057130501801562 0.0035159257865852 0.00015 0.005360618756523 0.0035837068269911 0.00015
          0.0053739732009329 0.0031599138809835 0.00015 0.0057558905586118 0.0030553709280972 0.0003
          0.0057130501801562 0.0035159257865852 0.0003 0.005360618756523 0.0035837068269911 0.0003
          0.0053739732009329 0.0031599138809835 0.0003 0.0056439388514995 0.0075162532529611 0
          0.0053753336003136 0.0081134227852172 0 0.0053162760057692 0.0077147827843445 0
          0.0056439388514995 0.0075162532529611 0.00015 0.0053753336003136 0.0081134227852172 0.00015
          0.0053162760057692 0.0077147827843445 0.00015 0.0056439388514995 0.0075162532529611 0.0003
          0.0053753336003136 0.0081134227852172 0.0003 0.0053162760057692 0.0077147827843445 0.0003
          0.0059025575310583 0.0073410103875386 0 0.0059025575310583 0.0073410103875386 0.00015
          0.0059025575310583 0.0073410103875386 0.0003 0.005369078903807 0.0054112957512825 0
          0.0053441966179727 0.0050059769161847 0 0.0056930202847481 0.0049554676612008 0
          0.0057606246390047 0.0053811345728149 0 0.005369078903807 0.0054112957512825 0.00015
          0.0053441966179727 0.0050059769161847 0.00015 0.0056930202847481 0.0049554676612008 0.00015
          0.0057606246390047 0.0053811345728149 0.00015 0.005369078903807 0.0054112957512825 0.0003
          0.0053441966179727 0.0050059769161847 0.0003 0.0056930202847481 0.0049554676612008 0.0003
          0.0057606246390047 0.0053811345728149 0.0003 0.0057438065986578 0.0025718646608386 0
          0.0053684283361675 0.002728434685479 0 0.0057438065986578 0.0025718646608386 0.00015
          0.0053684283361675 0.002728434685479 0.00015 0.0057438065986578 0.0025718646608386 0.0003
          0.0053684283361675 0.002728434685479 0.0003 0.0061712548385041 0.0061513410385421 0
          0.006445117357903 0.0062971891343806 0 0.0062246515840748 0.0066057171706914 0
          0.0061712548385041 0.0061513410385421 0.00015 0.006445117357903 0.0062971891343806 0.00015
          0.0062246515840748 0.0066057171706914 0.00015 0.0061712548385041 0.0061513410385421 0.0003
          0.006445117357903 0.0062971891343806 0.0003 0.0062246515840748 0.0066057171706914 0.0003
          0.0053553835295756 0.0022900157905326 0 0.0057116151882083 0.0021168511926722 0
          0.0053553835295756 0.0022900157905326 0.00015 0.0057116151882083 0.0021168511926722 0.00015
          0.0053553835295756 0.0022900157905326 0.0003 0.0057116151882083 0.0021168511926722 0.0003
          0.0054233068561349 0.007134337670225 0 0.0059254586078826 0.006969673542248 0
          0.0054233068561349 0.007134337670225 0.00015 0.0059254586078826 0.006969673542248 0.00015
          0.0054233068561349 0.007134337670225 0.0003 0.0059254586078826 0.006969673542248 0.0003
          0.0057792643598707 0.0040250905144168 0 0.0057792643598707 0.0040250905144168 0.00015
          0.0057792643598707 0.0040250905144168 0.0003 0.0061880810420103 0.0058441905555885 0
          0.0066005814160285 0.0059502230786403 0 0.0061880810420103 0.0058441905555885 0.00015
          0.0066005814160285 0.0059502230786403 0.00015 0.0061880810420103 0.0058441905555885 0.0003
          0.0066005814160285 0.0059502230786403 0.0003 0.0054017220983371 0.0066575347525889 0
          0.0057115805714605 0.0066548075405697 0 0.0054017220983371 0.0066575347525889 0.00015
          0.0057115805714605 0.0066548075405697 0.00015 0.0054017220983371 0.0066575347525889 0.0003
          0.0057115805714605 0.0066548075405697 0.0003 0.005332609719228 0.0047287620137874 0
          0.0055816175545808 0.004587255111362 0 0.005332609719228 0.0047287620137874 0.00015
          0.0055816175545808 0.004587255111362 0.00015 0.005332609719228 0.0047287620137874 0.0003
          0.0055816175545808 0.004587255111362 0.0003 0.0053693194142364 0.0039518184911864 0
          0.0054474185858658 0.0042751360204936 0 0.0053693194142364 0.0039518184911864 0.00015
          0.0054474185858658 0.0042751360204936 0.00015 0.0053693194142364 0.0039518184911864 0.0003
          0.0054474185858658 0.0042751360204936 0.0003 0.0053395672611724 0.0018614292474742 0
          0.0053395672611724 0.0018614292474742 0.00015 0.0053395672611724 0.0018614292474742 0.0003
          0.0053367365074525 0.0010378216876611 0 0.0053236825500972 0.0014543115259673 0
          0.0053367365074525 0.0010378216876611 0.00015 0.0053236825500972 0.0014543115259673 0.00015
          0.0053367365074525 0.0010378216876611 0.0003 0.0053236825500972 0.0014543115259673 0.0003
          0.0056326688189693 0.0038271453778623 0 0.0056326688189693 0.0038271453778623 0.00015
          0.0056326688189693 0.0038271453778623 0.0003 0.0053236477572007 0.00066751117045644 0
          0.0053236477572007 0.00066751117045644 0.00015 0.0053236477572007 0.00066751117045644 0.0003
          0.0052365987891119 0.0074441888076402 0 0.0052365987891119 0.0074441888076402 0.00015
          0.0052365987891119 0.0074441888076402 0.0003 0.0052651323069134 0.00040272801788152 0
          0.0052651323069134 0.00040272801788152 0.00015 0.0052651323069134 0.00040272801788152 0.0003
          0.005675081773805 0.0016743369040255 0 0.005675081773805 0.0016743369040255 0.00015
          0.005675081773805 0.0016743369040255 0.0003 0.0056481668838523 0.0012062671985027 0
          0.0056481668838523 0.0012062671985027 0.00015 0.0056481668838523 0.0012062671985027 0.0003
          0.0055517738097912 0.00099492145317098 0 0.0055517738097912 0.00099492145317098 0.00015
          0.0055517738097912 0.00099492145317098 0.0003 0.005 0.0086896551724064 0
          0.005 0.0086896551724064 0.00015 0.005 0.0086896551724064 0.0003
          0.0045555555555561 0.0091034482758539 0 0.0045555555555561 0.0091034482758539 0.00015
          0.0045555555555561 0.0091034482758539 0.0003 0.005 0.0091034482758539 0
          0.005 0.0091034482758539 0.00015 0.005 0.0091034482758539 0.0003
          0.0027777777777802 0.0095172413793029 0 0.0023333333333353 0.0095172413793029 0
          0.0027777777777802 0.0095172413793029 0.00015 0.0023333333333353 0.0095172413793029 0.00015
          0.0027777777777802 0.0095172413793029 0.0003 0.0023333333333353 0.0095172413793029 0.0003
          0.0032222222222248 0.0095172413793029 0 0.0032222222222248 0.0095172413793029 0.00015
          0.0032222222222248 0.0095172413793029 0.0003 0.0036666666666675 0.0095172413793029 0
          0.0036666666666675 0.0095172413793029 0.00015 0.0036666666666675 0.0095172413793029 0.0003
          0.0041111111111126 0.0095172413793029 0 0.0041111111111126 0.0095172413793029 0.00015
          0.0041111111111126 0.0095172413793029 0.0003 0.0045555555555561 0.0095172413793029 0
          0.0045555555555561 0.0095172413793029 0.00015 0.0045555555555561 0.0095172413793029 0.0003
          0.0058653844060618 0.0079194158644502 0 0.0058653844060618 0.0079194158644502 0.00015
          0.0058653844060618 0.0079194158644502 0.0003 0.0061750164335738 0.0074760206739226 0
          0.0061750164335738 0.0074760206739226 0.00015 0.0061750164335738 0.0074760206739226 0.0003
          0.0060512178389602 0.0047929387822649 0 0.0062389906493372 0.0053128670028646 0
          0.0060512178389602 0.0047929387822649 0.00015 0.0062389906493372 0.0053128670028646 0.00015
          0.0060512178389602 0.0047929387822649 0.0003 0.0062389906493372 0.0053128670028646 0.0003
          0.0068354780286894 0.0065149558629347 0 0.0065694481807909 0.0068273110654121 0
          0.0068354780286894 0.0065149558629347 0.00015 0.0065694481807909 0.0068273110654121 0.00015
          0.0068354780286894 0.0065149558629347 0.0003 0.0065694481807909 0.0068273110654121 0.0003
          0.0061614658010566 0.0029736343202522 0 0.0061372854142827 0.0036106222238676 0
          0.0061614658010566 0.0029736343202522 0.00015 0.0061372854142827 0.0036106222238676 0.00015
          0.0061614658010566 0.0029736343202522 0.0003 0.0061372854142827 0.0036106222238676 0.0003
          0.0061231952422177 0.002444135475079 0 0.0061231952422177 0.002444135475079 0.00015
          0.0061231952422177 0.002444135475079 0.0003 0.0063586074578252 0.0071353312088165 0
          0.0063586074578252 0.0071353312088165 0.00015 0.0063586074578252 0.0071353312088165 0.0003
          0.005927800859391 0.0043689372395662 0 0.0063054236008776 0.0041223407032968 0
          0.005927800859391 0.0043689372395662 0.00015 0.0063054236008776 0.0041223407032968 0.00015
          0.005927800859391 0.0043689372395662 0.0003 0.0063054236008776 0.0041223407032968 0.0003
          0.0070635342364542 0.0061542378287001 0 0.0070635342364542 0.0061542378287001 0.00015
          0.0070635342364542 0.0061542378287001 0.0003 0.0071984303565192 0.0057392272964834 0
          0.0067200519522164 0.0055550541115669 0 0.0071984303565192 0.0057392272964834 0.00015
          0.0067200519522164 0.0055550541115669 0.00015 0.0071984303565192 0.0057392272964834 0.0003
          0.0067200519522164 0.0055550541115669 0.0003 0.0053754057810206 0.0085370600870078 0
          0.0053754057810206 0.0085370600870078 0.00015 0.0053754057810206 0.0085370600870078 0.0003
          0.0060722038988066 0.0019538017587265 0 0.0060722038988066 0.0019538017587265 0.00015
          0.0060722038988066 0.0019538017587265 0.0003 0.0055128205128194 0 0
          0.0057061681768373 0.00065177476244477 0 0.0055128205128194 0 0.00015
          0.0057061681768373 0.00065177476244477 0.00015 0.0055128205128194 0 0.0003
          0.0057061681768373 0.00065177476244477 0.0003 0.0060137569775388 0.0015029488511318 0
          0.0060137569775388 0.0015029488511318 0.00015 0.0060137569775388 0.0015029488511318 0.0003
          0.0059245902968253 0.0010856763727913 0 0.0059245902968253 0.0010856763727913 0.00015
          0.0059245902968253 0.0010856763727913 0.0003 0.0057785311780113 0.0084598603588589 0
          0.0057785311780113 0.0084598603588589 0.00015 0.0057785311780113 0.0084598603588589 0.0003
          <InformationKey name="L2_NORM_RANGE" location="vtkDataArray" length="2">
            <Value index="0">
              0.0018888888889
            </Value>
            <Value index="1">
              0.010555613194
            </Value>
          </InformationKey>
        </DataArray>
      </Points>
      <Cells>
        <DataArray type="Int64" Name="connectivity" format="ascii" RangeMin="0" RangeMax="779">
          6 0 1 7 8 2
          3 9 8 2 3 9
          10 4 5 11 12 6
          7 13 14 8 9 15
          14 8 9 15 16 10
          11 17 18 12 13 19
          20 14 15 21 20 14
          15 21 22 16 17 23
          24 18 19 25 26 20
          21 27 26 20 21 27
          28 22 23 29 30 24
          25 31 32 26 27 33
          32 26 27 33 34 28
          29 35 36 30 31 37
          38 32 33 39 38 32
          33 39 40 34 35 41
          42 36 37 43 44 38
          39 45 44 38 39 45
          46 40 41 47 51 48
          0 6 52 49 2 8
          52 49 2 8 53 50
          4 10 54 51 6 12
          55 52 8 14 55 52
          8 14 56 53 10 16
          57 54 12 18 58 55
          14 20 58 55 14 20
          59 56 16 22 60 57
          18 24 61 58 20 26
          61 58 20 26 62 59
          22 28 63 60 24 30
          64 61 26 32 64 61
          26 32 65 62 28 34
          66 63 30 36 67 64
          32 38 67 64 32 38
          68 65 34 40 69 66
          36 42 70 67 38 44
          70 67 38 44 71 68
          40 46 75 72 48 51
          76 73 49 52 76 73
          49 52 77 74 50 53
          78 75 51 54 79 76
          52 55 79 76 52 55
          80 77 53 56 81 78
          54 57 82 79 55 58
          82 79 55 58 83 80
          56 59 84 81 57 60
          85 82 58 61 85 82
          58 61 86 83 59 62
          87 84 60 63 88 85
          61 64 88 85 61 64
          89 86 62 65 90 87
          63 66 91 88 64 67
          91 88 64 67 92 89
          65 68 93 90 66 69
          94 91 67 70 94 91
          67 70 95 92 68 71
          99 96 72 75 100 97
          73 76 100 97 73 76
          101 98 74 77 102 99
          75 78 103 100 76 79
          103 100 76 79 104 101
          77 80 105 102 78 81
          106 103 79 82 106 103
          79 82 107 104 80 83
          108 105 81 84 109 106
          82 85 109 106 82 85
          110 107 83 86 111 108
          84 87 112 109 85 88
          112 109 85 88 113 110
          86 89 114 111 87 90
          115 112 88 91 115 112
          88 91 116 113 89 92
          117 114 90 93 118 115
          91 94 118 115 91 94
          119 116 92 95 123 120
          96 99 124 121 97 100
          124 121 97 100 125 122
          98 101 126 123 99 102
          127 124 100 103 127 124
          100 103 128 125 101 104
          129 126 102 105 130 127
          103 106 130 127 103 106
          131 128 104 107 132 129
          105 108 133 130 106 109
          133 130 106 109 134 131
          107 110 135 132 108 111
          136 133 109 112 136 133
          109 112 137 134 110 113
          138 135 111 114 139 136
          112 115 139 136 112 115
          140 137 113 116 141 138
          114 117 142 139 115 118
          142 139 115 118 143 140
          116 119 147 144 120 123
          148 145 121 124 148 145
          121 124 149 146 122 125
          150 147 123 126 151 148
          124 127 151 148 124 127
          152 149 125 128 153 150
          126 129 154 151 127 130
          154 151 127 130 155 152
          128 131 156 153 129 132
          157 154 130 133 157 154
          130 133 158 155 131 134
          159 156 132 135 160 157
          133 136 160 157 133 136
          161 158 134 137 162 159
          135 138 163 160 136 139
          163 160 136 139 164 161
          137 140 165 162 138 141
          166 163 139 142 166 163
          139 142 167 164 140 143
          174 171 144 147 175 172
          145 148 175 172 145 148
          176 173 146 149 177 174
          147 150 178 175 148 151
          178 175 148 151 179 176
          149 152 180 177 150 153
          181 178 151 154 181 178
          151 154 182 179 152 155
          183 180 153 156 184 181
          154 157 184 181 154 157
          185 182 155 158 186 183
          156 159 187 184 157 160
          187 184 157 160 188 185
          158 161 189 186 159 162
          190 187 160 163 190 187
          160 163 191 188 161 164
          192 189 162 165 193 190
          163 166 193 190 163 166
          194 191 164 167 198 195
          168 171 199 196 169 172
          199 196 169 172 200 197
          170 173 201 198 171 174
          202 199 172 175 202 199
          172 175 203 200 173 176
          204 201 174 177 205 202
          175 178 205 202 175 178
          206 203 176 179 207 204
          177 180 208 205 178 181
          208 205 178 181 209 206
          179 182 210 207 180 183
          211 208 181 184 211 208
          181 184 212 209 182 185
          213 210 183 186 214 211
          184 187 214 211 184 187
          215 212 185 188 216 213
          186 189 217 214 187 190
          217 214 187 190 218 215
          188 191 219 216 189 192
          220 217 190 193 220 217
          190 193 221 218 191 194
          225 222 195 198 226 223
          196 199 226 223 196 199
          227 224 197 200 228 225
          198 201 229 226 199 202
          229 226 199 202 230 227
          200 203 231 228 201 204
          232 229 202 205 232 229
          202 205 233 230 203 206
          234 231 204 207 235 232
          205 208 235 232 205 208
          236 233 206 209 237 234
          207 210 238 235 208 211
          238 235 208 211 239 236
          209 212 240 237 210 213
          241 238 211 214 241 238
          211 214 242 239 212 215
          243 240 213 216 244 241
          214 217 244 241 214 217
          245 242 215 218 246 243
          216 219 247 244 217 220
          247 244 217 220 248 245
          218 221 252 249 222 225
          253 250 223 226 253 250
          223 226 254 251 224 227
          255 252 225 228 256 253
          226 229 256 253 226 229
          257 254 227 230 258 255
          228 231 259 256 229 232
          259 256 229 232 260 257
          230 233 261 258 231 234
          262 259 232 235 262 259
          232 235 263 260 233 236
          264 261 234 237 265 262
          235 238 265 262 235 238
          266 263 236 239 267 264
          237 240 268 265 238 241
          268 265 238 241 269 266
          239 242 270 267 240 243
          271 268 241 244 271 268
          241 244 272 269 242 245
          273 270 243 246 274 271
          244 247 274 271 244 247
          275 272 245 248 279 276
          249 252 280 277 250 253
          280 277 250 253 281 278
          251 254 282 279 252 255
          283 280 253 256 283 280
          253 256 284 281 254 257
          285 282 255 258 286 283
          256 259 286 283 256 259
          287 284 257 260 288 285
          258 261 289 286 259 262
          289 286 259 262 290 287
          260 263 291 288 261 264
          292 289 262 265 292 289
          262 265 293 290 263 266
          294 291 264 267 295 292
          265 268 295 292 265 268
          296 293 266 269 297 294
          267 270 298 295 268 271
          298 295 268 271 299 296
          269 272 300 297 270 273
          301 298 271 274 301 298
          271 274 302 299 272 275
          306 303 276 279 307 304
          277 280 307 304 277 280
          308 305 278 281 309 306
          279 282 310 307 280 283
          310 307 280 283 311 308
          281 284 312 309 282 285
          313 310 283 286 313 310
          283 286 314 311 284 287
          315 312 285 288 316 313
          286 289 316 313 286 289
          317 314 287 290 318 315
          288 291 319 316 289 292
          319 316 289 292 320 317
          290 293 321 318 291 294
          322 319 292 295 322 319
          292 295 323 320 293 296
          324 321 294 297 325 322
          295 298 325 322 295 298
          326 323 296 299 327 324
          297 300 328 325 298 301
          328 325 298 301 329 326
          299 302 333 330 303 306
          334 331 304 307 334 331
          304 307 335 332 305 308
          336 333 306 309 337 334
          307 310 337 334 307 310
          338 335 308 311 339 336
          309 312 340 337 310 313
          340 337 310 313 341 338
          311 314 342 339 312 315
          343 340 313 316 343 340
          313 316 344 341 314 317
          345 342 315 318 346 343
          316 319 346 343 316 319
          347 344 317 320 348 345
          318 321 349 346 319 322
          349 346 319 322 350 347
          320 323 351 348 321 324
          352 349 322 325 352 349
          322 325 353 350 323 326
          354 351 324 327 355 352
          325 328 355 352 325 328
          356 353 326 329 360 357
          330 333 361 358 331 334
          361 358 331 334 362 359
          332 335 363 360 333 336
          364 361 334 337 364 361
          334 337 365 362 335 338
          366 363 336 339 367 364
          337 340 367 364 337 340
          368 365 338 341 369 366
          339 342 370 367 340 343
          370 367 340 343 371 368
          341 344 372 369 342 345
          373 370 343 346 373 370
          343 346 374 371 344 347
          375 372 345 348 376 373
          346 349 376 373 346 349
          377 374 347 350 378 375
          348 351 379 376 349 352
          379 376 349 352 380 377
          350 353 381 378 351 354
          382 379 352 355 382 379
          352 355 383 380 353 356
          387 384 360 363 388 385
          361 364 388 385 361 364
          389 386 362 365 390 387
          363 366 391 388 364 367
          391 388 364 367 392 389
          365 368 393 390 366 369
          394 391 367 370 394 391
          367 370 395 392 368 371
          396 393 369 372 397 394
          370 373 397 394 370 373
          398 395 371 374 399 396
          372 375 400 397 373 376
          400 397 373 376 401 398
          374 377 402 399 375 378
          403 400 376 379 403 400
          376 379 404 401 377 380
          405 402 378 381 406 403
          379 382 406 403 379 382
          407 404 380 383 411 408
          384 387 412 409 385 388
          412 409 385 388 413 410
          386 389 414 411 387 390
          415 412 388 391 415 412
          388 391 416 413 389 392
          417 414 390 393 418 415
          391 394 418 415 391 394
          419 416 392 395 420 417
          393 396 421 418 394 397
          421 418 394 397 422 419
          395 398 423 420 396 399
          424 421 397 400 424 421
          397 400 425 422 398 401
          426 423 399 402 427 424
          400 403 427 424 400 403
          428 425 401 404 429 426
          402 405 430 427 403 406
          430 427 403 406 431 428
          404 407 435 432 408 411
          436 433 409 412 436 433
          409 412 437 434 410 413
          438 435 411 414 439 436
          412 415 439 436 412 415
          440 437 413 416 441 438
          414 417 442 439 415 418
          442 439 415 418 443 440
          416 419 444 441 417 420
          445 442 418 421 445 442
          418 421 446 443 419 422
          447 444 420 423 448 445
          421 424 448 445 421 424
          449 446 422 425 450 447
          423 426 451 448 424 427
          451 448 424 427 452 449
          425 428 453 450 426 429
          454 451 427 430 454 451
          427 430 455 452 428 431
          459 456 432 435 460 457
          433 436 460 457 433 436
          461 458 434 437 462 459
          435 438 463 460 436 439
          463 460 436 439 464 461
          437 440 465 462 438 441
          466 463 439 442 466 463
          439 442 467 464 440 443
          468 465 441 444 469 466
          442 445 469 466 442 445
          470 467 443 446 471 468
          444 447 472 469 445 448
          472 469 445 448 473 470
          446 449 474 471 447 450
          475 472 448 451 475 472
          448 451 476 473 449 452
          477 474 450 453 478 475
          451 454 478 475 451 454
          479 476 452 455 483 480
          459 462 484 481 460 463
          484 481 460 463 485 482
          461 464 486 483 462 465
          487 484 463 466 487 484
          463 466 488 485 464 467
          489 486 465 468 490 487
          466 469 490 487 466 469
          491 488 467 470 492 489
          468 471 493 490 469 472
          493 490 469 472 494 491
          470 473 495 492 471 474
          496 493 472 475 496 493
          472 475 497 494 473 476
          498 495 474 477 499 496
          475 478 499 496 475 478
          500 497 476 479 504 501
          480 483 505 502 481 484
          505 502 481 484 506 503
          482 485 507 504 483 486
          508 505 484 487 508 505
          484 487 509 506 485 488
          510 507 486 489 511 508
          487 490 511 508 487 490
          512 509 488 491 513 510
          489 492 514 511 490 493
          514 511 490 493 515 512
          491 494 516 513 492 495
          517 514 493 496 517 514
          493 496 518 515 494 497
          519 516 495 498 520 517
          496 499 520 517 496 499
          521 518 497 500 525 522
          501 504 526 523 502 505
          526 523 502 505 527 524
          503 506 528 525 504 507
          529 526 505 508 529 526
          505 508 530 527 506 509
          531 528 507 510 532 529
          508 511 532 529 508 511
          533 530 509 512 534 531
          510 513 535 532 511 514
          535 532 511 514 536 533
          512 515 537 534 513 516
          538 535 514 517 538 535
          514 517 539 536 515 518
          687 537 516 519 688 538
          517 520 688 538 517 520
          689 539 518 521 543 540
          522 525 544 541 523 526
          544 541 523 526 545 542
          524 527 546 543 525 528
          547 544 526 529 547 544
          526 529 548 545 527 530
          549 546 528 531 550 547
          529 532 550 547 529 532
          551 548 530 533 552 549
          531 534 553 550 532 535
          553 550 532 535 554 551
          533 536 690 552 534 537
          691 553 535 538 691 553
          535 538 692 554 536 539
          693 690 537 687 694 691
          538 688 694 691 538 688
          695 692 539 689 696 697
          540 543 698 699 541 544
          698 699 541 544 700 701
          542 545 702 696 543 546
          703 698 544 547 703 698
          544 547 704 700 545 548
          705 702 546 549 706 703
          547 550 706 703 547 550
          707 704 548 551 708 705
          549 552 709 706 550 553
          709 706 550 553 710 707
          551 554 711 708 552 690
          712 709 553 691 712 709
          553 691 713 710 554 692
          555 556 557 558 559 560
          561 562 559 560 561 562
          563 564 565 566 567 568
          569 570 571 572 573 574
          571 572 573 574 575 576
          577 578 579 714 580 581
          582 715 583 584 582 715
          583 584 585 716 586 587
          579 588 717 714 582 589
          718 715 582 589 718 715
          585 590 719 716 591 592
          593 594 595 596 597 598
          595 596 597 598 599 600
          601 602 594 558 557 591
          598 562 561 595 598 562
          561 595 602 566 565 599
          603 567 570 604 605 571
          574 606 605 571 574 606
          607 575 578 608 555 609
          610 611 559 612 613 614
          559 612 613 614 563 615
          616 617 594 593 720 721
          598 597 722 723 598 597
          722 723 602 601 724 725
          726 727 611 610 728 729
          614 613 728 729 614 613
          730 731 617 616 567 732
          733 568 571 734 735 572
          571 734 735 572 575 736
          737 576 604 618 619 603
          606 620 621 605 606 620
          621 605 608 622 623 607
          567 603 738 732 571 605
          739 734 571 605 739 734
          575 607 740 736 579 624
          625 588 582 626 627 589
          582 626 627 589 585 628
          629 590 625 741 717 588
          627 742 718 589 627 742
          718 589 629 743 719 590
          744 630 733 745 746 631
          735 747 746 631 735 747
          748 632 737 749 633 634
          610 609 635 636 613 612
          635 636 613 612 637 638
          616 615 634 750 726 610
          636 751 728 613 636 751
          728 613 638 752 730 616
          555 558 633 609 559 562
          635 612 559 562 635 612
          563 566 637 615 753 750
          634 754 755 751 636 756
          755 751 636 756 757 752
          638 758 639 640 625 624
          641 642 627 626 641 642
          627 626 643 644 629 628
          625 611 727 741 627 614
          729 742 627 614 729 742
          629 617 731 743 634 633
          721 754 636 635 723 756
          636 635 723 756 638 637
          725 758 580 759 687 519
          583 760 688 520 583 760
          688 520 586 761 689 521
          581 580 519 498 584 583
          520 499 584 583 520 499
          587 586 521 500 592 645
          646 593 596 647 648 597
          596 647 648 597 600 649
          650 601 651 652 300 273
          653 654 301 274 653 654
          301 274 655 656 302 275
          569 651 273 246 573 653
          274 247 573 653 274 247
          577 655 275 248 556 405
          381 557 560 406 382 561
          560 406 382 561 564 407
          383 565 570 569 246 219
          574 573 247 220 574 573
          247 220 578 577 248 221
          557 381 354 591 561 382
          355 595 561 382 355 595
          565 383 356 599 604 570
          219 192 606 574 220 193
          606 574 220 193 608 578
          221 194 640 555 611 625
          642 559 614 627 642 559
          614 627 644 563 617 629
          618 604 192 165 620 606
          193 166 620 606 193 166
          622 608 194 167 657 618
          165 141 658 620 166 142
          658 620 166 142 659 622
          167 143 660 661 117 93
          662 663 118 94 662 663
          118 94 664 665 119 95
          661 657 141 117 663 658
          142 118 663 658 142 118
          665 659 143 119 762 738
          603 619 763 739 605 621
          763 739 605 621 764 740
          607 623 429 639 624 453
          430 641 626 454 430 641
          626 454 431 643 628 455
          666 568 733 630 667 572
          735 631 667 572 735 631
          668 576 737 632 669 660
          93 69 670 662 94 70
          670 662 94 70 671 664
          95 71 592 327 300 645
          596 328 301 647 596 328
          301 647 600 329 302 649
          721 633 558 594 723 635
          562 598 723 635 562 598
          725 637 566 602 744 720
          593 646 746 722 597 648
          746 722 597 648 748 724
          601 650 477 453 624 672
          478 454 626 673 478 454
          626 673 479 455 628 674
          327 592 591 354 328 596
          595 355 328 596 595 355
          329 600 599 356 669 675
          765 766 670 676 767 768
          670 676 767 768 671 677
          769 770 639 429 405 556
          641 430 406 560 641 430
          406 560 643 431 407 564
          581 672 624 579 584 673
          626 582 584 673 626 582
          587 674 628 585 678 619
          618 657 679 621 620 658
          679 621 620 658 680 623
          622 659 42 43 765 675
          44 45 767 676 44 45
          767 676 46 47 769 677
          646 645 300 652 648 647
          301 654 648 647 301 654
          650 649 302 656 619 678
          771 762 621 679 772 763
          621 679 772 763 623 680
          773 764 744 646 652 630
          746 648 654 631 746 648
          654 631 748 650 656 632
          678 681 774 771 679 682
          775 772 679 682 775 772
          680 683 776 773 681 678
          657 661 682 679 658 663
          682 679 658 663 683 680
          659 665 666 630 652 651
          667 631 654 653 667 631
          654 653 668 632 656 655
          651 569 568 666 653 573
          572 667 653 573 572 667
          655 577 576 668 681 684
          766 774 682 685 768 775
          682 685 768 775 683 686
          770 776 759 580 714 777
          760 583 715 778 760 583
          715 778 761 586 716 779
          672 581 498 477 673 584
          499 478 673 584 499 478
          674 587 500 479 639 556
          555 640 641 560 559 642
          641 560 559 642 643 564
          563 644 675 669 69 42
          676 670 70 44 676 670
          70 44 677 671 71 46
          684 681 661 660 685 682
          663 662 685 682 663 662
          686 683 665 664 660 669
          766 684 662 670 768 685
          662 670 768 685 664 671
          770 686
        </DataArray>
        <DataArray type="Int64" Name="offsets" format="ascii" RangeMin="8" RangeMax="3632">
          8 16 24 32 40 48
          56 64 72 80 88 96
          104 112 120 128 136 144
          152 160 168 176 184 192
          200 208 216 224 232 240
          248 256 264 272 280 288
          296 304 312 320 328 336
          344 352 360 368 376 384
          392 400 408 416 424 432
          440 448 456 464 472 480
          488 496 504 512 520 528
          536 544 552 560 568 576
          584 592 600 608 616 624
          632 640 648 656 664 672
          680 688 696 704 712 720
          728 736 744 752 760 768
          776 784 792 800 808 816
          824 832 840 848 856 864
          872 880 888 896 904 912
          920 928 936 944 952 960
          968 976 984 992 1000 1008
          1016 1024 1032 1040 1048 1056
          1064 1072 1080 1088 1096 1104
          1112 1120 1128 1136 1144 1152
          1160 1168 1176 1184 1192 1200
          1208 1216 1224 1232 1240 1248
          1256 1264 1272 1280 1288 1296
          1304 1312 1320 1328 1336 1344
          1352 1360 1368 1376 1384 1392
          1400 1408 1416 1424 1432 1440
          1448 1456 1464 1472 1480 1488
          1496 1504 1512 1520 1528 1536
          1544 1552 1560 1568 1576 1584
          1592 1600 1608 1616 1624 1632
          1640 1648 1656 1664 1672 1680
          1688 1696 1704 1712 1720 1728
          1736 1744 1752 1760 1768 1776
          1784 1792 1800 1808 1816 1824
          1832 1840 1848 1856 1864 1872
          1880 1888 1896 1904 1912 1920
          1928 1936 1944 1952 1960 1968
          1976 1984 1992 2000 2008 2016
          2024 2032 2040 2048 2056 2064
          2072 2080 2088 2096 2104 2112
          2120 2128 2136 2144 2152 2160
          2168 2176 2184 2192 2200 2208
          2216 2224 2232 2240 2248 2256
          2264 2272 2280 2288 2296 2304
          2312 2320 2328 2336 2344 2352
          2360 2368 2376 2384 2392 2400
          2408 2416 2424 2432 2440 2448
          2456 2464 2472 2480 2488 2496
          2504 2512 2520 2528 2536 2544
          2552 2560 2568 2576 2584 2592
          2600 2608 2616 2624 2632 2640
          2648 2656 2664 2672 2680 2688
          2696 2704 2712 2720 2728 2736
          2744 2752 2760 2768 2776 2784
          2792 2800 2808 2816 2824 2832
          2840 2848 2856 2864 2872 2880
          2888 2896 2904 2912 2920 2928
          2936 2944 2952 2960 2968 2976
          2984 2992 3000 3008 3016 3024
          3032 3040 3048 3056 3064 3072
          3080 3088 3096 3104 3112 3120
          3128 3136 3144 3152 3160 3168
          3176 3184 3192 3200 3208 3216
          3224 3232 3240 3248 3256 3264
          3272 3280 3288 3296 3304 3312
          3320 3328 3336 3344 3352 3360
          3368 3376 3384 3392 3400 3408
          3416 3424 3432 3440 3448 3456
          3464 3472 3480 3488 3496 3504
          3512 3520 3528 3536 3544 3552
          3560 3568 3576 3584 3592 3600
          3608 3616 3624 3632
        </DataArray>
        <DataArray type="UInt8" Name="types" format="ascii" RangeMin="12" RangeMax="12">
          12 12 12 12 12 12
          12 12 12 12 12 12
          12 12 12 12 12 12
          12 12 12 12 12 12
          12 12 12 12 12 12
          12 12 12 12 12 12
          12 12 12 12 12 12
          12 12 12 12 12 12
          12 12 12 12 12 12
          12 12 12 12 12 12
          12 12 12 12 12 12
          12 12 12 12 12 12
          12 12 12 12 12 12
          12 12 12 12 12 12
          12 12 12 12 12 12
          12 12 12 12 12 12
          12 12 12 12 12 12
          12 12 12 12 12 12
          12 12 12 12 12 12
          12 12 12 12 12 12
          12 12 12 12 12 12
          12 12 12 12 12 12
          12 12 12 12 12 12
          12 12 12 12 12 12
          12 12 12 12 12 12
          12 12 12 12 12 12
          12 12 12 12 12 12
          12 12 12 12 12 12
          12 12 12 12 12 12
          12 12 12 12 12 12
          12 12 12 12 12 12
          12 12 12 12 12 12
          12 12 12 12 12 12
          12 12 12 12 12 12
          12 12 12 12 12 12
          12 12 12 12 12 12
          12 12 12 12 12 12
          12 12 12 12 12 12
          12 12 12 12 12 12
          12 12 12 12 12 12
          12 12 12 12 12 12
          12 12 12 12 12 12
          12 12 12 12 12 12
          12 12 12 12 12 12
          12 12 12 12 12 12
          12 12 12 12 12 12
          12 12 12 12 12 12
          12 12 12 12 12 12
          12 12 12 12 12 12
          12 12 12 12 12 12
          12 12 12 12 12 12
          12 12 12 12 12 12
          12 12 12 12 12 12
          12 12 12 12 12 12
          12 12 12 12 12 12
          12 12 12 12 12 12
          12 12 12 12 12 12
          12 12 12 12 12 12
          12 12 12 12 12 12
          12 12 12 12 12 12
          12 12 12 12 12 12
          12 12 12 12 12 12
          12 12 12 12 12 12
          12 12 12 12 12 12
          12 12 12 12 12 12
          12 12 12 12 12 12
          12 12 12 12 12 12
          12 12 12 12 12 12
          12 12 12 12 12 12
          12 12 12 12 12 12
          12 12 12 12 12 12
          12 12 12 12 12 12
          12 12 12 12 12 12
          12 12 12 12 12 12
          12 12 12 12 12 12
          12 12 12 12
        </DataArray>
      </Cells>
    </Piece>
  </UnstructuredGrid>
</VTKFile>
