<?xml version="1.0"?>
<VTKFile type="UnstructuredGrid" version="0.1" byte_order="LittleEndian" header_type="UInt32" compressor="vtkZLibDataCompressor">
  <UnstructuredGrid>
    <Piece NumberOfPoints="819" NumberOfCells="454">
      <PointData>
        <DataArray type="Int32" Name="libmesh_node_id" format="ascii" RangeMin="2316" RangeMax="5735">
          2316 2317 2318 2319 2320 2321
          2322 2323 2324 2325 2326 2327
          2433 2434 2435 2436 2437 2438
          2439 2440 2441 2442 2443 2444
          2598 2599 2600 2601 2602 2603
          2643 2644 2645 2646 2647 2648
          2649 2650 2651 2709 2710 2711
          2712 2713 2714 2715 2716 2717
          2718 2719 2720 2766 2767 2768
          2769 2770 2771 2772 2773 2774
          2775 2776 2777 2808 2809 2810
          2811 2812 2813 2814 2815 2816
          2817 2818 2819 2852 2853 2856
          2857 2860 2861 2970 2971 2973
          2974 2976 2977 2991 2994 2995
          2998 2999 3002 3081 3082 3083
          3084 3085 3086 3087 3088 3089
          3090 3091 3092 3187 3190 3193
          3241 3243 3245 3270 3271 3272
          3312 3313 3314 3315 3316 3317
          3495 3496 3497 3498 3499 3500
          3501 3502 3503 3504 3505 3506
          3765 3766 3767 3768 3769 3770
          3852 3853 3854 4470 4471 4472
          4584 4585 4586 4587 4588 4589
          4635 4636 4637 4638 4639 4640
          4641 4642 4643 4644 4645 4646
          4659 4660 4661 4662 4663 4664
          4722 4723 4724 4782 4783 4784
          4791 4792 4793 4794 4795 4796
          4797 4798 4799 4812 4813 4814
          4815 4816 4817 4818 4819 4820
          4833 4834 4835 4836 4837 4838
          4848 4849 4850 4851 4852 4853
          4896 4897 4898 4899 4900 4901
          4911 4912 4913 4935 4936 4937
          4938 4939 4940 4944 4945 4946
          4947 4948 4949 4950 4951 4952
          4953 4954 4955 4956 4957 4958
          4992 4993 4994 5007 5008 5009
          5010 5011 5012 5013 5014 5015
          5016 5017 5018 5019 5020 5021
          5025 5026 5027 5028 5029 5030
          5040 5041 5042 5043 5044 5045
          5055 5056 5057 5073 5074 5075
          5079 5080 5081 5088 5089 5090
          5094 5095 5096 5103 5104 5105
          5151 5152 5153 5160 5161 5162
          5169 5170 5171 5178 5179 5180
          5187 5188 5189 5202 5203 5204
          5205 5206 5207 5208 5209 5210
          5211 5212 5213 5214 5215 5216
          5217 5218 5219 5220 5221 5222
          5223 5224 5225 5226 5227 5228
          5229 5230 5231 5232 5233 5234
          5235 5236 5237 5238 5239 5240
          5241 5242 5243 5244 5245 5246
          5247 5248 5249 5253 5254 5255
          5256 5257 5258 5259 5260 5261
          5262 5263 5264 5265 5266 5267
          5268 5269 5270 5271 5272 5273
          5274 5275 5276 5280 5281 5282
          5283 5284 5285 5286 5287 5288
          5289 5290 5291 5292 5293 5294
          5295 5296 5297 5298 5299 5300
          5301 5302 5303 5307 5308 5309
          5310 5311 5312 5313 5314 5315
          5316 5317 5318 5319 5320 5321
          5322 5323 5324 5325 5326 5327
          5328 5329 5330 5334 5335 5336
          5337 5338 5339 5340 5341 5342
          5343 5344 5345 5346 5347 5348
          5349 5350 5351 5352 5353 5354
          5355 5356 5357 5358 5359 5360
          5361 5362 5363 5364 5365 5366
          5367 5368 5369 5370 5371 5372
          5373 5374 5375 5376 5377 5378
          5379 5380 5381 5382 5383 5384
          5385 5386 5387 5388 5389 5390
          5391 5392 5393 5394 5395 5396
          5397 5398 5399 5400 5401 5402
          5403 5404 5405 5406 5407 5408
          5409 5410 5411 5412 5413 5414
          5415 5416 5417 5418 5419 5420
          5421 5422 5423 5424 5425 5426
          5427 5428 5429 5430 5431 5432
          5433 5434 5435 5436 5437 5438
          5439 5440 5441 5442 5443 5444
          5445 5446 5447 5448 5449 5450
          5451 5452 5453 5454 5455 5456
          5457 5458 5459 5460 5461 5462
          5463 5464 5465 5466 5467 5468
          5469 5470 5471 5472 5473 5474
          5475 5476 5477 5478 5479 5480
          5481 5482 5483 5484 5485 5486
          5487 5488 5489 5490 5491 5492
          5493 5494 5495 5496 5497 5498
          5499 5500 5501 5502 5503 5504
          5505 5506 5507 5508 5509 5510
          5511 5512 5513 5514 5515 5516
          5517 5518 5519 5520 5521 5522
          5523 5524 5525 5526 5527 5528
          5529 5530 5531 5532 5533 5534
          5535 5536 5537 5538 5539 5540
          5541 5542 5543 5544 5545 5546
          5547 5548 5549 5550 5551 5552
          5553 5554 5555 5556 5557 5558
          5559 5560 5561 5562 5563 5564
          5565 5566 5567 5568 5569 5570
          5571 5572 5573 5574 5575 5576
          5577 5578 5579 5580 5581 5582
          5583 5584 5585 5586 5587 5588
          5589 5590 5591 5592 5593 5594
          5595 5596 5597 5598 5599 5600
          5601 5602 5603 5604 5605 5606
          5607 5608 5609 5610 5611 5612
          5613 5614 5615 5616 5617 5618
          5619 5620 5621 5622 5623 5624
          5625 5626 5627 5628 5629 5630
          5631 5632 5633 5634 5635 5636
          5637 5638 5639 5640 5641 5642
          5643 5644 5645 5646 5647 5648
          5649 5650 5651 5652 5653 5654
          5655 5656 5657 5658 5659 5660
          5661 5662 5663 5664 5665 5666
          5667 5668 5669 5670 5671 5672
          5673 5674 5675 5676 5677 5678
          5679 5680 5681 5682 5683 5684
          5685 5686 5687 5688 5689 5690
          5691 5692 5693 5694 5695 5696
          5697 5698 5699 5700 5701 5702
          5703 5704 5705 5706 5707 5708
          5709 5710 5711 5712 5713 5714
          5715 5716 5717 5718 5719 5720
          5721 5722 5723 5724 5725 5726
          5727 5728 5729 5730 5731 5732
          5733 5734 5735
        </DataArray>
        <DataArray type="Float64" Name="resid_x" format="ascii" RangeMin="-0.003600019113856767" RangeMax="30.39096080304013">
          -0.00005856243063284694 -0.0000782209868592787 -0.00003250539417276599 -0.000029151455188447528 -0.00010834618373323224 -0.00014659969021302288
          -0.00005480796644663499 -0.0000487590217339573 -0.00007682185317214874 -0.00010079077611990783 -0.00002276457054950498 -0.000010140121093016319
          -0.000010110919615335945 -0.000012715624975623285 -0.00001766162164251739 -0.000021624037978451582 -0.000011645224530010267 -0.000014871073786171252
          -0.000009237357759595 -0.000023225876544241686 0.00001602228856611987 0.00002107518467386882 0.0000437854116253078 0.00003432764536470678
          5.0010449115234223e-8 -0.000009491837554442828 -0.00004498097127036971 -0.00004170106061157641 0.00000721045352936045 0.000013236013229556143
          0.000007306612539892399 0.00001768308084937331 0.00003139854703082534 -0.0000013552789654980302 0.000017338640486030954 -0.000022226394031044094
          0.000031908914807310396 0.00004523591713478936 0.000032832700958884686 -0.00001283594767517715 -0.000010903662891248445 -0.00001388816512082336
          -0.000019013921177979398 -0.00001495254693414938 -0.000004996729632722463 -0.000011896045037707026 -0.000019278252491261583 0.000015123703964003976
          0.000013728982165339687 0.00002546823441074153 0.000032585128098894245 -0.00001179426734276845 -0.000013491935999976334 -0.000006718641911707124
          -0.000012977391662172266 -0.00001175831520550119 -0.000009386622336293726 -0.000013492307282092497 -0.00001639966507260837 0.00001045044061331879
          0.000013562928101507055 0.000015020564417600468 0.00002345311545415285 0.000014678254990130313 -0.0000029557079370690076 0.000015526810496435672
          -0.0000013930721469712637 -0.00000870489308546496 -0.0000011030008817414227 0.000022504317027216558 0.000014633650717854607 0.000034011787496623924
          0.00002293289680288524 -0.00003922844672921144 -0.0000062124255375550774 0.000022547441369091814 -6.188735546253099e-7 0.000008332783519193754
          -0.000007858036839003546 0.00002211590120637652 0.000007046445310798788 0.00005557464526351197 0.000037612357061789226 0.000004955465104927725
          0.00005452049891552235 0.000020299062247097766 0.00003619635732832194 0.000029429112425205517 0.00001858035825996751 0.00005685154029144712
          0.000043300291219239284 0.0000349998099968829 0.00002366978115375673 -0.000001862844277056297 -0.000010163946372210297 -0.00001720503717872468
          -0.000015255556265747483 -0.000014515701319606222 -0.00001396892476818179 -0.000017374055801377963 -0.000015522829765135526 0.000026558966198741984
          0.00001753485479177863 0.00004076314402468029 0.00004897150480803747 0.00003208704348844904 0.00004144394818528241 0.000020057128284456383
          0.000019568245319234734 0.000048569012231602926 0.00002663253190737791 0.0000226787479866708 0.0000329375524374953 0.000019610924820501197
          0.000011021325133753201 0.000007668166542185162 -0.000018253197264228582 -0.000007908447833493426 0.000018407858091151752 0.000013252778543026977
          0.000014581253429568619 -0.000006559125258043252 -0.000009691018125312922 0.00001032312224147347 0.00003690497473485266 -0.00000716367153907882
          -0.000012751267568944513 0.00004399174729385891 0.000025032854175321972 0.000007481106100826196 0.000009250519839021365 0.0000389037213679444
          0.00003306666974633998 0.00002520901270874898 -0.000010615429143712163 -0.00001756747083847543 0.000011793633667878112 0.000007675178372801295
          0.00001122493113259182 0.000012019257937367911 0.000010264857844166642 0.00001068238203805194 -0.000007523681358367895 0.00002086244293808548
          0.000029988581676576587 0.00002188997384422464 0.000049943622689951894 0.00004544526335692467 0.00002305359536336482 0.000019142997850885024
          0.000006082579264876653 -7.864621855979692e-7 -0.00000686138121641644 -0.000012326913819471486 0.0000032427233103149433 0.0000032981926230135628
          0.000008141268114769673 0.00001072632815235508 -0.0000023936768971388744 -7.755076185667065e-7 0.00001929976543779688 0.000010088887534731583
          0.00001624061445459901 3.8518510558915864e-7 0.000006788887335407168 0.000024779657427309587 -0.0000024186450513496993 0.000011454137452959756
          0.00002645216521629523 -0.0000033123917954624993 0.000009640695227575158 0.000039799776719418034 0.000001937415935238107 0.000013563865264076824
          0.000027426500820215693 0.00001875393613026688 0.000014388324423464383 0.00004780263240267146 0.00003490455840449158 0.00011650616793890123
          0.00008124284026322925 0.00006564269863273964 0.00004973749156178542 0.000042737580697504995 -0.000013212216770419616 0.00001205176791785334
          0.00004299458726819694 0.000021905590845250345 -0.000010835027633326888 -0.000006437289135297064 0.000011078259460894913 0.000016599062035549395
          -0.000004093043244779437 -0.0000029115597564022266 -0.000013128644962279168 -0.0000028450465912044365 0.00003033165869403831 0.000028675513035647526
          0.00002089162739427053 0.000004352289012299337 -0.00002120204463462727 -0.00001743102737172819 -0.000005193196271680023 -0.0000019691205870309147
          0.000012270877581821438 -0.0000029664363359049872 0.00000928001567990222 0.00004185057703764983 0.00007521002875598981 0.000042184620711260834
          0.000040680955064154034 0.00004632323211239964 0.00003421731947561568 0.000021820525546445424 0.000004205185151207047 -0.0000018080846029278064
          -0.000007872317310919641 0.000019421732585289675 -0.0000012753158555867117 -0.00000800848555604361 0.00003498902965848316 -0.000010104911409403172
          0.00007427962127559695 0.000003934975520092365 0.000039833824520663086 0.000027596434631016464 0.000013899506694947661 0.00002494581428713616
          4.2274220368732074e-7 -0.000004586852505372718 0.0000036666979763566587 0.00001238907116452026 0.000008068797688220997 0.000009478443911525858
          0.00005477067928483237 0.00008625998434075299 0.000047793405990592674 0.00004046655734368798 0.000023308988895909266 -2.632534763513661e-7
          -0.0000033896662872123784 0.000008641845927748193 0.0000187012069687853 0.000003648313559256877 -0.0000021007341226564336 -0.000018896295689518894
          -0.000011136929886745861 -6.04711783758205e-7 -0.000010364082848823841 0.00005618312485378141 0.00009661366423152629 0.00005029942701817447
          0.000017454409497519308 -0.000015178573158580733 -0.0000011678770750478407 0.000029390321801603392 -0.0000020004052934119443 0.000006622157398439299
          0.00006158834673275493 0.000055649739602259274 0.00011965909806299635 0.0001137051441095771 0.00006283396594763957 0.000060833178803676446
          0.00005869394818924789 0.00010671645392745788 0.000056048784336848456 0.0000697301229952707 0.00012831341325769685 0.00006699397945730823
          0.0000372607617413756 -0.0000037626186450978594 0.000008530003755335969 0.00007640290301758057 0.00013764038320607241 0.00006772720471914795
          0.00007409575878414287 0.0001366408184257928 0.0000619092692395462 0.0001642919451834146 0.000311218076487485 0.0001421430110095656
          0.00007043744177170908 0.00006564864514402302 -0.000002066414141133066 0.00003954179532605906 0.000006535357904624561 -0.00004395248585709055
          -0.000013493344280135489 -0.00008927120039459169 -0.00011794659809893915 -0.00007992155243030652 -0.00021331073668307 -0.0002144386107136853
          0.00029025988604303166 0.0005469649494500572 0.00020137111002149766 0.000046973959790364006 0.00001814583607906428 0.00010659400831158905
          0.00004672663021487722 0.00014754214239687258 0.0000630284097749012 0.0000311302175690642 0.000008188072487591569 0.00007218794330032807
          0.000026663994902698107 0.0001533374410715993 0.00006868649878288835 0.000050766891940057235 0.000019194924567145222 0.00006549687130963378
          0.00001980557493119761 0.00018158064467499457 0.0000852010289102978 0.00005352212022113889 0.000020737876681664602 0.00005029864023953223
          0.000015198787643555534 0.0001864196488838843 0.00008244227979758989 0.00005178648375459005 0.0000197170953413206 0.00004362168405158684
          0.000011565539447033757 0.00019136718319678891 0.00008426726326327127 0.00005048983814326391 0.000018914135122116704 0.00004174782967236723
          0.00001048283243143544 0.00019123952699295899 0.00008388588875440917 0.00004962357857429822 0.00001828375195511711 0.000044637114023693414
          0.000011890467063402355 0.00018542383922337535 0.00008142421723178472 0.00004361768996208326 0.000015167480506228515 0.00004075424782623571
          0.000010198906084113446 0.00015494471191868087 0.00006724496723542472 0.00006258526458324809 0.00012216317862723258 0.00016020835921182197
          0.00004584327524792542 0.00008300208922484842 0.00017147686953133956 0.00007019956387921411 0.00007762321185200705 0.0002052376049990201
          0.00007383739243493892 0.00006235051102621014 0.00021187626132324056 0.00007192616800288931 0.000056381045857811785 0.00021767661120986048
          0.0000698992599268422 0.00005541255276586554 0.0002170481246395184 0.00006782801359772606 0.00006030159094105869 0.00020754561527436266
          0.00005720245040308214 0.00005510229031013836 0.0001733516018234127 0.00007711703237234246 0.00014264852142886753 0.00017307494789164934
          0.000060264932255194026 0.00010256880374903687 0.00019230625785748856 0.00008890176473919098 0.00010078209860875376 0.0002343093149255182
          0.00009400005499937691 0.00008917060064828064 0.0002460864589233225 0.00009229960497680878 0.00008476515339328472 0.00025449338302241387
          0.0000898359877137267 0.00008457315170229407 0.00025418560058465545 0.0000870370676269161 0.00009123847555869702 0.0002395724386907716
          0.00007247230462237297 0.00008166198572823191 0.00019927908638361913 0.00009230078387290064 0.00016758241506664717 0.00018752713235592466
          0.00007869270616023272 0.00013411870942370285 0.00022109249365875883 0.00011347202319811345 0.00014094203021031149 0.00027726934286587124
          0.00012127639942871582 0.0001342762096330219 0.0002977674521620344 0.00011964416084886409 0.00013098174989956135 0.00030986866081494924
          0.0001154783660091141 0.00012874634792403583 0.00030906295535082506 0.00011036852406753894 0.00013274580138222802 0.0002837444053032101
          0.00009087016724862451 0.00011550088663003777 0.00023384070332710394 0.00010143411548746428 0.00018206762287320544 0.00020158603261499763
          0.00010557309706804574 0.0001846869136441498 0.00026261533775961965 0.0001491682709415798 0.00020927319355035223 0.0003398679358346257
          0.00016139348800514597 0.00021272134773830942 0.0003753807239723628 0.00015839406667428335 0.0002079123524882931 0.0003916372134886714
          0.00014826989020200187 0.0001944103727815616 0.0003862874498361535 0.0001352156992480147 0.00018320011176164996 0.0003372350989856443
          0.00010689311210043684 0.0001488099574133983 0.00026951714977929697 0.00010461414092155508 0.00014708035302035682 0.00010380569679302454
          0.00010845851433138876 0.000193412468796339 0.0002213390165222151 0.00014693835522905374 0.0002665320670063309 0.000326909514582141
          0.0002078479338765149 0.0003289271303090757 0.00044056344052822993 0.0002279752455338624 0.0003505204526312866 0.0004997626824660983
          0.00021950091799904925 0.0003358813197884558 0.0005168520445897329 0.00019179368432276078 0.00028749233127634 0.0004943991865538067
          0.00015547039645280591 0.0002306448796511873 0.0003909145544058745 0.00010911444252048597 0.00016037017898629102 0.00029026626412864687
          0.0000575172302461624 0.00010006376939486472 0.00003755588137721588 0.00013105247290656763 0.00023370735580829916 0.00022695927196281218
          0.00024089768045509885 0.00041411295550197735 0.0004395687335518872 0.00031898621417703055 0.0005445528538796651 0.0006040452102622496
          0.00034711588153868433 0.0005961263444316245 0.0006995926246169404 0.0003225427379218715 0.000551585408155475 0.0007071763163057909
          0.00025001579968719767 0.0004146341757742533 0.0006422301548481002 0.00014918146812803457 0.00023044634833357946 0.0004311279699091841
          0.00006785712988488513 0.00009047371774872914 0.00026777964586344183 -0.000027351398466990418 -0.00007420664590895854 -0.00013142063427373785
          0.00016320547933101892 0.00029889087693835137 0.0002481292552642955 0.00037984150573677766 0.0006834323833269096 0.0006330038911297464
          0.0005144843020747913 0.0009372781423264698 0.0008970984265266324 0.0005575828387405224 0.0010260305550184867 0.0010326631548656096
          0.0005006606656277057 0.0009212669939442364 0.0010075407135499148 0.00034911575106111314 0.0006290032861153705 0.0008486957275453122
          0.00010201082380056903 0.00015623151552945913 0.000412791484957431 -0.00007502748081655852 -0.00017583044205160547 0.00010848290790654858
          -0.00023607458858521113 -0.000491102683358946 -0.00036349361500676025 -0.0007743630248775446 -0.0015749138564480347 -0.0007405229980648187
          -0.0012714180719228807 -0.002595987120226795 -0.0011114663375817457 -0.0016298932910752129 -0.003316818481506445 -0.001382217588330903
          -0.0017743850185194532 -0.003600019113856767 -0.0014661322717950398 -0.0016784446331046254 -0.003397648143719678 -0.0013540109358780583
          -0.001358036841926591 -0.0027463027418308528 -0.001041611249176455 -0.0009134160014738768 -0.001840668814622859 -0.0007111155140098191
          -0.0005012056642605955 -0.001001023519192401 -0.0004163054992600834 0.000011719350797356753 0.00003872526024206735 0.000007557110141220846
          0.0000345812955968583 0.00004839411349522038 0.00011662632094555647 0.0000484566514122875 0.00004645442688033796 0.00013000846129695987
          0.00006131530832664822 0.00006990587321009656 0.00015007950187229113 0.0000759004576664779 0.00009648919800575584 0.00017639059978513671
          0.00008688686328284234 0.00011880108773265619 0.0002010644848642329 0.00008178164143313182 0.00011495972836872426 0.00020909779324540523
          0.0000410438991327311 0.00004744938718470593 0.00016707896392986754 -0.00008760580694833209 -0.0001897882988020072 0.000006653989108151848
          -0.0002389198351280264 -0.00047122828575396625 -0.0002538911697373969 0.000009675785364926526 0.00003434704461380278 0.000007501580473245895
          0.000032864928259712656 0.0000418129662138611 0.00010082150089285591 0.000041793937835876704 0.00004500815697117133 0.00010962251698032333
          0.00005256973775846774 0.0000657689473761991 0.000122069018650528 0.00006545021631332304 0.00008961466789081385 0.00013795800931504232
          0.00007469944341309542 0.00010802105207563528 0.00014699220077840636 0.0000691680115334492 0.00010320325783386153 0.0001304256968719386
          0.00003246776150511721 0.00004496015739796633 0.00005651479712120988 -0.00008333660349091332 -0.00016475312698283062 -0.00014272855710650845
          -0.0001754447539390469 -0.00033663640843517584 -0.0002711563150383789 0.000006740280087846884 0.000028016229781435698 0.000007158540078933129
          0.00003211846021589082 0.00003440093122719645 0.00008485073628339279 0.000033403374248841544 0.00004370120289021173 0.00009096851526013694
          0.00004215726014145105 0.00006288237749707548 0.00009993104481331727 0.00005328849294272686 0.0000841682809431532 0.00011084153543539088
          0.00006102968290466748 0.00009914401335020528 0.00011341051565061377 0.000054579012014777106 0.00009136440385404399 0.00008991566297389397
          0.000014609601973525344 0.00002493053181673588 0.000012785409025717343 -0.00008586525880538431 -0.00015670765689623778 -0.00016164859194400805
          -0.00012805515941760603 -0.00023683603351010163 -0.0002060229612110831 0.0000034705665417078535 0.00002117161876302731 0.00000583169686407814
          0.00002928554235737124 0.000026729558745941517 0.00006859277303306044 0.000024778717404139172 0.00003986090111052221 0.00007240666776908711
          0.00003161091302228414 0.000056855884423612224 0.00007825711090259091 0.00004071902610025546 0.00007495860361839135 0.00008469242759545637
          0.000046295383937966506 0.00008563374435954785 0.0000818421706725303 0.000036876976914790305 0.00007147194001255741 0.00005331180757472964
          -0.000004479258097767058 0.00000166127410317074 -0.00002345076506582444 -0.00008673624995303442 -0.0001440089955835333 -0.0001643950139849082
          -0.00009561196127272353 -0.00016434017674704648 -0.00016208419239926997 -1.3953456345916493e-7 0.000013848566488228187 0.000003403596610773718
          0.000024119519555831914 0.000018877570331810034 0.000052381078914365276 0.000016019033265202154 0.00003322400194782915 0.0000546745649057101
          0.00002103743524450863 0.000047444806611451895 0.00005836211358456467 0.000028006484312115276 0.00006180280316225861 0.00006181574078478747
          0.00003119205622414967 0.00006777431377358312 0.00005618253025563291 0.000019896209005665355 0.00004938465892578847 0.000027581819872501967
          -0.000018059626510691373 -0.000014196056786985878 -0.00003912535484751345 -0.0000816389612454671 -0.00012383198929555306 -0.00014538412484110808
          -0.00007177748939657391 -0.00011238099460886275 -0.00012236967143941513 -0.000003894621012356936 0.00000632603661543385 -1.0544985329374867e-7
          0.00001666954125845166 0.0000106749649022575 0.00003591993562324092 0.00000731778488383128 0.00002386632930395649 0.000037273091875178466
          0.000010638815237662413 0.00003484054980251727 0.00003943336694867128 0.000015415595441936603 0.00004522831638187341 0.00004092659373977625
          0.00001672102837968481 0.00004747948927974477 0.0000344126939149092 0.0000055298751986399 0.00002917564997684252 0.000009832961072042679
          -0.000025662328491549147 -0.000021743895417536407 -0.00004221847579621851 -0.00007203871205341272 -0.00009905120629838393 -0.00011754153076815044
          -0.00005423906449308902 -0.00007574930391918144 -0.00009000742325504518 -0.000007604139537598087 -9.211603408942892e-7 -0.0000045432749811169515
          0.000007258348654559654 0.000002262741569225568 0.00001916246641364694 -6.757693062908743e-7 0.000012228735519315137 0.000019951322631328594
          0.0000012130482609506998 0.00001966438765599321 0.00002116731748547096 0.000004270805017192458 0.000026281221495061402 0.000021403879335579745
          0.000004755726909166924 0.000026503451096004937 0.000015747668180132735 -0.000004009613983946281 0.000012180300472230954 -0.0000020644147511461597
          -0.000025815614072222104 -0.00002276738388395927 -0.000037572636857774455 -0.0000568384193053717 -0.0000717200291964204 -0.00008503840583529154
          -0.00004002414627990447 -0.00004963450894912569 -0.0000628545293741567 -0.00001130371659474605 -0.000007995655215253805 -0.000009646046375877404
          -0.0000035607839627971316 -0.000006205319571073176 0.0000023859091689004686 -0.000008211377779510087 -0.0000010429204024831051 0.0000029997288102379116
          -0.0000075161297052872555 0.000002775445534730636 0.0000036824923501654894 -0.000005806202570290964 0.000006019019193281849 0.000003572631398718329
          -0.0000055229713726845375 0.000005789026388924867 2.8435017540573426e-7 -0.000010200844432262102 -0.0000018946831055188795 -0.000008924172012925169
          -0.000021517876001908576 -0.000019429155312167268 -0.000026144787620197008 -0.000037835984145750956 -0.000043031986878716566 -0.000047914969620421743
          -0.00002684346550907435 -0.00003007688485467952 -0.00003735848145147713 7.635714955639299 15.195406533442767 15.271505563870825
          30.39096080304013 7.636478535900647 15.196926852940114 14.963882400396603 29.92790914957168 14.96536662411106
          14.56836544327551 29.13686436988116 14.56974037244581 14.002017375068029 28.004141778663794 14.003131438742063
          13.273458522079398 26.546972003270987 13.274049775974408 12.429723855504625 24.859411924292324 12.429395458619364
          11.584557927147053 23.168951907982663 11.582856034271847 10.932797720598732 21.865255938402168 10.92937056976436
          5.34647978243902 10.692685611779938 5.344134864318929
        </DataArray>
        <DataArray type="Float64" Name="resid_y" format="ascii" RangeMin="-2.0041905776597377" RangeMax="2.2980230302431677">
          -0.00004941628876040105 -0.000021606677337901448 -0.0000054116422156004484 -0.000007064309439669403 -0.00010039239578332748 -0.000044949502914726214
          -0.000012311773970066081 -0.00001939051745827869 -0.00007991622483149996 -0.00005626242329036246 -0.000026566810255816004 -0.00004519324147742032
          -0.0000065554906825693315 -0.0000034259090919627755 -0.000011208276624180558 -0.000007692134801881578 -0.000015056782045753947 -0.000021399236557039653
          -0.000033416534213626115 -0.00001876053338213668 -0.00003583415621309649 -0.000057840141768544795 -0.00006159583904857824 -0.00005273784355527833
          -0.00002165789845320898 -0.000014563311939164159 -0.00003968723290084797 -0.00002454122104317974 -0.00006257329159202463 -0.00005530257122994195
          -0.000044351133703601775 -0.00004528443061813797 -0.00004901761355059764 -0.00004252058131351544 -0.00006656220843306859 -0.000052100027614729316
          -0.000056843251143245954 -0.00005048277463616524 -0.00006233919788682651 -0.0000029845695928044924 4.850871082370117e-7 -0.000002236593691526574
          9.90909039946808e-7 -0.000008984395580956955 -0.000008902027989024161 -0.000007678736254784248 -0.0000156438633441211 -0.000032880935008416934
          -0.00002615282009274869 -0.000051481266231094384 -0.000056497807071856365 -8.449507779601136e-7 -1.3844928333471562e-7 -0.000017888446039719674
          -3.8736018313431653e-7 -0.0000041169495020353455 -0.0000023348447429263203 -0.000014768990109306247 -0.000008791695559898921 -0.000015744138073516857
          -0.00001630265912949333 -0.00003265118505324169 -0.00003684580827462841 -0.000009658497675974712 -0.000002533691685208117 -0.000030416221373147367
          -0.000011605065545854804 -0.000012256682685660159 -0.000025169661537698118 -0.000041131514302990627 -0.000050410711246146045 -0.000060285830184809985
          -0.00007304835672150567 -0.00009905386078779 -0.00008330823449237412 -0.000045735921977707594 -0.000031804156511383574 -0.00003780809018205655
          -0.00004227492198888294 -0.00003773244023241862 -0.000045237100131906294 -0.00008459129463567194 -0.00005692206318746486 -0.00010526739998495405
          -0.00006502773731438538 -0.00006140557728701035 -0.00004025847616467154 -0.00003889237762379899 -0.00003485434358787166 -0.000058491244338116505
          -0.00007372962530751218 -0.000046504393769297714 -0.00004911676745471619 -0.000004779612941353817 4.2228422063826654e-7 0.0000013948397446869208
          -0.000004536806503538729 -0.000006809396430832587 -0.000005204677083585352 -0.000022698000325996207 -0.000011435611486611957 -0.000049964683623351935
          -0.000041903276324315245 -0.00007729232859069325 -0.00006987474645481391 -0.00004621085064531426 -0.00005840679432430468 -0.00003680993281558395
          -0.000027857398040157313 -0.000056592471676737005 -0.000036278404396026045 -0.00005178351455120689 -0.00005977809582791149 -0.0000427186868990348
          -0.000030232403226498894 -0.000028467190895060945 -0.000022557408794858513 -0.000017782330913478084 -0.000048970467795894645 -0.000038654562361059575
          -0.000006751291516018942 -0.000003086371820434919 -6.12238586406369e-7 -0.0000034637710826165846 -0.000014057043472057162 -0.000008646223901780103
          -0.000009513883570901396 -0.00001722594744112127 -0.000024479648503619722 -0.00002861281893261347 -0.00003485573488813502 -0.00003344667074620805
          -0.00004487565864422227 -0.000027612424034980515 -0.000019384074601044854 -0.000008380762728023641 -0.00003432409931362901 -0.000025010256680222873
          0.000006064356418599565 0.000015396797349326308 -0.000006914167286195538 -0.000029052978901300194 -0.000012482068903309565 -0.00003656944619469943
          -0.000023459715827834488 -0.00002016459751831047 -0.00003090290957463021 -0.00003106940937888311 -0.000021590717333503512 -0.000017005951276266584
          -0.000009818657173719936 9.186522716142509e-9 -0.000008612583011704091 3.080865825771245e-7 -0.000014401843057767517 -0.000010618062555770025
          -0.000006249114807027438 -0.000011468067515049696 -0.000006522842485364583 -0.00001353357599378352 -0.00003495220183852635 -0.000025732198486227986
          -0.000024184720983765756 -0.000013127909257296122 -0.00003106554724723737 -0.000056829413402958995 -0.00005256298835104589 -0.000046921586784612335
          -0.000032727371588912174 -0.000012494039851432964 -0.00003514966165963935 -0.0000407642034413961 -0.000017165135968080086 -0.00003032573046542371
          -0.000021842204002956236 -0.00001460792331575353 -0.00001980100754571737 0.000006324925188943295 -0.00002539521727438522 -0.00002144027275870035
          -0.000053348646138041446 -0.00003328876920393755 -0.000042477466804043736 -0.000057323941099939046 -0.000019055849635685185 -0.00003595504154960821
          -0.00005557900265773519 -0.000031336614319495745 -0.000013084768674009872 -0.000012186435908225282 -0.00003787504341966341 -0.000041873060911902906
          -0.00003342597454994434 -0.000022986790161353896 -0.000010474934459700491 -0.000011657449160906372 -0.0000473997990265429 -0.000042036135181899165
          -0.000021724542722586365 -0.000009078970341755768 -0.000010773906398604122 -0.0000044070669703959175 -0.00001691269841841772 -0.000010168983408530459
          -0.000027867215568629783 -0.000012124898816270185 -0.00002312389313730706 -0.000051339222938172335 -0.00005463664501587778 -0.00003758403591966851
          -0.00004154748409131853 -0.000032313964058033884 -0.000035438330668879914 -0.000030387952671634064 -0.00001547064523085232 -0.000016082173789070536
          -7.12565995827398e-7 -0.000043135289706008884 -0.000011553164322670138 -2.4468933199029916e-7 0.000003296189717645311 -4.909697508921271e-7
          -0.000010458438952409225 -0.00001935276225606972 -0.000025018354171797924 -0.000047013292267525115 -0.000023932672511313077 -0.000030433305375929254
          -0.000020886996608877797 -5.967711020739633e-7 -0.0000055314084010235284 -0.00003110070292502076 -0.00001834001871185882 -0.000020144943235799948
          -0.000018205750654563552 0.0000016005220639754222 -0.000011418721006067802 -0.00004226614771213333 -0.000045143837855167934 -0.000016717782393455005
          -0.000014295576678543891 -0.000024245273607809148 -0.00002865122221721412 -0.000012870910550822137 -0.000005581515331413989 -0.000004127042654938212
          -5.994215458576813e-7 -0.000013223864095397372 -0.000011973733069423065 -0.000020093456131911863 -0.000004544940019293731 -0.000008053190167914455
          -0.000051496844048121593 -0.0000154633105058752 -0.00002278153359400051 -0.000028637019539375086 -0.000008582542663782 -0.000019221827533798252
          -0.000007680726004551108 -0.000009223108531346714 -0.000005306674739524297 -0.0000068291775731010515 -0.00000795176061805375 -0.000009129105508643136
          -0.000017326809387584966 -0.000009052006358072767 -0.00001010336315349818 -0.000008485711545257527 -0.0000024193815537070645 -0.000006533024562637053
          -0.00004652630451994211 -0.00001740844943493025 -0.00002687520512720254 -0.000010697907522164672 -0.000003617438895366261 -0.0000046125795126351204
          -0.000009932876339217162 -0.0000053544168461608366 -0.0000077146109922991 -0.000016513406959517418 -0.000015224121595096285 -0.000021970503278810616
          -0.00007321081692028032 -0.00011483070639124217 -0.00006983220275018354 -0.00007648947806593309 -0.00013265478133850372 -0.00008797138976679442
          -0.00008704174522505825 -0.0001505576901588146 -0.0000990755738715654 -0.00006603417730938199 -0.00009954435418113583 -0.0000732694908309739
          -0.00003079047257668194 -0.00003614642673274715 -0.000025838445856796177 0.000004497612115406113 -1.002040526744933 0.00000881290617044117
          -2.0041905776597377 5.649479137836977e-7 -1.0042492502693927 0.000008487908639109865 -0.8808428750015879 0.000016979685979912063
          -1.7617905851348195 -0.0000013531297166635703 -0.8832615591868593 0.000012360989656123866 -0.6842172397589392 0.000020343423500046587
          -1.3685274707290631 -0.0000013914304630158192 -0.6867147611703253 0.000012476776602321493 -0.42387750013124303 0.00001991925332539557
          -0.8478243358803558 -8.888027671627441e-7 -0.42615428069933825 0.000011112120125389424 -0.11962790018936373 0.00001701316370401884
          -0.23929323743732367 -0.000001572702012495042 -0.12127112756526742 0.000008906416655379834 0.20426435981884747 0.000012558429400802429
          0.4085272027069018 -0.0000031293051143133077 0.20367976272852378 0.000006537949904961149 0.5234300821002508 0.000008133158435869037
          1.0468912666662025 -0.000004803802042457894 0.5241681174242891 0.000004672548630735296 0.6734939912805189 0.000005024294556787989
          1.347025172276303 -0.000004966683535445604 0.6750423095511003 -1.0915487524965073e-7 0.00001307281349793854 0.0000019994151047586506
          0.00001097674485972533 0.00003207218249257071 0.0000022610001861878004 0.000013306013039060538 0.000039388816602203836 0.000004678157725479526
          0.000013329583604448914 0.00003675458899499162 0.0000048179636609746446 0.000011451511814336568 0.00003154591550619257 0.0000037235157339110536
          0.000008064210282876516 0.000023257247108041113 6.654563729016627e-7 0.00000463646791104555 0.000014636374563364862 -0.0000031737368003936783
          0.0000045902700707978195 0.000009718290920585071 -0.000005224356181138257 -0.0000011462426064978715 0.000023914962841820042 0.000006415739526033359
          0.00001418313486334366 0.00004891141228402507 0.000006978437465332554 0.000017684080483970632 0.00006119644967106375 0.00001244100164532469
          0.00001892975321599044 0.000060927635586349727 0.00001549128950334433 0.000017220700097686503 0.00005442072426065092 0.00001541364437951387
          0.000013002394146650886 0.00004234097248909108 0.000011672895812477047 0.000008409924505972666 0.000028615293751754756 0.000005605343146419806
          0.0000082348271303323 0.000019716224765410628 0.0000012217238172795852 -0.0000026818032344833043 0.000028579860145816482 0.000005782783383589951
          0.000017108804252430332 0.00006184377263840357 0.000009864789262792328 0.0000241225931625344 0.00008290801830213024 0.00002063777859773186
          0.000028907730491967154 0.0000885796656001081 0.000028842264567507936 0.00002969099313326895 0.00008494386293722567 0.00003245988518524312
          0.000025944005904471323 0.00007128549137408458 0.000029381799097907835 0.00002019105661724141 0.00005290103241376021 0.00002088685686715483
          0.00001817655109555283 0.00003798930435107428 0.000013133526482564384 -0.000002608879179577528 0.00003371296631859977 -0.0000012054399736172172
          0.00001653750123065123 0.00006667694371942368 0.000008698398795470297 0.00003093751129634725 0.00010420070506633738 0.000030463943553438178
          0.00004475648359414386 0.00012652879759500468 0.00005041364260871539 0.00005323873323997974 0.00013573733927180198 0.00006342838921130634
          0.000052569952746772675 0.00012557010714142613 0.00006364820713433694 0.00004483921016260051 0.00010105537329054004 0.00005064661770427803
          0.00003728439451256005 0.00007307392187577699 0.00003519798476331326 -0.00004847690008258354 -0.0000749268360356048 -0.00005285699553136958
          -0.000024246827831753137 -0.000005900061174735072 -0.000028338380039016897 0.000005727489343909653 0.000050733274747472024 -0.0000015238445578713566
          0.00003580780078116241 0.00012070140156461573 0.00004140927999052302 0.00007055180043735731 0.0001833974435107022 0.00008751158093744937
          0.00009821020193911956 0.000228527516707433 0.0001230482630401042 0.00010652792402077171 0.00023382911980601717 0.00013290789720454832
          0.00009438010041940004 0.00019853064336944337 0.00010906906142282846 0.00007187248912898792 0.00013912043193031742 0.00007442293246762155
          -0.00009186900780089324 -0.00016235446726087233 -0.00010196524574990207 -0.00007767042154860349 -0.00010869539428215447 -0.0000844210630577269
          -0.00003457527910755154 -0.000015483415431116754 -0.000032219565673674566 0.00003254645099226572 0.00012026216230243136 0.000055094241992126314
          0.00011155007526308935 0.0002700686472831837 0.000154253487211653 0.0001811870984635977 0.0003967142039800198 0.00023778382433969902
          0.00021447610642544301 0.00044939800935861474 0.00027452357642421266 0.0001925128610893445 0.00039264842316877324 0.0002274264569385731
          0.00012522330919284563 0.00024308490897084756 0.00013846941666229018 -0.00022231196054955937 -0.0004096989676831697 -0.0002333622635766197
          -0.00021601319841568767 -0.00038818144088303974 -0.0002257359300088524 -0.0001397224543771003 -0.00021966530647898885 -0.00011901842549644215
          -0.000003098297183479204 0.000052929179604532806 0.00005808985086486196 0.0001614420381066406 0.00037288781125166537 0.00026460109290593614
          0.00031340320673689526 0.0006619801272291781 0.0004454095623882548 0.00040623589174315633 0.0008312213398407042 0.0005496233805055706
          0.00041054665446016436 0.0008259806500994227 0.0004979741346833322 0.00020248447710480288 0.00039498173070096065 0.00023657603548188355
          -0.00019986828317608563 -0.0003612321040074029 -0.00020187234853541458 -0.0003194453461563551 -0.000593746707892473 -0.0003145079578932286
          -0.0004560905279220595 -0.0008543815971204793 -0.00042078040726889476 -0.0005839331111709978 -0.0011128634773236445 -0.0005158488038679021
          -0.0006625266518631712 -0.0012811542106314633 -0.0005630476715865473 -0.0006486776115539605 -0.0012686482363868379 -0.0005299066582633571
          -0.0005189655596915532 -0.0010247103687950343 -0.00039414419647409993 -0.0002514703395439799 -0.0005028750744981991 -0.00018419003727720984
          -0.00007880278428185061 -0.00016861906168064156 -0.00008334231961071303 0.7040829370319401 7.886597286899111e-7 1.4082228104716747
          0.0000022911022585780927 0.7058846387024762 -0.0000024501590321635014 7.677900974445429e-7 0.000005327993897852323 -0.000002476927544986518
          0.000003878963776932087 0.000012498529639706768 0.000002284400315272217 0.00001142410411164585 0.00002469563311887496 0.000010486531449790948
          0.000024515674870023707 0.00004592401392244927 0.000023855817375018074 0.00004379116779834602 0.00007900004927841042 0.00004307343340403946
          0.00006465186293136416 0.00011538676495448374 0.00006399966290371317 0.00007540574840214642 0.0001317200172153976 0.00007305441849236871
          -0.000017834342695421945 -0.00005242770934732466 -0.00005223021478539813 0.8167440087616031 9.90188896710098e-7 1.633556968803269
          0.000004284847233804179 0.8188058288165101 -2.2525802811923512e-7 0.0000021430852883419504 0.000009304087045303167 0.0000012311864752700963
          0.00000602692242229752 0.000016886324548881504 0.0000060575642642501926 0.000013651941377824592 0.00002887246939043027 0.000013588333851701634
          0.000025371392539857984 0.000046784034927194185 0.000023825105037289518 0.00003981277764447677 0.00006911379765578429 0.00003473944481174884
          0.00005816779124201421 0.00009884953467609314 0.000046041308069733056 0.00006471200857705028 0.00010615869867802719 0.000044148727832205026
          0.000017121291324528887 0.000014727104589884465 -0.000010535630998176337 0.9122933305030914 0.0000025627391333493676 1.8246620547890255
          0.000006145765371390333 0.9145255657112691 0.0000018378205080549215 0.00000589278368962054 0.000013388937195990547 0.00000511544291648125
          0.000011595148943166489 0.000023444945544931484 0.00001126516543970002 0.00002046914527981114 0.000037646343788583225 0.00001979907818450144
          0.0000325580755776711 0.00005629907487755825 0.000030337184244250137 0.00004763959755471614 0.00007957106702449757 0.00004216966740594463
          0.00006628700493455097 0.00010962763780569817 0.000055996719529161076 0.00006473520885635908 0.00010071450955989603 0.0000510174849449041
          0.000025532291418606246 0.000028392599483784142 0.000011712961444865222 0.99060309004246 0.000004673512974118221 1.981285417840381
          0.000008750293353121386 0.9929404956506656 0.000004677582941703395 0.000010889070182540372 0.000019016740792021647 0.000010505939361027394
          0.000019173362975771768 0.000032527448517477575 0.000018770157096587026 0.00003009034306805658 0.000050230188593083924 0.000029283811588703967
          0.00004381480929394055 0.00007197549099183242 0.00004169037502055328 0.00005978346722051997 0.00009710891663500254 0.00005526153857804417
          0.00007360900356756517 0.00011791011421108388 0.00006614261900200757 0.0000645764822118089 0.00009457089560171994 0.000056284446116938724
          0.000027432905472246638 0.00002917081481812467 0.00001851523251283904 1.0523120807955055 0.000007014166903074326 2.1047051901342835
          0.000011686927981258144 1.0547066138721624 0.000007920142976403088 0.000016473963019625337 0.000025278230415870517 0.00001661034742944656
          0.000027664835681451283 0.00004251916436720515 0.000027363318216289123 0.00004094240307231378 0.00006393770014337385 0.000040260727598884216
          0.000056115032142629515 0.00008827892193749446 0.000054695626199805555 0.00007098072497774277 0.00011127778049901949 0.00006830142643421411
          0.00007853037157407039 0.00011984300948281179 0.0000743979934900163 0.00006386188536028348 0.0000864065987845608 0.000059987248729909126
          0.000027774727134444177 0.00002605347256584567 0.00002085575506466375 1.0984913493747146 0.000009311052569294098 2.1970644795377305
          0.000014531084609747946 1.1009120010057618 0.000010981317105196453 0.000021986152145936355 0.00003124897887518685 0.000022444977892277507
          0.000036046831506930666 0.000051928949618695874 0.00003546305729734689 0.00005154359170181366 0.00007641634651775475 0.0000504519405477577
          0.00006755007574732463 0.00010175594636792351 0.00006621489276308068 0.00008054379325499184 0.00012039425692161876 0.00007860898818731754
          0.00008256833150041554 0.00011830000701165688 0.00008043573499355583 0.00006417856952445344 0.00007867418925611158 0.00006282471415816615
          0.000028904000402923957 0.000022788642354665267 0.000021516906029001026 1.1303508666353113 0.000011258277551440266 2.260783660906843
          0.000016900120371143856 1.1327797995409548 0.000013487020198654776 0.000026582545327558105 0.000036158330887769985 0.000027222607510313246
          0.00004307191343200234 0.00005953481446796527 0.00004204074152924786 0.00006019904272897003 0.00008609803871884036 0.00005875594657511751
          0.00007658479486991054 0.00011131418252854908 0.00007523908085099729 0.00008768258377372246 0.00012558263662033192 0.00008663759463314186
          0.00008558728769359619 0.00011576985104766457 0.00008581815353008587 0.00006563213135134249 0.00007267140126340083 0.0000657028828680642
          0.00003105166355935052 0.0000202849920950543 0.000022068415893874982 1.148970566723392 0.000012530318397097062 2.2980230302431677
          0.00001846130146765379 1.1514007969800149 0.000015157626329975749 0.000029637986990738163 0.00003937125496156213 0.00003029736528925575
          0.000047741818253344004 0.00006441810888013766 0.00004625042902273169 0.00006590921004473449 0.00009211648995888222 0.00006399828394859641
          0.00008239845673768675 0.00011686286368345344 0.00008074389865819764 0.00009204593604222877 0.00012809594458276785 0.00009175593761881484
          0.00008776986433888662 0.00011380005307649876 0.00008886628346289199 0.00006736080711831297 0.00006897061617056234 0.00006813577584750038
          0.000032642090389355116 0.00001875607222155684 0.00002244356604224479 0.5775451194458764 0.000008313194865938733 1.1551305788808626
          0.000009532424204761192 0.5787597732314942 0.000006902996957158791 0.000018724637616651663 0.00002027622613232083 0.000013787452141977852
          0.000029320429529966496 0.00003312060543469997 0.000021209330138827198 0.000039742547571719467 0.000047173878718831386 0.00002957705756279072
          0.00004904169509811762 0.000059467331920082245 0.00003729587019979386 0.00005472061554734342 0.00006452267093565167 0.000042127320182050454
          0.00005301438036642292 0.00005668964877789118 0.00003976003803315975 0.000042775012857640404 0.000033935181944722004 0.0000296543446908909
          0.000020532642584745586 0.000009195372225417626 0.00000853185444621863
        </DataArray>
        <DataArray type="Float64" Name="resid_z" format="ascii" RangeMin="0" RangeMax="0">
          0 0 0 0 0 0
          0 0 0 0 0 0
          0 0 0 0 0 0
          0 0 0 0 0 0
          0 0 0 0 0 0
          0 0 0 0 0 0
          0 0 0 0 0 0
          0 0 0 0 0 0
          0 0 0 0 0 0
          0 0 0 0 0 0
          0 0 0 0 0 0
          0 0 0 0 0 0
          0 0 0 0 0 0
          0 0 0 0 0 0
          0 0 0 0 0 0
          0 0 0 0 0 0
          0 0 0 0 0 0
          0 0 0 0 0 0
          0 0 0 0 0 0
          0 0 0 0 0 0
          0 0 0 0 0 0
          0 0 0 0 0 0
          0 0 0 0 0 0
          0 0 0 0 0 0
          0 0 0 0 0 0
          0 0 0 0 0 0
          0 0 0 0 0 0
          0 0 0 0 0 0
          0 0 0 0 0 0
          0 0 0 0 0 0
          0 0 0 0 0 0
          0 0 0 0 0 0
          0 0 0 0 0 0
          0 0 0 0 0 0
          0 0 0 0 0 0
          0 0 0 0 0 0
          0 0 0 0 0 0
          0 0 0 0 0 0
          0 0 0 0 0 0
          0 0 0 0 0 0
          0 0 0 0 0 0
          0 0 0 0 0 0
          0 0 0 0 0 0
          0 0 0 0 0 0
          0 0 0 0 0 0
          0 0 0 0 0 0
          0 0 0 0 0 0
          0 0 0 0 0 0
          0 0 0 0 0 0
          0 0 0 0 0 0
          0 0 0 0 0 0
          0 0 0 0 0 0
          0 0 0 0 0 0
          0 0 0 0 0 0
          0 0 0 0 0 0
          0 0 0 0 0 0
          0 0 0 0 0 0
          0 0 0 0 0 0
          0 0 0 0 0 0
          0 0 0 0 0 0
          0 0 0 0 0 0
          0 0 0 0 0 0
          0 0 0 0 0 0
          0 0 0 0 0 0
          0 0 0 0 0 0
          0 0 0 0 0 0
          0 0 0 0 0 0
          0 0 0 0 0 0
          0 0 0 0 0 0
          0 0 0 0 0 0
          0 0 0 0 0 0
          0 0 0 0 0 0
          0 0 0 0 0 0
          0 0 0 0 0 0
          0 0 0 0 0 0
          0 0 0 0 0 0
          0 0 0 0 0 0
          0 0 0 0 0 0
          0 0 0 0 0 0
          0 0 0 0 0 0
          0 0 0 0 0 0
          0 0 0 0 0 0
          0 0 0 0 0 0
          0 0 0 0 0 0
          0 0 0 0 0 0
          0 0 0 0 0 0
          0 0 0 0 0 0
          0 0 0 0 0 0
          0 0 0 0 0 0
          0 0 0 0 0 0
          0 0 0 0 0 0
          0 0 0 0 0 0
          0 0 0 0 0 0
          0 0 0 0 0 0
          0 0 0 0 0 0
          0 0 0 0 0 0
          0 0 0 0 0 0
          0 0 0 0 0 0
          0 0 0 0 0 0
          0 0 0 0 0 0
          0 0 0 0 0 0
          0 0 0 0 0 0
          0 0 0 0 0 0
          0 0 0 0 0 0
          0 0 0 0 0 0
          0 0 0 0 0 0
          0 0 0 0 0 0
          0 0 0 0 0 0
          0 0 0 0 0 0
          0 0 0 0 0 0
          0 0 0 0 0 0
          0 0 0 0 0 0
          0 0 0 0 0 0
          0 0 0 0 0 0
          0 0 0 0 0 0
          0 0 0 0 0 0
          0 0 0 0 0 0
          0 0 0 0 0 0
          0 0 0 0 0 0
          0 0 0 0 0 0
          0 0 0 0 0 0
          0 0 0 0 0 0
          0 0 0 0 0 0
          0 0 0 0 0 0
          0 0 0 0 0 0
          0 0 0 0 0 0
          0 0 0 0 0 0
          0 0 0 0 0 0
          0 0 0 0 0 0
          0 0 0 0 0 0
          0 0 0 0 0 0
          0 0 0 0 0 0
          0 0 0 0 0 0
          0 0 0 0 0 0
          0 0 0 0 0 0
          0 0 0 0 0 0
          0 0 0
        </DataArray>
        <DataArray type="Float64" Name="stress_zz" format="ascii" RangeMin="-746470.9555601832" RangeMax="732970.1978664079">
          -30719.227566718513 -105447.1127829899 -39622.14159624586 8251.836945668121 -30868.06218615666 -105068.7575005678
          -40196.14359069424 8773.1517596083 -31016.89680559481 -104690.40221814571 -40770.145585142614 9294.466573548474
          -31381.480914798736 -13916.814589843143 -42819.916627489336 -53848.25893716528 -31298.041719526613 -13873.40117470643
          -42773.42712519393 -53916.87088982407 -31214.602524254493 -13829.987759569718 -42726.93762289851 -53985.482842482874
          -38976.50366632889 18662.697396334843 -39281.57744289083 18929.652490515302 -39586.65121945277 19196.60758469576
          -13352.707877380772 -12865.839104931763 -48371.245148190574 -13318.259961380181 -12959.867469917192 -48607.89589499703
          -13283.81204537959 -13053.895834902623 -48844.546641803485 19998.774797760536 18869.392232188373 7669.441327109726
          12688.75161026587 20140.73601225643 19577.60122356474 7703.624951101332 12694.581082854482 20282.69722675233
          20285.810214941102 7737.808575092937 12700.41055544309 581.4174016728118 -7600.639646589708 2471.7617229762495
          6626.897310001403 478.22366620966363 -7810.850675945552 2567.0361858543956 6520.110199082064 375.0299307465152
          -8021.061705301399 2662.310648732543 6413.323088162724 1974.8930337336997 15577.21110790574 15234.618667138937
          1892.9117947780273 15442.170767430682 15358.101091290471 1810.9305558223555 15307.130426955626 15481.583515442006
          2539.5451224541002 2673.7606714468916 2807.9762204396793 18804.91938057897 15425.269434655926 19015.832614786086
          15363.764259726991 19226.745848993203 15302.25908479806 36122.05424699412 21086.254505108132 36317.31504256625
          20939.44998782107 36512.57583813839 20792.645470534015 3652.824453637836 1628.2670578524871 3774.0841759268114
          1559.1931646394355 3895.343898215787 1490.1192714263836 10294.76344122696 1847.6907009276804 -3326.9685958853174
          1802.240827894641 10331.88993944387 1930.9143087533844 -3284.5055092613316 1766.6575244147525 10369.016437660783
          2014.137916579089 -3242.042422637346 1731.0742209348628 315.16651550559254 274.1552216996747 233.14392789375734
          -2675.3121894651067 -2733.9496415154913 -2792.587093565876 2988.542036796418 2980.0414571371944 2971.5408774779703
          -23684.864051389395 -32239.490111539293 -23777.617644352245 -32267.118446596804 -23870.371237315092 -32294.74678165432
          -3965.400524701716 6233.192852223633 5353.096515730382 342.3395779079092 -4088.00865601686 6210.003902716609
          5324.522058875749 383.42720079025366 -4210.616787332005 6186.814953209585 5295.947602021117 424.51482367259814
          29403.767773866588 15257.176349371724 29318.53104702376 15379.795536826827 29233.29432018094 15502.414724281929
          -4008.2904842035505 -3966.1224583166922 -3923.9544324298327 -5745.171441421585 -5919.568402128291 -6093.965362834999
          -12705.710071429135 -14276.764674931075 -12765.416318176076 -14358.97594316928 -12825.122564923015 -14441.187211407485
          -2213.2052096002085 -1903.627477061392 -1590.0122059167472 -1107.0564701305798 -966.8192022332865 -310.48546319976776
          13476.754985514906 20228.090907137725 13502.860222625197 20489.908441818756 13528.965459735486 20751.725976499787
          2038.094440046459 2047.0195094538108 2055.944578861162 9376.663287450927 9372.174541946122 9367.685796441318
          7385.436038805972 7422.442107858449 7459.448176910924 20347.218264795818 20560.789867611667 20774.36147042752
          -11473.89906736288 -11632.461255048684 -11791.02344273449 2149.0878868718746 -660.0107890615959 2351.9863438817592
          -680.8900682788242 2554.884800891644 -701.7693474960524 8877.89951725894 8857.510828442144 8837.12213962535
          -16107.35993759761 -20068.878969687765 -16171.273614444637 -20257.211151434312 -16235.187291291664 -20445.54333318087
          5700.363905900351 992.8499068066636 5753.18440260563 986.7851495129609 5806.004899310908 980.7203922192584
          -21138.025910290075 -20861.3461007771 -21886.77968901398 -22378.95526049813 -22635.53346773789 -23896.564420219165
          -10671.563057218496 -10894.415677869489 -11117.268298520481 -642.8054651561739 -668.7578024484479 -694.7101397407216
          -3766.1397862479926 -3720.1775764348367 -3674.215366621681 2727.9563707976095 4463.305584269269 2762.1386823746407
          4635.819876371396 2796.320993951673 4808.334168473523 -2052.785122982338 1153.2524239779177 -2154.3523108301847
          1239.870081306489 -2255.9194986780312 1326.4877386350604 -4882.169752638193 -6370.492512743364 -2729.012840174853
          -4964.579188390086 -6438.806613880453 -2776.9703414860023 -5046.988624141978 -6507.120715017541 -2824.927842797152
          -619.2446310612727 -521.2513089604162 -423.25798685955965 12708.38860460979 -4975.633841908283 12877.108012508972
          -4942.881569813212 13045.827420408155 -4910.12929771814 -5066.993343347103 -41744.70616551291 -4876.927334005922
          -38062.32068174288 -4686.861324664742 -34379.93519797283 -1804.5917226305064 -1595.4510609938802 -1386.310399357254
          -59.86062662425934 -105.15589717560306 -150.45116772694678 -33694.465544682105 -34281.537337367794 -34868.60913005349
          -7760.667330073164 -3110.8224454125375 -7177.252811962791 -3078.089886773029 -6593.838293852419 -3045.3573281335202
          -2063.038966732645 -1917.5202806790535 -1772.0015946254623 -3745.0795781979414 -5129.508227359051 -6513.93687652016
          -22518.84458086065 -22836.99764466014 -23155.150708459627 29097.840640692335 30299.38624520001 31500.931849707682
          -55938.71039803422 -52285.59836615886 -48632.4863342835 -171730.69942288892 -171744.9613590537 -171759.22329521854
          52723.88700861813 52707.749286284066 52691.61156395002 48178.431319219846 48300.298828252984 48422.16633728611
          -62.98188363921872 -54.13967142400725 -45.29745920880123 -119002.57189781012 -119093.02435796196 -119183.47681811379
          -196967.91455221927 -196882.23069468598 -196796.54683715265 -16057.198734630085 -15945.365415916896 -16038.492485889763
          -15935.87367145135 -16019.786237149441 -15926.381926985807 -17978.61368282285 -17005.12551999039 -17992.62899049924
          -17025.852207279288 -18006.64429817563 -17046.578894568185 -14495.679019277768 -12672.22249742172 -14499.18131762891
          -12665.53578821508 -14502.683615980051 -12658.849079008438 -7098.6464775918175 -4868.289089623391 -7107.495738214716
          -4860.387999202496 -7116.344998837614 -4852.486908781601 2319.1891460286342 4275.998799111216 2308.7619095648115
          4293.841032791257 2298.334673100988 4311.683266471298 11590.277498553169 12107.916681973016 11582.723175293553
          12125.971156518528 11575.168852033934 12144.025631064036 16726.21624465427 16609.409991834702 16726.252303396002
          16634.77705732335 16726.28836213773 16660.144122812002 8720.32544845587 10099.559514361621 8713.98326752367
          10133.390461130852 8707.641086591471 10167.221407900082 -14601.667855803655 -14641.513489752908 -14681.359123702165
          -17034.191560786378 -17088.998363663955 -17143.805166541533 -13655.865891833988 -13697.211202080245 -13738.556512326506
          -5674.895410479431 -5696.277096831903 -5717.6587831843735 4909.0706961817905 4885.358120065678 4861.645543949568
          17138.225789673248 17154.849701950934 17171.473614228616 20804.069843932277 20866.389809337295 20928.709774742318
          4841.832020563263 4868.692196178484 4895.552371793704 -9887.315704672665 -9785.724237787028 -9684.13277090139
          -11556.807455008013 -11477.964519783232 -11399.121584558456 -6739.7734312444045 -6679.222925755435 -6618.672420266465
          3063.0231180856954 3130.9980726994536 3198.9730273132127 15249.201916017113 15236.109028037285 15223.016140057456
          31140.679428091644 31133.45286188712 31126.226295682594 28752.1151238714 28721.03042552811 28689.945727184826
          -4344.1855603982 -4551.263469648539 -4758.341378898878 -68.42799033033839 -357.98685733615025 -647.5457243419622
          -109.34021834824853 -376.57649049921633 -643.8127626501841 6285.914632660208 6053.176290920365 5820.437949180523
          17074.611599338536 16977.905479075387 16881.199358812235 29265.35085875044 29152.031383632842 29038.711908515248
          49073.30580193884 49198.66958284685 49324.03336375487 34360.01744227558 34724.414707717886 35088.81197316018
          -26340.143294480295 -26186.517299595624 -26032.89130471096 24515.76470792092 25032.627625083373 25549.490542245825
          28482.60559682946 28947.48832794149 29412.371059053516 35992.821376131615 36310.79566251053 36628.769948889436
          43598.83301326813 43914.22066496133 44229.60831665452 48887.69666957961 48788.99483611967 48690.29300265974
          68515.78451473668 68393.32747727323 68270.87043980978 21576.12441283559 21262.010857862577 20947.89730288957
          -87222.93338995358 -88299.12284760561 -89375.31230525766 49214.32072396339 48569.84095202718 47925.36118009098
          52151.26589552909 51445.47148613329 50739.67707673751 66599.54530297135 66015.0830908488 65430.62087872623
          74768.3275373004 74221.64007815433 73674.95261900827 74592.7338399636 74502.00358201489 74411.27332406616
          65382.52346146692 65059.29321273169 64736.062963996475 87821.88030975118 88284.12008490175 88746.35986005233
          -9687.61369552798 -8503.989272093006 -7320.3648486580205 -182866.47896976478 -182640.04404542458 -182413.6091210844
          211372.9537829885 210690.6034056394 210008.25302829035 257004.03186109112 256229.1421726335 255454.2524841759
          269385.1424395886 268793.2507150693 268201.35899055004 242514.80391479592 241799.5008423846 241084.19776997322
          190283.80391649678 190236.42977872386 190189.0556409509 105943.191820937 105016.46095098647 104089.73008103593
          42302.1175560762 42558.2776992084 42814.437842340594 -291321.30770804116 -290418.9124943673 -289516.5172806934
          -594269.9155011016 -595577.1886695378 -596884.4618379739 57266.713822917285 57843.289287043786 58419.864751170295
          69499.89802746482 70269.94241184104 71039.98679621727 57910.38154095317 58946.964711509034 59983.5478820649
          57496.25118231337 57813.7400911841 58131.22900005484 70550.74450705905 71641.94007279587 72733.13563853275
          76152.57808982232 74970.15556410882 73787.73303839532 214183.48550182892 214084.0995561972 213984.71361056552
          -204818.81219648925 -204894.08494737095 -204969.3576982527 -738992.8530440545 -742731.9043021188 -746470.9555601832
          -254489.22252211103 -254936.95387102687 -255384.6852199427 -313133.7935216157 -313379.15271776094 -313624.51191390626
          -338936.989187585 -338573.1973763466 -338209.4055651083 -277427.3132573525 -277746.62979487947 -278065.9463324065
          -151475.92715837748 -150357.54948143376 -149239.17180449003 10896.48590642945 9726.864144452862 8557.242382476274
          441443.9934934421 442233.8865809875 443023.7796685329 146458.4366335758 148439.4754676669 150420.514301758
          -522382.3090551158 -523818.9730022536 -525255.6369493915 -1204.5101603064456 -2673.1508198610095 -1205.2364924122562
          -2686.717394493019 -1205.962824518067 -2700.283969125029 -7677.078970263341 -7619.709687394072 -7562.340404524804
          -18730.174809336004 -18751.934945243607 -18773.695081151207 -39997.90065629997 -39615.32921877704 -39232.75778125412
          -87120.55577058546 -87271.6147174544 -87422.67366432335 -134058.5556556917 -132809.656708588 -131560.75776148427
          -376935.38176911924 -375131.93690519955 -373328.4920412798 -193651.9131322188 -191304.52214560917 -188957.13115899952
          218943.11934854928 223780.73591163225 228618.3524747152 -6299.230972685492 -7187.467285624909 -6295.23697596933
          -7185.692965750636 -6291.242979253168 -7183.918645876361 -10166.79856888327 -10136.354439533929 -10105.910310184587
          -16590.858179456183 -16574.90915964817 -16558.960139840165 -28721.41830657417 -28555.337207025506 -28389.256107476846
          -50492.88634146965 -50472.73602940911 -50452.58571734857 -68972.91609679058 -68498.32785177042 -68023.73960675026
          -175161.86319579947 -174483.47573473194 -173805.08827366438 228062.77238944455 227767.39637071383 227472.02035198308
          732970.1978664079 732293.1445478783 731616.0912293487 -10364.017246179983 -11722.836566904349 -10349.053007828496
          -11713.620866798885 -10334.088769477008 -11704.40516669342 -16080.104275576177 -16084.722419396001 -16089.340563215828
          -24435.951623930086 -24475.19016934559 -24514.428714761096 -38672.27120044484 -38747.00769630143 -38821.74419215801
          -60363.26686727863 -60585.06046379108 -60806.85406030352 -94977.87142693566 -95363.90345338278 -95749.9354798299
          -129227.58027359776 -130217.62632692451 -131207.67238025123 150972.93396791886 148984.5823992414 146996.23083056393
          443620.6275471661 441211.84030621406 438803.053065262 -15490.444203744795 -17118.392145065765 -15491.716471448704
          -17117.088242667247 -15492.988739152614 -17115.78434026873 -22155.126722674977 -22144.62702452171 -22134.127326368434
          -31150.904089536798 -31123.846913601436 -31096.789737666077 -44668.90315759235 -44617.54423963961 -44566.18532168686
          -63898.337423787634 -63792.17599134091 -63686.01455889418 -82978.38114903039 -82821.21255802544 -82664.04396702047
          -59372.28661000151 -58958.33099491378 -58544.37537982605 165049.40164028906 166240.6444832425 167431.88732619595
          358083.3775550213 359805.68913570954 361528.00071639783 -20625.22378948514 -22508.721276179593 -20620.272437244785
          -22505.03709256273 -20615.321085004434 -22501.352908945864 -28165.012266734033 -28166.081248866445 -28167.15023099886
          -37527.491991000905 -37535.33832595729 -37543.18466091366 -50067.54785806984 -50099.79650725788 -50132.04515644592
          -63473.74079100558 -63515.20035428048 -63556.65991755537 -63974.77258946664 -64151.151351222965 -64327.53011297929
          -12851.33088882539 -13062.11920643591 -13272.907524046426 155418.193924933 154998.2612270243 154578.32852911556
          278519.06852586276 277777.58176058205 277036.0949953012 -25284.871313894506 -27363.197977927022 -25284.09069079475
          -27362.280108453604 -25283.31006769499 -27361.362238980193 -33420.54110287726 -33420.22277143583 -33419.90443999442
          -42749.404920259374 -42747.81124393582 -42746.21756761227 -53281.22874275307 -53287.887105972004 -53294.545469190925
          -59288.621238798594 -59275.73325874031 -59262.84527868201 -44919.579166533746 -44966.90249735965 -45014.22582818553
          16919.773586413783 16989.297909847177 17058.82223328057 145015.43794043205 145270.58185217215 145525.72576391225
          226466.20764378388 226700.10166657975 226933.9956893756 -28990.38668688858 -31194.363250822273 -28989.51166851021
          -31193.89676328609 -28988.63665013184 -31193.430275749914 -37460.8193161306 -37463.04008812038 -37465.260860110175
          -46442.11352991575 -46446.03525096594 -46449.95697201614 -54626.52460588355 -54644.24740146552 -54661.97019704749
          -54166.77393674147 -54173.94542364804 -54181.1169105546 -30124.970767311694 -30203.855031339896 -30282.739295368094
          34720.19828433375 34722.646557232285 34725.09483013082 136660.4344314011 136686.7799127743 136713.12539414753
          194071.95766355342 193944.22487652238 193816.4920894913 -31363.536170504445 -33636.90717658925 -31363.579591508038
          -33637.227093070265 -31363.623012511627 -33637.54700955127 -39984.99763684254 -39987.72757494755 -39990.45751305255
          -48585.15333759967 -48588.76264006641 -48592.37194253313 -54979.50969799238 -54995.10355329803 -55010.69740860369
          -50331.129716568015 -50333.21674777637 -50335.30377898472 -21132.504734287395 -21192.070575485843 -21251.63641668429
          43886.71534542201 43920.44687045642 43954.178395490846 131089.04204542018 131180.7052399136 131272.36843440702
          175953.47355276116 175925.54670176955 175897.6198507779 -32177.94751762613 -34473.46793125155 -32178.1409205163
          -34473.968465567654 -32178.334323406474 -34474.46899988377 -40839.156305351404 -40842.288656313685 -40845.421007275974
          -49277.88393804454 -49282.16007552437 -49286.43621300419 -55009.75850241131 -55026.5331924368 -55043.30788246229
          -48926.49575852693 -48930.4885735525 -48934.481388578075 -18124.70136172124 -18185.96861208148 -18247.235862441717
          46729.14536216994 46756.877853389335 46784.610344608736 129241.11451654445 129308.04516880344 129374.97582106244
          170254.45370780103 170187.84701793705 170121.24032807307
        </DataArray>
        <DataArray type="Float64" Name="peeq" format="ascii" RangeMin="0" RangeMax="0">
          0 0 0 0 0 0
          0 0 0 0 0 0
          0 0 0 0 0 0
          0 0 0 0 0 0
          0 0 0 0 0 0
          0 0 0 0 0 0
          0 0 0 0 0 0
          0 0 0 0 0 0
          0 0 0 0 0 0
          0 0 0 0 0 0
          0 0 0 0 0 0
          0 0 0 0 0 0
          0 0 0 0 0 0
          0 0 0 0 0 0
          0 0 0 0 0 0
          0 0 0 0 0 0
          0 0 0 0 0 0
          0 0 0 0 0 0
          0 0 0 0 0 0
          0 0 0 0 0 0
          0 0 0 0 0 0
          0 0 0 0 0 0
          0 0 0 0 0 0
          0 0 0 0 0 0
          0 0 0 0 0 0
          0 0 0 0 0 0
          0 0 0 0 0 0
          0 0 0 0 0 0
          0 0 0 0 0 0
          0 0 0 0 0 0
          0 0 0 0 0 0
          0 0 0 0 0 0
          0 0 0 0 0 0
          0 0 0 0 0 0
          0 0 0 0 0 0
          0 0 0 0 0 0
          0 0 0 0 0 0
          0 0 0 0 0 0
          0 0 0 0 0 0
          0 0 0 0 0 0
          0 0 0 0 0 0
          0 0 0 0 0 0
          0 0 0 0 0 0
          0 0 0 0 0 0
          0 0 0 0 0 0
          0 0 0 0 0 0
          0 0 0 0 0 0
          0 0 0 0 0 0
          0 0 0 0 0 0
          0 0 0 0 0 0
          0 0 0 0 0 0
          0 0 0 0 0 0
          0 0 0 0 0 0
          0 0 0 0 0 0
          0 0 0 0 0 0
          0 0 0 0 0 0
          0 0 0 0 0 0
          0 0 0 0 0 0
          0 0 0 0 0 0
          0 0 0 0 0 0
          0 0 0 0 0 0
          0 0 0 0 0 0
          0 0 0 0 0 0
          0 0 0 0 0 0
          0 0 0 0 0 0
          0 0 0 0 0 0
          0 0 0 0 0 0
          0 0 0 0 0 0
          0 0 0 0 0 0
          0 0 0 0 0 0
          0 0 0 0 0 0
          0 0 0 0 0 0
          0 0 0 0 0 0
          0 0 0 0 0 0
          0 0 0 0 0 0
          0 0 0 0 0 0
          0 0 0 0 0 0
          0 0 0 0 0 0
          0 0 0 0 0 0
          0 0 0 0 0 0
          0 0 0 0 0 0
          0 0 0 0 0 0
          0 0 0 0 0 0
          0 0 0 0 0 0
          0 0 0 0 0 0
          0 0 0 0 0 0
          0 0 0 0 0 0
          0 0 0 0 0 0
          0 0 0 0 0 0
          0 0 0 0 0 0
          0 0 0 0 0 0
          0 0 0 0 0 0
          0 0 0 0 0 0
          0 0 0 0 0 0
          0 0 0 0 0 0
          0 0 0 0 0 0
          0 0 0 0 0 0
          0 0 0 0 0 0
          0 0 0 0 0 0
          0 0 0 0 0 0
          0 0 0 0 0 0
          0 0 0 0 0 0
          0 0 0 0 0 0
          0 0 0 0 0 0
          0 0 0 0 0 0
          0 0 0 0 0 0
          0 0 0 0 0 0
          0 0 0 0 0 0
          0 0 0 0 0 0
          0 0 0 0 0 0
          0 0 0 0 0 0
          0 0 0 0 0 0
          0 0 0 0 0 0
          0 0 0 0 0 0
          0 0 0 0 0 0
          0 0 0 0 0 0
          0 0 0 0 0 0
          0 0 0 0 0 0
          0 0 0 0 0 0
          0 0 0 0 0 0
          0 0 0 0 0 0
          0 0 0 0 0 0
          0 0 0 0 0 0
          0 0 0 0 0 0
          0 0 0 0 0 0
          0 0 0 0 0 0
          0 0 0 0 0 0
          0 0 0 0 0 0
          0 0 0 0 0 0
          0 0 0 0 0 0
          0 0 0 0 0 0
          0 0 0 0 0 0
          0 0 0 0 0 0
          0 0 0 0 0 0
          0 0 0 0 0 0
          0 0 0 0 0 0
          0 0 0
        </DataArray>
        <DataArray type="Float64" Name="pe11" format="ascii" RangeMin="0" RangeMax="0">
          0 0 0 0 0 0
          0 0 0 0 0 0
          0 0 0 0 0 0
          0 0 0 0 0 0
          0 0 0 0 0 0
          0 0 0 0 0 0
          0 0 0 0 0 0
          0 0 0 0 0 0
          0 0 0 0 0 0
          0 0 0 0 0 0
          0 0 0 0 0 0
          0 0 0 0 0 0
          0 0 0 0 0 0
          0 0 0 0 0 0
          0 0 0 0 0 0
          0 0 0 0 0 0
          0 0 0 0 0 0
          0 0 0 0 0 0
          0 0 0 0 0 0
          0 0 0 0 0 0
          0 0 0 0 0 0
          0 0 0 0 0 0
          0 0 0 0 0 0
          0 0 0 0 0 0
          0 0 0 0 0 0
          0 0 0 0 0 0
          0 0 0 0 0 0
          0 0 0 0 0 0
          0 0 0 0 0 0
          0 0 0 0 0 0
          0 0 0 0 0 0
          0 0 0 0 0 0
          0 0 0 0 0 0
          0 0 0 0 0 0
          0 0 0 0 0 0
          0 0 0 0 0 0
          0 0 0 0 0 0
          0 0 0 0 0 0
          0 0 0 0 0 0
          0 0 0 0 0 0
          0 0 0 0 0 0
          0 0 0 0 0 0
          0 0 0 0 0 0
          0 0 0 0 0 0
          0 0 0 0 0 0
          0 0 0 0 0 0
          0 0 0 0 0 0
          0 0 0 0 0 0
          0 0 0 0 0 0
          0 0 0 0 0 0
          0 0 0 0 0 0
          0 0 0 0 0 0
          0 0 0 0 0 0
          0 0 0 0 0 0
          0 0 0 0 0 0
          0 0 0 0 0 0
          0 0 0 0 0 0
          0 0 0 0 0 0
          0 0 0 0 0 0
          0 0 0 0 0 0
          0 0 0 0 0 0
          0 0 0 0 0 0
          0 0 0 0 0 0
          0 0 0 0 0 0
          0 0 0 0 0 0
          0 0 0 0 0 0
          0 0 0 0 0 0
          0 0 0 0 0 0
          0 0 0 0 0 0
          0 0 0 0 0 0
          0 0 0 0 0 0
          0 0 0 0 0 0
          0 0 0 0 0 0
          0 0 0 0 0 0
          0 0 0 0 0 0
          0 0 0 0 0 0
          0 0 0 0 0 0
          0 0 0 0 0 0
          0 0 0 0 0 0
          0 0 0 0 0 0
          0 0 0 0 0 0
          0 0 0 0 0 0
          0 0 0 0 0 0
          0 0 0 0 0 0
          0 0 0 0 0 0
          0 0 0 0 0 0
          0 0 0 0 0 0
          0 0 0 0 0 0
          0 0 0 0 0 0
          0 0 0 0 0 0
          0 0 0 0 0 0
          0 0 0 0 0 0
          0 0 0 0 0 0
          0 0 0 0 0 0
          0 0 0 0 0 0
          0 0 0 0 0 0
          0 0 0 0 0 0
          0 0 0 0 0 0
          0 0 0 0 0 0
          0 0 0 0 0 0
          0 0 0 0 0 0
          0 0 0 0 0 0
          0 0 0 0 0 0
          0 0 0 0 0 0
          0 0 0 0 0 0
          0 0 0 0 0 0
          0 0 0 0 0 0
          0 0 0 0 0 0
          0 0 0 0 0 0
          0 0 0 0 0 0
          0 0 0 0 0 0
          0 0 0 0 0 0
          0 0 0 0 0 0
          0 0 0 0 0 0
          0 0 0 0 0 0
          0 0 0 0 0 0
          0 0 0 0 0 0
          0 0 0 0 0 0
          0 0 0 0 0 0
          0 0 0 0 0 0
          0 0 0 0 0 0
          0 0 0 0 0 0
          0 0 0 0 0 0
          0 0 0 0 0 0
          0 0 0 0 0 0
          0 0 0 0 0 0
          0 0 0 0 0 0
          0 0 0 0 0 0
          0 0 0 0 0 0
          0 0 0 0 0 0
          0 0 0 0 0 0
          0 0 0 0 0 0
          0 0 0 0 0 0
          0 0 0 0 0 0
          0 0 0 0 0 0
          0 0 0 0 0 0
          0 0 0
        </DataArray>
        <DataArray type="Float64" Name="pe22" format="ascii" RangeMin="0" RangeMax="0">
          0 0 0 0 0 0
          0 0 0 0 0 0
          0 0 0 0 0 0
          0 0 0 0 0 0
          0 0 0 0 0 0
          0 0 0 0 0 0
          0 0 0 0 0 0
          0 0 0 0 0 0
          0 0 0 0 0 0
          0 0 0 0 0 0
          0 0 0 0 0 0
          0 0 0 0 0 0
          0 0 0 0 0 0
          0 0 0 0 0 0
          0 0 0 0 0 0
          0 0 0 0 0 0
          0 0 0 0 0 0
          0 0 0 0 0 0
          0 0 0 0 0 0
          0 0 0 0 0 0
          0 0 0 0 0 0
          0 0 0 0 0 0
          0 0 0 0 0 0
          0 0 0 0 0 0
          0 0 0 0 0 0
          0 0 0 0 0 0
          0 0 0 0 0 0
          0 0 0 0 0 0
          0 0 0 0 0 0
          0 0 0 0 0 0
          0 0 0 0 0 0
          0 0 0 0 0 0
          0 0 0 0 0 0
          0 0 0 0 0 0
          0 0 0 0 0 0
          0 0 0 0 0 0
          0 0 0 0 0 0
          0 0 0 0 0 0
          0 0 0 0 0 0
          0 0 0 0 0 0
          0 0 0 0 0 0
          0 0 0 0 0 0
          0 0 0 0 0 0
          0 0 0 0 0 0
          0 0 0 0 0 0
          0 0 0 0 0 0
          0 0 0 0 0 0
          0 0 0 0 0 0
          0 0 0 0 0 0
          0 0 0 0 0 0
          0 0 0 0 0 0
          0 0 0 0 0 0
          0 0 0 0 0 0
          0 0 0 0 0 0
          0 0 0 0 0 0
          0 0 0 0 0 0
          0 0 0 0 0 0
          0 0 0 0 0 0
          0 0 0 0 0 0
          0 0 0 0 0 0
          0 0 0 0 0 0
          0 0 0 0 0 0
          0 0 0 0 0 0
          0 0 0 0 0 0
          0 0 0 0 0 0
          0 0 0 0 0 0
          0 0 0 0 0 0
          0 0 0 0 0 0
          0 0 0 0 0 0
          0 0 0 0 0 0
          0 0 0 0 0 0
          0 0 0 0 0 0
          0 0 0 0 0 0
          0 0 0 0 0 0
          0 0 0 0 0 0
          0 0 0 0 0 0
          0 0 0 0 0 0
          0 0 0 0 0 0
          0 0 0 0 0 0
          0 0 0 0 0 0
          0 0 0 0 0 0
          0 0 0 0 0 0
          0 0 0 0 0 0
          0 0 0 0 0 0
          0 0 0 0 0 0
          0 0 0 0 0 0
          0 0 0 0 0 0
          0 0 0 0 0 0
          0 0 0 0 0 0
          0 0 0 0 0 0
          0 0 0 0 0 0
          0 0 0 0 0 0
          0 0 0 0 0 0
          0 0 0 0 0 0
          0 0 0 0 0 0
          0 0 0 0 0 0
          0 0 0 0 0 0
          0 0 0 0 0 0
          0 0 0 0 0 0
          0 0 0 0 0 0
          0 0 0 0 0 0
          0 0 0 0 0 0
          0 0 0 0 0 0
          0 0 0 0 0 0
          0 0 0 0 0 0
          0 0 0 0 0 0
          0 0 0 0 0 0
          0 0 0 0 0 0
          0 0 0 0 0 0
          0 0 0 0 0 0
          0 0 0 0 0 0
          0 0 0 0 0 0
          0 0 0 0 0 0
          0 0 0 0 0 0
          0 0 0 0 0 0
          0 0 0 0 0 0
          0 0 0 0 0 0
          0 0 0 0 0 0
          0 0 0 0 0 0
          0 0 0 0 0 0
          0 0 0 0 0 0
          0 0 0 0 0 0
          0 0 0 0 0 0
          0 0 0 0 0 0
          0 0 0 0 0 0
          0 0 0 0 0 0
          0 0 0 0 0 0
          0 0 0 0 0 0
          0 0 0 0 0 0
          0 0 0 0 0 0
          0 0 0 0 0 0
          0 0 0 0 0 0
          0 0 0 0 0 0
          0 0 0 0 0 0
          0 0 0 0 0 0
          0 0 0 0 0 0
          0 0 0
        </DataArray>
        <DataArray type="Float64" Name="pe33" format="ascii" RangeMin="0" RangeMax="0">
          0 0 0 0 0 0
          0 0 0 0 0 0
          0 0 0 0 0 0
          0 0 0 0 0 0
          0 0 0 0 0 0
          0 0 0 0 0 0
          0 0 0 0 0 0
          0 0 0 0 0 0
          0 0 0 0 0 0
          0 0 0 0 0 0
          0 0 0 0 0 0
          0 0 0 0 0 0
          0 0 0 0 0 0
          0 0 0 0 0 0
          0 0 0 0 0 0
          0 0 0 0 0 0
          0 0 0 0 0 0
          0 0 0 0 0 0
          0 0 0 0 0 0
          0 0 0 0 0 0
          0 0 0 0 0 0
          0 0 0 0 0 0
          0 0 0 0 0 0
          0 0 0 0 0 0
          0 0 0 0 0 0
          0 0 0 0 0 0
          0 0 0 0 0 0
          0 0 0 0 0 0
          0 0 0 0 0 0
          0 0 0 0 0 0
          0 0 0 0 0 0
          0 0 0 0 0 0
          0 0 0 0 0 0
          0 0 0 0 0 0
          0 0 0 0 0 0
          0 0 0 0 0 0
          0 0 0 0 0 0
          0 0 0 0 0 0
          0 0 0 0 0 0
          0 0 0 0 0 0
          0 0 0 0 0 0
          0 0 0 0 0 0
          0 0 0 0 0 0
          0 0 0 0 0 0
          0 0 0 0 0 0
          0 0 0 0 0 0
          0 0 0 0 0 0
          0 0 0 0 0 0
          0 0 0 0 0 0
          0 0 0 0 0 0
          0 0 0 0 0 0
          0 0 0 0 0 0
          0 0 0 0 0 0
          0 0 0 0 0 0
          0 0 0 0 0 0
          0 0 0 0 0 0
          0 0 0 0 0 0
          0 0 0 0 0 0
          0 0 0 0 0 0
          0 0 0 0 0 0
          0 0 0 0 0 0
          0 0 0 0 0 0
          0 0 0 0 0 0
          0 0 0 0 0 0
          0 0 0 0 0 0
          0 0 0 0 0 0
          0 0 0 0 0 0
          0 0 0 0 0 0
          0 0 0 0 0 0
          0 0 0 0 0 0
          0 0 0 0 0 0
          0 0 0 0 0 0
          0 0 0 0 0 0
          0 0 0 0 0 0
          0 0 0 0 0 0
          0 0 0 0 0 0
          0 0 0 0 0 0
          0 0 0 0 0 0
          0 0 0 0 0 0
          0 0 0 0 0 0
          0 0 0 0 0 0
          0 0 0 0 0 0
          0 0 0 0 0 0
          0 0 0 0 0 0
          0 0 0 0 0 0
          0 0 0 0 0 0
          0 0 0 0 0 0
          0 0 0 0 0 0
          0 0 0 0 0 0
          0 0 0 0 0 0
          0 0 0 0 0 0
          0 0 0 0 0 0
          0 0 0 0 0 0
          0 0 0 0 0 0
          0 0 0 0 0 0
          0 0 0 0 0 0
          0 0 0 0 0 0
          0 0 0 0 0 0
          0 0 0 0 0 0
          0 0 0 0 0 0
          0 0 0 0 0 0
          0 0 0 0 0 0
          0 0 0 0 0 0
          0 0 0 0 0 0
          0 0 0 0 0 0
          0 0 0 0 0 0
          0 0 0 0 0 0
          0 0 0 0 0 0
          0 0 0 0 0 0
          0 0 0 0 0 0
          0 0 0 0 0 0
          0 0 0 0 0 0
          0 0 0 0 0 0
          0 0 0 0 0 0
          0 0 0 0 0 0
          0 0 0 0 0 0
          0 0 0 0 0 0
          0 0 0 0 0 0
          0 0 0 0 0 0
          0 0 0 0 0 0
          0 0 0 0 0 0
          0 0 0 0 0 0
          0 0 0 0 0 0
          0 0 0 0 0 0
          0 0 0 0 0 0
          0 0 0 0 0 0
          0 0 0 0 0 0
          0 0 0 0 0 0
          0 0 0 0 0 0
          0 0 0 0 0 0
          0 0 0 0 0 0
          0 0 0 0 0 0
          0 0 0 0 0 0
          0 0 0 0 0 0
          0 0 0 0 0 0
          0 0 0 0 0 0
          0 0 0
        </DataArray>
        <DataArray type="Float64" Name="disp_x" format="ascii" RangeMin="0.000010785551003828235" RangeMax="0.00003">
          0.000014708246847111708 0.000014699263644193017 0.000014077218356101005 0.000013933585058275944 0.00001470826453859849 0.000014699287667237571
          0.000014077241841263316 0.00001393360283144679 0.000014708317353075593 0.000014699360052931493 0.00001407731830867071 0.000013933658013661308
          0.000012826984553842327 0.000012819904112525916 0.000013357468670276346 0.000013300218070089177 0.00001282699203548302 0.000012819912108571277
          0.00001335747993634899 0.00001330023090894547 0.000012827011157624264 0.000012819934951980301 0.000013357514910465104 0.000013300271790642187
          0.000013869289151785698 0.000013557318631854433 0.000013869302637486864 0.00001355732909329673 0.000013869343510288311 0.000013557358010517088
          0.000013316071160871125 0.000013980753600234956 0.000013987507224131722 0.0000133160814642486 0.000013980759025334997 0.000013987514284104098
          0.000013316114031736737 0.000013980774436667293 0.000013987534226085812 0.000012846585152403285 0.000012605950649946916 0.000012247205903391723
          0.000012550101204499149 0.000012846594342468289 0.00001260595867770389 0.000012247212968055697 0.000012550108925162217 0.000012846623829661023
          0.00001260597987246223 0.00001224723375865288 0.00001255013067590694 0.000013089280450765268 0.000012750914684565489 0.000012677418096673724
          0.000013098566774277324 0.000013089289445962107 0.000012750922744783645 0.000012677426775493638 0.000013098577601818018 0.000013089313700708177
          0.000012750946817257612 0.000012677451938507626 0.000013098613900319772 0.000012364470329104494 0.000012226005023247768 0.0000127249329514301
          0.00001236447778911488 0.0000122260107544508 0.000012724940102184396 0.00001236450104226338 0.000012226027655189178 0.000012724961204679509
          0.000014697742881997198 0.000014697752969081019 0.000014697782938325183 0.000012539220690620251 0.000012034317610205548 0.00001253922537888721
          0.00001203432168634987 0.000012539239101304128 0.000012034333070355554 0.000014675025771251033 0.00001397151562003989 0.000014675033444722277
          0.000013971519194268435 0.000014675056894443346 0.000013971529489914132 0.000011349380338571777 0.00001104997392880331 0.000011349384987559269
          0.000011049978163468772 0.00001134939900704087 0.000011049990784828083 0.00001189717329476098 0.000011558095048903847 0.000011805642388148238
          0.000012206725680193748 0.000011897180061695764 0.000011558099904884617 0.000011805649028548056 0.000012206733894791121 0.000011897201192553031
          0.000011558113450110758 0.000011805668350068658 0.000012206759495592566 0.000011007670869559522 0.000011007675034890891 0.00001100768768716509
          0.000010785551003828235 0.000010785555252346276 0.000010785567476753016 0.000013187826940178594 0.000013187832712043861 0.000013187850225666197
          0.000013121566113075009 0.000012735227078541605 0.000013121575240031997 0.00001273523573106937 0.00001312160423901085 0.000012735260761071414
          0.000010985189284351679 0.000011343659478066043 0.000011305711640943601 0.000010952603003890113 0.00001098519380031754 0.000011343663083012522
          0.000011305716536191698 0.000010952607508287226 0.000010985208427254345 0.000011343671956002117 0.000011305732011665268 0.000010952620400667865
          0.000013195959157732358 0.000013477586415953114 0.000013195969161637958 0.000013477595242553835 0.00001319600020657823 0.000013477614817418783
          0.000011042453955824786 0.000011042458590347092 0.00001104247308196443 0.000012326320035341718 0.00001232632666467546 0.000012326347148099456
          0.000010991588885747573 0.000011018387806393515 0.000010991594119629142 0.000011018392897872504 0.000010991610515699188 0.000011018409575723513
          0.000013399037080912888 0.000013404884807264543 0.000013399050025895417 0.000013404898994075016 0.000013399081991499155 0.000013404942143537969
          0.000011637025710240105 0.00001159342907175587 0.000011637031172025888 0.000011593433174275808 0.000011637048557765153 0.000011593443128535165
          0.000011316234201173481 0.000011316238642934905 0.000011316251943564293 0.000011521538683700887 0.00001152154343133707 0.00001152155814807851
          0.000011609616944682553 0.00001160962212099113 0.00001160963753548549 0.000011831983236667294 0.000011831988724516233 0.000011832007213673951
          0.000011237049901464403 0.000011237054542011404 0.000011237068491625373 0.000011629893290069034 0.000011519927214733445 0.000011629898289738588
          0.000011519931887018284 0.000011629912150579918 0.00001151994586412163 0.00001285959408948087 0.000012859602829559867 0.000012859629538476121
          0.000012513557746243313 0.000012234996925362332 0.000012513565258351502 0.00001223500537793945 0.000012513587405066286 0.000012235032902080541
          0.00001170480410211931 0.000011326670504514632 0.000011704810031608258 0.000011326675425176278 0.000011704827375405304 0.000011326689392259893
          0.000013656503883053993 0.000013725502181132695 0.000013656521129881723 0.000013725511955695771 0.000013656580408271496 0.000013725555922089422
          0.000011327948045764887 0.000011327952917597212 0.000011327967809682842 0.000011424112846831976 0.000011424117650342826 0.000011424131626608826
          0.000010957329949345556 0.00001095733458101092 0.000010957349187910607 0.00001185436393814386 0.000011645543202759333 0.000011854370361120082
          0.000011645548847733676 0.000011854390923614113 0.000011645565716894319 0.00001181208464463154 0.000011930096493666457 0.000011812090163974744
          0.000011930101906583765 0.000011812107040713185 0.000011930118055642193 0.00001200788470159877 0.000012428175209465536 0.000012114671112612998
          0.000012007890959371015 0.0000124281825521912 0.000012114677142522919 0.000012007909943318098 0.000012428206083551424 0.00001211469431409817
          0.000012230725740815268 0.000012230731906484548 0.000012230750927335445 0.000011976938219853462 0.000012079506910724034 0.000011976944624437777
          0.000012079515144355317 0.000011976963452771951 0.000012079540268117405 0.000014060546145793203 0.000014268799494861048 0.00001406055541078701
          0.000014268824560237382 0.000014060539015467876 0.00001426891939221436 0.000012531838177303933 0.000012531845301236055 0.000012531866375890631
          0.00001171526933437801 0.00001171527471915255 0.000011715292156826684 0.000012470699499693114 0.00001247070701382436 0.00001247072856382996
          0.000013438689491289715 0.000013135720887245996 0.000013438701841282549 0.00001313573050335702 0.000013438734737913804 0.000013135761076496788
          0.000012833482131929892 0.000012833489799419152 0.000012833512061412768 0.000013742543213066668 0.000013742555785039082 0.000013742596834926976
          0.000012437336087547339 0.00001243734408302915 0.000012437371105930045 0.000014047434455392904 0.000014047456708039439 0.000014047524407513991
          0.000014353930843376001 0.00001435397050529015 0.000014354121887661644 0.000014663161828620411 0.000014663183408088127 0.000014663240195219134
          0.000015643248276376433 0.000015643258270062843 0.000015643288474266694 0.000015682845211005256 0.000015682861422885605 0.00001568291061134534
          0.00001571110539501197 0.000015711127755907896 0.00001571119489906642 0.00001571399367764412 0.000015714022881820915 0.000015714109913284534
          0.000015676218146082107 0.00001567625040375306 0.000015676347349375263 0.0000190388493391854 0.000019015693282458443 0.00001903882966164266
          0.00001901567368656387 0.000019038770696341062 0.000019015615004700212 0.000019873857916864717 0.000019844976521862577 0.000019873833004847468
          0.0000198449518431452 0.000019873758232318445 0.000019844877689731815 0.000020702411741560574 0.000020669144848400718 0.000020702382469347225
          0.000020669116037544666 0.00002070229470484501 0.00002066902965802158 0.000021527010986923654 0.00002149107148279407 0.000021526978529688075
          0.000021491039728567127 0.00002152688119424034 0.00002149094448716965 0.000022349600533678225 0.000022313124992659806 0.000022349566444747074
          0.000022313091795488692 0.000022349464215054908 0.000022312992242618357 0.00002317123627656606 0.00002313684496078331 0.00002317120218340128
          0.00002313681196519814 0.000023171099920440254 0.000023136713040414802 0.00002399197719288397 0.000023962827491113576 0.00002399194477729308
          0.00002396279598404538 0.000023991847546014515 0.000023962701513543167 0.00002481102527773836 0.00002479081988574841 0.000024810995704246757
          0.000024790791119799846 0.000024810906964341603 0.000024790704819845382 0.000019085833274251884 0.0000190858132393355 0.00001908575317664817
          0.000019929359308721683 0.000019929333260298604 0.000019929255063772876 0.00002076509263554028 0.000020765061485491867 0.000020764968102252046
          0.000021595198083958255 0.000021595163166535437 0.000021595058438876736 0.00002242119197897374 0.000022421155198399797 0.00002242104497792267
          0.000023243564160743886 0.000023243527076543802 0.000023243415809685658 0.000024061620919222575 0.000024061586431780498 0.00002406148313318016
          0.000024873669207013067 0.00002487363766410496 0.000024873543135107277 0.000019157723176487613 0.00001915770264567421 0.000019157641137770783
          0.000020013311825036684 0.00002001328389304057 0.00002001320010902199 0.00002085978930723419 0.000020859754899783443 0.000020859651822954076
          0.00002169898892420571 0.000021698949631435395 0.000021698831782765177 0.000022531956135051712 0.000022531914462585508 0.000022531789661426548
          0.000023358504443102692 0.00002335846187084516 0.000023358333980137253 0.000024176965860460324 0.00002417692752252221 0.00002417681260500618
          0.000024984458388182006 0.0000249844233840853 0.000024984318379253137 0.000019256324248616018 0.000019256303051982113 0.00001925623942325697
          0.00002012901883468904 0.000020128987894682844 0.00002012889492380823 0.000020991348562262772 0.000020991308899954568 0.00002099118993504829
          0.000021844705617995162 0.00002184465927446065 0.00002184452007637921 0.000022689503406007857 0.000022689453954713557 0.000022689305967470567
          0.000023524688767998023 0.000023524637545587236 0.000023524483506868475 0.000024347352242962716 0.000024347308685333434 0.000024347178834296207
          0.000025153096220100292 0.00002515305678242244 0.000025152939112676176 0.00001938423758436084 0.00001938421591075458 0.000019384151166925866
          0.000020281794316271257 0.000020281759288425117 0.000020281654434269672 0.000021167880031270267 0.000021167832857488016 0.00002116769181362143
          0.00002204301104635227 0.000022042954379846063 0.000022042784378997724 0.000022906493667062508 0.000022906432645741387 0.000022906250260801276
          0.00002375600414425528 0.000023755939510633386 0.00002375574460106173 0.000024586993663631162 0.000024586941426078578 0.000024586784479808765
          0.000025393145271753142 0.000025393098797142422 0.000025392958725542853 0.00001859801167581745 0.00001859800688517698 0.000018597992105523465
          0.00001954496294518565 0.00001954493955828197 0.000019544869025013173 0.000020480034811274157 0.00002047999187581285 0.000020479862470441072
          0.000021402735504561413 0.00002140267507746667 0.0000214024936084296 0.00002231147208849082 0.000022311398287574322 0.000022311176061956254
          0.000023203221993171402 0.000023203143239420062 0.00002320290842825203 0.00002407354414215576 0.000024073459868217282 0.000024073205525170316
          0.000024915528898339663 0.000024915473415415886 0.000024915311449772115 0.000025720407017348642 0.000025720358995965375 0.000025720218111654515
          0.000018740020651183058 0.000018740026262963057 0.000018740044049718368 0.00001974308028720397 0.000019743058703226376 0.000019742994393043888
          0.000020737342456007733 0.000020737293400486837 0.00002073714646652664 0.000021718214307953095 0.000021718140575510154 0.000021717920200904217
          0.000022678997446667828 0.000022678903203738673 0.000022678619116759882 0.00002361192700048602 0.000023611824004268855 0.00002361151664864593
          0.00002450844954455844 0.00002450832944310885 0.000024507963702185507 0.000025358000256119965 0.000025357917077279268 0.000025357665143931152
          0.000026148248019588876 0.000026148178735580252 0.000026147967056823213 0.000018891637522761506 0.000018891651380717427 0.00001889169088835923
          0.000019985324448159907 0.000019985294881480625 0.000019985206691735673 0.000021077719172637856 0.000021077645903555404 0.000021077427330243407
          0.000022152437435190542 0.000022152328803142452 0.00002215200590360878 0.000023192995269792346 0.000023192860856752806 0.000023192458317561028
          0.000024182971897599377 0.00002418283427877577 0.000024182430494324406 0.00002510527174251806 0.000025105115394214327 0.000025104641777420858
          0.000025939310716000347 0.00002593926737626812 0.000025939158435775387 0.000026670401205865158 0.000026670364858402433 0.000026670260817710847
          0.000019030686218410687 0.000019030741230044986 0.000019030911194250497 0.000020287252848836572 0.000020287201292746263 0.000020287043695900106
          0.00002154487243412085 0.000021544747763441257 0.000021544368723409863 0.000022769111965159476 0.000022768934683709838 0.000022768399410597755
          0.00002392982320708125 0.000023929600974990317 0.000023928921179203265 0.000024995752055240152 0.00002499552288554872 0.00002499483778115353
          0.00002593243944897139 0.00002593216056768591 0.00002593129769103784 0.000026695630862838536 0.000026695488735375078 0.000026695054700050893
          0.00002723416289945115 0.000027234146883591336 0.000027234094988820077 0.000025370527598175475 0.000025389521075475852 0.000025370501598670852
          0.000025389494339546528 0.00002537042374102235 0.00002538941425541397 0.000025448234954025024 0.000025448206116911775 0.000025448119533773976
          0.000025551677635966298 0.000025551645415217347 0.000025551548457598957 0.000025707986532480076 0.00002570794957437541 0.000025707837623496527
          0.00002592757288739502 0.00002592753082278473 0.000025927403574283107 0.000026220672639109647 0.000026220622381241836 0.000026220465949845476
          0.000026589499714272856 0.000026589452764121285 0.000026589310999657067 0.000027015649169840738 0.00002701558011104644 0.000027015343810121606
          0.000027366946060125664 0.000027367088273184783 0.00002736752278793737 0.000025950571525568175 0.000025968052374231267 0.00002595054788253008
          0.000025968028355184695 0.000025950476848541868 0.00002596795625410179 0.00002602196920804458 0.000026021944239889193 0.000026021869464067354
          0.000026116589916545373 0.000026116563647512824 0.000026116485246223556 0.000026258519215652205 0.00002625849190677904 0.00002625841092206424
          0.00002645540113241615 0.00002645537470833938 0.00002645529721294382 0.000026712536949164914 0.000026712515431215068 0.000026712454399270152
          0.0000270252344419728 0.000027025236560781678 0.000027025251049756358 0.000027358698451316014 0.000027358738799840107 0.000027358873324780773
          0.000027579297311693045 0.00002757954596343432 0.00002758033269018809 0.000026530570630627028 0.000026546244669234366 0.00002653055024051383
          0.00002654622400609366 0.00002653048914362744 0.000026546162087724437 0.0000265944998170949 0.000026594478456757462 0.000026594414344213043
          0.000026678861038345957 0.00002667883884718991 0.000026678772077596918 0.000026804511000392197 0.000026804488581054347 0.000026804420848979065
          0.0000269766733195679 0.00002697665237428643 0.00002697658852628542 0.000027196936589985298 0.000027196922776198693 0.000027196879397935523
          0.000027454972952469214 0.000027454974419837836 0.00002745497453703709 0.000027709019844073367 0.00002770905862588513 0.00002770916487494682
          0.00002785163963851735 0.00002785174712418567 0.000027852046565109675 0.000027110221928431798 0.00002712380338943187 0.000027110204790129173
          0.000027123786103160418 0.000027110153338586718 0.000027123734240262453 0.000027165548048157327 0.0000271655304407317 0.000027165477647079205
          0.00002723826624464562 0.000027238248479561748 0.000027238195289628868 0.000027345852485236265 0.000027345835409689204 0.000027345784397734608
          0.00002749155487082161 0.000027491540818017477 0.000027491499178928395 0.00002767420764636973 0.000027674201157091597 0.00002767418246551935
          0.000027880343466607834 0.000027880353003545642 0.000027880383939621792 0.000028069975367353296 0.000028070013915821065 0.000028070132497198242
          0.0000281634402908514 0.000028163527201680516 0.0000281638023567496 0.000027689314611430256 0.00002770053910897931 0.000027689300857056836
          0.0000277005252865007 0.00002768925959259956 0.0000277004838358546 0.00002773499002932344 0.00002773497612156868 0.000027734934388459177
          0.000027794808790518115 0.000027794795085122352 0.000027794753926656164 0.00002788277485558976 0.000027882762299446807 0.000027882724548678696
          0.000028000626352697037 0.00002800061700946145 0.000028000588790981607 0.000028145570174941396 0.000028145567844730363 0.000028145560525008294
          0.000028303841628693214 0.00002830385237777624 0.000028303883795420454 0.000028441791207651253 0.000028441823352856384 0.00002844191806200402
          0.000028503130270280065 0.000028503188541174516 0.000028503358752635968 0.000028267757149760263 0.000028276394416322422 0.000028267746828660734
          0.000028276384074566345 0.000028267715839406278 0.00002827635304885474 0.0000283028725261332 0.00002830286222410916 0.00002830283131075901
          0.000028348721900329994 0.000028348711952921968 0.000028348682112921936 0.000028415795051052884 0.000028415786286179888 0.000028415760005227512
          0.000028504815614230607 0.000028504809681777697 0.00002850479194633719 0.000028612533510685784 0.00002861253320834634 0.000028612532371035815
          0.000028727075090626284 0.000028727084558667402 0.000028727113274693663 0.000028822947408856976 0.000028822971102391883 0.00002882304240651214
          0.000028862259604436505 0.00002886229833946501 0.000028862416894192666 0.000028845579649437748 0.000028851445519111825 0.00002884557277276682
          0.00002885143864305906 0.00002884555211977913 0.00002885141801439222 0.000028869410949859968 0.000028869404155855397 0.000028869383760778917
          0.000028900454496843828 0.000028900448041850007 0.000028900428658954867 0.000028945684767286428 0.000028945679257393874 0.000028945662704824314
          0.000029005279661243437 0.00002900527623504634 0.00002900526592365479 0.000029076510377592444 0.000029076510870305258 0.000029076512289625984
          0.000029150813746534966 0.000029150820716947525 0.00002915084152053602 0.00002921128517823254 0.000029211300898563195 0.00002921134778747866
          0.00002923464724602023 0.00002923467165512869 0.000029234744441268312 0.000029422920739545764 0.00002942588677076527 0.000029422917311626487
          0.000029425883341769174 0.000029422906987820556 0.000029425873048380105 0.000029434965180888154 0.000029434961811098976 0.000029434951683500072
          0.000029450631503524394 0.00002945062833275181 0.00002945061880305524 0.00002947339854939606 0.000029473395894525107 0.000029473387913628557
          0.00002950325844793274 0.00002950325688410053 0.000029503252182547114 0.000029538677809955685 0.00002953867824141454 0.000029538679520613197
          0.000029575200867226075 0.00002957520448642464 0.000029575215356009847 0.000029604438877873245 0.000029604446625113757 0.00002960446983130374
          0.000029615325534803832 0.000029615337121539 0.00002961537212855701 0.00003 0.00003 0.00003
          0.00003 0.00003 0.00003 0.00003 0.00003 0.00003
          0.00003 0.00003 0.00003 0.00003 0.00003 0.00003
          0.00003 0.00003 0.00003 0.00003 0.00003 0.00003
          0.00003 0.00003 0.00003 0.00003 0.00003 0.00003
          0.00003 0.00003 0.00003
        </DataArray>
        <DataArray type="Float64" Name="disp_y" format="ascii" RangeMin="-0.0000030003172123889745" RangeMax="0">
          -0.000001557552172346646 -0.0000018127770150126898 -0.0000018644726880862296 -0.0000017280333950107913 -0.0000015575502223587352 -0.0000018127815972637935
          -0.0000018644789864323986 -0.0000017280343020113885 -0.0000015575444832183145 -0.0000018127946393112295 -0.0000018644924836834055 -0.0000017280344318448542
          -0.0000014004873022406887 -0.000001266194983754631 -0.0000012516485994066567 -0.0000014163707087766072 -0.0000014004889502265905 -0.0000012661946508316209
          -0.0000012516484559738483 -0.000001416370434252855 -0.0000014004946669705351 -0.0000012661933951910357 -0.0000012516490144803987 -0.000001416367949396812
          -0.0000014614882769673135 -0.0000016237684728462846 -0.0000014614928526506134 -0.0000016237815182450228 -0.0000014615073798623849 -0.0000016238274923534266
          -0.0000010762998751698232 -0.00000106287292861515 -0.000001269923254694852 -0.0000010762984680428763 -0.0000010628695973592038 -0.000001269918935375814
          -0.000001076294348922202 -0.0000010628602253225773 -0.0000012699046056127328 -0.0000018481205399840867 -0.0000019093222143460066 -0.0000018940450958412426
          -0.0000017803927336055444 -0.000001848127471926804 -0.0000019093286642959727 -0.0000018940515786088465 -0.000001780399310074082 -0.0000018481514976689166
          -0.0000019093455648840807 -0.0000018940720935504303 -0.000001780418408271646 -0.00000205786769244259 -0.000002073360923507615 -0.0000019802997744221885
          -0.0000019427787760710173 -0.000002057878189720539 -0.0000020733708090256696 -0.0000019803063493874896 -0.0000019427866180603784 -0.000002057908783228361
          -0.0000020734025013070918 -0.0000019803221264981 -0.0000019428116107421515 -0.0000013018048295383157 -0.0000011832257749789808 -0.0000011205249935306975
          -0.000001301805534552075 -0.0000011832276368730793 -0.0000011205233328047364 -0.0000013018078673070942 -0.0000011832339401628667 -0.0000011205172498684558
          -0.0000013112967285096706 -0.000001311291627724478 -0.0000013112761719708083 -9.840070439537035e-7 -0.0000010651058763882902 -9.840087076801899e-7
          -0.0000010651060871168168 -9.840142941156573e-7 -0.000001065105763883184 -0.0000010756147275836422 -8.589829386241269e-7 -0.0000010756090341114857
          -8.589778575802912e-7 -0.0000010755922792673149 -8.589622038691912e-7 -0.0000019624702101461975 -0.0000019087517698539957 -0.0000019624762972082347
          -0.000001908757871483749 -0.0000019624948391635395 -0.0000019087769784266424 -0.000001810399530208202 -0.0000017532716690499837 -0.0000016284523890588926
          -0.000001714112955986936 -0.0000018104052540346175 -0.0000017532774113462193 -0.000001628456924427491 -0.0000017141187911567925 -0.0000018104215504673372
          -0.0000017532953528775417 -0.0000016284701654976524 -0.0000017141363309016692 -0.0000011508947697265102 -0.0000011508957678009055 -0.0000011508979141198991
          -0.0000018580228892666112 -0.0000018580282346634125 -0.0000018580432421571123 -8.701354319267296e-7 -8.701342616147144e-7 -8.701308153985114e-7
          -0.0000015570619752704465 -0.0000015142532352272807 -0.0000015570653802739579 -0.0000015142564213382485 -0.0000015570725740266084 -0.0000015142678896731398
          -0.0000012761160864725799 -0.0000012864192848858543 -0.0000013960842874760543 -0.000001399701418577844 -0.0000012761186858831986 -0.000001286422112070871
          -0.0000013960870597669676 -0.000001399704843870558 -0.000001276126771479502 -0.0000012864312119875245 -0.0000013960959126769067 -0.0000013997151238420224
          -0.000001749816289913148 -0.0000018367317467921286 -0.0000017498209093342262 -0.0000018367348759233897 -0.000001749831467295091 -0.0000018367426625815378
          -0.0000017929185849413946 -0.0000017929240505940261 -0.0000017929402389816287 -0.0000020042846006027068 -0.0000020042917795051217 -0.0000020043137596974216
          -0.0000016296766512202296 -0.0000016983759814984921 -0.0000016296799754818552 -0.00000169838036199843 -0.0000016296898234256678 -0.0000016983923010009474
          -0.0000019736366899998915 -0.0000020465318415306695 -0.0000019736456598973664 -0.0000020465429887905696 -0.0000019736715173315395 -0.0000020465771297330278
          -0.0000013811444865660078 -0.0000013028300544787826 -0.0000013811466110659684 -0.0000013028321433935667 -0.0000013811532537122822 -0.0000013028359334963698
          -0.0000018395955613921557 -0.0000018396012421819575 -0.0000018396179384284566 -0.000001150956681734503 -0.0000011509583123476474 -0.000001150963722344759
          -0.0000018919738328340136 -0.0000018919795728980297 -0.0000018919974050583443 -0.0000012493908115067528 -0.0000012493928482007895 -0.0000012494007766677602
          -0.0000017168285722882948 -0.000001716833812258979 -0.0000017168514334601544 -0.00000220374808479257 -0.000002131219178035868 -0.0000022037582100921693
          -0.000002131227446781821 -0.0000022037876151750703 -0.0000021312530920688455 -0.0000016762195271334038 -0.0000016762254253258624 -0.0000016762445816777593
          -0.0000016144806957110606 -0.000001544389442191917 -0.0000016144860872120826 -0.000001544392709581543 -0.000001614503448228357 -0.0000015444028966042512
          -0.0000014911612011959731 -0.0000015112654780640697 -0.0000014911636936865775 -0.0000015112677459045112 -0.0000014911716580020379 -0.0000015112737833685609
          -0.0000019279853735521365 -0.000002024081341805658 -0.000001927993885517976 -0.0000020240927778203173 -0.0000019280212712180934 -0.0000020241209608834715
          -0.000001624179468951857 -0.000001624182799378807 -0.0000016241925882441414 -0.0000020573465746485663 -0.000002057353082058562 -0.000002057372252331274
          -0.0000015211725903307262 -0.0000015211753068307211 -0.000001521183739945271 -0.0000019540904139121676 -0.0000019906804153619224 -0.0000019540964581616534
          -0.000001990686415616752 -0.0000019541140732271156 -0.0000019907054332758185 -0.0000021210143082637495 -0.000002194441992788133 -0.0000021210231838698105
          -0.0000021944524783532603 -0.0000021210498018653422 -0.0000021944855996807475 -0.0000020277080077162566 -0.000002090329577436723 -0.0000021068673723931257
          -0.0000020277151724701893 -0.0000020903388536807637 -0.00000210687652940727 -0.0000020277368979463653 -0.00000209036754224254 -0.000002106904648995047
          -0.0000021844180076475364 -0.0000021844281378520386 -0.0000021844599277042385 -0.0000013451805560893641 -0.0000014494217844657268 -0.0000013451816610318642
          -0.0000014494233350158866 -0.0000013451843923301182 -0.000001449428644248086 -0.0000019979691868682088 -0.0000020073638238209543 -0.000001997987982751291
          -0.0000020073749663112965 -0.00000199806434672804 -0.000002007428964329266 -0.0000021736559694899966 -0.0000021736667211619535 -0.000002173699273765314
          -0.0000020464334526248437 -0.0000020464400855677573 -0.0000020464598003639545 -0.0000014896700685886336 -0.0000014896722940788892 -0.0000014896783078920882
          -0.00000213634620104886 -0.000002149655746041157 -0.0000021363592614641147 -0.000002149667881808338 -0.0000021363985907988852 -0.00000214970517767148
          -0.00000216209081412479 -0.00000216210314613497 -0.0000021621415455120283 -0.000002121967708299321 -0.0000021219841226211254 -0.0000021220446193024458
          -0.0000014117231455855246 -0.0000014117234573803526 -0.0000014117232939509712 -0.0000021064090971064578 -0.0000021064145094764826 -0.0000021064100691233185
          -0.0000020896940694676224 -0.000002089679470923779 -0.0000020895800328280783 -0.000002072470785399037 -0.000002072478379472027 -0.0000020725060649804496
          -0.0000010219239835988144 -0.0000010219136187402456 -0.0000010218823977659174 -0.0000012489075624235463 -0.0000012488972024729703 -0.000001248866564322644
          -0.0000014896127300001987 -0.0000014896026370315806 -0.0000014895717058210128 -0.0000017446789584901734 -0.000001744681485492651 -0.0000017446899004459203
          -0.0000020087535577813817 -0.0000020087706151090038 -0.0000020088215492095245 -1.7676111052201492e-7 0 -1.767563955565939e-7
          0 -1.7674228556276312e-7 0 -1.8535915504699889e-7 0 -1.853546777748301e-7
          0 -1.8534126051770125e-7 0 -2.0100479687012954e-7 0 -2.0100102637189082e-7
          0 -2.0098969298802526e-7 0 -2.2352894794477833e-7 0 -2.2352633569527088e-7
          0 -2.2351845691907915e-7 0 -2.5220617240538107e-7 0 -2.522051002322113e-7
          0 -2.52201832474973e-7 0 -2.858527253291569e-7 0 -2.858534045661353e-7
          0 -2.8585538343053745e-7 0 -3.230091226114968e-7 0 -3.2301167026557644e-7
          0 -3.2301927971640577e-7 0 -3.6221059174690093e-7 0 -3.622143665862798e-7
          0 -3.622255918839356e-7 0 -3.531622674778909e-7 -3.531525543955496e-7 -3.531232843723981e-7
          -3.70174347396685e-7 -3.7016536444329173e-7 -3.701383188390455e-7 -4.015526057574724e-7 -4.015453960186328e-7 -4.015237263112622e-7
          -4.468693432240519e-7 -4.4686481263985563e-7 -4.468512202629763e-7 -5.045181636061519e-7 -5.045169410974796e-7 -5.045133235987288e-7
          -5.719393181783326e-7 -5.719416401821628e-7 -5.719486598429475e-7 -6.460158267830325e-7 -6.460218000940748e-7 -6.460399025941143e-7
          -7.236240595870646e-7 -7.236323371675407e-7 -7.236572771523805e-7 -5.289603769913212e-7 -5.289446903812066e-7 -5.288980739938332e-7
          -5.537840889836009e-7 -5.537694403644133e-7 -5.537258421367544e-7 -6.007714963009132e-7 -6.007596582218086e-7 -6.00724417955283e-7
          -6.691420099306401e-7 -6.691345448075882e-7 -6.691123083784639e-7 -7.561936582566492e-7 -7.561916963415694e-7 -7.561858539298533e-7
          -8.576740856735604e-7 -8.576780950168597e-7 -8.576900136548797e-7 -9.684033895256814e-7 -9.684135451813354e-7 -9.68443803258758e-7
          -0.0000010831730182347825 -0.0000010831868348243057 -0.0000010832276522806548 -7.043454047242711e-7 -7.043219028270093e-7 -7.042503451343574e-7
          -7.358815016649234e-7 -7.358594581318997e-7 -7.357924414864766e-7 -7.980303666505242e-7 -7.980126236813919e-7 -7.979587206134029e-7
          -8.895465501184806e-7 -8.895356286134149e-7 -8.895024339779828e-7 -0.0000010063731190736536 -0.0000010063708562712565 -0.0000010063639889216905
          -0.0000011421529463794138 -0.0000011421600988087885 -0.0000011421817066222924 -0.000001289034644854884 -0.0000012890517385368392 -0.0000012891039573923043
          -0.0000014389857977714748 -0.0000014390086522028597 -0.0000014390782849543219 -8.803804649312749e-7 -8.803489567390052e-7 -8.802569036045355e-7
          -9.169317790048845e-7 -9.169019534782868e-7 -9.168145169946597e-7 -9.93219567931443e-7 -9.931958731904575e-7 -9.931264171171231e-7
          -0.0000011073759369670242 -0.0000011073620008258004 -0.000001107321223131004 -0.0000012537555940854832 -0.0000012537540357658014 -0.0000012537496768355554
          -0.0000014235078194941987 -0.0000014235197691331807 -0.0000014235551017486593 -0.000001605354016413614 -0.0000016053796050134203 -0.0000016054548866546455
          -0.0000017872376483570977 -0.000001787268696850719 -0.0000017873584224847506 -0.000001067374738473726 -0.0000010673257217586473 -0.0000010671742659046702
          -0.0000010599442400607145 -0.000001059890434902195 -0.000001059724573054911 -0.000001099057555312465 -0.0000010990073033039464 -0.0000010988528648330555
          -0.0000011872519500914173 -0.0000011872121002429397 -0.0000011870897274405934 -0.0000013218025500804939 -0.0000013217793208097973 -0.0000013217078506302663
          -0.0000014955344526238547 -0.0000014955328421042884 -0.0000014955277233675899 -0.0000016971215667373912 -0.000001697143987476834 -0.0000016972119925337872
          -0.0000019111158310894155 -0.0000019111671039267106 -0.0000019113251065851647 -0.000002119722632891813 -0.000002119787563718974 -0.0000021199872239244233
          -0.0000012659731623661242 -0.000001265933499502038 -0.0000012658195819689468 -0.0000012491524748635366 -0.0000012491063762847548 -0.000001248973216213271
          -0.0000012873430631293017 -0.0000012872982372649127 -0.0000012871678893461991 -0.000001382414792539812 -0.0000013823808792401536 -0.0000013822822633509018
          -0.0000015307922511391001 -0.0000015307761235376378 -0.0000015307294549579694 -0.000001724698421145695 -0.0000017247047915194018 -0.0000017247239983261771
          -0.000001951642019363371 -0.0000019516730235801722 -0.0000019517639758446036 -0.000002192306781667382 -0.000002192363310850026 -0.0000021925288199413236
          -0.0000024202548717526182 -0.0000024203060902052016 -0.000002420450180549621 -0.0000014904351152760563 -0.0000014903171296673617 -0.0000014899641845326743
          -0.0000014629510509360585 -0.000001462817217428362 -0.0000014624175184630136 -0.0000014940270168996722 -0.0000014939061144353128 -0.0000014935456654907196
          -0.0000015838032468744356 -0.0000015837114289875436 -0.0000015834382313966092 -0.0000017294800504809175 -0.0000017294306092843732 -0.000001729284498654066
          -0.0000019250012329894217 -0.000001925007363777998 -0.0000019250284168170454 -0.0000021595049498433783 -0.000002159575671664317 -0.000002159788997417021
          -0.000002415433197402241 -0.00000241559338663684 -0.000002416081003044756 -0.0000026577901246261652 -0.0000026580093910521934 -0.000002658663055918341
          -0.0000017655584886274548 -0.000001765329437107788 -0.0000017646305460179836 -0.0000017269690508194465 -0.000001726715350087768 -0.000001725941585792721
          -0.000001735573187655674 -0.0000017353501394621946 -0.0000017346697701456555 -0.0000017936134492877954 -0.0000017934416417137733 -0.000001792916670538085
          -0.0000019020637240362948 -0.000001901965429918254 -0.0000019016626410848312 -0.0000020601903314992776 -0.000002060189928220713 -0.00000206018445117512
          -0.000002264124752025479 -0.000002264239680083059 -0.000002264581697957435 -0.00000250424151295889 -0.0000025045433763412206 -0.0000025054479923566955
          -0.000002783323384206746 -0.000002783764137411477 -0.000002785107459807385 0 -3.7540245167458226e-7 0
          -3.75407205310934e-7 0 -3.754214510162045e-7 -7.496220535876258e-7 -7.496322648594729e-7 -7.496630814454983e-7
          -0.000001121125837825576 -0.0000011211425902213598 -0.0000011211926158993664 -0.0000014875120531999514 -0.0000014875389357190753 -0.0000014876205559583764
          -0.0000018445285944753469 -0.000001844565696313882 -0.0000018446755461826626 -0.0000021841656362848166 -0.000002184235428585698 -0.00000218444871062733
          -0.0000024928389628763112 -0.0000024929133846958098 -0.000002493134041500093 -0.000002747601510668934 -0.000002747803228376534 -0.0000027484139915662532
          -0.000002907656813589294 -0.0000029080232882240755 -0.000002909128616768614 0 -3.8672318992917284e-7 0
          -3.8672846757373943e-7 0 -3.867442957168657e-7 -7.716700482149477e-7 -7.71681147044858e-7 -7.717144349317898e-7
          -0.0000011526508201765567 -0.000001152668964145534 -0.0000011527233707257944 -0.0000015265161660768364 -0.0000015265433381882622 -0.0000015266248297204105
          -0.000001888262329806283 -0.0000018883018265154658 -0.0000018884201788214908 -0.0000022296243388664654 -0.000002229683163562808 -0.000002229859435888543
          -0.000002537675326052416 -0.0000025377532597150263 -0.0000025379871257079047 -0.000002788497503927245 -0.000002788624306029363 -0.00000278900006130873
          -0.0000029623362092379688 -0.0000029625000135982835 -0.0000029629909735931996 0 -3.960875871807666e-7 0
          -3.960932296145594e-7 0 -3.961101574446815e-7 -7.896640927004995e-7 -7.896758377708877e-7 -7.89711085273884e-7
          -0.0000011777389660401168 -0.0000011777577361982186 -0.0000011778140395901033 -0.000001556264183120045 -0.0000015562915805802165 -0.0000015563738153244067
          -0.0000019193297717779575 -0.0000019193680146336844 -0.0000019194826981352353 -0.0000022581069577681837 -0.000002258159158944329 -0.0000022583158753797098
          -0.0000025590647098760713 -0.0000025591321987456138 -0.0000025593346259942396 -0.000002803268638011578 -0.0000028033518668362737 -0.000002803601298351826
          -0.0000029870427259073513 -0.000002987132914331764 -0.000002987404453475377 0 -4.035478780011818e-7 0
          -4.035537366668056e-7 0 -4.0357131256670724e-7 -8.037820117869146e-7 -8.037940656234855e-7 -8.038302227900281e-7
          -0.0000011968484449006712 -0.0000011968673549400798 -0.0000011969240837562777 -0.0000015777609284388631 -0.0000015777877125956269 -0.000001577868038224422
          -0.0000019397217746103883 -0.0000019397575466229038 -0.0000019398648881839044 -0.0000022733095529665097 -0.000002273355135844581 -0.000002273491698180722
          -0.000002565956811247076 -0.000002566011828646842 -0.0000025661771037841346 -0.0000028054152172511985 -0.00000280546982845818 -0.0000028056329431594705
          -0.000002997262406964032 -0.0000029973114197324282 -0.0000029974578913370115 0 -4.0924814409384805e-7 0
          -4.092541076510245e-7 0 -4.0927199717444363e-7 -8.143907635556424e-7 -8.144029103816839e-7 -8.144393428579413e-7
          -0.000001210735921501636 -0.0000012107546408409132 -0.000001210810791714028 -0.000001592428148518383 -0.0000015924539118918929 -0.0000015925311711368603
          -0.000001951920654933162 -0.0000019519536664927847 -0.0000019520527189987888 -0.0000022796867308521083 -0.0000022797263637857213 -0.000002279845105941757
          -0.000002565155363603518 -0.0000025651994100536623 -0.0000025653317549824316 -0.0000028018431789303036 -0.0000028018799029243763 -0.000002801989685969027
          -0.0000030002093857049764 -0.0000030002364081196074 -0.0000030003172123889745 0 -4.133829805391082e-7 0
          -4.133889771438125e-7 0 -4.1340696485293395e-7 -8.219554078705495e-7 -8.219675165037848e-7 -8.220038289434416e-7
          -0.0000012202928581852458 -0.0000012203112284908343 -0.0000012203663260300782 -0.000001601816530067088 -0.0000016018411890113836 -0.0000016019151245795216
          -0.000001958474866652381 -0.0000019585053561669205 -0.0000019585968346461632 -0.0000022810477004667813 -0.00000228108240723743 -0.0000022811863674998753
          -0.0000025611084145759305 -0.0000025611441208287094 -0.000002561251428647589 -0.00000279639802628268 -0.000002796423429361602 -0.000002796499298885879
          -0.0000029997682128012016 -0.000002999783196112764 -0.000002999827770205925 0 -4.1615561141439573e-7 0
          -4.161616044311953e-7 0 -4.1617957937460346e-7 -8.269476106344015e-7 -8.269596300494282e-7 -8.269956690816213e-7
          -0.0000012263864520822785 -0.0000012264044655956279 -0.0000012264584847020014 -0.0000016073664466750604 -0.0000016073901622596952 -0.0000016074612585316863
          -0.0000019615589890131656 -0.0000019615875050723373 -0.0000019616730518268528 -0.000002280195381088487 -0.000002280226465593584 -0.0000022803195630506944
          -0.0000025566044636896466 -0.0000025566344556752805 -0.000002556724591378221 -0.0000027912837208077413 -0.0000027913022679397637 -0.0000027913576257446394
          -0.0000029981785626010117 -0.0000029981866746978015 -0.000002998210638485716 0 -4.1774074024513744e-7 0
          -4.177467179316722e-7 0 -4.177646497420486e-7 -8.297657741387106e-7 -8.297777108719696e-7 -8.298135050961681e-7
          -0.0000012297308254312136 -0.0000012297485773271394 -0.0000012298018159716213 -0.0000016102157731524327 -0.0000016102388584040567 -0.0000016103080690277196
          -0.000001962769645583204 -0.000001962796909895802 -0.0000019628787082991154 -0.000002278987920965296 -0.000002279016796638201 -0.0000022791032831280338
          -0.0000025533135927534366 -0.0000025533402793105107 -0.000002553420498692389 -0.000002787772435808409 -0.000002787787272940344 -0.0000027878315300745084
          -0.00000299675881458441 -0.0000029967634009022612 -0.0000029967768003674746 0 -4.182554039125185e-7 0
          -4.182613810748097e-7 0 -4.182792976927047e-7 -8.306743105505842e-7 -8.306862272195495e-7 -8.307219354080987e-7
          -0.0000012307917815430134 -0.0000012308094552127461 -0.0000012308624244960526 -0.0000016110837955114594 -0.000001611106681419117 -0.0000016111752503733875
          -0.0000019630668112639455 -0.000001963093672488309 -0.0000019631742110947244 -0.0000022784728750615868 -0.00000227850103952501 -0.0000022785853353773108
          -0.0000025521237277440137 -0.000002552149366735672 -0.0000025522263742175783 -0.00000278653226965984 -0.0000027865459656924203 -0.000002786586743850775
          -0.000002996211627800397 -0.00000299621514324447 -0.000002996225274576031
        </DataArray>
        <DataArray type="Float64" Name="disp_z" format="ascii" RangeMin="-6.928301368359106e-8" RangeMax="0">
          0 0 0 0 -2.7317903821609828e-8 -2.7381481689505075e-8
          -2.7093305651233107e-8 -2.6896362685775176e-8 -5.46351089974945e-8 -5.476650158170731e-8 -5.41928654810912e-8 -5.37871115540414e-8
          0 0 0 0 -2.6837675364506478e-8 -2.6838154388077824e-8
          -2.6941387185972063e-8 -2.6913079415473568e-8 -5.3677529299265745e-8 -5.3676715739183184e-8 -5.388211523839991e-8 -5.38238554880604e-8
          0 0 -2.713024426295729e-8 -2.691595832740042e-8 -5.426271949665658e-8 -5.383427768998843e-8
          0 0 0 -2.691977864613872e-8 -2.706488999493067e-8 -2.7116601526918175e-8
          -5.383865766091175e-8 -5.4130760889622855e-8 -5.423231808841473e-8 0 0 0
          0 -2.66700131732021e-8 -2.6593003344885412e-8 -2.656381774326838e-8 -2.666883768941513e-8 -5.333862125148368e-8
          -5.318420602355987e-8 -5.3127904260974167e-8 -5.3339329229832346e-8 0 0 0
          0 -2.660525537151181e-8 -2.654880747851374e-8 -2.6589559369385027e-8 -2.668466355151618e-8 -5.321068312223966e-8
          -5.3096923309888824e-8 -5.318174331851651e-8 -5.336749634980073e-8 0 0 0
          -2.6751429401283328e-8 -2.6743953859540328e-8 -2.6808398470877178e-8 -5.350300905110803e-8 -5.34875790083964e-8 -5.361823474565928e-8
          0 -2.7238603533551972e-8 -5.447662764859087e-8 0 0 -2.6767374003287164e-8
          -2.674128539071288e-8 -5.353406852445824e-8 -5.3483743327571515e-8 0 0 -2.7135638876656743e-8
          -2.6994613697549648e-8 -5.427101583266863e-8 -5.398950001872969e-8 0 0 -2.6419450327918784e-8
          -2.6420402862755652e-8 -5.283920825065801e-8 -5.284074322521499e-8 0 0 0
          0 -2.654529171650822e-8 -2.6530028949569094e-8 -2.6609517950155873e-8 -2.6635152224722174e-8 -5.3090622835085436e-8
          -5.305995440115518e-8 -5.321940949842265e-8 -5.326973621106293e-8 0 -2.6619720966010692e-8 -5.323970020317648e-8
          0 -2.6420177065625358e-8 -5.284026704309546e-8 0 -2.6876328590173343e-8 -5.37523831646722e-8
          0 0 -2.686900846224441e-8 -2.6797974979928514e-8 -5.37366451163554e-8 -5.359566022725794e-8
          0 0 0 0 -2.6602703108764183e-8 -2.6633687274448437e-8
          -2.6600073063907253e-8 -2.6564509204490385e-8 -5.320469404223074e-8 -5.3268418635367545e-8 -5.319989565600158e-8 -5.312900574866386e-8
          0 0 -2.6794943008323162e-8 -2.6837292071371884e-8 -5.359119172868357e-8 -5.3679101170939954e-8
          0 -2.646717392432848e-8 -5.2934201966761105e-8 0 -2.6518928923739905e-8 -5.3036910903857607e-8
          0 0 -2.6516668036530637e-8 -2.650340183405206e-8 -5.303211598967206e-8 -5.300668580736297e-8
          0 0 -2.672815130044176e-8 -2.6682121701255966e-8 -5.345650016468953e-8 -5.3366756762352277e-8
          0 0 -2.6643461514622746e-8 -2.663841924798201e-8 -5.328820376944071e-8 -5.327532839087508e-8
          0 -2.647438250505744e-8 -5.294903229831262e-8 0 -2.666833761062793e-8 -5.3336400772975484e-8
          0 -2.647730449451257e-8 -5.29548194704619e-8 0 -2.6673635629598912e-8 -5.334675117785687e-8
          0 -2.652133322619894e-8 -5.30423113730693e-8 0 0 -2.631078987891937e-8
          -2.635257580972762e-8 -5.2621192672999804e-8 -5.270453250368462e-8 0 -2.6756994451660322e-8 -5.3513610602639186e-8
          0 0 -2.6730044665948506e-8 -2.6711945350371758e-8 -5.34594182196552e-8 -5.3424013434591764e-8
          0 0 -2.662251689063455e-8 -2.658303969229367e-8 -5.3243883378706825e-8 -5.316662025636513e-8
          0 0 -2.682147855050547e-8 -2.6811155291083422e-8 -5.363971220197296e-8 -5.3616110971199676e-8
          0 -2.6563700205462075e-8 -5.312783661541844e-8 0 -2.638581869744895e-8 -5.277205800011441e-8
          0 -2.6539169400956632e-8 -5.307839246969977e-8 0 0 -2.6480848707935306e-8
          -2.643618225511671e-8 -5.2961942569362275e-8 -5.287189869437399e-8 0 0 -2.6390532209742763e-8
          -2.634435427556179e-8 -5.278136351811614e-8 -5.2687529934196304e-8 0 0 0
          -2.646828051662912e-8 -2.648021563376243e-8 -2.6430726513618673e-8 -5.293687783793001e-8 -5.295985954363347e-8 -5.2861572073537074e-8
          0 -2.6384458315870944e-8 -5.276872508607798e-8 0 0 -2.6691649425766596e-8
          -2.6690950560638754e-8 -5.338476375191273e-8 -5.338176875631407e-8 0 0 -2.6862094098431882e-8
          -2.6765701438251955e-8 -5.3735529826412556e-8 -5.349508953031625e-8 0 -2.642999028093349e-8 -5.285958623594733e-8
          0 -2.6418842037298724e-8 -5.2836884993469374e-8 0 -2.6769727820433935e-8 -5.3540366001306945e-8
          0 0 -2.6610636807389875e-8 -2.6534762285698836e-8 -5.322166398722052e-8 -5.306860657782805e-8
          0 -2.647838664641444e-8 -5.2956785561939984e-8 0 -2.668523973491512e-8 -5.336420849539941e-8
          0 -2.6762230475601743e-8 -5.352236861028754e-8 0 -2.680740342774446e-8 -5.363617953216091e-8
          0 -2.7025784400104986e-8 -5.408200144813567e-8 0 -2.724350479707485e-8 -5.448812761599407e-8
          0 -2.7375410102073777e-8 -5.4751049114940026e-8 0 -2.757744324100265e-8 -5.5155858554327334e-8
          0 -2.7769469078554268e-8 -5.55384960090801e-8 0 -2.786970373227284e-8 -5.573808466676084e-8
          0 -2.7626878645865793e-8 -5.525373872789362e-8 0 0 -2.597347003612573e-8
          -2.5932489206076823e-8 -5.1947052652965436e-8 -5.186508911603856e-8 0 0 -2.5497903571748993e-8
          -2.546017794295516e-8 -5.099582859344825e-8 -5.0920258073426035e-8 0 0 -2.4921855181136775e-8
          -2.489113714730394e-8 -4.984379613464676e-8 -4.978224486043755e-8 0 0 -2.426595533113666e-8
          -2.4246398871356076e-8 -4.853198931601495e-8 -4.849272426090916e-8 0 0 -2.3559745042619742e-8
          -2.3555423863673694e-8 -4.711955720870461e-8 -4.7110806548949005e-8 0 0 -2.2837355403960252e-8
          -2.2851210380200914e-8 -4.567476143556784e-8 -4.5702368434961284e-8 0 0 -2.2133035649543214e-8
          -2.2167153460786236e-8 -4.426606559783076e-8 -4.433431354994425e-8 0 0 -2.1479245184305438e-8
          -2.1526135817608148e-8 -4.2958425356913075e-8 -4.305224810695758e-8 0 -2.6107903656441108e-8 -5.221575992782236e-8
          0 -2.561986901328131e-8 -5.1239594581492596e-8 0 -2.501644830333054e-8 -5.0032772555950434e-8
          0 -2.43199314339128e-8 -4.863976634377657e-8 0 -2.3563004799935234e-8 -4.712586599755127e-8
          0 -2.278483838512978e-8 -4.55697456021228e-8 0 -2.2019087735776908e-8 -4.403813787788398e-8
          0 -2.132587619148359e-8 -4.2651957166260266e-8 0 -2.6349287015623955e-8 -5.269893165498137e-8
          0 -2.584460247337068e-8 -5.168946950124837e-8 0 -2.5196956686606128e-8 -5.039414024944421e-8
          0 -2.443027725350533e-8 -4.886080122614843e-8 0 -2.3581684231802667e-8 -4.7163297361155085e-8
          0 -2.2698704202023124e-8 -4.53976534776875e-8 0 -2.1815522852851615e-8 -4.36305304921382e-8
          0 -2.104351046386462e-8 -4.208680830849135e-8 0 -2.6721621550551928e-8 -5.344236160519233e-8
          0 -2.619477009607819e-8 -5.2388751842985616e-8 0 -2.547939349740089e-8 -5.095808877889344e-8
          0 -2.4601884540835563e-8 -4.920347430199463e-8 0 -2.360633740570651e-8 -4.721219497386961e-8
          0 -2.2553825649241174e-8 -4.510843554014288e-8 0 -2.147914986612448e-8 -4.295856148734553e-8
          0 -2.0586377214981152e-8 -4.1174522732246585e-8 0 -2.72637320892735e-8 -5.4529803668688095e-8
          0 -2.6709056467171148e-8 -5.342011708158449e-8 0 -2.5893776568535672e-8 -5.178904669776277e-8
          0 -2.4848610817027812e-8 -4.969854979749942e-8 0 -2.362764884418168e-8 -4.7254950762718255e-8
          0 -2.2312873591064714e-8 -4.462636678423015e-8 0 -2.0936147095361332e-8 -4.186897088921099e-8
          0 -1.9867474834522877e-8 -3.973280261688022e-8 0 -2.8250178299392747e-8 -5.649554830314153e-8
          0 -2.802420268554634e-8 -5.6043388655444284e-8 0 -2.7434123302326105e-8 -5.4864076558460904e-8
          0 -2.6471562286216373e-8 -5.2939540507508157e-8 0 -2.5177811201896667e-8 -5.035405390010688e-8
          0 -2.3620295139940617e-8 -4.723870177871168e-8 0 -2.190711083902458e-8 -4.3818240792101444e-8
          0 -2.0062928195267388e-8 -4.012841873673407e-8 0 -1.8791799007847353e-8 -3.759272840435722e-8
          0 -2.930266656230618e-8 -5.8611765923474326e-8 0 -2.9200412944858327e-8 -5.840754224828149e-8
          0 -2.8546662815717976e-8 -5.709927915516329e-8 0 -2.735380807098709e-8 -5.4711663325080474e-8
          0 -2.5668277952696914e-8 -5.134044574390154e-8 0 -2.3570388121348703e-8 -4.7138332333622046e-8
          0 -2.121712930454295e-8 -4.2436381454213056e-8 0 -1.8512622559159093e-8 -3.701260071246732e-8
          0 -1.6883198116905304e-8 -3.376051629292172e-8 0 -3.028733133170041e-8 -6.057387508026264e-8
          0 -3.03726191744184e-8 -6.074394693563231e-8 0 -2.967267445178353e-8 -5.934495235417646e-8
          0 -2.8188080501357812e-8 -5.637511068825976e-8 0 -2.6025729677376894e-8 -5.205433481171332e-8
          0 -2.3289910647327317e-8 -4.6575338436904154e-8 0 -2.015594339160708e-8 -4.0325915613825086e-8
          0 -1.6486067394815087e-8 -3.296485612131149e-8 0 -1.476201504976448e-8 -2.9537035701748645e-8
          0 -3.408897488014709e-8 -6.818919421472647e-8 0 -3.463561405858084e-8 -6.928301368359106e-8
          0 -3.3489835834380275e-8 -6.699282677399514e-8 0 -3.117281180695172e-8 -6.235474304823768e-8
          0 -2.7738110928747773e-8 -5.548908295979368e-8 0 -2.318673289654745e-8 -4.6367846425022954e-8
          0 -1.7765583145714798e-8 -3.554839957391633e-8 0 -1.0216965461140936e-8 -2.0416551389584313e-8
          0 -5.0868103698395864e-9 -1.0180202533353894e-8 0 0 -2.11263287653989e-8
          -2.1065719484087424e-8 -4.2252767652242054e-8 -4.213146585815474e-8 0 -2.0873127399662608e-8 -4.1746248236725296e-8
          0 -2.052471893689953e-8 -4.104876596430569e-8 0 -1.9972013968642797e-8 -3.9943950454667706e-8
          0 -1.9120194545916276e-8 -3.823685154768639e-8 0 -1.7857731733282776e-8 -3.5715507254346834e-8
          0 -1.5688969462587244e-8 -3.136718657606167e-8 0 -1.2951937058251692e-8 -2.5887239712650947e-8
          0 -4.78213881805216e-9 -9.534828071569404e-9 0 0 -2.075500040433689e-8
          -2.0687365417828296e-8 -4.1509896746475934e-8 -4.1374667729645974e-8 0 -2.047671265917929e-8 -4.095350915526562e-8
          0 -2.0101455847256394e-8 -4.020321838681373e-8 0 -1.9518990093787132e-8 -3.903884582333272e-8
          0 -1.8664819254147978e-8 -3.7330816212004485e-8 0 -1.7412158072677926e-8 -3.482838859981085e-8
          0 -1.5618705419312835e-8 -3.124199625570537e-8 0 -1.3128392024814983e-8 -2.6273578063278842e-8
          0 -9.235283328671986e-9 -1.848860178315691e-8 0 0 -2.0429577710229314e-8
          -2.035692995469886e-8 -4.0859209747133973e-8 -4.071389397106108e-8 0 -2.013300948204864e-8 -4.026598479229837e-8
          0 -1.973985065791102e-8 -3.947952726430169e-8 0 -1.9145901565982098e-8 -3.829144478355151e-8
          0 -1.829977278076215e-8 -3.659869279383549e-8 0 -1.7136606937024944e-8 -3.4271859715286146e-8
          0 -1.558147407267806e-8 -3.115907478849904e-8 0 -1.3638344284353614e-8 -2.726971250003939e-8
          0 -1.1358112342045403e-8 -2.2688786004876203e-8 0 0 -2.0151251991059217e-8
          -2.0075673178865283e-8 -4.030248306604313e-8 -4.015133338752586e-8 0 -1.9844524107002225e-8 -3.968906352498185e-8
          0 -1.9444893454666433e-8 -3.88898566429079e-8 0 -1.8855142153033186e-8 -3.771042008709666e-8
          0 -1.8046415977235502e-8 -3.609321988706838e-8 0 -1.699322253943898e-8 -3.398683520359878e-8
          0 -1.5687235060050463e-8 -3.1376242958642535e-8 0 -1.4223989154602487e-8 -2.8449817176584788e-8
          0 -1.2912820183734372e-8 -2.5832065529670524e-8 0 0 -1.9922330999628306e-8
          -1.9845264819942363e-8 -3.9844670627966826e-8 -3.969053602151546e-8 0 -1.961121065034063e-8 -3.9222417938715406e-8
          0 -1.9212119130697364e-8 -3.8424219535927216e-8 0 -1.8636616104252256e-8 -3.7273179357991414e-8
          0 -1.7874741463978175e-8 -3.574940434874712e-8 0 -1.6930673186227198e-8 -3.386100959064004e-8
          0 -1.584044858580297e-8 -3.1680672653203796e-8 0 -1.4747002346836537e-8 -2.949262961045147e-8
          0 -1.3967876269695151e-8 -2.7930811567999807e-8 0 0 -1.9743913513156018e-8
          -1.9666311344906713e-8 -3.9487826583771104e-8 -3.933262344036166e-8 0 -1.943198327680441e-8 -3.886396857384411e-8
          0 -1.903725797117208e-8 -3.807452794755246e-8 0 -1.8479394497451613e-8 -3.695878907577934e-8
          0 -1.776294102789924e-8 -3.5525952960850466e-8 0 -1.6912709814637498e-8 -3.382531197963013e-8
          0 -1.5992422358938666e-8 -3.198531715173326e-8 0 -1.515704409125579e-8 -3.031375367374495e-8
          0 -1.4683364604992775e-8 -2.9366962865085488e-8 0 0 -1.9616431848098584e-8
          -1.9538799468490958e-8 -3.9232866419479874e-8 -3.90776017831142e-8 0 -1.9305434139252573e-8 -3.86108686002639e-8
          0 -1.8916043565617225e-8 -3.783208966144879e-8 0 -1.8374249630630392e-8 -3.67484796121432e-8
          0 -1.7694665379655896e-8 -3.5389352165076934e-8 0 -1.6915380178806546e-8 -3.383060299458647e-8
          0 -1.6115908390087442e-8 -3.223205908436856e-8 0 -1.5448062673486964e-8 -3.089558918465803e-8
          0 -1.5152174661721962e-8 -3.0303530031525945e-8 0 0 -1.9539996408687243e-8
          -1.9462481056766097e-8 -3.9079994814401686e-8 -3.892496460416763e-8 0 -1.9230174297725444e-8 -3.846034897759961e-8
          0 -1.884487399996533e-8 -3.768975247679693e-8 0 -1.8314060856388635e-8 -3.662810402384448e-8
          0 -1.7658190785863748e-8 -3.5316415025076556e-8 0 -1.692273834431569e-8 -3.38453429356085e-8
          0 -1.619479369874185e-8 -3.2389875186378725e-8 0 -1.5620541753305506e-8 -3.1240657202516024e-8
          0 -1.5417253296934526e-8 -3.083422774054778e-8 0 0 -1.9514539166019432e-8
          -1.9437081456793023e-8 -3.902908035137109e-8 -3.887416520369216e-8 0 -1.920521098004781e-8 -3.841042181029784e-8
          0 -1.882142403175413e-8 -3.7642851212942525e-8 0 -1.8294490889137558e-8 -3.6588961840868455e-8
          0 -1.7646783013565884e-8 -3.529359527981683e-8 0 -1.6926126493577202e-8 -3.38521165715206e-8
          0 -1.6221840889736583e-8 -3.244394699529672e-8 0 -1.5677653794703912e-8 -3.135487555812876e-8
          0 -1.5503386350674612e-8 -3.100641690162135e-8
        </DataArray>
      </PointData>
      <CellData>
        <DataArray type="Int32" Name="libmesh_elem_id" format="ascii" RangeMin="1398" RangeMax="3643">
          1398 1399 1422 1423 1460 1461
          1470 1471 1482 1483 1494 1495
          1502 1503 1506 1507 1520 1521
          1528 1529 1580 1581 1584 1585
          1612 1613 1636 1637 1652 1653
          1722 1723 1798 1799 1850 1851
          2298 2299 2406 2407 2442 2443
          2450 2451 2472 2473 2558 2559
          2610 2611 2646 2647 2648 2649
          2662 2663 2672 2673 2680 2681
          2748 2749 2756 2757 2776 2777
          2808 2809 2814 2815 2822 2823
          2828 2829 2836 2837 2852 2853
          2876 2877 2898 2899 2910 2911
          2926 2927 2936 2937 2950 2951
          2952 2953 2954 2955 2966 2967
          2980 2981 2982 2983 2990 2991
          3006 3007 3014 3015 3026 3027
          3068 3069 3074 3075 3104 3105
          3110 3111 3124 3125 3126 3127
          3168 3169 3194 3195 3204 3205
          3208 3209 3210 3211 3212 3213
          3220 3221 3222 3223 3224 3225
          3226 3227 3234 3235 3236 3237
          3240 3241 3252 3253 3254 3255
          3264 3265 3296 3297 3302 3303
          3308 3309 3314 3315 3324 3325
          3326 3327 3328 3329 3330 3331
          3332 3333 3334 3335 3336 3337
          3342 3343 3344 3345 3346 3347
          3348 3349 3350 3351 3352 3353
          3354 3355 3360 3361 3362 3363
          3364 3365 3366 3367 3368 3369
          3370 3371 3372 3373 3378 3379
          3380 3381 3382 3383 3384 3385
          3386 3387 3388 3389 3390 3391
          3396 3397 3398 3399 3400 3401
          3402 3403 3404 3405 3406 3407
          3408 3409 3414 3415 3416 3417
          3418 3419 3420 3421 3422 3423
          3424 3425 3426 3427 3430 3431
          3432 3433 3434 3435 3436 3437
          3438 3439 3440 3441 3442 3443
          3444 3445 3448 3449 3450 3451
          3452 3453 3454 3455 3456 3457
          3458 3459 3460 3461 3462 3463
          3466 3467 3468 3469 3470 3471
          3472 3473 3474 3475 3476 3477
          3478 3479 3480 3481 3482 3483
          3484 3485 3486 3487 3488 3489
          3490 3491 3492 3493 3494 3495
          3496 3497 3498 3499 3500 3501
          3502 3503 3504 3505 3506 3507
          3508 3509 3510 3511 3512 3513
          3514 3515 3516 3517 3518 3519
          3520 3521 3522 3523 3524 3525
          3526 3527 3528 3529 3530 3531
          3532 3533 3534 3535 3536 3537
          3538 3539 3540 3541 3542 3543
          3544 3545 3546 3547 3548 3549
          3550 3551 3552 3553 3554 3555
          3556 3557 3558 3559 3560 3561
          3562 3563 3564 3565 3566 3567
          3568 3569 3570 3571 3572 3573
          3574 3575 3576 3577 3578 3579
          3580 3581 3582 3583 3584 3585
          3586 3587 3588 3589 3590 3591
          3592 3593 3594 3595 3596 3597
          3598 3599 3600 3601 3602 3603
          3604 3605 3606 3607 3608 3609
          3610 3611 3612 3613 3614 3615
          3616 3617 3618 3619 3620 3621
          3622 3623 3624 3625 3626 3627
          3628 3629 3630 3631 3632 3633
          3634 3635 3636 3637 3638 3639
          3640 3641 3642 3643
        </DataArray>
        <DataArray type="Int32" Name="subdomain_id" format="ascii" RangeMin="107" RangeMax="110">
          107 107 107 107 107 107
          107 107 107 107 107 107
          107 107 107 107 107 107
          107 107 107 107 107 107
          107 107 107 107 107 107
          107 107 107 107 107 107
          107 107 107 107 107 107
          107 107 107 107 107 107
          107 107 107 107 107 107
          107 107 107 107 107 107
          107 107 107 107 107 107
          107 107 107 107 107 107
          107 107 107 107 107 107
          107 107 107 107 107 107
          107 107 107 107 107 107
          107 107 107 107 107 107
          107 107 107 107 107 107
          107 107 107 107 107 107
          107 107 107 107 107 107
          107 107 107 107 107 107
          107 107 107 107 107 107
          107 107 107 107 107 107
          107 107 107 107 107 107
          107 107 107 107 107 107
          107 107 107 107 107 107
          107 107 108 108 108 108
          108 108 108 108 109 109
          109 109 109 109 109 109
          109 109 109 109 109 109
          109 109 109 109 109 109
          109 109 109 109 109 109
          109 109 109 109 109 109
          109 109 109 109 109 109
          109 109 109 109 109 109
          109 109 109 109 109 109
          109 109 109 109 109 109
          109 109 109 109 109 109
          109 109 109 109 109 109
          109 109 109 109 109 109
          109 109 109 109 109 109
          109 109 109 109 109 109
          109 109 109 109 109 109
          109 109 109 109 109 109
          109 109 109 109 109 109
          109 109 109 109 109 109
          109 109 109 109 109 109
          109 109 109 109 109 109
          109 109 109 109 109 109
          109 109 109 109 110 110
          110 110 110 110 110 110
          110 110 110 110 110 110
          110 110 110 110 110 110
          110 110 110 110 110 110
          110 110 110 110 110 110
          110 110 110 110 110 110
          110 110 110 110 110 110
          110 110 110 110 110 110
          110 110 110 110 110 110
          110 110 110 110 110 110
          110 110 110 110 110 110
          110 110 110 110 110 110
          110 110 110 110 110 110
          110 110 110 110 110 110
          110 110 110 110 110 110
          110 110 110 110 110 110
          110 110 110 110 110 110
          110 110 110 110 110 110
          110 110 110 110 110 110
          110 110 110 110 110 110
          110 110 110 110 110 110
          110 110 110 110 110 110
          110 110 110 110 110 110
          110 110 110 110 110 110
          110 110 110 110 110 110
          110 110 110 110 110 110
          110 110 110 110
        </DataArray>
        <DataArray type="Int32" Name="processor_id" format="ascii" RangeMin="0" RangeMax="0">
          0 0 0 0 0 0
          0 0 0 0 0 0
          0 0 0 0 0 0
          0 0 0 0 0 0
          0 0 0 0 0 0
          0 0 0 0 0 0
          0 0 0 0 0 0
          0 0 0 0 0 0
          0 0 0 0 0 0
          0 0 0 0 0 0
          0 0 0 0 0 0
          0 0 0 0 0 0
          0 0 0 0 0 0
          0 0 0 0 0 0
          0 0 0 0 0 0
          0 0 0 0 0 0
          0 0 0 0 0 0
          0 0 0 0 0 0
          0 0 0 0 0 0
          0 0 0 0 0 0
          0 0 0 0 0 0
          0 0 0 0 0 0
          0 0 0 0 0 0
          0 0 0 0 0 0
          0 0 0 0 0 0
          0 0 0 0 0 0
          0 0 0 0 0 0
          0 0 0 0 0 0
          0 0 0 0 0 0
          0 0 0 0 0 0
          0 0 0 0 0 0
          0 0 0 0 0 0
          0 0 0 0 0 0
          0 0 0 0 0 0
          0 0 0 0 0 0
          0 0 0 0 0 0
          0 0 0 0 0 0
          0 0 0 0 0 0
          0 0 0 0 0 0
          0 0 0 0 0 0
          0 0 0 0 0 0
          0 0 0 0 0 0
          0 0 0 0 0 0
          0 0 0 0 0 0
          0 0 0 0 0 0
          0 0 0 0 0 0
          0 0 0 0 0 0
          0 0 0 0 0 0
          0 0 0 0 0 0
          0 0 0 0 0 0
          0 0 0 0 0 0
          0 0 0 0 0 0
          0 0 0 0 0 0
          0 0 0 0 0 0
          0 0 0 0 0 0
          0 0 0 0 0 0
          0 0 0 0 0 0
          0 0 0 0 0 0
          0 0 0 0 0 0
          0 0 0 0 0 0
          0 0 0 0 0 0
          0 0 0 0 0 0
          0 0 0 0 0 0
          0 0 0 0 0 0
          0 0 0 0 0 0
          0 0 0 0 0 0
          0 0 0 0 0 0
          0 0 0 0 0 0
          0 0 0 0 0 0
          0 0 0 0 0 0
          0 0 0 0 0 0
          0 0 0 0 0 0
          0 0 0 0 0 0
          0 0 0 0 0 0
          0 0 0 0 0 0
          0 0 0 0
        </DataArray>
      </CellData>
      <Points>
        <DataArray type="Float64" Name="Points" NumberOfComponents="3" format="ascii" RangeMin="0.019949534490770096" RangeMax="0.057059767276955435">
          0.025 0.010111111111103 0 0.025 0.011555555555552 0
          0.023969654121399 0.011643457228511 0 0.023712354871128 0.010827306146479 0
          0.025 0.010111111111103 0.00015 0.025 0.011555555555552 0.00015
          0.023969654121399 0.011643457228511 0.00015 0.023712354871128 0.010827306146479 0.00015
          0.025 0.010111111111103 0.0003 0.025 0.011555555555552 0.0003
          0.023969654121399 0.011643457228511 0.0003 0.023712354871128 0.010827306146479 0.0003
          0.021832836898909 0.0086447924127183 0 0.021823224979211 0.0078559681587773 0
          0.022737846371709 0.0079006862580081 0 0.022634898807434 0.0088549234284915 0
          0.021832836898909 0.0086447924127183 0.00015 0.021823224979211 0.0078559681587773 0.00015
          0.022737846371709 0.0079006862580081 0.00015 0.022634898807434 0.0088549234284915 0.00015
          0.021832836898909 0.0086447924127183 0.0003 0.021823224979211 0.0078559681587773 0.0003
          0.022737846371709 0.0079006862580081 0.0003 0.022634898807434 0.0088549234284915 0.0003
          0.023595500831214 0.0092794942281182 0 0.023071107871262 0.010124307969263 0
          0.023595500831214 0.0092794942281182 0.00015 0.023071107871262 0.010124307969263 0.00015
          0.023595500831214 0.0092794942281182 0.0003 0.023071107871262 0.010124307969263 0.0003
          0.022679909737796 0.0068405181074087 0 0.023816654948859 0.0069324696013164 0
          0.023805320189621 0.0081867285281858 0 0.022679909737796 0.0068405181074087 0.00015
          0.023816654948859 0.0069324696013164 0.00015 0.023805320189621 0.0081867285281858 0.00015
          0.022679909737796 0.0068405181074087 0.0003 0.023816654948859 0.0069324696013164 0.0003
          0.023805320189621 0.0081867285281858 0.0003 0.021890570917318 0.011219591567605 0
          0.021490495874743 0.011513015985888 0 0.020878683694742 0.011349585571751 0
          0.021380466308845 0.010767094219468 0 0.021890570917318 0.011219591567605 0.00015
          0.021490495874743 0.011513015985888 0.00015 0.020878683694742 0.011349585571751 0.00015
          0.021380466308845 0.010767094219468 0.00015 0.021890570917318 0.011219591567605 0.0003
          0.021490495874743 0.011513015985888 0.0003 0.020878683694742 0.011349585571751 0.0003
          0.021380466308845 0.010767094219468 0.0003 0.022336312736143 0.012467557709352 0
          0.021763745105177 0.012476629724541 0 0.021622459990569 0.011931223094182 0
          0.02233098651665 0.011816769005978 0 0.022336312736143 0.012467557709352 0.00015
          0.021763745105177 0.012476629724541 0.00015 0.021622459990569 0.011931223094182 0.00015
          0.02233098651665 0.011816769005978 0.00015 0.022336312736143 0.012467557709352 0.0003
          0.021763745105177 0.012476629724541 0.0003 0.021622459990569 0.011931223094182 0.0003
          0.02233098651665 0.011816769005978 0.0003 0.021047379294988 0.0079667793778881 0
          0.020813290684512 0.007243328880283 0 0.021666975794544 0.0069715825078724 0
          0.021047379294988 0.0079667793778881 0.00015 0.020813290684512 0.007243328880283 0.00015
          0.021666975794544 0.0069715825078724 0.00015 0.021047379294988 0.0079667793778881 0.0003
          0.020813290684512 0.007243328880283 0.0003 0.021666975794544 0.0069715825078724 0.0003
          0.025 0.0086666666666559 0 0.025 0.0086666666666559 0.00015
          0.025 0.0086666666666559 0.0003 0.021356284292895 0.0061182113295331 0
          0.020489019208248 0.0065103794253073 0 0.021356284292895 0.0061182113295331 0.00015
          0.020489019208248 0.0065103794253073 0.00015 0.021356284292895 0.0061182113295331 0.0003
          0.020489019208248 0.0065103794253073 0.0003 0.025 0.0072222222222063 0
          0.023829479378086 0.0056593315311521 0 0.025 0.0072222222222063 0.00015
          0.023829479378086 0.0056593315311521 0.00015 0.025 0.0072222222222063 0.0003
          0.023829479378086 0.0056593315311521 0.0003 0.019357361519954 0.01157618305141 0
          0.01884046117173 0.011223113854601 0 0.019357361519954 0.01157618305141 0.00015
          0.01884046117173 0.011223113854601 0.00015 0.019357361519954 0.01157618305141 0.0003
          0.01884046117173 0.011223113854601 0.0003 0.020274347850796 0.01080512315655 0
          0.019692191057164 0.010418143528135 0 0.020104676199583 0.0097475599042502 0
          0.020792052735599 0.010316149813733 0 0.020274347850796 0.01080512315655 0.00015
          0.019692191057164 0.010418143528135 0.00015 0.020104676199583 0.0097475599042502 0.00015
          0.020792052735599 0.010316149813733 0.00015 0.020274347850796 0.01080512315655 0.0003
          0.019692191057164 0.010418143528135 0.0003 0.020104676199583 0.0097475599042502 0.0003
          0.020792052735599 0.010316149813733 0.0003 0.018734278863615 0.0068564365277259 0
          0.018734278863615 0.0068564365277259 0.00015 0.018734278863615 0.0068564365277259 0.0003
          0.018384253973557 0.010894663204421 0 0.018384253973557 0.010894663204421 0.00015
          0.018384253973557 0.010894663204421 0.0003 0.022477642087048 0.0055533155338694 0
          0.022477642087048 0.0055533155338694 0.00015 0.022477642087048 0.0055533155338694 0.0003
          0.022333445868241 0.0096250088550796 0 0.021678233976573 0.0092839168226163 0
          0.022333445868241 0.0096250088550796 0.00015 0.021678233976573 0.0092839168226163 0.00015
          0.022333445868241 0.0096250088550796 0.0003 0.021678233976573 0.0092839168226163 0.0003
          0.018696511924608 0.0075816988835645 0 0.019307778433714 0.0076950261479263 0
          0.019244919669154 0.0083241905034728 0 0.018643245907353 0.0082916041839039 0
          0.018696511924608 0.0075816988835645 0.00015 0.019307778433714 0.0076950261479263 0.00015
          0.019244919669154 0.0083241905034728 0.00015 0.018643245907353 0.0082916041839039 0.00015
          0.018696511924608 0.0075816988835645 0.0003 0.019307778433714 0.0076950261479263 0.0003
          0.019244919669154 0.0083241905034728 0.0003 0.018643245907353 0.0082916041839039 0.0003
          0.02247089481133 0.010746063389313 0 0.022956441030322 0.011313723369763 0
          0.02247089481133 0.010746063389313 0.00015 0.022956441030322 0.011313723369763 0.00015
          0.02247089481133 0.010746063389313 0.0003 0.022956441030322 0.011313723369763 0.0003
          0.018817000838468 0.010560792840001 0 0.018817000838468 0.010560792840001 0.00015
          0.018817000838468 0.010560792840001 0.0003 0.021028725472558 0.011993213484042 0
          0.021028725472558 0.011993213484042 0.00015 0.021028725472558 0.011993213484042 0.0003
          0.018719100515555 0.0096191331103102 0 0.018769006148643 0.010016813571171 0
          0.018719100515555 0.0096191331103102 0.00015 0.018769006148643 0.010016813571171 0.00015
          0.018719100515555 0.0096191331103102 0.0003 0.018769006148643 0.010016813571171 0.0003
          0.022845614094026 0.012068678060928 0 0.022870050818517 0.012481997757377 0
          0.022845614094026 0.012068678060928 0.00015 0.022870050818517 0.012481997757377 0.00015
          0.022845614094026 0.012068678060928 0.0003 0.022870050818517 0.012481997757377 0.0003
          0.01980903614198 0.0082923028866096 0 0.019733887771193 0.007830319872041 0
          0.01980903614198 0.0082923028866096 0.00015 0.019733887771193 0.007830319872041 0.00015
          0.01980903614198 0.0082923028866096 0.0003 0.019733887771193 0.007830319872041 0.0003
          0.019287865107188 0.010870204720027 0 0.019287865107188 0.010870204720027 0.00015
          0.019287865107188 0.010870204720027 0.0003 0.019611341590458 0.0069319215290848 0
          0.019611341590458 0.0069319215290848 0.00015 0.019611341590458 0.0069319215290848 0.0003
          0.019793192887703 0.011218191570876 0 0.019793192887703 0.011218191570876 0.00015
          0.019793192887703 0.011218191570876 0.0003 0.02014052068744 0.0075597001530957 0
          0.02014052068744 0.0075597001530957 0.00015 0.02014052068744 0.0075597001530957 0.0003
          0.019142781766586 0.010156284019367 0 0.019142781766586 0.010156284019367 0.00015
          0.019142781766586 0.010156284019367 0.0003 0.019871794871807 0.013 0
          0.019671681078705 0.012567114388191 0 0.019871794871807 0.013 0.00015
          0.019671681078705 0.012567114388191 0.00015 0.019871794871807 0.013 0.0003
          0.019671681078705 0.012567114388191 0.0003 0.02189605775595 0.01024368797285 0
          0.02189605775595 0.01024368797285 0.00015 0.02189605775595 0.01024368797285 0.0003
          0.021306208963658 0.0098107932917518 0 0.020830530356293 0.0093484326970494 0
          0.021306208963658 0.0098107932917518 0.00015 0.020830530356293 0.0093484326970494 0.00015
          0.021306208963658 0.0098107932917518 0.0003 0.020830530356293 0.0093484326970494 0.0003
          0.019927087042343 0.0089401115508047 0 0.019284140679376 0.0089915496868705 0
          0.019927087042343 0.0089401115508047 0.00015 0.019284140679376 0.0089915496868705 0.00015
          0.019927087042343 0.0089401115508047 0.0003 0.019284140679376 0.0089915496868705 0.0003
          0.023272296973232 0.01187913061167 0 0.023408043049707 0.012441583397961 0
          0.023272296973232 0.01187913061167 0.00015 0.023408043049707 0.012441583397961 0.00015
          0.023272296973232 0.01187913061167 0.0003 0.023408043049707 0.012441583397961 0.0003
          0.019291729405334 0.009640079412969 0 0.019291729405334 0.009640079412969 0.00015
          0.019291729405334 0.009640079412969 0.0003 0.019497075330812 0.012129782091497 0
          0.019497075330812 0.012129782091497 0.00015 0.019497075330812 0.012129782091497 0.0003
          0.018655444813331 0.0089912542068827 0 0.018655444813331 0.0089912542068827 0.00015
          0.018655444813331 0.0089912542068827 0.0003 0.020217772280624 0.01161574996656 0
          0.019866459267603 0.011787315550137 0 0.020217772280624 0.01161574996656 0.00015
          0.019866459267603 0.011787315550137 0.00015 0.020217772280624 0.01161574996656 0.0003
          0.019866459267603 0.011787315550137 0.0003 0.020169909004412 0.012559422291794 0
          0.020384615384626 0.013 0 0.020169909004412 0.012559422291794 0.00015
          0.020384615384626 0.013 0.00015 0.020169909004412 0.012559422291794 0.0003
          0.020384615384626 0.013 0.0003 0.02048968364866 0.012063778985416 0
          0.021216890903006 0.012503701361908 0 0.020684692364028 0.012535095885709 0
          0.02048968364866 0.012063778985416 0.00015 0.021216890903006 0.012503701361908 0.00015
          0.020684692364028 0.012535095885709 0.00015 0.02048968364866 0.012063778985416 0.0003
          0.021216890903006 0.012503701361908 0.0003 0.020684692364028 0.012535095885709 0.0003
          0.020897435897446 0.013 0 0.020897435897446 0.013 0.00015
          0.020897435897446 0.013 0.0003 0.020387511226442 0.0081443073342907 0
          0.02056343795537 0.0087688297792787 0 0.020387511226442 0.0081443073342907 0.00015
          0.02056343795537 0.0087688297792787 0.00015 0.020387511226442 0.0081443073342907 0.0003
          0.02056343795537 0.0087688297792787 0.0003 0.023967653117571 0.012391671962311 0
          0.024322147732379 0.012509260561901 0 0.023967653117571 0.012391671962311 0.00015
          0.024322147732379 0.012509260561901 0.00015 0.023967653117571 0.012391671962311 0.0003
          0.024322147732379 0.012509260561901 0.0003 0.021410256410266 0.013 0
          0.021410256410266 0.013 0.00015 0.021410256410266 0.013 0.0003
          0.019993073529409 0.012116879865089 0 0.019993073529409 0.012116879865089 0.00015
          0.019993073529409 0.012116879865089 0.0003 0.02122910202584 0.0090825003429501 0
          0.02122910202584 0.0090825003429501 0.00015 0.02122910202584 0.0090825003429501 0.0003
          0.022948717948721 0.013 0 0.022435897435903 0.013 0
          0.022948717948721 0.013 0.00015 0.022435897435903 0.013 0.00015
          0.022948717948721 0.013 0.0003 0.022435897435903 0.013 0.0003
          0.021923076923085 0.013 0 0.021923076923085 0.013 0.00015
          0.021923076923085 0.013 0.0003 0.023461538461539 0.013 0
          0.023461538461539 0.013 0.00015 0.023461538461539 0.013 0.0003
          0.021171209164951 0.0086229949315581 0 0.021171209164951 0.0086229949315581 0.00015
          0.021171209164951 0.0086229949315581 0.0003 0.023974358974358 0.013 0
          0.023974358974358 0.013 0.00015 0.023974358974358 0.013 0.0003
          0.024487179487177 0.013 0 0.024487179487177 0.013 0.00015
          0.024487179487177 0.013 0.0003 0.025 0.013 0
          0.025 0.013 0.00015 0.025 0.013 0.0003
          0.026666666666667 0.0072222222222063 0 0.026666666666667 0.0072222222222063 0.00015
          0.026666666666667 0.0072222222222063 0.0003 0.026666666666668 0.0086666666666559 0
          0.026666666666668 0.0086666666666559 0.00015 0.026666666666668 0.0086666666666559 0.0003
          0.026666666666669 0.010111111111103 0 0.026666666666669 0.010111111111103 0.00015
          0.026666666666669 0.010111111111103 0.0003 0.026666666666669 0.011555555555552 0
          0.026666666666669 0.011555555555552 0.00015 0.026666666666669 0.011555555555552 0.0003
          0.02666666666667 0.013 0 0.02666666666667 0.013 0.00015
          0.02666666666667 0.013 0.0003 0.033201501647561 0.0014698753983525 0
          0.033179797338052 0 0 0.033201501647561 0.0014698753983525 0.00015
          0.033179797338052 0 0.00015 0.033201501647561 0.0014698753983525 0.0003
          0.033179797338052 0 0.0003 0.034800103200053 0.0015015548376625 0
          0.034769696007096 0 0 0.034800103200053 0.0015015548376625 0.00015
          0.034769696007096 0 0.00015 0.034800103200053 0.0015015548376625 0.0003
          0.034769696007096 0 0.0003 0.03639613666046 0.0015457026119765 0
          0.036359594676111 0 0 0.03639613666046 0.0015457026119765 0.00015
          0.036359594676111 0 0.00015 0.03639613666046 0.0015457026119765 0.0003
          0.036359594676111 0 0.0003 0.037988764334349 0.001602116400018 0
          0.037949493345121 0 0 0.037988764334349 0.001602116400018 0.00015
          0.037949493345121 0 0.00015 0.037988764334349 0.001602116400018 0.0003
          0.037949493345121 0 0.0003 0.039577164134098 0.001670537667151 0
          0.039539392014149 0 0 0.039577164134098 0.001670537667151 0.00015
          0.039539392014149 0 0.00015 0.039577164134098 0.001670537667151 0.0003
          0.039539392014149 0 0.0003 0.041160533348121 0.0017506528505884 0
          0.041129290683195 0 0 0.041160533348121 0.0017506528505884 0.00015
          0.041129290683195 0 0.00015 0.041160533348121 0.0017506528505884 0.0003
          0.041129290683195 0 0.0003 0.042738092320879 0.0018420947973532 0
          0.042719189352233 0 0 0.042738092320879 0.0018420947973532 0.00015
          0.042719189352233 0 0.00015 0.042738092320879 0.0018420947973532 0.0003
          0.042719189352233 0 0.0003 0.044309088021254 0.0019444444444413 0
          0.044309088021254 0 0 0.044309088021254 0.0019444444444413 0.00015
          0.044309088021254 0 0.00015 0.044309088021254 0.0019444444444413 0.0003
          0.044309088021254 0 0.0003 0.033223205957069 0.0029397507967035 0
          0.033223205957069 0.0029397507967035 0.00015 0.033223205957069 0.0029397507967035 0.0003
          0.03483051039301 0.0030031096753234 0 0.03483051039301 0.0030031096753234 0.00015
          0.03483051039301 0.0030031096753234 0.0003 0.036432678644808 0.0030914052239513 0
          0.036432678644808 0.0030914052239513 0.00015 0.036432678644808 0.0030914052239513 0.0003
          0.038028035323577 0.0032042328000343 0 0.038028035323577 0.0032042328000343 0.00015
          0.038028035323577 0.0032042328000343 0.0003 0.039614936254047 0.0033410753343001 0
          0.039614936254047 0.0033410753343001 0.00015 0.039614936254047 0.0033410753343001 0.0003
          0.041191776013048 0.0035013057011749 0 0.041191776013048 0.0035013057011749 0.00015
          0.041191776013048 0.0035013057011749 0.0003 0.042756995289524 0.0036841895947044 0
          0.042756995289524 0.0036841895947044 0.00015 0.042756995289524 0.0036841895947044 0.0003
          0.044309088021254 0.0038888888888803 0 0.044309088021254 0.0038888888888803 0.00015
          0.044309088021254 0.0038888888888803 0.0003 0.033244910266578 0.0044096261950543 0
          0.033244910266578 0.0044096261950543 0.00015 0.033244910266578 0.0044096261950543 0.0003
          0.034860917585967 0.004504664512984 0 0.034860917585967 0.004504664512984 0.00015
          0.034860917585967 0.004504664512984 0.0003 0.036469220629156 0.0046371078359259 0
          0.036469220629156 0.0046371078359259 0.00015 0.036469220629156 0.0046371078359259 0.0003
          0.038067306312805 0.0048063492000502 0 0.038067306312805 0.0048063492000502 0.00015
          0.038067306312805 0.0048063492000502 0.0003 0.039652708373995 0.0050116130014489 0
          0.039652708373995 0.0050116130014489 0.00015 0.039652708373995 0.0050116130014489 0.0003
          0.041223018677975 0.005251958551761 0 0.041223018677975 0.005251958551761 0.00015
          0.041223018677975 0.005251958551761 0.0003 0.04277589825817 0.0055262843920551 0
          0.04277589825817 0.0055262843920551 0.00015 0.04277589825817 0.0055262843920551 0.0003
          0.044309088021254 0.0058333333333189 0 0.044309088021254 0.0058333333333189 0.00015
          0.044309088021254 0.0058333333333189 0.0003 0.033266614576087 0.0058795015934051 0
          0.033266614576087 0.0058795015934051 0.00015 0.033266614576087 0.0058795015934051 0.0003
          0.034891324778924 0.0060062193506447 0 0.034891324778924 0.0060062193506447 0.00015
          0.034891324778924 0.0060062193506447 0.0003 0.036505762613504 0.0061828104479004 0
          0.036505762613504 0.0061828104479004 0.00015 0.036505762613504 0.0061828104479004 0.0003
          0.038106577302032 0.0064084656000662 0 0.038106577302032 0.0064084656000662 0.00015
          0.038106577302032 0.0064084656000662 0.0003 0.039690480493944 0.0066821506685977 0
          0.039690480493944 0.0066821506685977 0.00015 0.039690480493944 0.0066821506685977 0.0003
          0.041254261342902 0.0070026114023471 0 0.041254261342902 0.0070026114023471 0.00015
          0.041254261342902 0.0070026114023471 0.0003 0.042794801226816 0.0073683791894058 0
          0.042794801226816 0.0073683791894058 0.00015 0.042794801226816 0.0073683791894058 0.0003
          0.044309088021254 0.0077777777777574 0 0.044309088021254 0.0077777777777574 0.00015
          0.044309088021254 0.0077777777777574 0.0003 0.033288318885596 0.0073493769917596 0
          0.033288318885596 0.0073493769917596 0.00015 0.033288318885596 0.0073493769917596 0.0003
          0.034921731971881 0.0075077741883091 0 0.034921731971881 0.0075077741883091 0.00015
          0.034921731971881 0.0075077741883091 0.0003 0.036542304597852 0.0077285130598789 0
          0.036542304597852 0.0077285130598789 0.00015 0.036542304597852 0.0077285130598789 0.0003
          0.03814584829126 0.0080105820000862 0 0.03814584829126 0.0080105820000862 0.00015
          0.03814584829126 0.0080105820000862 0.0003 0.039728252613893 0.0083526883357508 0
          0.039728252613893 0.0083526883357508 0.00015 0.039728252613893 0.0083526883357508 0.0003
          0.041285504007829 0.0087532642529377 0 0.041285504007829 0.0087532642529377 0.00015
          0.041285504007829 0.0087532642529377 0.0003 0.042813704195461 0.0092104739867613 0
          0.042813704195461 0.0092104739867613 0.00015 0.042813704195461 0.0092104739867613 0.0003
          0.044309088021254 0.0097222222222011 0 0.044309088021254 0.0097222222222011 0.00015
          0.044309088021254 0.0097222222222011 0.0003 0.031657595460571 0.0087048568522863 0
          0.031657595460571 0.0087048568522863 0.00015 0.031657595460571 0.0087048568522863 0.0003
          0.033310023195106 0.0088192523901195 0 0.033310023195106 0.0088192523901195 0.00015
          0.033310023195106 0.0088192523901195 0.0003 0.034952139164838 0.009009329025979 0
          0.034952139164838 0.009009329025979 0.00015 0.034952139164838 0.009009329025979 0.0003
          0.0365788465822 0.0092742156718627 0 0.0365788465822 0.0092742156718627 0.00015
          0.0365788465822 0.0092742156718627 0.0003 0.038185119280488 0.0096126984001116 0
          0.038185119280488 0.0096126984001116 0.00015 0.038185119280488 0.0096126984001116 0.0003
          0.039766024733842 0.010023226002909 0 0.039766024733842 0.010023226002909 0.00015
          0.039766024733842 0.010023226002909 0.0003 0.041316746672756 0.010503917103534 0
          0.041316746672756 0.010503917103534 0.00015 0.041316746672756 0.010503917103534 0.0003
          0.042832607164107 0.011052568784123 0 0.042832607164107 0.011052568784123 0.00015
          0.042832607164107 0.011052568784123 0.0003 0.044309088021254 0.011666666666651 0
          0.044309088021254 0.011666666666651 0.00015 0.044309088021254 0.011666666666651 0.0003
          0.031668878259163 0.010155666327672 0 0.031668878259163 0.010155666327672 0.00015
          0.031668878259163 0.010155666327672 0.0003 0.033331727504615 0.010289127788478 0
          0.033331727504615 0.010289127788478 0.00015 0.033331727504615 0.010289127788478 0.0003
          0.034982546357795 0.010510883863647 0 0.034982546357795 0.010510883863647 0.00015
          0.034982546357795 0.010510883863647 0.0003 0.036615388566549 0.010819918283845 0
          0.036615388566549 0.010819918283845 0.00015 0.036615388566549 0.010819918283845 0.0003
          0.038224390269716 0.011214814800136 0 0.038224390269716 0.011214814800136 0.00015
          0.038224390269716 0.011214814800136 0.0003 0.039803796853791 0.011693763670067 0
          0.039803796853791 0.011693763670067 0.00015 0.039803796853791 0.011693763670067 0.0003
          0.041347989337683 0.012254569954129 0 0.041347989337683 0.012254569954129 0.00015
          0.041347989337683 0.012254569954129 0.0003 0.042851510132752 0.012894663581483 0
          0.042851510132752 0.012894663581483 0.00015 0.042851510132752 0.012894663581483 0.0003
          0.044309088021254 0.0136111111111 0 0.044309088021254 0.0136111111111 0.00015
          0.044309088021254 0.0136111111111 0.0003 0.031680161057755 0.011606475803059 0
          0.031680161057755 0.011606475803059 0.00015 0.031680161057755 0.011606475803059 0.0003
          0.033353431814124 0.011759003186837 0 0.033353431814124 0.011759003186837 0.00015
          0.033353431814124 0.011759003186837 0.0003 0.035012953550752 0.012012438701317 0
          0.035012953550752 0.012012438701317 0.00015 0.035012953550752 0.012012438701317 0.0003
          0.036651930550897 0.012365620895829 0 0.036651930550897 0.012365620895829 0.00015
          0.036651930550897 0.012365620895829 0.0003 0.038263661258944 0.012816931200161 0
          0.038263661258944 0.012816931200161 0.00015 0.038263661258944 0.012816931200161 0.0003
          0.03984156897374 0.013364301337225 0 0.03984156897374 0.013364301337225 0.00015
          0.03984156897374 0.013364301337225 0.0003 0.04137923200261 0.014005222804725 0
          0.04137923200261 0.014005222804725 0.00015 0.04137923200261 0.014005222804725 0.0003
          0.042870413101398 0.014736758378844 0 0.042870413101398 0.014736758378844 0.00015
          0.042870413101398 0.014736758378844 0.0003 0.044309088021254 0.015555555555549 0
          0.044309088021254 0.015555555555549 0.00015 0.044309088021254 0.015555555555549 0.0003
          0.031691443856347 0.013057285278446 0 0.031691443856347 0.013057285278446 0.00015
          0.031691443856347 0.013057285278446 0.0003 0.033375136123633 0.013228878585196 0
          0.033375136123633 0.013228878585196 0.00015 0.033375136123633 0.013228878585196 0.0003
          0.035043360743709 0.013513993538986 0 0.035043360743709 0.013513993538986 0.00015
          0.035043360743709 0.013513993538986 0.0003 0.036688472535245 0.013911323507812 0
          0.036688472535245 0.013911323507812 0.00015 0.036688472535245 0.013911323507812 0.0003
          0.038302932248172 0.014419047600187 0 0.038302932248172 0.014419047600187 0.00015
          0.038302932248172 0.014419047600187 0.0003 0.039879341093689 0.015034839004384 0
          0.039879341093689 0.015034839004384 0.00015 0.039879341093689 0.015034839004384 0.0003
          0.041410474667538 0.015755875655322 0 0.041410474667538 0.015755875655322 0.00015
          0.041410474667538 0.015755875655322 0.0003 0.042889316070044 0.016578853176207 0
          0.042889316070044 0.016578853176207 0.00015 0.042889316070044 0.016578853176207 0.0003
          0.044309088021254 0.0175 0 0.044309088021254 0.0175 0.00015
          0.044309088021254 0.0175 0.0003 0.045420199132363 0 0
          0.045420199132363 0.0019444444444413 0 0.045420199132363 0 0.00015
          0.045420199132363 0.0019444444444413 0.00015 0.045420199132363 0 0.0003
          0.045420199132363 0.0019444444444413 0.0003 0.045420199132363 0.0038888888888803 0
          0.045420199132363 0.0038888888888803 0.00015 0.045420199132363 0.0038888888888803 0.0003
          0.045420199132363 0.0058333333333189 0 0.045420199132363 0.0058333333333189 0.00015
          0.045420199132363 0.0058333333333189 0.0003 0.045420199132363 0.0077777777777574 0
          0.045420199132363 0.0077777777777574 0.00015 0.045420199132363 0.0077777777777574 0.0003
          0.045420199132363 0.0097222222222011 0 0.045420199132363 0.0097222222222011 0.00015
          0.045420199132363 0.0097222222222011 0.0003 0.045420199132363 0.011666666666651 0
          0.045420199132363 0.011666666666651 0.00015 0.045420199132363 0.011666666666651 0.0003
          0.045420199132363 0.0136111111111 0 0.045420199132363 0.0136111111111 0.00015
          0.045420199132363 0.0136111111111 0.0003 0.045420199132363 0.015555555555549 0
          0.045420199132363 0.015555555555549 0.00015 0.045420199132363 0.015555555555549 0.0003
          0.045420199132363 0.0175 0 0.045420199132363 0.0175 0.00015
          0.045420199132363 0.0175 0.0003 0.046531310243475 0 0
          0.046531310243475 0.0019444444444413 0 0.046531310243475 0 0.00015
          0.046531310243475 0.0019444444444413 0.00015 0.046531310243475 0 0.0003
          0.046531310243475 0.0019444444444413 0.0003 0.046531310243475 0.0038888888888803 0
          0.046531310243475 0.0038888888888803 0.00015 0.046531310243475 0.0038888888888803 0.0003
          0.046531310243475 0.0058333333333189 0 0.046531310243475 0.0058333333333189 0.00015
          0.046531310243475 0.0058333333333189 0.0003 0.046531310243475 0.0077777777777574 0
          0.046531310243475 0.0077777777777574 0.00015 0.046531310243475 0.0077777777777574 0.0003
          0.046531310243475 0.0097222222222011 0 0.046531310243475 0.0097222222222011 0.00015
          0.046531310243475 0.0097222222222011 0.0003 0.046531310243475 0.011666666666651 0
          0.046531310243475 0.011666666666651 0.00015 0.046531310243475 0.011666666666651 0.0003
          0.046531310243475 0.0136111111111 0 0.046531310243475 0.0136111111111 0.00015
          0.046531310243475 0.0136111111111 0.0003 0.046531310243475 0.015555555555549 0
          0.046531310243475 0.015555555555549 0.00015 0.046531310243475 0.015555555555549 0.0003
          0.046531310243475 0.0175 0 0.046531310243475 0.0175 0.00015
          0.046531310243475 0.0175 0.0003 0.04764242135458 0 0
          0.04764242135458 0.0019444444444413 0 0.04764242135458 0 0.00015
          0.04764242135458 0.0019444444444413 0.00015 0.04764242135458 0 0.0003
          0.04764242135458 0.0019444444444413 0.0003 0.04764242135458 0.0038888888888803 0
          0.04764242135458 0.0038888888888803 0.00015 0.04764242135458 0.0038888888888803 0.0003
          0.04764242135458 0.0058333333333189 0 0.04764242135458 0.0058333333333189 0.00015
          0.04764242135458 0.0058333333333189 0.0003 0.04764242135458 0.0077777777777574 0
          0.04764242135458 0.0077777777777574 0.00015 0.04764242135458 0.0077777777777574 0.0003
          0.04764242135458 0.0097222222222011 0 0.04764242135458 0.0097222222222011 0.00015
          0.04764242135458 0.0097222222222011 0.0003 0.04764242135458 0.011666666666651 0
          0.04764242135458 0.011666666666651 0.00015 0.04764242135458 0.011666666666651 0.0003
          0.04764242135458 0.0136111111111 0 0.04764242135458 0.0136111111111 0.00015
          0.04764242135458 0.0136111111111 0.0003 0.04764242135458 0.015555555555549 0
          0.04764242135458 0.015555555555549 0.00015 0.04764242135458 0.015555555555549 0.0003
          0.04764242135458 0.0175 0 0.04764242135458 0.0175 0.00015
          0.04764242135458 0.0175 0.0003 0.048753532465692 0 0
          0.048753532465692 0.0019444444444413 0 0.048753532465692 0 0.00015
          0.048753532465692 0.0019444444444413 0.00015 0.048753532465692 0 0.0003
          0.048753532465692 0.0019444444444413 0.0003 0.048753532465692 0.0038888888888803 0
          0.048753532465692 0.0038888888888803 0.00015 0.048753532465692 0.0038888888888803 0.0003
          0.048753532465692 0.0058333333333189 0 0.048753532465692 0.0058333333333189 0.00015
          0.048753532465692 0.0058333333333189 0.0003 0.048753532465692 0.0077777777777574 0
          0.048753532465692 0.0077777777777574 0.00015 0.048753532465692 0.0077777777777574 0.0003
          0.048753532465692 0.0097222222222011 0 0.048753532465692 0.0097222222222011 0.00015
          0.048753532465692 0.0097222222222011 0.0003 0.048753532465692 0.011666666666651 0
          0.048753532465692 0.011666666666651 0.00015 0.048753532465692 0.011666666666651 0.0003
          0.048753532465692 0.0136111111111 0 0.048753532465692 0.0136111111111 0.00015
          0.048753532465692 0.0136111111111 0.0003 0.048753532465692 0.015555555555549 0
          0.048753532465692 0.015555555555549 0.00015 0.048753532465692 0.015555555555549 0.0003
          0.048753532465692 0.0175 0 0.048753532465692 0.0175 0.00015
          0.048753532465692 0.0175 0.0003 0.0498646435768 0 0
          0.0498646435768 0.0019444444444413 0 0.0498646435768 0 0.00015
          0.0498646435768 0.0019444444444413 0.00015 0.0498646435768 0 0.0003
          0.0498646435768 0.0019444444444413 0.0003 0.0498646435768 0.0038888888888803 0
          0.0498646435768 0.0038888888888803 0.00015 0.0498646435768 0.0038888888888803 0.0003
          0.0498646435768 0.0058333333333189 0 0.0498646435768 0.0058333333333189 0.00015
          0.0498646435768 0.0058333333333189 0.0003 0.0498646435768 0.0077777777777574 0
          0.0498646435768 0.0077777777777574 0.00015 0.0498646435768 0.0077777777777574 0.0003
          0.0498646435768 0.0097222222222011 0 0.0498646435768 0.0097222222222011 0.00015
          0.0498646435768 0.0097222222222011 0.0003 0.0498646435768 0.011666666666651 0
          0.0498646435768 0.011666666666651 0.00015 0.0498646435768 0.011666666666651 0.0003
          0.0498646435768 0.0136111111111 0 0.0498646435768 0.0136111111111 0.00015
          0.0498646435768 0.0136111111111 0.0003 0.0498646435768 0.015555555555549 0
          0.0498646435768 0.015555555555549 0.00015 0.0498646435768 0.015555555555549 0.0003
          0.0498646435768 0.0175 0 0.0498646435768 0.0175 0.00015
          0.0498646435768 0.0175 0.0003 0.050975754687912 0 0
          0.050975754687912 0.0019444444444413 0 0.050975754687912 0 0.00015
          0.050975754687912 0.0019444444444413 0.00015 0.050975754687912 0 0.0003
          0.050975754687912 0.0019444444444413 0.0003 0.050975754687912 0.0038888888888803 0
          0.050975754687912 0.0038888888888803 0.00015 0.050975754687912 0.0038888888888803 0.0003
          0.050975754687912 0.0058333333333189 0 0.050975754687912 0.0058333333333189 0.00015
          0.050975754687912 0.0058333333333189 0.0003 0.050975754687912 0.0077777777777574 0
          0.050975754687912 0.0077777777777574 0.00015 0.050975754687912 0.0077777777777574 0.0003
          0.050975754687912 0.0097222222222011 0 0.050975754687912 0.0097222222222011 0.00015
          0.050975754687912 0.0097222222222011 0.0003 0.050975754687912 0.011666666666651 0
          0.050975754687912 0.011666666666651 0.00015 0.050975754687912 0.011666666666651 0.0003
          0.050975754687912 0.0136111111111 0 0.050975754687912 0.0136111111111 0.00015
          0.050975754687912 0.0136111111111 0.0003 0.050975754687912 0.015555555555549 0
          0.050975754687912 0.015555555555549 0.00015 0.050975754687912 0.015555555555549 0.0003
          0.050975754687912 0.0175 0 0.050975754687912 0.0175 0.00015
          0.050975754687912 0.0175 0.0003 0.052086865799025 0 0
          0.052086865799025 0.0019444444444413 0 0.052086865799025 0 0.00015
          0.052086865799025 0.0019444444444413 0.00015 0.052086865799025 0 0.0003
          0.052086865799025 0.0019444444444413 0.0003 0.052086865799025 0.0038888888888803 0
          0.052086865799025 0.0038888888888803 0.00015 0.052086865799025 0.0038888888888803 0.0003
          0.052086865799025 0.0058333333333189 0 0.052086865799025 0.0058333333333189 0.00015
          0.052086865799025 0.0058333333333189 0.0003 0.052086865799025 0.0077777777777574 0
          0.052086865799025 0.0077777777777574 0.00015 0.052086865799025 0.0077777777777574 0.0003
          0.052086865799025 0.0097222222222011 0 0.052086865799025 0.0097222222222011 0.00015
          0.052086865799025 0.0097222222222011 0.0003 0.052086865799025 0.011666666666651 0
          0.052086865799025 0.011666666666651 0.00015 0.052086865799025 0.011666666666651 0.0003
          0.052086865799025 0.0136111111111 0 0.052086865799025 0.0136111111111 0.00015
          0.052086865799025 0.0136111111111 0.0003 0.052086865799025 0.015555555555549 0
          0.052086865799025 0.015555555555549 0.00015 0.052086865799025 0.015555555555549 0.0003
          0.052086865799025 0.0175 0 0.052086865799025 0.0175 0.00015
          0.052086865799025 0.0175 0.0003 0.05319797691014 0 0
          0.05319797691014 0.0019444444444413 0 0.05319797691014 0 0.00015
          0.05319797691014 0.0019444444444413 0.00015 0.05319797691014 0 0.0003
          0.05319797691014 0.0019444444444413 0.0003 0.05319797691014 0.0038888888888803 0
          0.05319797691014 0.0038888888888803 0.00015 0.05319797691014 0.0038888888888803 0.0003
          0.05319797691014 0.0058333333333189 0 0.05319797691014 0.0058333333333189 0.00015
          0.05319797691014 0.0058333333333189 0.0003 0.05319797691014 0.0077777777777574 0
          0.05319797691014 0.0077777777777574 0.00015 0.05319797691014 0.0077777777777574 0.0003
          0.05319797691014 0.0097222222222011 0 0.05319797691014 0.0097222222222011 0.00015
          0.05319797691014 0.0097222222222011 0.0003 0.05319797691014 0.011666666666651 0
          0.05319797691014 0.011666666666651 0.00015 0.05319797691014 0.011666666666651 0.0003
          0.05319797691014 0.0136111111111 0 0.05319797691014 0.0136111111111 0.00015
          0.05319797691014 0.0136111111111 0.0003 0.05319797691014 0.015555555555549 0
          0.05319797691014 0.015555555555549 0.00015 0.05319797691014 0.015555555555549 0.0003
          0.05319797691014 0.0175 0 0.05319797691014 0.0175 0.00015
          0.05319797691014 0.0175 0.0003 0.054309088021254 0 0
          0.054309088021254 0.0019444444444413 0 0.054309088021254 0 0.00015
          0.054309088021254 0.0019444444444413 0.00015 0.054309088021254 0 0.0003
          0.054309088021254 0.0019444444444413 0.0003 0.054309088021254 0.0038888888888803 0
          0.054309088021254 0.0038888888888803 0.00015 0.054309088021254 0.0038888888888803 0.0003
          0.054309088021254 0.0058333333333189 0 0.054309088021254 0.0058333333333189 0.00015
          0.054309088021254 0.0058333333333189 0.0003 0.054309088021254 0.0077777777777574 0
          0.054309088021254 0.0077777777777574 0.00015 0.054309088021254 0.0077777777777574 0.0003
          0.054309088021254 0.0097222222222011 0 0.054309088021254 0.0097222222222011 0.00015
          0.054309088021254 0.0097222222222011 0.0003 0.054309088021254 0.011666666666651 0
          0.054309088021254 0.011666666666651 0.00015 0.054309088021254 0.011666666666651 0.0003
          0.054309088021254 0.0136111111111 0 0.054309088021254 0.0136111111111 0.00015
          0.054309088021254 0.0136111111111 0.0003 0.054309088021254 0.015555555555549 0
          0.054309088021254 0.015555555555549 0.00015 0.054309088021254 0.015555555555549 0.0003
          0.054309088021254 0.0175 0 0.054309088021254 0.0175 0.00015
          0.054309088021254 0.0175 0.0003
          <InformationKey name="L2_NORM_RANGE" location="vtkDataArray" length="2">
            <Value index="0">
              0.019949534491
            </Value>
            <Value index="1">
              0.057059767277
            </Value>
          </InformationKey>
        </DataArray>
      </Points>
      <Cells>
        <DataArray type="Int64" Name="connectivity" format="ascii" RangeMin="0" RangeMax="818">
          0 1 2 3 4 5
          6 7 4 5 6 7
          8 9 10 11 12 13
          14 15 16 17 18 19
          16 17 18 19 20 21
          22 23 24 0 3 25
          26 4 7 27 26 4
          7 27 28 8 11 29
          30 31 32 14 33 34
          35 18 33 34 35 18
          36 37 38 22 39 40
          41 42 43 44 45 46
          43 44 45 46 47 48
          49 50 51 52 53 54
          55 56 57 58 55 56
          57 58 59 60 61 62
          13 63 64 65 17 66
          67 68 17 66 67 68
          21 69 70 71 0 24
          32 72 4 26 35 73
          4 26 35 73 8 28
          38 74 24 15 14 32
          26 19 18 35 26 19
          18 35 28 23 22 38
          13 65 30 14 17 68
          33 18 17 68 33 18
          21 71 36 22 93 94
          95 96 97 98 99 100
          97 98 99 100 101 102
          103 104 72 32 31 81
          73 35 34 83 73 35
          34 83 74 38 37 85
          53 40 39 54 57 44
          43 58 57 44 43 58
          61 48 47 62 31 30
          111 82 34 33 112 84
          34 33 112 84 37 36
          113 86 12 15 114 115
          16 19 116 117 16 19
          116 117 20 23 118 119
          120 121 122 123 124 125
          126 127 124 125 126 127
          128 129 130 131 64 76
          75 65 67 78 77 68
          67 78 77 68 70 80
          79 71 132 133 54 39
          134 135 58 43 134 135
          58 43 136 137 62 47
          53 141 41 40 57 142
          45 44 57 142 45 44
          61 143 49 48 111 30
          65 75 112 33 68 77
          112 33 68 77 113 36
          71 79 54 150 151 51
          58 152 153 55 58 152
          153 55 62 154 155 59
          156 122 121 157 158 126
          125 159 158 126 125 159
          160 130 129 161 162 88
          108 138 163 90 109 139
          163 90 109 139 164 92
          110 140 168 87 88 162
          169 89 90 163 169 89
          90 163 170 91 92 164
          121 165 171 157 125 166
          172 159 125 166 172 159
          129 167 173 161 132 39
          42 183 134 43 46 184
          134 43 46 184 136 47
          50 185 186 96 95 187
          188 100 99 189 188 100
          99 189 190 104 103 191
          192 193 122 156 194 195
          126 158 194 195 126 158
          196 197 130 160 183 42
          96 186 184 46 100 188
          184 46 100 188 185 50
          104 190 151 150 198 199
          153 152 200 201 153 152
          200 201 155 154 202 203
          174 145 144 204 175 147
          146 205 175 147 146 205
          176 149 148 206 193 192
          95 204 195 194 99 205
          195 194 99 205 197 196
          103 206 123 122 193 210
          127 126 195 211 127 126
          195 211 131 130 197 212
          93 96 42 41 97 100
          46 45 97 100 46 45
          101 104 50 49 213 214
          87 168 215 216 89 169
          215 216 89 169 217 218
          91 170 178 219 220 177
          180 221 222 179 180 221
          222 179 182 223 224 181
          225 141 226 227 228 142
          229 230 228 142 229 230
          231 143 232 233 120 105
          165 121 124 106 166 125
          124 106 166 125 128 107
          167 129 210 193 204 144
          211 195 205 146 211 195
          205 146 212 197 206 148
          219 227 234 220 221 230
          235 222 221 230 235 222
          223 233 236 224 94 174
          204 95 98 175 205 99
          98 175 205 99 102 176
          206 103 192 156 237 238
          194 158 239 240 194 158
          239 240 196 160 241 242
          243 2 1 244 245 6
          5 246 245 6 5 246
          247 10 9 248 227 226
          249 234 230 229 250 235
          230 229 250 235 233 232
          251 236 238 187 95 192
          240 189 99 194 240 189
          99 194 242 191 103 196
          252 207 87 214 253 208
          89 216 253 208 89 216
          254 209 91 218 187 255
          115 186 189 256 117 188
          189 256 117 188 191 257
          119 190 94 162 138 174
          98 163 139 175 98 163
          139 175 102 164 140 176
          64 63 237 171 67 66
          239 172 67 66 239 172
          70 69 241 173 41 213
          168 93 45 215 169 97
          45 215 169 97 49 217
          170 101 2 198 133 3
          6 200 135 7 6 200
          135 7 10 202 137 11
          25 114 15 24 27 116
          19 26 27 116 19 26
          29 118 23 28 114 183
          186 115 116 184 188 117
          116 184 188 117 118 185
          190 119 51 151 258 259
          55 153 260 261 55 153
          260 261 59 155 262 263
          226 52 264 249 229 56
          265 250 229 56 265 250
          232 60 266 251 198 150
          54 133 200 152 58 135
          200 152 58 135 202 154
          62 137 64 171 165 76
          67 172 166 78 67 172
          166 78 70 173 167 80
          52 51 259 264 56 55
          261 265 56 55 261 265
          60 59 263 266 171 237
          156 157 172 239 158 159
          172 239 158 159 173 241
          160 161 252 214 213 225
          253 216 215 228 253 216
          215 228 254 218 217 231
          151 199 267 258 153 201
          268 260 153 201 268 260
          155 203 269 262 63 13
          12 270 66 17 16 271
          66 17 16 271 69 21
          20 272 270 255 187 238
          271 256 189 240 271 256
          189 240 272 257 191 242
          199 198 2 243 201 200
          6 245 201 200 6 245
          203 202 10 247 225 213
          41 141 228 215 45 142
          228 215 45 142 231 217
          49 143 52 226 141 53
          56 229 142 57 56 229
          142 57 60 232 143 61
          25 132 183 114 27 134
          184 116 27 134 184 116
          29 136 185 118 252 225
          227 219 253 228 230 221
          253 228 230 221 254 231
          233 223 219 178 207 252
          221 180 208 253 221 180
          208 253 223 182 209 254
          25 3 133 132 27 7
          135 134 27 7 135 134
          29 11 137 136 93 168
          162 94 97 169 163 98
          97 169 163 98 101 170
          164 102 270 12 115 255
          271 16 117 256 271 16
          117 256 272 20 119 257
          199 243 273 267 201 245
          274 268 201 245 274 268
          203 247 275 269 63 270
          238 237 66 271 240 239
          66 271 240 239 69 272
          242 241 243 244 276 273
          245 246 277 274 245 246
          277 274 247 248 278 275
          276 244 1 279 277 246
          5 280 277 246 5 280
          278 248 9 281 285 72
          81 282 286 73 83 283
          286 73 83 283 287 74
          85 284 288 0 72 285
          289 4 73 286 289 4
          73 286 290 8 74 287
          291 1 0 288 292 5
          4 289 292 5 4 289
          293 9 8 290 294 279
          1 291 295 280 5 292
          295 280 5 292 296 281
          9 293 303 297 298 304
          305 299 300 306 305 299
          300 306 307 301 302 308
          309 303 304 310 311 305
          306 312 311 305 306 312
          313 307 308 314 315 309
          310 316 317 311 312 318
          317 311 312 318 319 313
          314 320 321 315 316 322
          323 317 318 324 323 317
          318 324 325 319 320 326
          327 321 322 328 329 323
          324 330 329 323 324 330
          331 325 326 332 333 327
          328 334 335 329 330 336
          335 329 330 336 337 331
          332 338 339 333 334 340
          341 335 336 342 341 335
          336 342 343 337 338 344
          348 345 297 303 349 346
          299 305 349 346 299 305
          350 347 301 307 351 348
          303 309 352 349 305 311
          352 349 305 311 353 350
          307 313 354 351 309 315
          355 352 311 317 355 352
          311 317 356 353 313 319
          357 354 315 321 358 355
          317 323 358 355 317 323
          359 356 319 325 360 357
          321 327 361 358 323 329
          361 358 323 329 362 359
          325 331 363 360 327 333
          364 361 329 335 364 361
          329 335 365 362 331 337
          366 363 333 339 367 364
          335 341 367 364 335 341
          368 365 337 343 372 369
          345 348 373 370 346 349
          373 370 346 349 374 371
          347 350 375 372 348 351
          376 373 349 352 376 373
          349 352 377 374 350 353
          378 375 351 354 379 376
          352 355 379 376 352 355
          380 377 353 356 381 378
          354 357 382 379 355 358
          382 379 355 358 383 380
          356 359 384 381 357 360
          385 382 358 361 385 382
          358 361 386 383 359 362
          387 384 360 363 388 385
          361 364 388 385 361 364
          389 386 362 365 390 387
          363 366 391 388 364 367
          391 388 364 367 392 389
          365 368 396 393 369 372
          397 394 370 373 397 394
          370 373 398 395 371 374
          399 396 372 375 400 397
          373 376 400 397 373 376
          401 398 374 377 402 399
          375 378 403 400 376 379
          403 400 376 379 404 401
          377 380 405 402 378 381
          406 403 379 382 406 403
          379 382 407 404 380 383
          408 405 381 384 409 406
          382 385 409 406 382 385
          410 407 383 386 411 408
          384 387 412 409 385 388
          412 409 385 388 413 410
          386 389 414 411 387 390
          415 412 388 391 415 412
          388 391 416 413 389 392
          420 417 393 396 421 418
          394 397 421 418 394 397
          422 419 395 398 423 420
          396 399 424 421 397 400
          424 421 397 400 425 422
          398 401 426 423 399 402
          427 424 400 403 427 424
          400 403 428 425 401 404
          429 426 402 405 430 427
          403 406 430 427 403 406
          431 428 404 407 432 429
          405 408 433 430 406 409
          433 430 406 409 434 431
          407 410 435 432 408 411
          436 433 409 412 436 433
          409 412 437 434 410 413
          438 435 411 414 439 436
          412 415 439 436 412 415
          440 437 413 416 447 444
          417 420 448 445 418 421
          448 445 418 421 449 446
          419 422 450 447 420 423
          451 448 421 424 451 448
          421 424 452 449 422 425
          453 450 423 426 454 451
          424 427 454 451 424 427
          455 452 425 428 456 453
          426 429 457 454 427 430
          457 454 427 430 458 455
          428 431 459 456 429 432
          460 457 430 433 460 457
          430 433 461 458 431 434
          462 459 432 435 463 460
          433 436 463 460 433 436
          464 461 434 437 465 462
          435 438 466 463 436 439
          466 463 436 439 467 464
          437 440 471 468 441 444
          472 469 442 445 472 469
          442 445 473 470 443 446
          474 471 444 447 475 472
          445 448 475 472 445 448
          476 473 446 449 477 474
          447 450 478 475 448 451
          478 475 448 451 479 476
          449 452 480 477 450 453
          481 478 451 454 481 478
          451 454 482 479 452 455
          483 480 453 456 484 481
          454 457 484 481 454 457
          485 482 455 458 486 483
          456 459 487 484 457 460
          487 484 457 460 488 485
          458 461 489 486 459 462
          490 487 460 463 490 487
          460 463 491 488 461 464
          492 489 462 465 493 490
          463 466 493 490 463 466
          494 491 464 467 498 495
          468 471 499 496 469 472
          499 496 469 472 500 497
          470 473 501 498 471 474
          502 499 472 475 502 499
          472 475 503 500 473 476
          504 501 474 477 505 502
          475 478 505 502 475 478
          506 503 476 479 507 504
          477 480 508 505 478 481
          508 505 478 481 509 506
          479 482 510 507 480 483
          511 508 481 484 511 508
          481 484 512 509 482 485
          513 510 483 486 514 511
          484 487 514 511 484 487
          515 512 485 488 516 513
          486 489 517 514 487 490
          517 514 487 490 518 515
          488 491 519 516 489 492
          520 517 490 493 520 517
          490 493 521 518 491 494
          525 522 495 498 526 523
          496 499 526 523 496 499
          527 524 497 500 528 525
          498 501 529 526 499 502
          529 526 499 502 530 527
          500 503 531 528 501 504
          532 529 502 505 532 529
          502 505 533 530 503 506
          534 531 504 507 535 532
          505 508 535 532 505 508
          536 533 506 509 537 534
          507 510 538 535 508 511
          538 535 508 511 539 536
          509 512 540 537 510 513
          541 538 511 514 541 538
          511 514 542 539 512 515
          543 540 513 516 544 541
          514 517 544 541 514 517
          545 542 515 518 546 543
          516 519 547 544 517 520
          547 544 517 520 548 545
          518 521 340 549 550 339
          342 551 552 341 342 551
          552 341 344 553 554 343
          339 550 555 366 341 552
          556 367 341 552 556 367
          343 554 557 368 366 555
          558 390 367 556 559 391
          367 556 559 391 368 557
          560 392 390 558 561 414
          391 559 562 415 391 559
          562 415 392 560 563 416
          414 561 564 438 415 562
          565 439 415 562 565 439
          416 563 566 440 438 564
          567 465 439 565 568 466
          439 565 568 466 440 566
          569 467 465 567 570 492
          466 568 571 493 466 568
          571 493 467 569 572 494
          492 570 573 519 493 571
          574 520 493 571 574 520
          494 572 575 521 519 573
          576 546 520 574 577 547
          520 574 577 547 521 575
          578 548 549 579 580 550
          551 581 582 552 551 581
          582 552 553 583 584 554
          550 580 585 555 552 582
          586 556 552 582 586 556
          554 584 587 557 555 585
          588 558 556 586 589 559
          556 586 589 559 557 587
          590 560 558 588 591 561
          559 589 592 562 559 589
          592 562 560 590 593 563
          561 591 594 564 562 592
          595 565 562 592 595 565
          563 593 596 566 564 594
          597 567 565 595 598 568
          565 595 598 568 566 596
          599 569 567 597 600 570
          568 598 601 571 568 598
          601 571 569 599 602 572
          570 600 603 573 571 601
          604 574 571 601 604 574
          572 602 605 575 573 603
          606 576 574 604 607 577
          574 604 607 577 575 605
          608 578 579 609 610 580
          581 611 612 582 581 611
          612 582 583 613 614 584
          580 610 615 585 582 612
          616 586 582 612 616 586
          584 614 617 587 585 615
          618 588 586 616 619 589
          586 616 619 589 587 617
          620 590 588 618 621 591
          589 619 622 592 589 619
          622 592 590 620 623 593
          591 621 624 594 592 622
          625 595 592 622 625 595
          593 623 626 596 594 624
          627 597 595 625 628 598
          595 625 628 598 596 626
          629 599 597 627 630 600
          598 628 631 601 598 628
          631 601 599 629 632 602
          600 630 633 603 601 631
          634 604 601 631 634 604
          602 632 635 605 603 633
          636 606 604 634 637 607
          604 634 637 607 605 635
          638 608 609 639 640 610
          611 641 642 612 611 641
          642 612 613 643 644 614
          610 640 645 615 612 642
          646 616 612 642 646 616
          614 644 647 617 615 645
          648 618 616 646 649 619
          616 646 649 619 617 647
          650 620 618 648 651 621
          619 649 652 622 619 649
          652 622 620 650 653 623
          621 651 654 624 622 652
          655 625 622 652 655 625
          623 653 656 626 624 654
          657 627 625 655 658 628
          625 655 658 628 626 656
          659 629 627 657 660 630
          628 658 661 631 628 658
          661 631 629 659 662 632
          630 660 663 633 631 661
          664 634 631 661 664 634
          632 662 665 635 633 663
          666 636 634 664 667 637
          634 664 667 637 635 665
          668 638 639 669 670 640
          641 671 672 642 641 671
          672 642 643 673 674 644
          640 670 675 645 642 672
          676 646 642 672 676 646
          644 674 677 647 645 675
          678 648 646 676 679 649
          646 676 679 649 647 677
          680 650 648 678 681 651
          649 679 682 652 649 679
          682 652 650 680 683 653
          651 681 684 654 652 682
          685 655 652 682 685 655
          653 683 686 656 654 684
          687 657 655 685 688 658
          655 685 688 658 656 686
          689 659 657 687 690 660
          658 688 691 661 658 688
          691 661 659 689 692 662
          660 690 693 663 661 691
          694 664 661 691 694 664
          662 692 695 665 663 693
          696 666 664 694 697 667
          664 694 697 667 665 695
          698 668 669 699 700 670
          671 701 702 672 671 701
          702 672 673 703 704 674
          670 700 705 675 672 702
          706 676 672 702 706 676
          674 704 707 677 675 705
          708 678 676 706 709 679
          676 706 709 679 677 707
          710 680 678 708 711 681
          679 709 712 682 679 709
          712 682 680 710 713 683
          681 711 714 684 682 712
          715 685 682 712 715 685
          683 713 716 686 684 714
          717 687 685 715 718 688
          685 715 718 688 686 716
          719 689 687 717 720 690
          688 718 721 691 688 718
          721 691 689 719 722 692
          690 720 723 693 691 721
          724 694 691 721 724 694
          692 722 725 695 693 723
          726 696 694 724 727 697
          694 724 727 697 695 725
          728 698 699 729 730 700
          701 731 732 702 701 731
          732 702 703 733 734 704
          700 730 735 705 702 732
          736 706 702 732 736 706
          704 734 737 707 705 735
          738 708 706 736 739 709
          706 736 739 709 707 737
          740 710 708 738 741 711
          709 739 742 712 709 739
          742 712 710 740 743 713
          711 741 744 714 712 742
          745 715 712 742 745 715
          713 743 746 716 714 744
          747 717 715 745 748 718
          715 745 748 718 716 746
          749 719 717 747 750 720
          718 748 751 721 718 748
          751 721 719 749 752 722
          720 750 753 723 721 751
          754 724 721 751 754 724
          722 752 755 725 723 753
          756 726 724 754 757 727
          724 754 757 727 725 755
          758 728 729 759 760 730
          731 761 762 732 731 761
          762 732 733 763 764 734
          730 760 765 735 732 762
          766 736 732 762 766 736
          734 764 767 737 735 765
          768 738 736 766 769 739
          736 766 769 739 737 767
          770 740 738 768 771 741
          739 769 772 742 739 769
          772 742 740 770 773 743
          741 771 774 744 742 772
          775 745 742 772 775 745
          743 773 776 746 744 774
          777 747 745 775 778 748
          745 775 778 748 746 776
          779 749 747 777 780 750
          748 778 781 751 748 778
          781 751 749 779 782 752
          750 780 783 753 751 781
          784 754 751 781 784 754
          752 782 785 755 753 783
          786 756 754 784 787 757
          754 784 787 757 755 785
          788 758 759 789 790 760
          761 791 792 762 761 791
          792 762 763 793 794 764
          760 790 795 765 762 792
          796 766 762 792 796 766
          764 794 797 767 765 795
          798 768 766 796 799 769
          766 796 799 769 767 797
          800 770 768 798 801 771
          769 799 802 772 769 799
          802 772 770 800 803 773
          771 801 804 774 772 802
          805 775 772 802 805 775
          773 803 806 776 774 804
          807 777 775 805 808 778
          775 805 808 778 776 806
          809 779 777 807 810 780
          778 808 811 781 778 808
          811 781 779 809 812 782
          780 810 813 783 781 811
          814 784 781 811 814 784
          782 812 815 785 783 813
          816 786 784 814 817 787
          784 814 817 787 785 815
          818 788
        </DataArray>
        <DataArray type="Int64" Name="offsets" format="ascii" RangeMin="8" RangeMax="3632">
          8 16 24 32 40 48
          56 64 72 80 88 96
          104 112 120 128 136 144
          152 160 168 176 184 192
          200 208 216 224 232 240
          248 256 264 272 280 288
          296 304 312 320 328 336
          344 352 360 368 376 384
          392 400 408 416 424 432
          440 448 456 464 472 480
          488 496 504 512 520 528
          536 544 552 560 568 576
          584 592 600 608 616 624
          632 640 648 656 664 672
          680 688 696 704 712 720
          728 736 744 752 760 768
          776 784 792 800 808 816
          824 832 840 848 856 864
          872 880 888 896 904 912
          920 928 936 944 952 960
          968 976 984 992 1000 1008
          1016 1024 1032 1040 1048 1056
          1064 1072 1080 1088 1096 1104
          1112 1120 1128 1136 1144 1152
          1160 1168 1176 1184 1192 1200
          1208 1216 1224 1232 1240 1248
          1256 1264 1272 1280 1288 1296
          1304 1312 1320 1328 1336 1344
          1352 1360 1368 1376 1384 1392
          1400 1408 1416 1424 1432 1440
          1448 1456 1464 1472 1480 1488
          1496 1504 1512 1520 1528 1536
          1544 1552 1560 1568 1576 1584
          1592 1600 1608 1616 1624 1632
          1640 1648 1656 1664 1672 1680
          1688 1696 1704 1712 1720 1728
          1736 1744 1752 1760 1768 1776
          1784 1792 1800 1808 1816 1824
          1832 1840 1848 1856 1864 1872
          1880 1888 1896 1904 1912 1920
          1928 1936 1944 1952 1960 1968
          1976 1984 1992 2000 2008 2016
          2024 2032 2040 2048 2056 2064
          2072 2080 2088 2096 2104 2112
          2120 2128 2136 2144 2152 2160
          2168 2176 2184 2192 2200 2208
          2216 2224 2232 2240 2248 2256
          2264 2272 2280 2288 2296 2304
          2312 2320 2328 2336 2344 2352
          2360 2368 2376 2384 2392 2400
          2408 2416 2424 2432 2440 2448
          2456 2464 2472 2480 2488 2496
          2504 2512 2520 2528 2536 2544
          2552 2560 2568 2576 2584 2592
          2600 2608 2616 2624 2632 2640
          2648 2656 2664 2672 2680 2688
          2696 2704 2712 2720 2728 2736
          2744 2752 2760 2768 2776 2784
          2792 2800 2808 2816 2824 2832
          2840 2848 2856 2864 2872 2880
          2888 2896 2904 2912 2920 2928
          2936 2944 2952 2960 2968 2976
          2984 2992 3000 3008 3016 3024
          3032 3040 3048 3056 3064 3072
          3080 3088 3096 3104 3112 3120
          3128 3136 3144 3152 3160 3168
          3176 3184 3192 3200 3208 3216
          3224 3232 3240 3248 3256 3264
          3272 3280 3288 3296 3304 3312
          3320 3328 3336 3344 3352 3360
          3368 3376 3384 3392 3400 3408
          3416 3424 3432 3440 3448 3456
          3464 3472 3480 3488 3496 3504
          3512 3520 3528 3536 3544 3552
          3560 3568 3576 3584 3592 3600
          3608 3616 3624 3632
        </DataArray>
        <DataArray type="UInt8" Name="types" format="ascii" RangeMin="12" RangeMax="12">
          12 12 12 12 12 12
          12 12 12 12 12 12
          12 12 12 12 12 12
          12 12 12 12 12 12
          12 12 12 12 12 12
          12 12 12 12 12 12
          12 12 12 12 12 12
          12 12 12 12 12 12
          12 12 12 12 12 12
          12 12 12 12 12 12
          12 12 12 12 12 12
          12 12 12 12 12 12
          12 12 12 12 12 12
          12 12 12 12 12 12
          12 12 12 12 12 12
          12 12 12 12 12 12
          12 12 12 12 12 12
          12 12 12 12 12 12
          12 12 12 12 12 12
          12 12 12 12 12 12
          12 12 12 12 12 12
          12 12 12 12 12 12
          12 12 12 12 12 12
          12 12 12 12 12 12
          12 12 12 12 12 12
          12 12 12 12 12 12
          12 12 12 12 12 12
          12 12 12 12 12 12
          12 12 12 12 12 12
          12 12 12 12 12 12
          12 12 12 12 12 12
          12 12 12 12 12 12
          12 12 12 12 12 12
          12 12 12 12 12 12
          12 12 12 12 12 12
          12 12 12 12 12 12
          12 12 12 12 12 12
          12 12 12 12 12 12
          12 12 12 12 12 12
          12 12 12 12 12 12
          12 12 12 12 12 12
          12 12 12 12 12 12
          12 12 12 12 12 12
          12 12 12 12 12 12
          12 12 12 12 12 12
          12 12 12 12 12 12
          12 12 12 12 12 12
          12 12 12 12 12 12
          12 12 12 12 12 12
          12 12 12 12 12 12
          12 12 12 12 12 12
          12 12 12 12 12 12
          12 12 12 12 12 12
          12 12 12 12 12 12
          12 12 12 12 12 12
          12 12 12 12 12 12
          12 12 12 12 12 12
          12 12 12 12 12 12
          12 12 12 12 12 12
          12 12 12 12 12 12
          12 12 12 12 12 12
          12 12 12 12 12 12
          12 12 12 12 12 12
          12 12 12 12 12 12
          12 12 12 12 12 12
          12 12 12 12 12 12
          12 12 12 12 12 12
          12 12 12 12 12 12
          12 12 12 12 12 12
          12 12 12 12 12 12
          12 12 12 12 12 12
          12 12 12 12 12 12
          12 12 12 12 12 12
          12 12 12 12 12 12
          12 12 12 12 12 12
          12 12 12 12
        </DataArray>
      </Cells>
    </Piece>
  </UnstructuredGrid>
</VTKFile>
