<?xml version="1.0"?>
<VTKFile type="UnstructuredGrid" version="0.1" byte_order="LittleEndian" header_type="UInt32" compressor="vtkZLibDataCompressor">
  <UnstructuredGrid>
    <Piece NumberOfPoints="783" NumberOfCells="456">
      <PointData>
        <DataArray type="Int32" Name="libmesh_node_id" format="ascii" RangeMin="1863" RangeMax="4982">
          1863 1864 1865 1887 1888 1889
          1890 1891 1892 1899 1900 1901
          1902 1903 1904 1905 1906 1907
          1908 1909 1910 1911 1912 1913
          1914 1915 1916 1917 1918 1919
          1926 1927 1928 1929 1930 1931
          1932 1933 1934 1935 1936 1937
          1938 1939 1940 1941 1942 1943
          1944 1945 1946 1950 1951 1952
          1953 1954 1955 1956 1957 1958
          1959 1960 1961 1962 1963 1964
          1965 1966 1967 1968 1969 1970
          1971 1972 1973 1977 1978 1979
          1980 1981 1982 1983 1984 1985
          1986 1987 1988 1989 1990 1991
          1992 1993 1994 1995 1996 1997
          1998 1999 2000 2004 2005 2006
          2007 2008 2009 2010 2011 2012
          2013 2014 2015 2016 2017 2018
          2019 2020 2021 2022 2023 2024
          2025 2026 2027 2031 2032 2033
          2034 2035 2036 2037 2038 2039
          2040 2041 2042 2043 2044 2045
          2046 2047 2048 2049 2050 2051
          2052 2053 2054 2058 2059 2060
          2061 2062 2063 2064 2065 2066
          2067 2068 2069 2070 2071 2072
          2073 2074 2075 2076 2077 2078
          2079 2080 2081 2082 2083 2084
          2085 2086 2087 2088 2089 2090
          2091 2092 2093 2094 2095 2096
          2097 2098 2099 2100 2101 2102
          2103 2104 2105 2106 2107 2108
          2109 2110 2111 2118 2119 2120
          2121 2122 2123 2136 2137 2138
          2139 2140 2141 2142 2143 2144
          2145 2146 2147 2154 2155 2156
          2157 2158 2159 2160 2161 2162
          2163 2165 2167 2169 2170 2171
          2172 2173 2174 2175 2176 2177
          2178 2179 2180 2181 2182 2183
          2209 2213 2217 2232 2233 2234
          2235 2236 2237 2238 2239 2240
          2241 2242 2243 2245 2247 2249
          2310 2311 2312 2313 2314 2315
          2364 2365 2366 2367 2368 2369
          2370 2371 2372 2373 2374 2375
          2574 2575 2576 2577 2578 2579
          2586 2587 2588 2589 2590 2591
          2634 2635 2636 2637 2638 2639
          2640 2641 2642 2673 2674 2675
          2676 2677 2678 2679 2680 2681
          2682 2683 2684 2727 2728 2729
          2730 2731 2732 2733 2734 2735
          2826 2827 2828 2829 2830 2831
          2832 2833 2834 2835 2836 2837
          2874 2875 2876 2877 2878 2879
          2901 2902 2903 2904 2905 2906
          2907 2908 2909 2910 2911 2912
          3003 3004 3005 3006 3007 3008
          3009 3010 3011 3012 3013 3014
          3015 3016 3017 3024 3025 3026
          3027 3028 3029 3030 3031 3032
          3033 3034 3035 3037 3038 3041
          3042 3045 3046 3048 3049 3050
          3051 3052 3053 3105 3106 3107
          3108 3109 3110 3168 3169 3170
          3171 3172 3173 3174 3175 3176
          3177 3178 3179 3228 3229 3230
          3231 3232 3233 3234 3235 3236
          3237 3238 3239 3246 3247 3248
          3249 3250 3251 3264 3265 3266
          3267 3268 3269 3375 3376 3377
          3393 3394 3395 3396 3397 3398
          3423 3424 3425 3426 3427 3428
          3429 3430 3431 3432 3433 3434
          3441 3442 3443 3444 3445 3446
          3465 3466 3467 3468 3469 3470
          3471 3472 3473 3474 3475 3476
          3477 3478 3479 3480 3481 3482
          3516 3517 3518 3546 3547 3548
          3549 3550 3551 3552 3553 3554
          3573 3574 3575 3576 3577 3578
          3600 3601 3602 3663 3664 3665
          3666 3667 3668 3705 3706 3707
          3723 3724 3725 3726 3727 3728
          3729 3730 3731 3732 3733 3734
          3789 3790 3791 3810 3811 3812
          3813 3814 3815 3819 3820 3821
          3840 3841 3842 3843 3844 3845
          3864 3865 3866 3891 3892 3893
          3894 3895 3896 3897 3898 3899
          3933 3934 3935 3936 3937 3938
          3945 3946 3947 3948 3949 3950
          3996 3997 3998 3999 4000 4001
          4002 4003 4004 4005 4006 4007
          4038 4039 4040 4071 4072 4073
          4074 4075 4076 4083 4084 4085
          4110 4111 4112 4113 4114 4115
          4131 4132 4133 4134 4135 4136
          4137 4138 4139 4140 4141 4142
          4143 4144 4145 4239 4240 4241
          4242 4243 4244 4245 4246 4247
          4248 4249 4250 4329 4330 4331
          4332 4333 4334 4356 4357 4358
          4359 4360 4361 4362 4363 4364
          4392 4393 4394 4419 4420 4421
          4446 4447 4448 4449 4450 4451
          4467 4468 4469 4479 4480 4481
          4503 4504 4505 4512 4513 4514
          4524 4525 4526 4542 4543 4544
          4548 4549 4550 4563 4564 4565
          4575 4576 4577 4596 4597 4598
          4632 4633 4634 4674 4675 4676
          4686 4687 4688 4755 4756 4757
          4758 4759 4760 4776 4777 4778
          4824 4825 4826 4827 4828 4829
          4839 4840 4841 4959 4960 4961
          4980 4981 4982 3036 3039 3040
          3043 3044 3047 3609 3693 3610
          3613 3695 3614 3617 3697 3618
          4021 4024 4027 4020 4023 4026
          4009 4008 4013 4012 4017 4016
          3671 4188 3675 4189 3679 4190
          2402 2409 2405 2410 2408 2411
          2389 4395 2393 4396 2397 4397
          2400 2403 2406 3939 4287 3941
          4288 3943 4289 3694 3696 3698
          4599 4380 4600 4384 4601 4388
          4830 4831 4832 4022 4025 4028
          4656 4657 4658
        </DataArray>
        <DataArray type="Float64" Name="resid_x" format="ascii" RangeMin="-0.00006854596601657548" RangeMax="0.0000356866718584925">
          0.000002080739188281555 0.000005082790151433869 0.000003248084504914317 0.000001150849127329323 0.000003694894945560634 0.0000030146712295398004
          3.926926070985104e-7 0.000002268170186781049 0.0000021854152680855776 0.000005513499071296835 0.000011473898673397542 0.000008933766934449139
          0.0000017779486376490183 0.0000045226657297003925 0.00000601802695121556 0.000003134459437337256 0.000004449215601720624 0.000005293233837244671
          0.0000024578863269120177 0.000004317942414511222 0.00000409339390317065 0.000002457480227979758 0.0000037490460902400713 0.000003054332800012105
          7.341973151664405e-7 0.0000028976675263692186 0.0000024964699174567784 2.8969187537697394e-7 0.000001747888557446231 0.0000015810870681587375
          0.000001002489671275697 0.0000021427602518997446 0.0000066028176175514375 0.000002465883169877614 0.000005624621899791293 0.000007479537836196926
          0.0000020451334943327737 0.00000533251670553625 0.0000058071145323523865 0.000002266308592124844 0.00000544829478732467 0.000004825540501629533
          0.000002065771944836925 0.0000044870216049375244 0.0000034739854091192512 0.0000013449473199589335 0.0000032032094194889282 0.0000022546438951387415
          6.468253188618434e-7 0.0000017996243102391674 0.0000013027421008615647 0.0000039802916651510145 0.000006882491208948238 0.000012137464826755817
          0.0000030341663095345695 0.0000056681528235458245 0.000009001381130246955 0.000004090516469101857 0.000009076895623127967 0.000009044638760169477
          0.000003185608568712084 0.000007664827350817305 0.0000067260907259392155 0.0000027464892138340247 0.000006352964313949272 0.000004864234059320793
          0.0000018039058926611062 0.000004393269880775819 0.0000030717481298569993 0.0000010857665635466418 0.00000288246936586134 0.000001610350898406665
          6.309413028704469e-7 0.0000018483290127324636 7.959573279370247e-7 0.000007606165771001372 0.000014575566098962156 0.00001886608826451308
          0.000007336985987871358 0.000014725871973819693 0.00001493765575388828 0.000005421345673939371 0.00001196617913645781 0.000010198149527740341
          0.000004215355748904415 0.00000975854291263012 0.000006999430617771196 0.0000027407541733914798 0.000006557090440617586 0.000004053635488387997
          0.0000014912245913656363 0.000004005001094764538 0.0000020029091321038806 6.294580323640275e-7 0.0000022013916398666566 6.53893139190842e-7
          -1.3024395228988794e-7 6.422271801032053e-7 -5.429591496408648e-7 0.000012834574737219384 0.000025466013704900092 0.00002646241117876258
          0.000009810161103462889 0.000020821433063478167 0.00001792284568469249 0.000006204131019593717 0.000014035800097511597 0.000010268277097491563
          0.0000039008941683515985 0.000009261566821017198 0.000005359614895006359 0.0000018225356721579544 0.000004954872791840259 0.0000020190199498948402
          4.737574177404724e-7 0.000002229092237238106 6.527309071024945e-8 -3.571878548491725e-7 5.16793680960248e-7 -9.948604628995383e-7
          -9.148207129605623e-7 -6.78487271477124e-7 -0.000001787173317113755 0.000017913701571004026 0.0000356866718584925 0.00003183053666244717
          0.000010367197592398014 0.000022030230851122212 0.000016652862455224238 0.000005103761286262554 0.000011867525500974807 0.00000660694100007575
          0.000001787911530382047 0.000005147313977937884 9.036830153075215e-7 -1.9838301734687036e-7 0.0000010789490618723363 -0.0000016220014353862666
          -0.0000011887072908223217 -8.490835154972842e-7 -0.0000028104022293806707 -0.0000016766564636672143 -0.0000018609638887667757 -0.000003137454089197078
          -0.0000018840532804986765 -0.000002386269253751294 -0.000003366045082442426 0.000014365507209568307 0.000028414336194160228 0.00002186817613614167
          0.0000046527962825893 0.00001025831679679623 0.000005018411661783517 -5.3917511289025555e-8 0.0000014048335177929694 -0.000003820328996720357
          -0.0000014844655891188552 -0.000001650246087780971 -0.000005188137856326769 -0.0000025637545689738417 -0.0000036793468124463047 -0.000005692004669044515
          -0.0000029469365665502067 -0.000004280915463006352 -0.000005734398928591844 -0.000003180084210185896 -0.000004686859128355536 -0.000005602637155099899
          -0.0000031433116911561143 -0.000004691641033893745 -0.0000053556931443043965 -0.000004273379191621629 -0.000003793989972189493 -0.000003560941826519226
          -0.000004663352673350829 -0.00000762941544718565 -0.000005947819101903562 -0.0000062508023570551074 -0.000009032824053178956 -0.000008455227807235843
          -0.000006520520247743633 -0.000006513833824328685 -0.0000093276908059714 -0.000005444786072450469 -0.00001701213160430412 -0.000017201222034080033
          -0.0000035281302697143246 -0.000009828960782609641 -0.00003394229567185367 -0.00003476009496039545 -0.0000072233529353482595 -0.000012063401116257921
          -0.00003327913059406572 -0.00003690757672003553 -0.000011781925521647807 -0.000005549513534930384 -0.000008910116126359391 -0.000011073814412343452
          -0.000016715550032131432 -0.000011933114955064994 -0.000017127939981875784 -0.000006309874848398067 -0.000004930066402897282 -0.00001111923985908092
          -0.000008991925174894888 -0.000011859425958604675 -0.00000999484835206843 -0.000003925261865100893 -0.000003644167813316758 -0.000006273451665816943
          -0.000005318094675028917 -0.00000699889667421516 -0.000005932399557140571 -8.365259227538502e-7 -0.000010756171682113624 -0.0000011267894417521518
          -0.00002334758822342131 -0.000004020769285961734 -0.000028171687673994583 -0.0000033559657619530725 -0.000005297463942510738 -0.00000511042655260141
          -0.000009027745088124872 -0.000004269791941458045 -0.000008047361791926888 -0.000004448319667949008 -0.000007113539402636704 -0.000007318053652616285
          -0.000034339302662056426 -0.00006854596601657548 -0.00004857758153709035 -0.000020879348408109344 -0.00004129677772191087 -0.00002926076983478243
          -0.000014009777949408608 -0.00000969210977497248 -0.000026671269111711027 -0.000018001814001022964 -0.000018428444147566836 -0.000013535033435929655
          -0.000006967525541856645 -0.000012129013093886698 -0.000009697181947432298 -0.000003550302409838224 -0.000005095180033887203 -0.000005450478498536526
          0.000007106840941517589 0.000012044084477302874 0.000007777570358857844 -0.0000020266323521589413 -0.0000011860159438992213 -0.0000014221996984531415
          -0.000002091646672086611 -0.0000027352864382379494 -0.0000011740265226656277 -0.0000017148188067306336 -0.000003027684844836287 -0.0000033084057040611015
          -0.000001958559264991777 -0.000002039316284285775 -0.0000029940644470372035 0.000007313019688925948 0.000013324635745881608 0.000008634007444552338
          -0.000003227711223630081 -0.000003033559626386406 -0.00000532048558810061 -0.0000045056436071000405 -0.00000512709127342692 -0.000004596009094415265
          -6.730672639232438e-7 -0.0000010281748836771243 -5.134413350038614e-7 -6.473159117614813e-7 7.173578391306279e-7 5.70459529614098e-7
          0.0000011202740717308757 3.3197709647936335e-7 0.000002280786976616156 0.0000010152871094959437 0.0000015711940648532874 0.000002950584869210182
          -9.804468901197794e-7 -6.187354224529429e-7 -8.857781792492858e-7 -2.474629285931229e-7 -0.0000011512768025578879 -9.864198285969294e-7
          5.973300114536784e-7 5.582102806656053e-7 3.461808666394006e-7 7.849216758781807e-7 0.0000043164615033397524 0.000002904708618967078
          -0.0000021410781072539464 -0.0000027023284840943518 -0.0000015290395514178101 -0.0000031067936470119406 -0.0000042454125983582 -0.0000018101407657233892
          -0.0000026613355028626273 -0.0000037083851991415173 -0.0000018219476050074235 -0.0000017886953611601086 -0.0000019069375214453288 -0.000002155084221189263
          -0.00000225080161220248 -0.0000013607542683757856 -0.000001185968737882348 -0.0000022627560748444964 -9.896704806777734e-7 -3.813558926424321e-7
          -1.8097917076076442e-7 -3.7092137961103333e-7 2.2083724759980328e-7 4.0373664966786293e-8 -8.650417022693091e-7 -6.552532423320656e-7
          4.2604147049152274e-7 -2.1764020163850262e-7 0.0000012118471137689824 1.0297366193068314e-7 1.3715433344607675e-7 0.0000013554370703605656
          5.947642818249221e-7 0.0000015097858926393926 -1.3125609404918137e-7 -0.0000015941427135013342 0.0000026784784574740428 0.000006084219578816885
          0.000002285745436703124 -9.276912039668517e-7 0.000002463045222445004 0.0000033770441949521057 0.0000019444924734823843 3.6409763526368266e-7
          -3.443137956971043e-7 -4.913021312002996e-7 4.469100600701381e-8 -1.2111169578332692e-7 -4.780106444002286e-7 -5.168427397173048e-7
          -0.0000022745926679945683 -0.000001656745110656388 -0.000001836896002194166 -0.0000024175251722713398 -0.0000024280334054438413 -0.000002238850760560851
          -0.000001179015110208681 -0.000002255061486655663 -9.98852480060819e-7 -0.0000015558099337731335 -1.7950555508683408e-7 -3.7626469073792634e-7
          -4.2228356522677757e-7 -1.3653130492841115e-7 -8.008714849072618e-7 2.7950743319848925e-7 3.6626436505926563e-7 -3.124320944181136e-7
          -2.7849529860013433e-7 -1.4427714578602036e-10 -5.67330748157957e-7 -5.952196937553111e-7 -0.0000013210695399834549 -0.0000016595422747123223
          -0.0000020662527120407503 -0.000001148437109854683 -0.000001477495889634639 -0.0000024398545428461205 -0.0000024370880069568557 -0.0000023583586679087887
          -0.0000031400078897014794 -0.0000020622266223568886 -0.000002648333881749565 -0.0000011756606002055747 -0.0000024168008447844613 0.0000014151143192808746
          5.824304272206149e-7 0.0000011432192246196848 0.0000020928600967806688 -6.062159108033427e-9 -0.000001064250951088308 0.0000025254946444119852
          0.000001084325391531582 0.000002264147269226413 0.0000018634851659538043 -0.0000015071173065095422 -0.000001251818456116105 -0.0000010413476005943778
          -3.838593405358637e-7 2.1428648544485895e-7 3.7412450581975065e-7 4.348000738896296e-7 -1.6201438923779676e-7 -1.5238965686559247e-7
          -2.903350324601206e-7 6.051445666233057e-7 2.9351877373073876e-7 -0.000001368629753528694 -0.0000012217243254841748 -9.669061058481532e-7
          -0.0000011241121629090856 -0.0000010348053904873922 -3.325463000525275e-7 -2.3002233273672346e-7 -1.3583384506077323e-7 -9.388898782880517e-7
          -4.0013377433645303e-7 2.364505369278902e-8 1.3980597168838926e-7 -2.22484105361076e-7 -7.131334016641233e-7 -0.0000011062916887016883
          0.000003591481608111735 0.000005720351347271446 0.000003706057227992332 0.000003439428381213361 0.000004366683177714492 0.0000059890978683085905
          0.0000065108952544967735 0.000005974202173852916 0.000005262064909139497 -0.0000014293467931469905 -0.0000017514330465928651 -0.0000018316806593698942
          -0.000002533590968911703 -0.0000020519321100032073 -0.0000024446560762392266 -0.000001380253976002166 -0.0000016638352735576234 -0.0000021811089148116025
          -0.0000025053836705257737 -0.000002944109578573162 -0.0000030739650695998932 -9.272045333741374e-7 -0.0000010211605485643815 -0.000001255574177294605
          2.781198211732061e-7 -7.213039510123309e-7 3.726126855951861e-7 -9.874640853890782e-7 -5.396236633092855e-7 -0.000001541581900799116
          -0.000001560968452052336 -0.0000025275148323178342 -0.0000029199082280939592 -0.000002333689256950322 -0.0000023395813004700727 -0.0000033246684043586328
          -0.000002786935445753258 -0.0000024541924272813986 -8.707983991662616e-7 -0.0000010283562932311696 -0.0000010112178661092486 -9.694505969104483e-7
          -7.680466651560636e-7 -8.528593470336077e-7 1.2348512923310295e-7 -5.769637250185866e-7 6.544114021789227e-7 9.990319793651281e-8
          5.486756109451818e-7 -5.255824251371166e-7 9.208666795768039e-7 0.0000010934024219366734 -0.0000031259315216303207 0.0000021652215098644234
          -3.5425282929324453e-7 -0.0000024219847480910772 5.975506949251752e-7 3.929418546100294e-8 7.164224680167308e-8 -2.8747068681056476e-7
          0.0000010230343423511812 3.607925711524018e-7 2.0623545049502923e-7 7.253725093914198e-7 -6.242665673283909e-8 -5.254973989288203e-8
          -2.7099189109369703e-7 -7.323940718340083e-7 -2.57947954163118e-7 6.674894591496283e-7 0.000001109659486853154 7.057878388394556e-7
          3.170307794064797e-7 8.980573951156146e-8 4.453709947505047e-7 2.842638933131525e-7 5.527037385544276e-7 1.617094544936748e-7
          -0.0000015852646628733424 -0.0000014471134612836778 -0.0000024665209814589417 -0.000002212783021482423 -0.0000023439464009733513 -0.0000021708390407493283
          -9.45679747510475e-7 -0.000002644723847256003 4.96874207556175e-7 0.000003847524137512437 -4.221895704703549e-7 0.000008976250992276391
          -8.636778845716453e-7 0.000005643934866572664 5.5240427898617384e-8 0.000010467839741679086 0.000018134309176076613 0.000009629381485076749
          9.963161258230713e-7 0.0000015307912857309702 -9.380435705974577e-7 -0.0000012795264928699979 0.000004624218117088574 0.000005781109505775817
          1.855435887154755e-7 -7.674980999627934e-7 0.0000022457967121525257 0.0000024741766355695916 -3.4054792696913694e-7 -6.317207917883039e-7
          0.0000015627699880838009 0.0000026856608130731985 0.0000014015893168295435 -0.0000018033222013436045 -8.798521973218953e-7 -0.000002102423508398843
          -7.197940306014061e-7 -0.0000017713671918162532 -0.0000010904094165375966 9.424074098873803e-8 3.3485884620709783e-7 -1.1072869021688803e-7
          0.0000011940270672194941 0.0000015258320450739493 2.9610486240727596e-7 8.616559769025756e-7 0.0000024159488616337654 0.0000028863482285923503
          0.0000016862860254818202 0.000004480951219854035 0.0000019670174915553673 0.0000023684857675121407 0.000004700527586498637 0.000005264995407872064
          0.000004823080242521982 0.00000489441515938438 0.0000117675271336104 0.0000030399164363537068 0.0000031643207953901964 0.000005612883922534451
          9.037761736774286e-7 -1.9140251850124912e-7 -1.59776845309878e-7 -9.302144449163663e-7 -2.628572892682257e-8 -4.483769328045284e-7
          0.0000019552779223497296 0.0000033790209741924038 -6.014011532107233e-7 0.000002298791316579507 -3.748458610175476e-7 0.0000012504165501359132
          -0.000001510779825242281 -0.0000010215633080568054 -0.0000014784669488676627 -3.255441392013836e-7 7.5696224399735e-8 -3.1246046416910644e-8
          -6.104140304330485e-7 -2.3448450914287378e-7 -0.00000125099898318215 -1.2787493308685782e-7 -5.108215989091391e-7 -2.066479085627293e-7
          0.0000029221642868781927 0.00000564476486430987 0.0000032399626838097717 3.459034136898964e-7 -0.0000015063929230674233 6.662165912274531e-7
          0.000004451805910132833 0.000006366845541005972 0.000003106941427466481 2.4690038014085758e-8 -2.9299620307732255e-7 -8.615401458911265e-7
          3.557047643099054e-7 -0.0000031746697373158383 -5.167140928463709e-7 0.0000013045895281837971 -6.730567074786364e-7 0.0000027567866760502824
          0.00000250641390464601 0.0000018645998660637986 -5.465596728537747e-7 6.257172535661937e-8 5.049994487027476e-7 3.3455542158833396e-7
          6.351618763444922e-7 -5.8493545562754434e-9 1.9713219107098112e-7 -4.5687630223500975e-7 -6.244943104305456e-8 2.5233038813965436e-7
          -1.6272618497126246e-7 -9.970351637633712e-7 9.679819004126955e-7 0.000001902058946789964 -0.00000120548501603146 -5.231893460688752e-7
          0.0000025985240963144474 0.0000022605720766399884 0.000002298039132542229 0.0000011669809682202104 0.0000037908652799067966 -9.936228839713124e-8
          0.000002124282840909597 0.000003151757347552575 6.202409432720657e-7 0.000003063786082835307 0.000003152359592473175 0.000004963559887771751
          0.000005659646640232552 0.00000217640986854839 0.000002778935400238325 0.0000025544082598027984 -7.291742980530813e-7 0.0000019157531481184265
          0.000003336261418684927 0.000004223823994342624 0.0000023301083040827564 0.0000018021188876726768 0.0000037409837572166538 0.0000021558846103886253
          0.0000020631575491369958 -2.9652930444434844e-7 4.632332598619726e-7 0.000008215354960872112 0.000011396027074450643 0.000006450488102993646
          -7.137437508797362e-7 -0.000001167383997580096 -0.000001119432647911367 -8.897709797839326e-7 -0.0000016364747095209964 -0.0000013414964672442409
          0.0000023139014471151853 0.0000035528930604211695 0.0000022961625057993373 8.024220730096232e-7 0.0000010460988320026843 0.000001144969269395446
          0.000005126964230939279 0.000005483701458697254 0.000003415168858378337 7.101275965037956e-7 0.0000012704575993449652 0.0000011531228110150948
          0.000005613597122033909 0.000008362128904426669 0.0000043000840697082765 5.99301641757144e-7 0.0000011339504680796253 7.310741203525595e-7
          -0.0000011601786538140146 -0.0000019618254674114155 -0.000001971399098854576 -4.937657749337632e-8 -4.176518804133167e-7 -5.169887693501352e-7
          -0.0000013185687310901528 -0.0000024880809774696644 -0.0000020688053170569987 -8.20439796989092e-7 -0.000002003070664224893 -0.0000018164623318828177
          -2.9257967204543434e-7 -0.000002199441667682933 -0.0000017198956068220639 5.371666592646207e-7 -5.852994966470959e-8 -1.558107702859246e-7
          0.0000014207959009304716 -0.0000012235764375034819 -4.959294150896909e-7 7.295747588287327e-7 8.350767144449378e-8 7.459910182916474e-7
          2.4508097618003433e-7 3.745143297706477e-7 -1.3628340056470734e-7 0.0000017943535968178992 0.0000013512671417359456 0.0000010689430205435002
          -0.0000032554516065097516 -0.0000015967763773439003 -0.0000053625539777613085 -0.000002187503642891997 -0.0000050612919226811215 -0.0000028745158562326623
          0.0000030535046187107895 -5.807714835714961e-7 -5.77451220840075e-7 0.000004447694901932309 0.000005798113730026699 0.000003261982205238212
          -2.435479975471111e-7 -0.000002590253874723558 -0.0000021060635566616526 0.0000020970813126020005 0.0000014736068258969226 0.000002001020988018354
          0.0000017386276667252787 6.251011663849226e-7 7.521241260910472e-7 4.186296140851198e-7 0.0000038072377868125784 -0.0000016373774430200605
          0.00000313710977906112 0.000006224642789431911 -1.9614968460590632e-7 0.0000039849712467621146 0.0000029439957024424146 8.507773313071176e-7
          0.000002016287076633816 0.000004112231245745335 8.493871233028472e-7 0.000005947587304433455 0.000007400516137234803 0.00000392883540967226
          4.861907747510941e-7 0.000003353051878596247 0.0000037864961672795516 0.000009478018955011436 0.000003009462122172124 0.0000051894380415085095
          -0.000001180372739106872 0.0000032606271449520108 0.000003014538751511253 0.0000026849859935396125 0.000005848424162069321 0.000002871066387521992
          0.000003827622895080651 0.000003926375200080656 0.000006440815173647252 0.000004908373024026247 0.000002896902553395364 0.0000019041283421117328
          -0.000001001867498962028 0.0000057467271177280566 0.0000028607567088556607 0.000008050500151846052 0.000003881977203468168 0.000004542879826541224
          0.000004032112243645969 0.000006084931440053509 0.0000032165147316742804 0.000008287518312943831 0.000006449200176339431 0.00001214232238799795
          0.000007935814623216686 0.000008679360642416256 0.000009719160611876276 0.000004120980602539959 0.000005942694662586234 0.000005059809206731103
          0.000008375740473187676 0.000003489216537921891 0.000014806859449656429 0.000007155497145916456 0.000008805013064439038 0.000007706861878009619
          0.00000615706579720765 0.000008348137443991988 0.0000044640281042784835 0.0000024768175550526905 0.000002909064277467621 9.43965018151971e-7
          0.0000033520790658769783 0.000005028211129243232 0.000004119712573080747
        </DataArray>
        <DataArray type="Float64" Name="resid_y" format="ascii" RangeMin="-0.00003415526529697288" RangeMax="0.000019557575762496615">
          -0.000001206790345063824 -0.0000016311878565031246 -7.685890832283271e-7 -0.0000013228699495878432 -0.0000030890640402188307 -0.000002067376185911976
          -2.9593566787562697e-7 -8.37959569188057e-7 -6.787878049328844e-7 -0.000006448511182827882 -0.000015417881111305654 -0.000011204840521193346
          -0.00000788654251310597 -0.000018824980802537028 -0.000011859088334814638 -0.000007390582714282556 -0.000016032512694386103 -0.000010193384925728799
          -0.000005484403659335169 -0.000011609884673066673 -0.0000072135792379968144 -0.0000034136863586164967 -0.0000068159094180203494 -0.000004341999367968308
          -8.456607818140005e-7 -0.0000018425305218436328 -0.0000015310447745199574 -3.4430338556297804e-7 -7.647713225569265e-7 -6.086435724770266e-7
          -0.000004291643475335533 -0.00000881187206464712 -0.000006242696700894945 -0.000003816501823079854 -0.000007701263652570844 -0.000006063375539100413
          -0.0000032813126325387243 -0.000004958067255287496 -0.000004882394891877334 -0.0000022225861265687957 -0.000003114336634288395 -0.000003019393567787673
          -0.000001531235373223444 -0.00000174948995458786 -0.0000017657973808175506 -0.000001196553354663489 -0.0000011605309644478062 -0.0000011590275127114358
          -1.6656947835012176e-7 -1.5681739503389108e-7 -2.3511851751124857e-7 -0.00001566155792346452 -0.00003415526529697288 -0.000020056670168230872
          -0.000011382300270579987 -0.000019156321074215166 -0.000013052486399999647 -0.000008445111161992092 -0.000012033266039532253 -0.000009497429799314866
          -0.000006159874431957771 -0.000007136889212526129 -0.000006698278057966703 -0.000003650603654058171 -0.000003480949259802857 -0.000003929572180316754
          -0.0000018810678707507043 -0.0000011557706995134025 -0.000002024449218449107 -5.214835910245016e-7 3.108354376739038e-7 -5.733616594352786e-7
          3.525979068836303e-7 9.506516111361385e-7 3.511825519327688e-7 -0.00001126248101286989 -0.000021795264339527498 -0.000013863525369854635
          -0.00000909587546729998 -0.000012426569634418905 -0.000010214273425637743 -0.000006796108760375591 -0.000006281489096378323 -0.000007117853990195461
          -0.000004089231454345796 -0.000002337026094619346 -0.000004289932880784109 -0.0000022090722558618624 -2.3150001555484467e-8 -0.000002381032531644997
          -9.077919654720129e-7 0.0000011723771288587627 -9.988195831438576e-7 3.206645321843227e-8 0.0000016230141298865727 -8.119453624201578e-9
          5.148540914989841e-7 0.0000013798595029923533 4.966779646349562e-7 -0.000014491296414564925 -0.000024782916118862297 -0.000015714148267224892
          -0.000008375331778675416 -0.000009875953343910227 -0.000009428846026907078 -0.000005180493352754077 -0.0000026254187863485046 -0.000005739845966484629
          -0.000002441100480076678 0.0000012745792240303946 -0.000002756289261720505 -0.0000010157101620611453 0.0000027567465623922274 -0.0000012072619360176118
          -1.3974313727276727e-7 0.00000299490313830815 -2.3367573653582802e-7 5.330691702325197e-7 0.000002820388685640697 5.023726666591316e-7
          9.424400485126896e-7 0.000002387208469072262 9.374943064320573e-7 -0.000010481693063849051 -0.00001495482002439319 -0.000011617323425583415
          -0.000003734307631694236 2.6541743201771544e-7 -0.000004624296927542397 -0.000002065063045012666 0.000003965044564901987 -0.0000027288708754980365
          -2.6091118788401646e-7 0.0000060915417393770516 -5.781500581093779e-7 9.177537240931399e-8 0.00000533698810604305 -8.489466432441695e-8
          4.489172705218064e-7 0.000004443978890910846 3.6937251041493924e-7 8.428346916066615e-7 0.0000036210396750172708 8.214824600404763e-7
          0.0000011259199188054514 0.0000028994149776015443 0.0000011227279327168105 -0.000001373475775515165 0.0000031799669313326007 -0.0000030998531034831522
          0.000002068795454293615 0.000012064069604009187 0.0000012832512870236679 0.0000017997339300870885 0.000012149560595475783 8.227252148093611e-7
          7.931261661528466e-7 0.00000820173443202149 6.325302903884e-7 3.513278818007004e-7 0.000005737205128406031 3.38638911884237e-7
          6.074717776305416e-7 0.000004654086049446851 5.834533976234457e-7 8.780463553528794e-7 0.000003703456803564459 8.338120124802562e-7
          0.000001040659850609811 0.000002885180215978639 0.0000010485481715741263 3.6641840055195996e-7 5.704574297347997e-7 6.951481965594003e-7
          0.0000011884345798816864 0.0000029359674070146558 0.00000220241285905573 0.0000010419502702368674 0.000002171143801024504 -0.0000010588114855367148
          -8.659749052147836e-7 -3.971643186525056e-7 -1.2701660446860774e-7 0.0000024979729269652973 0.000005259049667323285 0.000010009416947703853
          0.000005467606671855432 0.000008200391234877702 0.00001064513447907988 0.000019557575762496615 0.000012170288333745484 -7.815569653887855e-7
          0.000002010140401129297 0.0000060097477095621965 1.5445527044855023e-8 -8.356385289495782e-7 0.0000028229881008628305 0.000003047491473541497
          0.000006752351857524513 -0.000002514762909515411 6.805450425730053e-7 5.038495152600089e-7 -0.0000018118859653297459 0.000003589609206136081
          0.0000011077935753583956 6.384380873449003e-8 -0.000002414839313739231 1.8336079342135166e-7 -7.332061080348763e-9 0.000001356595084656782
          5.792010600965325e-7 -5.044307744533471e-7 -3.663546208297879e-7 0.0000020722442442833167 5.182474535347925e-7 0.000010503927653504608
          0.00000323696131290796 0.0000011456043125246396 -0.0000013600337639557702 -0.000001066017547194471 -0.0000019187284568625436 -4.869131179874265e-7
          -9.702732233952288e-7 -3.055502885800348e-7 -0.0000010991070453652586 3.8595653455673895e-7 0.0000015569764707061562 3.4818357361535157e-7
          -0.0000013161035023331272 0.0000028208999035082144 -6.368924085597407e-7 -0.000005250564207122041 -0.00000405231382849449 -0.0000029153298525133944
          -0.0000050015227582161925 -0.000003662017851221132 -0.000002940443684606303 -0.0000025793642413896034 -0.000002252602177919838 -0.000002062554889855142
          -0.000002948979180277672 -0.0000018565516362329532 -0.0000016604958270032694 -1.4664694038442339e-7 7.603917125424339e-7 5.279348845154547e-8
          9.44261450521941e-7 0.0000012901665295723952 -4.7133020014125324e-7 0.0000010755812632550973 9.138983612863583e-7 8.761911275516343e-7
          8.720659362675826e-7 0.0000022768016833965912 0.0000018552808189915837 0.0000017631821959546157 0.0000019037192936811886 0.000001177520184405742
          0.0000010028281950749673 9.976692707663881e-7 0.0000010253151495262514 5.727173641046496e-7 -1.9917403752851837e-7 -0.0000018640310401434046
          9.687471931862923e-7 0.0000010236251519173817 0.0000018532923439073395 0.0000021177038568610806 6.687184932810397e-7 9.166413470988038e-7
          -1.5374610785358345e-7 4.3306094005962636e-8 -1.2934586176086005e-7 -2.054977868478497e-7 -1.736694187331328e-7 -4.245234657297009e-7
          -8.449314990721657e-7 -6.669863634942153e-7 -0.0000013773355970929727 -8.104192438518343e-7 -0.0000011982817037878984 -0.0000017504221368376538
          8.608712329556678e-7 7.788890663636052e-7 0.0000014619192445523496 0.0000012449068898073542 9.246300644661157e-7 7.271850616049919e-7
          -0.000002216747411675716 -0.000001050095260963016 -0.0000018681159884219138 -1.2565030463145e-8 -0.000003628601996106054 -0.0000022251251541489936
          4.5311690679596117e-7 4.864447720447779e-7 2.741945142690355e-7 7.932145521570913e-7 5.118819552223097e-7 5.401516456685074e-7
          -1.9520420798963684e-7 -6.178521257185765e-7 8.324136808839089e-8 3.187880348726191e-7 4.019392994885837e-7 6.274613060155282e-7
          7.43593367206162e-7 1.5249114512262685e-7 1.6068955130225937e-7 2.0682451709955196e-7 -4.481533360705184e-7 -0.000002089572421671085
          -0.0000020150218943979295 -0.0000031289749875193507 -0.0000031106292580074246 -9.330774460650226e-7 1.3953042359883538e-7 -3.0659683063162177e-7
          -0.0000015139810408213578 1.4382475035587539e-7 -6.874056847306839e-7 -0.0000016004820847844575 -0.0000011659725756875405 -0.0000016244657375964755
          -0.0000030177922713051086 -0.0000020052415105019372 -0.0000015680396861705512 -1.4514982197080806e-8 -0.000006487808533659628 -0.000004420128030474882
          -0.0000031897576434737965 2.4663080365819323e-7 -0.0000050421911283286824 -0.0000031126333732423017 -0.0000029498467169894113 -0.0000010364201171834952
          4.0847925689493914e-7 6.139031836719516e-7 4.6080134751338986e-7 8.830589905556296e-7 3.253656846446962e-7 6.347127512375955e-7
          3.85461453062709e-7 -1.6180269562030003e-7 -0.0000017169259199653966 4.780780164274565e-7 4.881477342162308e-7 -8.517694471271708e-8
          -0.0000016279687733763287 7.020742985803033e-7 -0.000001354708037084977 -0.0000017821716843642935 -0.0000035610579129921258 -0.000002067201459254788
          6.998795926153791e-7 4.792756998772685e-7 2.323813351632828e-7 0.000001309894806871513 5.360925907759578e-7 3.458077814659684e-7
          8.812595668891351e-7 4.646984301023144e-7 2.8510253072093483e-7 -1.691534451727511e-7 2.708402540435584e-7 3.87963434919647e-7
          5.919585093928231e-7 -0.0000013448729701140763 -0.0000014348110430242172 1.2530237262467665e-7 -0.0000013129898002103846 -9.658571587228132e-8
          5.331760062216853e-7 -1.31049129128394e-7 -0.000001647399574147227 -0.0000012800799621295704 -2.827603217767788e-7 -0.0000023006526733207727
          -0.000003714082595332631 -0.000004027726979249132 -0.000004241150546959002 -0.000001172825498721268 -9.21235306333419e-7 -0.000003590196710770107
          -0.0000038870435586433444 -0.000005324093796817988 -0.000005349286011418141 -7.413671870258598e-7 -0.0000012683640028760337 1.0291212024574059e-7
          -3.354042052601536e-8 -0.0000015049698556882096 -0.0000013631041310014497 -0.000001346066306043281 -3.908055820492709e-7 -0.0000013001110763157658
          -3.578712670405937e-7 -0.0000023355167539235167 -0.0000018776722172583749 4.4016178551292695e-7 6.686400489024427e-7 5.255913679697022e-7
          5.636300219478887e-7 6.502866923474224e-7 9.580561257738554e-7 3.9511201792644113e-7 4.42478956774869e-7 -9.481602743135337e-7
          -5.52277218273528e-7 -0.0000010784891078773062 -0.0000017297364049801908 -0.0000017371455754561227 -7.656868703711378e-7 -0.000002070006132368768
          1.8806803817571216e-7 2.222447279542905e-7 -6.419409081370037e-7 -0.0000011779449397442826 -0.000001990084710717932 0.0000012325388846941288
          -0.0000013063721301803666 -0.000001310159957297434 -0.000002152244001560333 8.826532412031102e-7 4.5041634450654344e-7 0.0000016717241862734128
          0.0000011542503780218732 8.052934314436294e-7 4.268509002525872e-7 -3.0981240998042073e-7 -2.154554454986135e-8 1.7113342313168287e-7
          3.867753013862482e-7 -3.780639571289695e-7 2.691024372954154e-8 0.0000010849478707455895 0.0000017733498425855088 8.893300569717821e-7
          2.0377970965865244e-7 4.918347554809174e-7 7.830000827158123e-7 0.0000012618984306022804 1.1144137043381241e-7 3.6477680836945886e-7
          -0.000001009107355618051 1.8496413899029424e-7 2.7400212827648207e-7 1.5188112461976544e-7 -6.028944582077422e-7 3.3193852818887495e-7
          4.182404988273096e-7 1.811376554366681e-7 -0.0000015876007335505204 -0.0000010962152291512511 -0.0000011306021786821469 -0.0000013571541992562358
          -0.0000020747706798388693 -0.000001278409322204993 -0.000001437630669873062 -6.417742789786157e-7 -0.0000021668388051720826 -0.0000018701368921514305
          -4.300790704738497e-7 -3.467668785971101e-8 -0.0000018669730396386622 -8.077863564029744e-8 7.513879560086881e-7 -0.0000013820781021452698
          -3.7011799363924434e-7 -5.056520836800582e-7 -0.0000012025982194322762 -0.0000016637515698296468 7.806373297086777e-8 -3.375903429095328e-7
          -7.57996232348887e-7 5.071776654069771e-7 -8.49428809027164e-8 -9.851536863225707e-7 3.6051314798030143e-10 -1.0783027291211278e-7
          -8.324355066976347e-7 3.353556809436442e-7 -0.000001612052188446067 -8.575244056486207e-7 -7.009460532792985e-7 -7.561986761013724e-7
          -7.143672649881361e-7 -4.2541042346785907e-8 -0.0000010361086677139822 3.945645389385154e-8 -3.6384008366297654e-7 1.0737312613681715e-7
          -3.924865816249193e-8 5.05760074612227e-7 6.512672496741638e-7 0.0000013385280027353175 -1.1542163415529175e-7 3.116376592407488e-7
          -0.0000016495065889622369 3.249462349082504e-7 -0.000004953752951713814 -7.358320006775262e-7 -0.0000011049228737462086 -0.0000011872094122806348
          -2.2285013924743663e-7 -0.000001328509955848909 -0.0000010467681375060656 -0.0000070947779482084805 -0.000009644998871867656 -0.000005904880136266971
          -0.000002246885613279778 -0.0000028373727070018714 7.845273984237455e-7 -0.0000011097605333324975 -0.000005515814876290784 -0.000006236784636890792
          0.0000014780114223162874 -0.000002993751047380283 -0.0000034589897677170245 -0.000003673014553572801 -2.5069644779811967e-7 -0.0000032118386831259116
          -0.000001557386253332228 -8.993419521488946e-7 -0.000001198213210886227 -3.6033161357300336e-7 -3.3874634758693234e-7 4.7580772648096736e-7
          4.990440149081968e-7 -8.469056163480648e-7 -4.933290641525104e-7 1.842238789330486e-7 3.1421203174758494e-7 3.455816414005275e-7
          -0.0000020275188442209907 -0.0000020910477269812933 -0.0000011208673547334624 -0.0000010525870455593833 -0.000002340274822426082 -0.0000030039153042383387
          -9.302115462021115e-7 -0.0000019666559038962472 -0.000001661580400946945 -0.0000029628161699906037 -0.000002821367847943585 -0.0000013646907898604357
          -0.0000019810384569668524 -0.0000011551828988285405 -0.000002530426593818529 -0.0000025031416045886773 -0.000003715212141031793 -0.0000027074168092553093
          -0.000002155942456628576 -9.304411930123602e-7 -0.0000011809318238176908 -2.1898147988582556e-7 -0.000001931421036935506 -0.0000015264546158874279
          -0.000002289172103531016 -0.000003172674572795263 -0.0000010969276119810606 -9.616818465590926e-7 -0.000003054194698928585 -0.000003147241241791953
          -0.0000011178357737715028 -8.096608088443286e-7 6.589674797150002e-8 -2.867740345070119e-7 -0.0000025786036525251438 -0.000001960536429389259
          -0.0000021405741140842656 -0.000002157225218621557 -5.039268157593438e-7 -0.0000010759597157154396 -0.0000016120000083403446 -0.0000012283486566727966
          -0.000006202840854498083 -0.000007715063093258147 -0.000005914944263365996 -0.000004843014128063337 -0.000001829622784388146 -0.000003889985226216558
          -0.000010341827926503913 -0.00001564452806540259 -0.00000879094570897191 -0.0000015208508723036848 -9.588673209274395e-7 -0.000001267230200935679
          -0.000003826257857085687 -5.257739768300268e-7 -0.0000036218579606847948 -0.0000024642260618473917 -6.02882899607745e-7 -0.000002873210836916093
          -4.4345903037852283e-7 -0.000002210969668591401 5.109843516522793e-7 -0.0000017618968468770084 -0.0000010981096671099696 -0.0000025070294957549137
          -0.0000018702903780134714 -6.93629205076457e-7 -0.00000262671013389823 2.7902883295658626e-7 -0.000001932012643257597 -0.0000011384742343812856
          -0.000001709306637649212 1.8991061150660377e-7 -0.000002530541002966104 -0.000004623344901167562 -0.0000011649801703408381 -0.000003354177626590203
          -0.000002221209465429544 -8.680752276862824e-7 -0.0000023270712144344077 -0.0000014424038706981057 -0.0000013832008624887343 -0.000002016358626551716
          -0.0000033521557982179456 -0.000002545854369725639 -0.0000029906858427814625 -0.000002286066147566372 -0.0000015796516257982757 -0.000002839338318356543
          -0.0000017276712300038494 -0.000002336453254000656 -0.0000022971232155506727 -0.000002204779263136232 -5.552592508093618e-8 -0.0000021074402712780924
          -0.0000017755113201226112 -0.0000011033167051812515 -0.000001032609202492366 -0.0000034216048441062033 -0.000003877483400468746 -0.0000032293731950239213
          -0.000003188095356009002 -0.0000010218433113065584 -0.000001910599510223515 -0.000006157642398288768 -0.0000073536204672464654 -0.0000053575116375739924
          -9.7613496114618e-7 2.773863758149392e-7 -8.42269759313008e-7 -0.0000016338290370863928 5.891575614522249e-7 -9.67541515133237e-7
          1.6540980753848578e-7 8.754954483602972e-7 3.757192575393198e-7 -5.939191211005307e-7 -7.471832650807891e-7 -3.6302197085544274e-7
          -0.000004226225166036393 -0.000004417705301502581 -0.0000028505016263016825 5.490987537402903e-8 -1.2842777232999203e-7 -5.5491252790723644e-8
          -0.0000048316123267442765 -0.000006433995248160927 -0.00000373647587458871 4.146151527106845e-7 1.0026800158213778e-7 1.2253837584561e-7
          -2.4505729119723985e-7 9.002992322430098e-7 -1.8633648251470403e-7 -0.0000023684312670897364 -5.852844842911542e-7 -0.0000014590344948441428
          -2.4495415386349695e-7 9.382344186639746e-7 -3.7518996352965683e-7 -8.580266153898619e-7 3.5227083722277897e-7 -8.148005108520734e-7
          -0.0000013499385184915363 4.0040529639823186e-7 -7.12363575077965e-7 -0.0000031820959542194077 -0.0000017391960011802973 -0.0000019793943397032956
          -0.0000034897142449415858 -6.876757121347665e-7 -0.0000019867572693000463 2.1397598528411985e-7 4.350491031002938e-7 1.7201002807721612e-7
          3.3391613001661387e-7 2.0248481980662467e-7 3.277377647616618e-7 -3.5522566798305844e-7 -6.48664899665502e-7 -1.6415864884881254e-7
          4.4694219686856884e-7 -2.018150688093412e-7 0.000001419391555795499 1.235271778156008e-7 5.809399159445797e-7 7.629137968936939e-9
          -0.000005671697716690691 -0.0000031085307617218297 -0.0000033466337508102854 -0.000003112900843380191 -0.00000229861473838045 -0.00000203898403602188
          -0.000001074123785516773 -6.690363690917828e-8 -0.000001076579727032033 -0.000006675663378050232 -0.00000301692758655726 -0.000004614553233284711
          -0.0000029154569553936985 -0.0000037121884676966435 -0.0000037717563851715798 -0.0000017479962782576686 -0.000003412017442182627 -9.690009730341231e-7
          -0.0000034071326201028096 -0.000005108521335653662 -0.000001962571571258523 -0.0000020477619465907038 -0.0000026445089909808706 -0.0000012629951263581907
          -0.000006706772899734217 -0.000013287957605448777 -0.00000784836421552186 -0.000007031449366159091 -0.000009765270139253102 -0.000007649344535592961
          -0.0000015186549427801798 -2.749976372193677e-7 -0.0000030746115888798456 -0.0000015001321809833177 -0.000003682670314064749 -0.0000027252584755295525
          2.5052313991271585e-7 -0.000003913380453883161 -9.573969604968063e-7 -1.4245273286927346e-7 -0.000006218558822271552 -0.0000036279023808085016
          -0.000003169859401672137 -0.000004918318421370457 -0.000005892954256677546 -0.000006631159578341858 -0.000004191202506591968 -0.0000037534935271275882
          -0.0000012641455105263238 -0.000006286532059009142 -0.00000279948282645541 -0.0000052747561886130195 -0.0000035277547078115673 -0.000003935569704033998
          -0.000003201434467159283 -0.000004437446638251921 -0.0000025681023493261644 -0.000009858616284762547 -0.000007005662341583521 -0.000014640960572622971
          -0.000011644371710837348 -0.000007762861743867804 -0.000007180161499389243 -0.000003226625722512269 -0.000005734068300754236 -0.000003652447761962746
          -0.000007133657088546214 -0.0000012398483140796737 -0.00001090698909139362 -0.000004181306054880027 -0.000005524975946083303 -0.000003533182603177379
          -0.000002601140229332999 -0.000003421773217007762 -0.000002430831700419786 -7.493856987858191e-7 -5.711339568295615e-7 -0.0000018421068723774303
          -0.0000033675593652335994 -0.0000049544184938920405 -0.0000032290274277375908
        </DataArray>
        <DataArray type="Float64" Name="resid_z" format="ascii" RangeMin="0" RangeMax="0">
          0 0 0 0 0 0
          0 0 0 0 0 0
          0 0 0 0 0 0
          0 0 0 0 0 0
          0 0 0 0 0 0
          0 0 0 0 0 0
          0 0 0 0 0 0
          0 0 0 0 0 0
          0 0 0 0 0 0
          0 0 0 0 0 0
          0 0 0 0 0 0
          0 0 0 0 0 0
          0 0 0 0 0 0
          0 0 0 0 0 0
          0 0 0 0 0 0
          0 0 0 0 0 0
          0 0 0 0 0 0
          0 0 0 0 0 0
          0 0 0 0 0 0
          0 0 0 0 0 0
          0 0 0 0 0 0
          0 0 0 0 0 0
          0 0 0 0 0 0
          0 0 0 0 0 0
          0 0 0 0 0 0
          0 0 0 0 0 0
          0 0 0 0 0 0
          0 0 0 0 0 0
          0 0 0 0 0 0
          0 0 0 0 0 0
          0 0 0 0 0 0
          0 0 0 0 0 0
          0 0 0 0 0 0
          0 0 0 0 0 0
          0 0 0 0 0 0
          0 0 0 0 0 0
          0 0 0 0 0 0
          0 0 0 0 0 0
          0 0 0 0 0 0
          0 0 0 0 0 0
          0 0 0 0 0 0
          0 0 0 0 0 0
          0 0 0 0 0 0
          0 0 0 0 0 0
          0 0 0 0 0 0
          0 0 0 0 0 0
          0 0 0 0 0 0
          0 0 0 0 0 0
          0 0 0 0 0 0
          0 0 0 0 0 0
          0 0 0 0 0 0
          0 0 0 0 0 0
          0 0 0 0 0 0
          0 0 0 0 0 0
          0 0 0 0 0 0
          0 0 0 0 0 0
          0 0 0 0 0 0
          0 0 0 0 0 0
          0 0 0 0 0 0
          0 0 0 0 0 0
          0 0 0 0 0 0
          0 0 0 0 0 0
          0 0 0 0 0 0
          0 0 0 0 0 0
          0 0 0 0 0 0
          0 0 0 0 0 0
          0 0 0 0 0 0
          0 0 0 0 0 0
          0 0 0 0 0 0
          0 0 0 0 0 0
          0 0 0 0 0 0
          0 0 0 0 0 0
          0 0 0 0 0 0
          0 0 0 0 0 0
          0 0 0 0 0 0
          0 0 0 0 0 0
          0 0 0 0 0 0
          0 0 0 0 0 0
          0 0 0 0 0 0
          0 0 0 0 0 0
          0 0 0 0 0 0
          0 0 0 0 0 0
          0 0 0 0 0 0
          0 0 0 0 0 0
          0 0 0 0 0 0
          0 0 0 0 0 0
          0 0 0 0 0 0
          0 0 0 0 0 0
          0 0 0 0 0 0
          0 0 0 0 0 0
          0 0 0 0 0 0
          0 0 0 0 0 0
          0 0 0 0 0 0
          0 0 0 0 0 0
          0 0 0 0 0 0
          0 0 0 0 0 0
          0 0 0 0 0 0
          0 0 0 0 0 0
          0 0 0 0 0 0
          0 0 0 0 0 0
          0 0 0 0 0 0
          0 0 0 0 0 0
          0 0 0 0 0 0
          0 0 0 0 0 0
          0 0 0 0 0 0
          0 0 0 0 0 0
          0 0 0 0 0 0
          0 0 0 0 0 0
          0 0 0 0 0 0
          0 0 0 0 0 0
          0 0 0 0 0 0
          0 0 0 0 0 0
          0 0 0 0 0 0
          0 0 0 0 0 0
          0 0 0 0 0 0
          0 0 0 0 0 0
          0 0 0 0 0 0
          0 0 0 0 0 0
          0 0 0 0 0 0
          0 0 0 0 0 0
          0 0 0 0 0 0
          0 0 0 0 0 0
          0 0 0 0 0 0
          0 0 0 0 0 0
          0 0 0 0 0 0
          0 0 0 0 0 0
          0 0 0 0 0 0
          0 0 0 0 0 0
          0 0 0 0 0 0
          0 0 0 0 0 0
          0 0 0
        </DataArray>
        <DataArray type="Float64" Name="stress_zz" format="ascii" RangeMin="-148104.8463076852" RangeMax="278940.8891207907">
          -3939.636375558852 -4129.088563842651 -4318.54075212645 -4293.732670983217 -4263.471121800101 -4233.209572616986
          -6425.455236385037 -6624.327588638964 -6823.199940892891 19010.512350447985 18766.14292236387 18521.773494279754
          10837.82954904814 10979.685865338859 11121.542181629578 3783.3722225794127 3805.402152194513 3827.432081809614
          -1013.2767190762029 -1098.9794295343318 -1184.6821399924609 -3484.7203304794666 -3372.7762820578387 -3260.832233636211
          -7351.281741665491 -7340.678996894835 -7330.07625212418 -8850.490054133059 -9243.284366389087 -9636.078678645117
          21131.084941753852 20784.41779935662 20437.750656959386 7406.043678244876 7594.799672921961 7783.555667599046
          -1541.6404751641953 -1529.916756498995 -1518.1930378337947 -6065.224926837211 -6155.852424016934 -6246.479921196656
          -7270.256492644758 -7171.656364366476 -7073.056236088196 -10846.515817829792 -10844.190470302374 -10841.865122774956
          -10779.87958854746 -11080.166121010025 -11380.452653472592 43821.41481855817 44926.23593997593 46031.05706139368
          16544.543862320337 15908.68896210883 15272.834061897323 -2497.7409090754236 -2339.5287586971112 -2181.316608318799
          -10818.381347785247 -10905.171879999156 -10991.962412213063 -12838.776798335932 -12936.852772324402 -13034.928746312875
          -11485.27749640595 -11520.833883925672 -11556.390271445394 -10824.445715614478 -10755.561406281839 -10686.677096949203
          -10717.50225986585 -10855.145200148738 -10992.788140431625 37836.117612610105 39902.21469123164 41968.31176985317
          -4331.543057508237 -4676.2181106454545 -5020.893163782674 -21796.535262952228 -21363.302023794102 -20930.06878463597
          -23390.26143479453 -23398.845775475398 -23407.430116156265 -19926.26618659439 -19936.692489775673 -19947.118792956957
          -14674.971464048796 -14766.112640666273 -14857.253817283752 -9289.275441908152 -9180.902560900418 -9072.529679892687
          -11335.127973021685 -11263.965155753725 -11192.802338485762 -11869.906456360926 -11211.399178133488 -10552.891899906055
          -49116.910795089534 -50234.19958841723 -51351.488381744915 -45074.42874923767 -45390.71108105385 -45706.99341287001
          -35098.22179122317 -35526.32238292627 -35954.422974629364 -24351.12993637352 -24449.604152870048 -24548.078369366576
          -14316.013757585086 -14461.660044579265 -14607.306331573445 -7439.094422224063 -7490.6565069829085 -7542.218591741754
          -5358.04565722318 -5097.512437435947 -4836.979217648715 -92846.16776941088 -97844.43053937281 -102842.69330933475
          -77756.87799590253 -79880.05735848768 -82003.23672107286 -54809.055270083016 -55184.26247732421 -55559.4696845654
          -31501.074857945365 -32340.818207955945 -33180.56155796653 -14252.552521887157 -14758.797573020489 -15265.04262415382
          -7207.494683307562 -7278.981596118908 -7350.468508930254 -964.3699762216249 -1009.9331215580731 -1055.4962668945213
          -1069.9843424087055 -814.6002906538422 -559.2162388989789 -100180.50620352924 -96061.96172078358 -91943.41723803792
          -55870.900365518304 -53624.89294503276 -51378.88552454722 -45661.849894135215 -45067.17552268533 -44472.50115123544
          13448.761223400976 13786.280591043182 14123.799958685388 5324.326214433957 5050.3685003205355 4776.410786207114
          5300.157366526401 5442.818651378627 5585.479936230852 1775.8469140138595 1765.8924388357616 1755.9379636576632
          -38.17126678966838 -132.73077776702664 -227.29028874438495 26081.601374516587 18593.96551000903 24560.107692441026
          35372.55083468476 26818.636482131817 18930.387359577566 24401.976473596733 35586.52753208542 27555.67158974705
          19266.8092091461 24243.84525475244 35800.50422948608 -78537.65029426258 88645.14590530175 83267.40185932518
          -34598.07504842137 -80663.06982648786 85599.6092845175 75388.85034944247 -36364.25486539185 -82788.48935871315
          82554.07266373326 67510.29883955975 -38130.434682362305 -20990.946830120985 38673.75064580116 -20610.678024990833
          40282.11117011 -20230.409219860674 41890.471694418855 35241.33986476327 41381.253636380374 36070.740979879316
          43080.6297578941 36900.14209499536 44780.00587940782 6721.7037031031705 28783.666798688526 7120.697799800861
          29402.821000020387 7519.691896498552 30021.97520135225 -144602.91148495435 160229.94477748586 -146353.8788963198
          149864.87284210222 -148104.8463076852 139499.80090671856 44251.02139840988 22675.37161484576 44559.045039365745
          21647.010620724 44867.06868032161 20618.64962660224 448.5818837855402 -12.919564508991435 -474.42101280352335
          201703.32548549355 195805.47832523866 189907.6311649838 278940.8891207907 274889.32631699956 270837.7635132085
          38792.76027291732 20766.157272932986 29925.63172736369 21275.377449580243 21058.503181810058 21784.597626227496
          37705.00163348555 37302.36957698387 36899.73752048218 29702.664290834655 30080.81753031116 30458.97076978767
          -1151.4879804274683 -1106.6285805522027 -1061.7691806769374 -5776.887326650361 -7643.960983280391 -4633.757630949894
          761.3120498273231 -6200.966392513842 -7693.576205252387 -4596.773955578995 675.900760789184 -6625.045458377324
          -7743.191427224384 -4559.790280208098 590.4894717510451 370.4306217903611 357.13422150387623 343.83782121739137
          6016.255276433868 4519.140567059765 6232.4444691807685 4445.530389941762 6448.633661927669 4371.92021282376
          -1992.4831962460594 -3602.611479859501 -5572.521370180399 -2610.8186442183714 -1997.7572855335832 -3749.2995478954413
          -5781.529365096435 -2654.6044592732414 -2003.0313748211065 -3895.9876159313812 -5990.537360012471 -2698.3902743281124
          -9595.324271871963 -16541.88338201315 -9888.21124514015 -17163.453004914394 -10181.09821840834 -17785.022627815637
          1250.5503982315183 840.3297110491106 1302.3533137235652 930.8464026221134 1354.1562292156125 1021.3630941951162
          -5367.013422752827 -5699.941659180321 3441.572316559866 -5446.917943783959 -6429.206828711267 4001.965237684902
          -5526.822464815091 -7158.471998242213 4562.358158809938 -623.4611355268494 -989.1962844758554 890.6856157630273
          -1550.0656562581323 -535.9874293137862 -1084.6674758809054 919.6550500108298 -1529.5656612766702 -448.51372310072276
          -1180.1386672859553 948.6244842586323 -1509.0656662952085 -3661.8433260390143 -5042.2717425063065 -3321.94641341056
          -3826.8702657361814 -5211.8563725964805 -3287.1772336473387 -3991.897205433348 -5381.441002686656 -3252.4080538841167
          -925.3098206742134 -3322.81074949717 -1506.5295346802732 1226.5563341623442 -965.6986459316009 -3519.9764969468574
          -1571.4591797033324 1253.2175365707953 -1006.0874711889883 -3717.1422443965444 -1636.3888247263917 1279.878738979246
          -15423.625574367232 -6930.124793346755 -16267.496606174485 -7172.928100892671 -17111.36763798174 -7415.731408438587
          481.7686039777529 -428.60371422385305 -212.25964381657445 2424.0666537901075 492.23357050378326 -439.5310138164244
          -263.54476508532707 2424.1662821218442 502.69853702981356 -450.45831340899565 -314.8298863540798 2424.265910453582
          1239.893336476139 1654.8624224094701 9300.59172308273 1370.5194816795658 2083.50123528554 9904.62748832701
          1501.145626882993 2512.140048161611 10508.66325357129 148.1888443823574 -340.13329276656793 174.70352554553693
          -337.16163312057324 201.21820670871642 -334.1899734745786 1584.6871436264146 1987.2029569117244 4260.918683049173
          1641.8156638740825 1545.9890786265446 1939.904537004987 4356.949816939609 1571.4123742321021 1507.2910136266744
          1892.6061170982493 4452.980950830046 1501.009084590122 -1276.826161790993 -2311.395200435053 -1304.8438136165366
          -2355.3398334487338 -1332.8614654420805 -2399.2844664624145 1271.9201668549076 3801.8953066764734 1359.6054065495662
          3913.8881730869834 1447.2906462442247 4025.881039497493 -1413.281076818862 -2646.5069464290486 -1451.3885644243069
          -2771.6469938010105 -1489.4960520297518 -2896.7870411729705 -3375.098076327966 -1792.5606028871946 -3252.9919952915807
          -3881.101455200951 -3336.6245844172 -1763.0301663401638 -3202.94480344826 -3910.825163626084 -3298.151092506433
          -1733.4997297931327 -3152.89761160494 -3940.548872051216 -1586.1811823026546 -1529.9139550933332 -1473.6467278840119
          -2127.7851197757336 -2033.0940889667618 -1938.40305815779 -1491.8933298326497 694.4774867144858 -1503.88144682322
          809.8650681167617 -1515.8695638137901 925.2526495190376 2168.647932558695 8313.063636642742 2293.620834748439
          8935.41044827452 2418.5937369381827 9557.757259906295 8647.131908041078 19667.477349778394 8960.063362057343
          21110.779058739517 9272.99481607361 22554.080767700638 871.57732704218 1099.7362087592153 1327.8950904762505
          -2157.1150277705037 1747.3608590950812 -2306.503708712544 1730.653782988177 -2455.892389654584 1713.946706881273
          417.72094518775504 2773.225115694321 2833.8231190324427 -1265.9304649546611 406.05521964571653 2641.9755510073537
          3028.4462096697557 -1128.313708576331 394.38949410367815 2510.725986320387 3223.0693003070687 -990.6969521980009
          -3690.169577015201 551.6372067372143 -3700.3609727170724 570.6010108567316 -3710.5523684189434 589.564814976249
          2032.990964009116 -2357.552632387686 7419.059593636927 1935.4745515579386 -2584.1262517582536 7706.51558534765
          1837.9581391067618 -2810.699871128821 7993.971577058373 -4821.411708667828 -3649.868244134982 -2325.8890735087057
          -4796.017223702271 -3745.6960928483068 -2252.6433332317065 -4770.622738736714 -3841.5239415616325 -2179.3975929547064
          488.82600613437796 521.9346173018316 555.0432284692847 -2733.1615216890586 -2717.9567063246504 -2702.7518909602422
          -3219.9103485873657 -499.4199548062331 -3372.854153848859 -619.6783998912133 -3525.797959110352 -739.9368449761936
          3663.565359294136 3426.992002922873 3883.992574334717 3267.2908832105873 4104.419789375296 3107.5897634983016
          788.1316649345933 769.1412010473348 750.1507371600761 1747.003487039614 1166.1461331693401 1844.258778677648
          1187.8205082031452 1941.5140703156826 1209.4948832369507 -861.6889589303327 -900.4882896998121 -939.2876204692916
          3489.9767064761186 3762.1844603542036 3557.931593116652 3462.8736072345205 3518.409091353231 3812.4517936698953
          3583.5556024060534 3476.923762860956 3546.841476230344 3862.7191269855866 3609.1796116954547 3490.9739184873924
          4832.049148624179 4651.455172077392 4470.861195530605 -1365.7631594014906 -843.3327377043797 -1306.7601803948435
          -861.2977826542619 -1247.7572013881966 -879.2628276041439 1868.9595659591134 1751.992748435053 1635.0259309109924
          -787.491133047023 -544.8412827599278 -850.249817175162 -669.7714489999171 -913.0085013033008 -794.7016152399065
          -1520.8317594609694 -1547.989155364226 -1575.1465512674827 721.6351108234986 1715.141968523612 2221.1295643582444
          671.0299555093236 1724.516975017689 2186.3602285535962 620.4248001951485 1733.891981511766 2151.5908927489486
          3461.3768549047413 4964.728723378152 3444.167784617433 5053.198717433697 3426.958714330125 5141.668711489242
          3354.3413389919174 2027.2655430225163 3416.783685779512 2058.0332976863924 3479.2260325671064 2088.8010523502685
          1184.7636934387988 -3626.1533483099274 1235.8528233759018 -3756.856562992692 1286.941953313005 -3887.559777675456
          3206.9257403953447 6300.993971026507 3323.9339238245284 6480.865059757792 3440.9421072537116 6660.736148489075
          -1381.5657263497355 -1424.418790361195 -1467.2718543726558 4474.392569789762 4618.152880207107 4761.913190624452
          -1152.5271315370192 -1139.4309071095806 -1126.3346826821423 -8078.08143414158 -8514.087026970981 -8950.092619800382
          -2056.773452310986 -2173.8896632459773 -2291.005874180969 95.2625986280284 120.98022512872063 146.69785162941298
          2356.074669706324 1120.589739023921 2386.6173926460992 1144.226424908464 2417.1601155858743 1167.863110793007
          -3232.571426026409 -2786.7417485589112 -3423.118912750231 -2946.799287950916 -3613.666399474052 -3106.8568273429205
          -1504.6167319652602 -1584.8322571772574 -1665.047782389255 2574.6189205248074 2698.277013128337 2821.9351057318663
          -2.4816328181749654 34.78577236013473 -155.1748930471963 -23.006483448581633 40.39177798017687 -78.62465388628046
          -43.53133407898838 45.997783600219094 -2.074414725364562 -2076.7676389566377 555.8682081738908 -2139.1576594104076
          621.3382660975739 -2201.547679864177 686.808324021257 806.4933376093843 848.0373856594063 889.581433709428
          3473.2668605265735 3522.9923367299257 3572.717812933278 2507.3274280203887 2544.2875371184696 2581.247646216551
          1209.0809783498567 1237.9908790165123 1266.900779683168 96.97605522730301 111.05613421939522 125.13621321148776
          -6297.594752096167 -6532.105562005818 -6766.616371915468 -1596.9155406288698 -1555.1778080128906 -1513.4400753969114
          -1394.2743651267601 -1303.2916155667626 -1212.3088660067651 -3508.6565693249186 -3361.793086847997 -3214.929604371076
          889.2819101632316 1023.1518146428654 1157.0217191224995 -2890.637212216939 -2845.301995792835 -2799.9667793687304
          608.1818479455899 661.9480223656949 715.7141967857999 993.3915696807674 1316.9441132391182 1640.4966567974689
          762.2013574529691 672.4670535002049 582.732749547441 -3817.6269157476117 -3861.2138422734215 -3904.800768799232
          -995.0488492657112 -971.3341200499883 -947.6193908342652 -484.72849964237685 -494.51147261260905 -504.29444558284126
          -607.6416745586666 -531.1353400676246 -454.6290055765825 -2700.5712656001247 -2934.6170336894065 -3168.6628017786884
          251.99635937276128 214.93600239508157 177.87564541740176 484.42876140367844 8289.921636245432 549.543920319243
          8640.36131743416 614.6590792348077 8990.800998622892 -1950.8390148921512 -1844.0461565001722 -1737.2532981081931
          16107.490654732635 17162.090254858984 16473.439932972473 17181.704386223562 16839.389211212314 17201.31851758814
          5271.636221402015 5549.541385110652 5827.44654881929 2231.069348549743 2247.3153752069597 2263.561401864176
          -4705.909471616743 -4767.542979760947 -4829.1764879051525 -2583.7740629515456 -2623.9557168731526 -2545.982877113669
          -2579.453488445997 -2508.1916912757924 -2534.951260018842 544.8084036002426 680.4439881602311 3083.5917102679546
          582.2211286104018 772.0760847584296 3251.4598218066817 619.6338536205608 863.7081813566285 3419.3279333454084
          1551.6285451875865 1543.7422450649 1535.8559449422144 729.2611119844191 732.9747774191059 736.6884428537925
          409.092550169807 3368.0889710329575 407.17516458866925 3399.5468765066444 405.2577790075312 3431.0047819803312
          1039.6827223885823 -1041.6742956035596 1073.0428989862073 -1025.7023585586153 1106.4030755838323 -1009.7304215136713
          1497.2911108690369 2358.34442429838 1516.633390494774 2341.0170639810076 1535.975670120511 2323.689703663634
          1480.604964285699 2612.5098706118533 1471.550938473743 2631.9036814584497 1462.496912661787 2651.297492305047
          728.2490918669366 774.5003444727591 820.7515970785818 1496.6816275262604 964.0671997701422 1558.7876187516324
          953.2246413493724 1620.8936099770044 942.3820829286024 61.023409150836414 63.2959310773047 65.56845300377317
          -273.4482769259631 1015.5728929256469 -294.717925574279 1068.4607434449633 -315.98757422259484 1121.3485939642799
          800.8230931342499 816.1028005227845 831.382507911319 2824.012187425733 2827.97853333002 2831.9448792343073
          603.9516399053527 605.5142043809715 607.0767688565904
        </DataArray>
        <DataArray type="Float64" Name="peeq" format="ascii" RangeMin="0" RangeMax="0">
          0 0 0 0 0 0
          0 0 0 0 0 0
          0 0 0 0 0 0
          0 0 0 0 0 0
          0 0 0 0 0 0
          0 0 0 0 0 0
          0 0 0 0 0 0
          0 0 0 0 0 0
          0 0 0 0 0 0
          0 0 0 0 0 0
          0 0 0 0 0 0
          0 0 0 0 0 0
          0 0 0 0 0 0
          0 0 0 0 0 0
          0 0 0 0 0 0
          0 0 0 0 0 0
          0 0 0 0 0 0
          0 0 0 0 0 0
          0 0 0 0 0 0
          0 0 0 0 0 0
          0 0 0 0 0 0
          0 0 0 0 0 0
          0 0 0 0 0 0
          0 0 0 0 0 0
          0 0 0 0 0 0
          0 0 0 0 0 0
          0 0 0 0 0 0
          0 0 0 0 0 0
          0 0 0 0 0 0
          0 0 0 0 0 0
          0 0 0 0 0 0
          0 0 0 0 0 0
          0 0 0 0 0 0
          0 0 0 0 0 0
          0 0 0 0 0 0
          0 0 0 0 0 0
          0 0 0 0 0 0
          0 0 0 0 0 0
          0 0 0 0 0 0
          0 0 0 0 0 0
          0 0 0 0 0 0
          0 0 0 0 0 0
          0 0 0 0 0 0
          0 0 0 0 0 0
          0 0 0 0 0 0
          0 0 0 0 0 0
          0 0 0 0 0 0
          0 0 0 0 0 0
          0 0 0 0 0 0
          0 0 0 0 0 0
          0 0 0 0 0 0
          0 0 0 0 0 0
          0 0 0 0 0 0
          0 0 0 0 0 0
          0 0 0 0 0 0
          0 0 0 0 0 0
          0 0 0 0 0 0
          0 0 0 0 0 0
          0 0 0 0 0 0
          0 0 0 0 0 0
          0 0 0 0 0 0
          0 0 0 0 0 0
          0 0 0 0 0 0
          0 0 0 0 0 0
          0 0 0 0 0 0
          0 0 0 0 0 0
          0 0 0 0 0 0
          0 0 0 0 0 0
          0 0 0 0 0 0
          0 0 0 0 0 0
          0 0 0 0 0 0
          0 0 0 0 0 0
          0 0 0 0 0 0
          0 0 0 0 0 0
          0 0 0 0 0 0
          0 0 0 0 0 0
          0 0 0 0 0 0
          0 0 0 0 0 0
          0 0 0 0 0 0
          0 0 0 0 0 0
          0 0 0 0 0 0
          0 0 0 0 0 0
          0 0 0 0 0 0
          0 0 0 0 0 0
          0 0 0 0 0 0
          0 0 0 0 0 0
          0 0 0 0 0 0
          0 0 0 0 0 0
          0 0 0 0 0 0
          0 0 0 0 0 0
          0 0 0 0 0 0
          0 0 0 0 0 0
          0 0 0 0 0 0
          0 0 0 0 0 0
          0 0 0 0 0 0
          0 0 0 0 0 0
          0 0 0 0 0 0
          0 0 0 0 0 0
          0 0 0 0 0 0
          0 0 0 0 0 0
          0 0 0 0 0 0
          0 0 0 0 0 0
          0 0 0 0 0 0
          0 0 0 0 0 0
          0 0 0 0 0 0
          0 0 0 0 0 0
          0 0 0 0 0 0
          0 0 0 0 0 0
          0 0 0 0 0 0
          0 0 0 0 0 0
          0 0 0 0 0 0
          0 0 0 0 0 0
          0 0 0 0 0 0
          0 0 0 0 0 0
          0 0 0 0 0 0
          0 0 0 0 0 0
          0 0 0 0 0 0
          0 0 0 0 0 0
          0 0 0 0 0 0
          0 0 0 0 0 0
          0 0 0 0 0 0
          0 0 0 0 0 0
          0 0 0 0 0 0
          0 0 0 0 0 0
          0 0 0 0 0 0
          0 0 0 0 0 0
          0 0 0 0 0 0
          0 0 0 0 0 0
          0 0 0 0 0 0
          0 0 0 0 0 0
          0 0 0
        </DataArray>
        <DataArray type="Float64" Name="pe11" format="ascii" RangeMin="0" RangeMax="0">
          0 0 0 0 0 0
          0 0 0 0 0 0
          0 0 0 0 0 0
          0 0 0 0 0 0
          0 0 0 0 0 0
          0 0 0 0 0 0
          0 0 0 0 0 0
          0 0 0 0 0 0
          0 0 0 0 0 0
          0 0 0 0 0 0
          0 0 0 0 0 0
          0 0 0 0 0 0
          0 0 0 0 0 0
          0 0 0 0 0 0
          0 0 0 0 0 0
          0 0 0 0 0 0
          0 0 0 0 0 0
          0 0 0 0 0 0
          0 0 0 0 0 0
          0 0 0 0 0 0
          0 0 0 0 0 0
          0 0 0 0 0 0
          0 0 0 0 0 0
          0 0 0 0 0 0
          0 0 0 0 0 0
          0 0 0 0 0 0
          0 0 0 0 0 0
          0 0 0 0 0 0
          0 0 0 0 0 0
          0 0 0 0 0 0
          0 0 0 0 0 0
          0 0 0 0 0 0
          0 0 0 0 0 0
          0 0 0 0 0 0
          0 0 0 0 0 0
          0 0 0 0 0 0
          0 0 0 0 0 0
          0 0 0 0 0 0
          0 0 0 0 0 0
          0 0 0 0 0 0
          0 0 0 0 0 0
          0 0 0 0 0 0
          0 0 0 0 0 0
          0 0 0 0 0 0
          0 0 0 0 0 0
          0 0 0 0 0 0
          0 0 0 0 0 0
          0 0 0 0 0 0
          0 0 0 0 0 0
          0 0 0 0 0 0
          0 0 0 0 0 0
          0 0 0 0 0 0
          0 0 0 0 0 0
          0 0 0 0 0 0
          0 0 0 0 0 0
          0 0 0 0 0 0
          0 0 0 0 0 0
          0 0 0 0 0 0
          0 0 0 0 0 0
          0 0 0 0 0 0
          0 0 0 0 0 0
          0 0 0 0 0 0
          0 0 0 0 0 0
          0 0 0 0 0 0
          0 0 0 0 0 0
          0 0 0 0 0 0
          0 0 0 0 0 0
          0 0 0 0 0 0
          0 0 0 0 0 0
          0 0 0 0 0 0
          0 0 0 0 0 0
          0 0 0 0 0 0
          0 0 0 0 0 0
          0 0 0 0 0 0
          0 0 0 0 0 0
          0 0 0 0 0 0
          0 0 0 0 0 0
          0 0 0 0 0 0
          0 0 0 0 0 0
          0 0 0 0 0 0
          0 0 0 0 0 0
          0 0 0 0 0 0
          0 0 0 0 0 0
          0 0 0 0 0 0
          0 0 0 0 0 0
          0 0 0 0 0 0
          0 0 0 0 0 0
          0 0 0 0 0 0
          0 0 0 0 0 0
          0 0 0 0 0 0
          0 0 0 0 0 0
          0 0 0 0 0 0
          0 0 0 0 0 0
          0 0 0 0 0 0
          0 0 0 0 0 0
          0 0 0 0 0 0
          0 0 0 0 0 0
          0 0 0 0 0 0
          0 0 0 0 0 0
          0 0 0 0 0 0
          0 0 0 0 0 0
          0 0 0 0 0 0
          0 0 0 0 0 0
          0 0 0 0 0 0
          0 0 0 0 0 0
          0 0 0 0 0 0
          0 0 0 0 0 0
          0 0 0 0 0 0
          0 0 0 0 0 0
          0 0 0 0 0 0
          0 0 0 0 0 0
          0 0 0 0 0 0
          0 0 0 0 0 0
          0 0 0 0 0 0
          0 0 0 0 0 0
          0 0 0 0 0 0
          0 0 0 0 0 0
          0 0 0 0 0 0
          0 0 0 0 0 0
          0 0 0 0 0 0
          0 0 0 0 0 0
          0 0 0 0 0 0
          0 0 0 0 0 0
          0 0 0 0 0 0
          0 0 0 0 0 0
          0 0 0 0 0 0
          0 0 0 0 0 0
          0 0 0 0 0 0
          0 0 0 0 0 0
          0 0 0 0 0 0
          0 0 0
        </DataArray>
        <DataArray type="Float64" Name="pe22" format="ascii" RangeMin="0" RangeMax="0">
          0 0 0 0 0 0
          0 0 0 0 0 0
          0 0 0 0 0 0
          0 0 0 0 0 0
          0 0 0 0 0 0
          0 0 0 0 0 0
          0 0 0 0 0 0
          0 0 0 0 0 0
          0 0 0 0 0 0
          0 0 0 0 0 0
          0 0 0 0 0 0
          0 0 0 0 0 0
          0 0 0 0 0 0
          0 0 0 0 0 0
          0 0 0 0 0 0
          0 0 0 0 0 0
          0 0 0 0 0 0
          0 0 0 0 0 0
          0 0 0 0 0 0
          0 0 0 0 0 0
          0 0 0 0 0 0
          0 0 0 0 0 0
          0 0 0 0 0 0
          0 0 0 0 0 0
          0 0 0 0 0 0
          0 0 0 0 0 0
          0 0 0 0 0 0
          0 0 0 0 0 0
          0 0 0 0 0 0
          0 0 0 0 0 0
          0 0 0 0 0 0
          0 0 0 0 0 0
          0 0 0 0 0 0
          0 0 0 0 0 0
          0 0 0 0 0 0
          0 0 0 0 0 0
          0 0 0 0 0 0
          0 0 0 0 0 0
          0 0 0 0 0 0
          0 0 0 0 0 0
          0 0 0 0 0 0
          0 0 0 0 0 0
          0 0 0 0 0 0
          0 0 0 0 0 0
          0 0 0 0 0 0
          0 0 0 0 0 0
          0 0 0 0 0 0
          0 0 0 0 0 0
          0 0 0 0 0 0
          0 0 0 0 0 0
          0 0 0 0 0 0
          0 0 0 0 0 0
          0 0 0 0 0 0
          0 0 0 0 0 0
          0 0 0 0 0 0
          0 0 0 0 0 0
          0 0 0 0 0 0
          0 0 0 0 0 0
          0 0 0 0 0 0
          0 0 0 0 0 0
          0 0 0 0 0 0
          0 0 0 0 0 0
          0 0 0 0 0 0
          0 0 0 0 0 0
          0 0 0 0 0 0
          0 0 0 0 0 0
          0 0 0 0 0 0
          0 0 0 0 0 0
          0 0 0 0 0 0
          0 0 0 0 0 0
          0 0 0 0 0 0
          0 0 0 0 0 0
          0 0 0 0 0 0
          0 0 0 0 0 0
          0 0 0 0 0 0
          0 0 0 0 0 0
          0 0 0 0 0 0
          0 0 0 0 0 0
          0 0 0 0 0 0
          0 0 0 0 0 0
          0 0 0 0 0 0
          0 0 0 0 0 0
          0 0 0 0 0 0
          0 0 0 0 0 0
          0 0 0 0 0 0
          0 0 0 0 0 0
          0 0 0 0 0 0
          0 0 0 0 0 0
          0 0 0 0 0 0
          0 0 0 0 0 0
          0 0 0 0 0 0
          0 0 0 0 0 0
          0 0 0 0 0 0
          0 0 0 0 0 0
          0 0 0 0 0 0
          0 0 0 0 0 0
          0 0 0 0 0 0
          0 0 0 0 0 0
          0 0 0 0 0 0
          0 0 0 0 0 0
          0 0 0 0 0 0
          0 0 0 0 0 0
          0 0 0 0 0 0
          0 0 0 0 0 0
          0 0 0 0 0 0
          0 0 0 0 0 0
          0 0 0 0 0 0
          0 0 0 0 0 0
          0 0 0 0 0 0
          0 0 0 0 0 0
          0 0 0 0 0 0
          0 0 0 0 0 0
          0 0 0 0 0 0
          0 0 0 0 0 0
          0 0 0 0 0 0
          0 0 0 0 0 0
          0 0 0 0 0 0
          0 0 0 0 0 0
          0 0 0 0 0 0
          0 0 0 0 0 0
          0 0 0 0 0 0
          0 0 0 0 0 0
          0 0 0 0 0 0
          0 0 0 0 0 0
          0 0 0 0 0 0
          0 0 0 0 0 0
          0 0 0 0 0 0
          0 0 0 0 0 0
          0 0 0 0 0 0
          0 0 0 0 0 0
          0 0 0
        </DataArray>
        <DataArray type="Float64" Name="pe33" format="ascii" RangeMin="0" RangeMax="0">
          0 0 0 0 0 0
          0 0 0 0 0 0
          0 0 0 0 0 0
          0 0 0 0 0 0
          0 0 0 0 0 0
          0 0 0 0 0 0
          0 0 0 0 0 0
          0 0 0 0 0 0
          0 0 0 0 0 0
          0 0 0 0 0 0
          0 0 0 0 0 0
          0 0 0 0 0 0
          0 0 0 0 0 0
          0 0 0 0 0 0
          0 0 0 0 0 0
          0 0 0 0 0 0
          0 0 0 0 0 0
          0 0 0 0 0 0
          0 0 0 0 0 0
          0 0 0 0 0 0
          0 0 0 0 0 0
          0 0 0 0 0 0
          0 0 0 0 0 0
          0 0 0 0 0 0
          0 0 0 0 0 0
          0 0 0 0 0 0
          0 0 0 0 0 0
          0 0 0 0 0 0
          0 0 0 0 0 0
          0 0 0 0 0 0
          0 0 0 0 0 0
          0 0 0 0 0 0
          0 0 0 0 0 0
          0 0 0 0 0 0
          0 0 0 0 0 0
          0 0 0 0 0 0
          0 0 0 0 0 0
          0 0 0 0 0 0
          0 0 0 0 0 0
          0 0 0 0 0 0
          0 0 0 0 0 0
          0 0 0 0 0 0
          0 0 0 0 0 0
          0 0 0 0 0 0
          0 0 0 0 0 0
          0 0 0 0 0 0
          0 0 0 0 0 0
          0 0 0 0 0 0
          0 0 0 0 0 0
          0 0 0 0 0 0
          0 0 0 0 0 0
          0 0 0 0 0 0
          0 0 0 0 0 0
          0 0 0 0 0 0
          0 0 0 0 0 0
          0 0 0 0 0 0
          0 0 0 0 0 0
          0 0 0 0 0 0
          0 0 0 0 0 0
          0 0 0 0 0 0
          0 0 0 0 0 0
          0 0 0 0 0 0
          0 0 0 0 0 0
          0 0 0 0 0 0
          0 0 0 0 0 0
          0 0 0 0 0 0
          0 0 0 0 0 0
          0 0 0 0 0 0
          0 0 0 0 0 0
          0 0 0 0 0 0
          0 0 0 0 0 0
          0 0 0 0 0 0
          0 0 0 0 0 0
          0 0 0 0 0 0
          0 0 0 0 0 0
          0 0 0 0 0 0
          0 0 0 0 0 0
          0 0 0 0 0 0
          0 0 0 0 0 0
          0 0 0 0 0 0
          0 0 0 0 0 0
          0 0 0 0 0 0
          0 0 0 0 0 0
          0 0 0 0 0 0
          0 0 0 0 0 0
          0 0 0 0 0 0
          0 0 0 0 0 0
          0 0 0 0 0 0
          0 0 0 0 0 0
          0 0 0 0 0 0
          0 0 0 0 0 0
          0 0 0 0 0 0
          0 0 0 0 0 0
          0 0 0 0 0 0
          0 0 0 0 0 0
          0 0 0 0 0 0
          0 0 0 0 0 0
          0 0 0 0 0 0
          0 0 0 0 0 0
          0 0 0 0 0 0
          0 0 0 0 0 0
          0 0 0 0 0 0
          0 0 0 0 0 0
          0 0 0 0 0 0
          0 0 0 0 0 0
          0 0 0 0 0 0
          0 0 0 0 0 0
          0 0 0 0 0 0
          0 0 0 0 0 0
          0 0 0 0 0 0
          0 0 0 0 0 0
          0 0 0 0 0 0
          0 0 0 0 0 0
          0 0 0 0 0 0
          0 0 0 0 0 0
          0 0 0 0 0 0
          0 0 0 0 0 0
          0 0 0 0 0 0
          0 0 0 0 0 0
          0 0 0 0 0 0
          0 0 0 0 0 0
          0 0 0 0 0 0
          0 0 0 0 0 0
          0 0 0 0 0 0
          0 0 0 0 0 0
          0 0 0 0 0 0
          0 0 0 0 0 0
          0 0 0 0 0 0
          0 0 0 0 0 0
          0 0 0 0 0 0
          0 0 0
        </DataArray>
        <DataArray type="Float64" Name="disp_x" format="ascii" RangeMin="7.476529322836637e-7" RangeMax="0.00000440061311984527">
          0.0000019677469001374316 0.0000019677429300087743 0.000001967730638197269 0.0000017956269470571477 0.0000017956222251008834 0.0000017956092098709517
          0.0000019708201500985454 0.0000019708164928708544 0.0000019708053099969276 9.17026685457317e-7 9.1700316175924e-7 9.169311058169519e-7
          0.0000010943226761363504 0.0000010943036032482206 0.0000010942468197686942 0.000001271413089849686 0.0000012713990043025432 0.0000012713566435409967
          0.0000014480321445697926 0.0000014480219124047083 0.0000014479916588865586 0.0000016240701131225235 0.0000016240634145558117 0.0000016240421910215471
          0.0000017995258319331759 0.0000017995218003122032 0.0000017995112772197515 0.0000019744637227985316 0.000001974460623868158 0.0000019744511497460285
          9.211001878909478e-7 9.210715254408603e-7 9.209835189690059e-7 0.0000010991837332557016 0.0000010991620587826362 0.00000109909765279834
          0.0000012766464295600111 0.0000012766317026226546 0.0000012765873178941574 0.0000014532858924075298 0.0000014532760401343058 0.000001453246987078675
          0.0000016290949224154944 0.0000016290892341395964 0.0000016290706947711178 0.0000018041672370451239 0.0000018041642871367172 0.0000018041577513146636
          0.0000019786623024172375 0.0000019786602809168163 0.000001978653332458541 7.478443260311197e-7 7.477942212480823e-7 7.476529322836637e-7
          9.273786657729642e-7 9.273450199310007e-7 9.272412892874764e-7 0.0000011061078495994872 0.0000011060846028757198 0.0000011060157129559672
          0.0000012836229493888756 0.0000012836088289843174 0.0000012835663457622387 0.0000014599089407499948 0.0000014599008231621506 0.000001459876634475923
          0.000001635138120763998 0.0000016351341352466933 0.0000016351217317927606 0.0000018095372571431235 0.0000018095361609968895 0.0000018095332229827708
          0.0000019833255520450034 0.0000019833256965588073 0.00000198332640064915 7.561664899617325e-7 7.561042187921168e-7 7.559289750938014e-7
          9.368705822272062e-7 9.368336292473228e-7 9.367192623885461e-7 0.000001115699572663698 0.0000011156772279224664 0.0000011156111447630422
          0.0000012926132839897243 0.0000012926021922958254 0.0000012925686075575138 0.000001467950976649004 0.0000014679464164814963 0.0000014679326478681955
          0.0000016421261335551813 0.0000016421251549946453 0.0000016421226780362268 0.000001815499066913832 0.0000018155005768121794 0.0000018155033901346474
          0.0000019883265744665535 0.000001988329473691621 0.000001988340484153655 7.698730957034068e-7 7.69801510620035e-7 7.695995744936213e-7
          9.507307597062192e-7 9.506950805308967e-7 9.50584166278649e-7 0.000001128399479993083 0.0000011283829175587966 0.0000011283338865932887
          0.0000013036325148952921 0.0000013036281371698267 0.0000013036152172750768 0.0000014772183995800422 0.0000014772197781680716 0.0000014772234028002225
          0.0000016497858002508245 0.000001649789519906489 0.0000016498012985534758 0.0000018217791011253447 0.0000018217838868017303 0.0000018217972802399114
          0.000001993469253087701 0.0000019934748154506184 0.0000019934915261434633 7.914506832535154e-7 7.913882931118216e-7 7.911952982197376e-7
          9.696705066495724e-7 9.696464292309215e-7 9.695690999225043e-7 0.0000011440531935158265 0.0000011440510672322793 0.0000011440437838121279
          0.0000013161942204885874 0.0000013162023702089341 0.0000013162277166933945 0.0000014871146881695055 0.000001487124698317184 0.0000014871523804939623
          0.000001657595559421414 0.0000016576053187946288 0.0000016576359610364897 0.000001827946830918675 0.0000018279560439227005 0.0000018279817042753728
          0.0000019983380890140027 0.0000019983467515471463 0.000001998373567900895 8.217453034553981e-7 8.217225834285909e-7 8.216583629026587e-7
          9.92934323051769e-7 9.929477559490879e-7 9.929783907408688e-7 0.0000011614107354072446 0.0000011614334174378049 0.0000011615051054736394
          0.0000013288902258207045 0.0000013289139329792129 0.000001328993223698134 0.000001496635764595214 0.0000014966576409479278 0.0000014967174358740053
          0.0000016647679131415234 0.0000016647848865022456 0.0000016648389834270221 0.0000018334151992305457 0.0000018334298966342849 0.000001833471334551843
          0.0000020025375986459013 0.0000020025489152868494 0.0000020025844939752154 0.0000015462550703288546 0.0000016976793455025184 0.0000017185760868448332
          0.0000015819212101274784 0.0000015462827283108257 0.0000016977022454171653 0.0000017186000430934032 0.0000015819529803998512 0.0000015463701662043663
          0.0000016977691605384055 0.0000017186710618128875 0.000001582049931590223 0.0000011072238931845534 0.00000111160939918262 9.352409874798258e-7
          9.625838540534725e-7 0.000001107276563306598 0.0000011117147361456738 9.354010675623138e-7 9.626458158375449e-7 0.0000011074343316683773
          0.0000011119983319116888 9.35853808479827e-7 9.628313945785537e-7 0.0000012549405287583891 0.0000012926503490000052 0.000001254988266075774
          0.0000012927031878405726 0.0000012551165214156994 0.0000012928771940302761 0.0000014488772311603382 0.0000013921425650909346 0.0000014489189569520476
          0.0000013921776720315934 0.0000014490418769455017 0.0000013922836265917583 0.0000018501567414333427 0.0000018399147366137728 0.000001850174777123469
          0.0000018399356497783822 0.0000018502335785696984 0.0000018399951624248795 7.975222104813028e-7 8.148928220125465e-7 7.97578275948026e-7
          8.150884674932006e-7 7.977518210585732e-7 8.156790628136744e-7 0.0000018399492411929723 0.0000016740719474675442 0.0000018399705441633461
          0.0000016740994424109214 0.0000018400286983042122 0.0000016741821335346723 0.0000020061215955241108 0.0000020061356265086263 0.0000020061777755299787
          8.918835118898211e-7 8.921192559855025e-7 8.92907599026872e-7 0.0000010357015162588277 0.0000010358238360632837 0.0000010363186712479107
          0.0000011892056455888027 0.0000013479231026976866 0.0000011892934632007687 0.0000013479800914346113 0.0000011895704824078805 0.0000013481394184800067
          0.0000015096675804474007 0.0000015097055526239087 0.0000015098278789060354 0.0000020072905552349703 0.0000020073063234044574 0.0000020073617773470097
          0.000002304168403416055 0.0000023041661638161705 0.0000023041599544360074 0.000002155893413471687 0.0000021419637856881904 0.0000022904244058100795
          0.0000023106580992349368 0.0000021559010331725307 0.000002141969179509158 0.0000022904287437860333 0.0000023106642266517984 0.0000021559256807713027
          0.0000021419861702136357 0.0000022904416206945034 0.0000023106776675319517 0.000002424176829081223 0.0000024241747981527093 0.000002424168010182149
          0.000002351568439471864 0.0000021651987558165197 0.000002351577564436123 0.000002165208117744013 0.000002351606543149156 0.0000021652369132327587
          0.00000264714185861291 0.000002523658839910905 0.0000024206481592112967 0.0000024939924219368444 0.000002647140823256298 0.0000025236578438291565
          0.0000024206467742505903 0.000002493990905632419 0.00000264713768946871 0.000002523653286916413 0.0000024206433148341847 0.0000024939856925063063
          0.000002266474329477205 0.0000021270894232619765 0.000002266476906297781 0.0000021270924268016534 0.0000022664809665672114 0.0000021271031697386113
          0.0000026185263847527417 0.0000027752693378353837 0.000002618525026543681 0.00000277526863834538 0.000002618521152773222 0.000002775266629413529
          0.000002574080280656678 0.0000025094987227501117 0.000002467416357823182 0.00000257408653105528 0.0000025095067023154213 0.0000024674237944451315
          0.0000025741053818017755 0.0000025095322111665774 0.0000024674459862344113 0.0000033586854213633776 0.000003522304884347453 0.0000035788349504223534
          0.0000034013498293576903 0.0000033586868704509325 0.000003522306298149904 0.000003578836391150778 0.000003401351655376577 0.0000033586916746723733
          0.000003522310649412729 0.0000035788402090677313 0.000003401357370329048 0.000002790578981572065 0.000002816003861574978 0.000002672172368834374
          0.000002790578437333099 0.000002816003640537969 0.0000026721720331325154 0.00000279057739521445 0.000002816003436337109 0.000002672171476030108
          0.0000032279473828951853 0.0000034077129078645796 0.00000347423919258976 0.00000327252223713923 0.000003227947454402852 0.0000034077130740360258
          0.000003474239719019188 0.0000032725226384640544 0.000003227948089956055 0.000003407713535304367 0.0000034742412766807874 0.0000032725240754280407
          0.0000021192322388691077 0.0000022180753949150314 0.0000021192335673198133 0.0000022180766047599277 0.000002119237841520776 0.0000022180785371423074
          0.0000032662596574789968 0.0000032511518084447274 0.0000034329065795127006 0.0000034449268529453767 0.0000032662624882206384 0.0000032511543499023393
          0.0000034329087493148257 0.0000034449291352189544 0.0000032662711439839922 0.000003251162207939235 0.000003432915198778704 0.0000034449354314503104
          0.000002367366457636799 0.0000021571095322484842 0.000002254456127233834 0.0000023673679202300017 0.0000021571091431534378 0.0000022544559615528842
          0.0000023673731236004303 0.000002157107423642537 0.0000022544575835242543 0.0000030901087500036037 0.000003080377281295294 0.0000030901121182116396
          0.000003080380153839331 0.0000030901222758659695 0.000003080388539890448 0.0000034128305427768603 0.000003436037090497812 0.0000036094803662702214
          0.0000036055166861800845 0.000003412833556722784 0.0000034360396328389484 0.0000036094827140790274 0.0000036055191145703976 0.000003412842685309056
          0.000003436047780101661 0.000003609488333148657 0.0000036055265910143797 0.00000394757998577265 0.000004032559124938229 0.000003947582113033309
          0.0000040325608002701665 0.000003947588487095225 0.0000040325650018918975 0.0000034487085412573994 0.000003297086552095008 0.0000034487096055406947
          0.0000032970872208762932 0.0000034487138570187994 0.0000032970886705632912 0.0000028846589951681548 0.0000029568695436045373 0.0000028846586044960986
          0.000002956869177801985 0.000002884657063158154 0.000002956867799569451 0.000002891495941074552 0.0000027297506265705956 0.000002715544791620625
          0.0000029140229017634553 0.0000028914979560575893 0.000002729752480992721 0.000002715545688667994 0.000002914023993885277 0.0000028915051783836328
          0.000002729756830663432 0.0000027155478572504362 0.0000029140278768780804 0.000003226708759512624 0.0000032267108289329092 0.0000032267172477905396
          0.000002272714488199475 0.000002272712525166896 0.00000227270774053069 0.000002681028558825367 0.000002577229788674808 0.000002681027193031299
          0.000002577228272958357 0.00000268102324134668 0.000002577224538033528 0.000002441805343438882 0.000002456763829470011 0.0000024418095163146374
          0.000002456769308635868 0.0000024418225172362133 0.000002456786551539272 0.000002396457700513289 0.0000023021272796818004 0.0000023964677636740115
          0.0000023021366314654246 0.000002396500412244546 0.0000023021714526574513 0.000002417727619294004 0.0000024177301117666726 0.000002417737938695549
          0.0000025604477749896144 0.0000025805778735585276 0.0000025604496150812895 0.0000025805810319087463 0.000002560455225346378 0.0000025805914700331936
          0.000003075143592381922 0.000003044354689882323 0.0000028554406315600433 0.00000290019892911395 0.0000030751473869902744 0.0000030443589785193338
          0.0000028554454701430895 0.000002900203170784864 0.000003075158653217006 0.0000030443716121084833 0.000002855460617985591 0.000002900216249476109
          0.00000285490965686293 0.0000030101435360636644 0.000002854909785962873 0.000003010143538019466 0.0000028549094800918227 0.000003010142811383011
          0.0000025921206052559406 0.0000026752331670411043 0.0000027884481130882433 0.0000025921285180775192 0.000002675239107861726 0.0000027884534220278567
          0.0000025921495709777434 0.0000026752535054233346 0.000002788472933623075 0.0000026943733327654576 0.0000025488134864047022 0.0000025369483669275508
          0.0000026943735704938664 0.000002548814305695635 0.000002536948374890295 0.0000026943748569576998 0.0000025488164491765567 0.000002536948624305517
          0.000003074217733416937 0.0000030742182789611674 0.000003074220339724815 0.000002527682517495022 0.000002527681819098626 0.00000252767912384748
          0.000002391406154984844 0.0000023898799671217144 0.0000023914051705482065 0.000002389879698715671 0.0000023914022171899497 0.0000023898780285430926
          0.0000026019562248180465 0.0000025983198937736704 0.0000026019617266628157 0.0000025983243045270678 0.000002601979950612164 0.0000025983372350972295
          0.00000366326209584605 0.000003663264086638626 0.0000036632701241499034 0.0000024952252588720083 0.0000026046635662298695 0.0000024952234210362407
          0.0000026046620808037207 0.000002495217491557137 0.0000026046586893214746 0.000002769902485604257 0.0000027699011292523134 0.0000027698970086608963
          0.000004041305028051347 0.000004055539403217615 0.000003965050476513064 0.000003897474098455307 0.000004041306441927155 0.000004055540930164706
          0.000003965052012181299 0.000003897475481732057 0.00000404131054899505 0.000004055545062618181 0.000003965056577809211 0.000003897479847186497
          0.000002985228989668596 0.0000029852339304024138 0.0000029852477518108967 0.0000029022871186466773 0.0000027430457160956004 0.0000029022897397742104
          0.000002743048705875214 0.000002902297364094564 0.00000274305754557901 0.000002392585428436935 0.0000023925861809976147 0.0000023925893565325213
          0.0000026998354115317306 0.0000028058548309129363 0.0000026998343228106327 0.0000028058539182244125 0.0000026998310539149106 0.0000028058512382961566
          0.000003714932341407764 0.0000037149327788921437 0.000003714933963078552 0.000003577454272766247 0.000003824644549952795 0.0000037753351357778818
          0.000003577456770749113 0.000003824646640449352 0.0000037753370954095494 0.0000035774642280617948 0.000003824653283509901 0.0000037753421627242097
          0.0000031536223122738388 0.000003212195400321293 0.0000031536223370913273 0.000003212195982340307 0.0000031536227605883243 0.0000032121974084681007
          0.0000037449997600898263 0.0000038342359378312806 0.0000037450010743673468 0.000003834237606559059 0.000003745005013267948 0.000003834243008208043
          0.0000033261559514084084 0.000003145694257109595 0.0000033261570483618885 0.0000031456953403196163 0.0000033261608631245084 0.0000031456972276045626
          0.000003412928048844815 0.000003306083207424017 0.0000034129291584672836 0.000003306084192167813 0.00000341293349484456 0.0000033060859556284654
          0.000003966014118503565 0.000003966015726660388 0.000003966020315436904 0.000003624312233877697 0.000003624314465819678 0.0000036243210736936504
          0.0000041254202951874805 0.000004125421709877629 0.000004125425931038593 0.0000030370410044437165 0.0000030370422797749276 0.0000030370466380995013
          0.00000386447375015155 0.000003864475754881064 0.0000038644818844757385 0.000002823178848312271 0.0000028231777203261835 0.000002823174126513657
          0.0000032277718647557514 0.00000325958243658752 0.000003227775323078984 0.000003259585642958103 0.0000032277855485796343 0.000003259595326268547
          0.0000036078569607918885 0.0000036072607244635557 0.0000036078574269146564 0.0000036072615829799345 0.000003607859153689703 0.000003607264378540298
          0.000003593958390010775 0.000003593959449852791 0.0000035939621522678993 0.0000037918494058988343 0.0000037918517990907026 0.000003791860488057395
          0.0000029210236543095487 0.0000030629438292190745 0.0000030327719757254787 0.0000029210230110571965 0.000003062943437460996 0.0000030327716299787312
          0.000002921021374879307 0.0000030629417700365144 0.0000030327707041681403 0.0000037714034882908728 0.0000038054947658607136 0.0000037714039979972343
          0.000003805495515115655 0.0000037714045208644673 0.000003805497838928881 0.0000029417758290630237 0.0000029417749921165266 0.000002941772059781863
          0.0000031823677847009895 0.000003182371412973786 0.0000031823826573224234 0.0000038467039578338826 0.000003846705041268061 0.000003846708441967828
          0.000003105193483081989 0.0000031051933366631958 0.0000031051925371121157 0.000002974764389800469 0.000002974763502868616 0.0000029747608373275273
          0.0000030447600784289894 0.0000030447618917143406 0.000003044767458086791 0.000003062936729705769 0.0000030629390360581938 0.0000030629459165001514
          0.000002114612306530126 0.0000021146091319198687 0.0000021145987766670006 0.0000021110258355561254 0.0000021110228899695856 0.0000021110126602531396
          0.000003033806130478449 0.000003033805314089227 0.0000030338036453866185 0.0000021117353219250978 0.000002111732634878468 0.0000021117231687905793
          0.000003150186715923742 0.0000031501862769908745 0.0000031501851985222647 0.0000021214779009023648 0.0000021214761911683673 0.000002121467381146343
          0.0000027562652162176064 0.0000027562690606513126 0.0000027562805554154524 0.0000031971566096921764 0.000003197157964639547 0.0000031971608600452955
          0.0000027564915040198285 0.0000027564961904873575 0.00000275650963449644 0.0000029155375955292943 0.000002915540827283197 0.0000029155506145086758
          0.0000029213233205953525 0.0000029213271086763088 0.0000029213385209264138 0.0000034822608586595238 0.0000034822621655155178 0.0000034822666567853586
          0.0000036810709777080453 0.0000036810719536410777 0.0000036810742832936915 0.0000022508219000341354 0.0000022544063479464875 0.0000022508203732163807
          0.000002254405768177988 0.0000022508174629556634 0.000002254405289045568 0.000002254412340572102 0.0000022544104800152642 0.0000022544059892024167
          0.0000021756729820957823 0.000002201341887865708 0.0000021756842189055484 0.0000022013537138862784 0.000002175706977449897 0.000002201387565971354
          0.000003738178504675704 0.0000037381807796620396 0.0000037381878098177237 0.0000033797915291625557 0.0000033797946777282953 0.0000033798043146484876
          0.0000027275500706969483 0.0000027275551844514465 0.000002727569953592488 0.0000041095084708517296 0.0000041853980610312295 0.000004109510175922986
          0.000004185399559387735 0.000004109514831044486 0.000004185404484908659 0.000003879683822931084 0.0000036274911686140084 0.00000373412251888784
          0.000003879684537791422 0.0000036274914190739776 0.000003734122844405294 0.0000038796868122747295 0.0000036274914251795787 0.0000037341245118746213
          0.000004076309255406454 0.000004076310676230433 0.0000040763150164350875 0.0000042305553699036876 0.000004230556709430663 0.0000042305606050449604
          0.000004044987210994622 0.000003973329544366954 0.000004044989096830717 0.000003973331453628039 0.000004044994573069575 0.000003973337426821712
          0.000004400607613263586 0.00000428520630051523 0.000004400608998467371 0.000004285207720466621 0.00000440061311984527 0.0000042852120472527794
          0.000003987582948913594 0.000004017489653389616 0.000003987583994792473 0.0000040174908955825035 0.000003987587432939784 0.000004017494712337958
          0.0000041946520156383545 0.000004195288326771223 0.000004194653346462409 0.000004195289637051204 0.000004194657225777611 0.000004195293771631563
          0.000003947566451230476 0.0000039475671555998565 0.00000394756941200601 0.0000028221709086390522 0.0000030478326852528403 0.000002822169738642365
          0.0000030478319548552936 0.000002822166201101047 0.0000030478298046762986 0.0000035162006578868406 0.0000035162006306516155 0.0000035162001000226215
          0.0000031936720449811757 0.000003235219634070895 0.0000031936716005263792 0.0000032352192858254445 0.0000031936700703011766 0.000003235218058525844
          0.000003311081320332388 0.000003311081208976226 0.0000033110810189627435 0.000004160224282710629 0.000004160225631159592 0.000004160230108333007
          0.0000033618459473528147 0.000003361845789910138 0.0000033618452386088936
        </DataArray>
        <DataArray type="Float64" Name="disp_y" format="ascii" RangeMin="-0.0000015375091674424284" RangeMax="-6.786186908984191e-7">
          -0.0000010270230454489356 -0.0000010270290615645868 -0.000001027047003888927 -0.000001075216514923564 -0.0000010752243946210673 -0.0000010752481679821097
          -0.0000010772206078478566 -0.0000010772278624996947 -0.000001077249306403711 -0.0000011000811949430001 -0.0000011000853201470157 -0.0000011000977378654263
          -0.000001108152774524744 -0.0000011081610824882778 -0.0000011081859382847545 -0.0000011146154203782033 -0.0000011146257218618769 -0.000001114656588867902
          -0.0000011195511040289528 -0.0000011195619552210061 -0.0000011195944903874978 -0.0000011231781181626019 -0.0000011231886808462508 -0.0000011232203024770518
          -0.0000011257440679561758 -0.0000011257537585598903 -0.0000011257831159724583 -0.0000011274717663172876 -0.0000011274806118302952 -0.0000011275060451654927
          -0.0000011507095577922074 -0.0000011507194612983987 -0.0000011507492660523687 -0.0000011594866759212956 -0.00000115950060367242 -0.0000011595423765001239
          -0.0000011660919725603464 -0.0000011661070417762423 -0.0000011661522907116156 -0.000001170843092944935 -0.0000011708577133652399 -0.0000011709015203096599
          -0.0000011741334753661307 -0.000001174146774718489 -0.0000011741867827082674 -0.0000011763256906749888 -0.0000011763375740288554 -0.000001176372824296694
          -0.0000011776919210328365 -0.0000011777020550501853 -0.000001177733657561515 -0.0000011903108315029303 -0.0000011903220248071706 -0.0000011903547069255807
          -0.0000012026416621463513 -0.0000012026610943471629 -0.0000012027193459666182 -0.000001211761718010806 -0.0000012117838439066562 -0.0000012118499291696115
          -0.0000012181253418413914 -0.0000012181467293280534 -0.0000012182107168087997 -0.0000012223818112592979 -0.0000012224009046052138 -0.000001222458164747984
          -0.000001225122646948194 -0.0000012251390070927716 -0.0000012251879301697124 -0.0000012267992952227749 -0.0000012268132520862746 -0.0000012268550497495447
          -0.0000012277731732107233 -0.0000012277846761091792 -0.000001227819887437193 -0.0000012429086797494478 -0.0000012429352045894104 -0.0000012430176778807542
          -0.000001256053217557375 -0.000001256086838005797 -0.0000012561885689099628 -0.0000012648670705278395 -0.000001264899890604903 -0.0000012649992210895161
          -0.0000012704739948449406 -0.000001270502784915049 -0.0000012705897598608419 -0.0000012739020291850463 -0.0000012739258398034516 -0.0000012739973648989842
          -0.0000012759046196611116 -0.0000012759238015343477 -0.0000012759818370063754 -0.0000012769879000479217 -0.0000012770034705688638 -0.000001277049629867711
          -0.0000012774476080514142 -0.0000012774604254009079 -0.0000012775001317827446 -0.0000012979662177923484 -0.0000012980234170584108 -0.0000012981873646624789
          -0.000001310739328717098 -0.0000013107956262647863 -0.00000131096033557363 -0.0000013183488337535097 -0.0000013183977527539244 -0.0000013185405132656084
          -0.0000013226663342019224 -0.0000013227033619882864 -0.0000013228130657007094 -0.0000013250023501025048 -0.0000013250307529515765 -0.0000013251153696007505
          -0.0000013261824775009158 -0.000001326204108043127 -0.0000013262683336953996 -0.0000013266616712796428 -0.000001326678177398896 -0.000001326727538912043
          -0.0000013267031560298606 -0.0000013267164541296474 -0.0000013267557406260553 -0.0000013550391345469127 -0.0000013551513593664057 -0.0000013554868714212465
          -0.0000013656951039594675 -0.0000013657835746321693 -0.0000013660437826525666 -0.0000013713457946990089 -0.000001371408379032697 -0.000001371609574225248
          -0.0000013739860930268632 -0.000001374031933985827 -0.0000013741650367653685 -0.0000013751954914047632 -0.0000013752270329224502 -0.0000013753232343614533
          -0.0000013756536687068791 -0.0000013756765669552727 -0.0000013757453435652315 -0.0000013756473221447284 -0.000001375663631880956 -0.0000013757127974746558
          -0.0000013753743034548326 -0.0000013753862853561624 -0.0000013754237248735233 -0.0000014117771342268137 -0.0000014119480042483476 -0.0000014124791485860428
          -0.0000014190949434099846 -0.0000014191973330395466 -0.0000014195345696439935 -0.000001422713059592777 -0.0000014227844156868572 -0.0000014229867129849448
          -0.0000014235863036890287 -0.0000014236312106994484 -0.0000014237771563135925 -0.0000014241191091623762 -0.000001424151112647898 -0.0000014242453534335402
          -0.00000142409957237677 -0.0000014241204639484258 -0.0000014241852289864743 -0.0000014238417945311123 -0.000001423856892062284 -0.0000014239009713827416
          -0.0000014234020687453916 -0.0000014234124565873181 -0.0000014234405500094374 -0.0000014628292809703102 -0.000001463672763629031 -0.0000014984016271698182
          -0.0000014971124045964149 -0.0000014628513811527346 -0.000001463689485688749 -0.0000014984121935859291 -0.0000014971274185251036 -0.0000014629244033780767
          -0.0000014637358839712799 -0.0000014984434985965788 -0.0000014971662094441118 -0.0000014662650590140021 -0.000001504299812144149 -0.0000014952544378863534
          -0.00000145995538160083 -0.000001466342955859129 -0.0000015043649601653297 -0.000001495428003108686 -0.000001460098118673146 -0.0000014665734807026248
          -0.000001504565183002896 -0.0000014959834036786214 -0.000001460456808997662 -0.000001467369211763626 -0.000001501619290825694 -0.0000014674174082271687
          -0.0000015016492571242659 -0.0000014675648311152375 -0.000001501737585625145 -0.0000015007268613376212 -0.0000014636056815754344 -0.0000015007470924531036
          -0.000001463639752138664 -0.0000015007974701367916 -0.0000014637419426280056 -0.0000014695845132817993 -0.0000015062323983944273 -0.0000014695955316164666
          -0.0000015062413875799312 -0.0000014696336967457697 -0.0000015062670386037875 -0.0000014540692092707454 -0.0000014876121039202944 -0.0000014543373604142379
          -0.00000148793117568728 -0.0000014550901390862004 -0.0000014889183309372073 -0.00000153748534165176 -0.0000015372920149049051 -0.0000015374938770217902
          -0.0000015372985763156297 -0.0000015375091674424284 -0.0000015373149293191035 -0.000001480682608183302 -0.0000014806906852642756 -0.0000014807129145131587
          -0.0000015241368094467793 -0.0000015243389929842255 -0.000001525009449271863 -0.0000015301643330885644 -0.0000015302676414117684 -0.0000015304789434091294
          -0.0000015342726567038829 -0.0000015358321585863666 -0.000001534308945827241 -0.0000015358514159871312 -0.0000015343666418021187 -0.0000015358843269225509
          -0.000001536857078845908 -0.0000015368656863424396 -0.0000015368986466554468 -0.0000015374734986663145 -0.0000015374791371150435 -0.000001537498978992417
          -9.369494487955753e-7 -9.369536550411603e-7 -9.369662700174015e-7 -0.0000013818991154448409 -0.0000013324380892357072 -0.000001332636624013621
          -0.0000013835874114607372 -0.0000013819088454674147 -0.0000013324485008341347 -0.0000013326451388734144 -0.0000013835954180144765 -0.0000013819353756112026
          -0.000001332480468946033 -0.000001332670811836833 -0.0000013836174898513433 -8.844195415898246e-7 -8.844229761694429e-7 -8.844332442265662e-7
          -0.0000014404259443437104 -0.0000014335711743881892 -0.000001440431760502376 -0.0000014335797848756369 -0.0000014404523448092813 -0.000001433609618664293
          -9.809660258916463e-7 -0.0000010107390592942008 -0.0000010027364475269802 -9.553318081548497e-7 -9.809699546704216e-7 -0.0000010107437045653255
          -0.0000010027412353516522 -9.553357625787807e-7 -9.809814136707e-7 -0.0000010107577169149454 -0.000001002755472946931 -9.553472615706694e-7
          -0.0000012830940558666284 -0.0000012850272832397132 -0.0000012831028070640932 -0.0000012850377231692263 -0.0000012831296956218061 -0.0000012850711907491677
          -9.006534444489054e-7 -9.402456927681647e-7 -9.006569921118852e-7 -9.402492064725308e-7 -9.006678173995013e-7 -9.402602161300424e-7
          -0.0000014257408777217524 -0.0000014719603089330827 -0.0000014164222473848429 -0.0000014257447360086334 -0.000001471964545815969 -0.0000014164280545744398
          -0.0000014257517090674994 -0.000001471976823795006 -0.0000014164396069952669 -0.0000011913444988237897 -0.0000011744210550026895 -0.0000012295382426865167
          -0.0000012475254408922788 -0.000001191347808677537 -0.0000011744242415563197 -0.0000012295412214446986 -0.0000012475286487606088 -0.0000011913577522392817
          -0.0000011744347508966797 -0.0000012295498229751413 -0.0000012475376835112895 -9.963602954046117e-7 -0.0000010318114313565673 -0.0000010412801811406825
          -9.963640847335113e-7 -0.0000010318154255887512 -0.000001041284748024131 -9.963747508522502e-7 -0.0000010318279761252866 -0.0000010412980303876319
          -9.115777406475672e-7 -9.169982355891278e-7 -9.641333349073296e-7 -9.753513457259358e-7 -9.115807491163286e-7 -9.170009583137891e-7
          -9.641362906230636e-7 -9.75354830077557e-7 -9.115897593336446e-7 -9.170090714034998e-7 -9.641458183237303e-7 -9.75365536664024e-7
          -0.0000012515894031828018 -0.0000012386499587855412 -0.0000012515996791769884 -0.000001238658409409544 -0.0000012516277879273682 -0.0000012386815116130111
          -0.0000013743834442241995 -0.0000013166942011315593 -0.000001307537979088641 -0.000001368523922279988 -0.0000013743863378156415 -0.0000013166975910393011
          -0.0000013075411138686345 -0.0000013685266639557364 -0.000001374395015088794 -0.0000013167076505732681 -0.00000130755098890921 -0.0000013685348385803394
          -0.000001211475871475768 -0.0000011994938832245796 -0.0000011843918942451962 -0.0000012114832673707615 -0.0000011995024227433993 -0.0000011843996057470204
          -0.0000012115059682167632 -0.0000011995254355901587 -0.0000011844224839498627 -0.00000138012418481851 -0.0000013239168041576611 -0.0000013801273870547012
          -0.0000013239205723712048 -0.0000013801371686135327 -0.0000013239318000198482 -0.000001480750906608284 -0.0000014268805264448369 -0.0000014254212609385125
          -0.0000014783391288875414 -0.0000014807528873508258 -0.0000014268826691988206 -0.0000014254231351620343 -0.0000014783408501730525 -0.0000014807589673698925
          -0.0000014268890655283233 -0.0000014254278266799056 -0.0000014783458716025364 -0.0000014077488914264202 -0.0000013605561120703228 -0.0000014077509591621731
          -0.0000013605583502780035 -0.000001407756738329083 -0.0000013605651508921958 -0.0000010241402027011902 -0.000001026310284767145 -0.0000010241434897652913
          -0.0000010263136707086 -0.0000010241534881981936 -0.0000010263239076443638 -9.755003221651735e-7 -0.0000010155258851495073 -9.75503878519616e-7
          -0.000001015529627783467 -9.75513499968863e-7 -0.0000010155406564270386 -0.000001215564198657223 -0.000001213292882713676 -0.0000011528154774058378
          -0.000001149217661193221 -0.0000012155690584050878 -0.00000121329840270823 -0.000001152820896737358 -0.0000011492221795084834 -0.0000012155835220738818
          -0.0000012133144441454895 -0.0000011528377186348934 -0.0000011492355658970525 -0.000001259695256955524 -0.0000012596989910380058 -0.0000012597103387292668
          -0.0000010017416682256492 -0.0000010017467750451221 -0.0000010017619479127445 -7.706190563773189e-7 -8.075140257265454e-7 -7.706216872399988e-7
          -8.075168906066284e-7 -7.706299466775097e-7 -8.075255352098656e-7 -0.0000013304679577322677 -0.0000013808479205266088 -0.0000013304752834445206
          -0.000001380853419769383 -0.0000013304965385890324 -0.0000013808737522847446 -0.0000015369135925201837 -0.0000014866777229115878 -0.0000015369169204833882
          -0.0000014866821452687547 -0.0000015369245972926014 -0.0000014866949493581398 -0.000001275832646928556 -0.0000012758400613600323 -0.0000012758621589563888
          -0.0000012125691323627087 -0.0000012727206381313613 -0.0000012125757002625211 -0.0000012727271087659801 -0.0000012125958912890213 -0.0000012727472126037177
          -0.0000014330323155947316 -0.00000148539347957392 -0.0000014859668076249867 -0.0000014351349786073161 -0.0000014330349831223887 -0.000001485395804205231
          -0.0000014859698257670158 -0.0000014351380582822225 -0.0000014330427400397827 -0.000001485402905265501 -0.000001485978134407085 -0.000001435146917838316
          -0.0000010835923964178916 -0.0000010633636435591533 -0.0000010835968898993045 -0.0000010633675627296595 -0.0000010836105912254 -0.0000010633798047889045
          -0.0000015362735142731703 -0.0000014841096579512492 -0.0000015355986047067503 -0.0000015362787977411747 -0.000001484113596183855 -0.000001535601808850307
          -0.0000015362994328044095 -0.0000014841272143263772 -0.0000015356092908983475 -0.0000010944788124482063 -0.0000011537720732959481 -0.0000010974748306558682
          -0.000001094483915176237 -0.0000011537780870478454 -0.0000010974804826340194 -0.0000010944993048106193 -0.000001153795400430777 -0.0000010974972170651862
          -0.0000011123743006175263 -0.0000011123780016476855 -0.0000011123888593497726 -0.0000010464181139637484 -0.0000010464232065296638 -0.0000010464392515191552
          -0.0000010487546289714612 -0.0000010978715365153562 -0.0000010487603061262679 -0.0000010978779290285427 -0.0000010487777112055871 -0.0000010978971213319424
          -0.0000013811604675367168 -0.0000013300046746324 -0.0000013811650222536366 -0.0000013300106764075024 -0.0000013811799191938457 -0.0000013300279176216198
          -0.0000012982339047419736 -0.0000012982366489674985 -0.0000012982448930646113 -8.439789641395563e-7 -8.577946250675957e-7 -8.439820443904299e-7
          -8.577977957786144e-7 -8.439911157254428e-7 -8.578074061018387e-7 -7.278957055395076e-7 -7.278977531028248e-7 -7.279035805170004e-7
          -0.000001167763946200321 -0.0000012003343376080169 -0.0000012206677330248682 -0.0000011810576590509535 -0.0000011677664892825174 -0.0000012003368005874612
          -0.0000012206700907121996 -0.0000011810603006933534 -0.0000011677742401091493 -0.0000012003437933502556 -0.0000012206773525582974 -0.0000011810681243092073
          -0.000001534801566325298 -0.0000015348036835892368 -0.0000015348108767056339 -0.000001273110037722593 -0.000001273265734391691 -0.000001273114748958734
          -0.0000012732711082857918 -0.0000012731288257362177 -0.0000012732872173413954 -0.0000011506544700918983 -0.0000011506615020431512 -0.0000011506824296278714
          -8.360051188604538e-7 -8.695022180123057e-7 -8.36008025785583e-7 -8.69505265090669e-7 -8.360162054740222e-7 -8.695148175503022e-7
          -9.682760600436244e-7 -9.682785113143881e-7 -9.682851249246124e-7 -0.0000015317995590779659 -0.000001463741879325775 -0.0000015305894944539913
          -0.0000015318013869445163 -0.000001463743769925609 -0.0000015305915947087644 -0.000001531807452410146 -0.0000014637491068459796 -0.0000015305986106007067
          -0.0000010407443785515323 -0.0000010841819580571789 -0.0000010407479655108859 -0.00000108418539027879 -0.000001040758799556607 -0.0000010841956492473998
          -0.0000012048673751136778 -0.0000012520356329911422 -0.0000012048701385011225 -0.0000012520379577560696 -0.0000012048787405298221 -0.0000012520446080789
          -0.0000011291146980315554 -0.0000011582599629108959 -0.0000011291178933271325 -0.0000011582635943601892 -0.0000011291276670752697 -0.0000011582736608086363
          -0.0000010737840031620093 -0.0000010618480920941406 -0.0000010737871939383975 -0.0000010618513319424947 -0.0000010737962478441897 -0.0000010618614130402665
          -0.0000012888955758894555 -0.000001288897729169494 -0.0000012889036556400986 -0.0000013702299823169874 -0.0000013702325129554475 -0.0000013702405078129792
          -0.0000013170891562708177 -0.0000013170913434647537 -0.0000013170983750776153 -0.0000011765724913341995 -0.0000011765766114337559 -0.000001176587959295829
          -0.000001334383837786131 -0.0000013343863737477993 -0.0000013343939895542973 -8.039289723449445e-7 -8.039316078166067e-7 -8.039399183920185e-7
          -0.0000014831025769707068 -0.00000143024984635864 -0.000001483104753769411 -0.0000014302522371549828 -0.000001483111060559936 -0.000001430259346406531
          -9.869557744078672e-7 -0.0000010266837887878466 -9.869586027125345e-7 -0.000001026686637066695 -9.869658093251639e-7 -0.0000010266959821493282
          -0.0000010934547128631802 -0.000001093457771073047 -0.0000010934667003357259 -0.000001386141732110595 -0.000001386144026686146 -0.0000013861523312124373
          -9.064355940760056e-7 -8.708198741041078e-7 -9.465635194762432e-7 -9.064389652761178e-7 -8.708226742875685e-7 -9.465669566940338e-7
          -9.064495559582583e-7 -8.708308083426729e-7 -9.465776331545543e-7 -0.0000010172415103270597 -0.0000010741998942595583 -0.0000010172442325022523
          -0.0000010742028149918013 -0.0000010172526863029387 -0.000001074211772987378 -8.384692041094589e-7 -8.384720084066275e-7 -8.384793374260917e-7
          -0.0000015339051768460605 -0.000001533907248863489 -0.0000015339136716268687 -0.0000011313479805943125 -0.0000011313507321090776 -0.0000011313588684594914
          -9.937139016444354e-7 -9.937173651196954e-7 -9.937276539940554e-7 -7.673048113251223e-7 -7.673071693479396e-7 -7.673145202525213e-7
          -0.0000012154234406068698 -0.0000012154276881444379 -0.000001215442180735509 -0.0000012686707572045904 -0.0000012686751217815949 -0.0000012686880766188192
          -0.0000010099553485922119 -0.0000010099608601240136 -0.0000010099774870428053 -0.0000010616518469848674 -0.0000010616584004190475 -0.0000010616783791466722
          -8.14705224669665e-7 -8.147077248659611e-7 -8.147157421248952e-7 -0.0000011106796454546072 -0.0000011106875626993413 -0.0000011107112518439729
          -8.301290010274317e-7 -8.301315512165421e-7 -8.301397232679452e-7 -0.0000011584132548379697 -0.0000011584217302882595 -0.0000011584482127080776
          -0.0000013305126498680832 -0.000001330517612850701 -0.000001330532376940678 -0.0000012060571098471117 -0.000001206060873738696 -0.0000012060722721582694
          -0.000001383628522436096 -0.0000013836325248207042 -0.0000013836451654187886 -0.0000013285385455067665 -0.0000013285428199667791 -0.0000013285556761055393
          -0.0000013838040560603571 -0.0000013838076928311394 -0.0000013838187847133338 -0.000001134709646797092 -0.0000011347128017538736 -0.000001134721886943163
          -0.0000011524186382023882 -0.0000011524216679282777 -0.0000011524308571692747 -0.000001102089066108215 -0.000001149692196386744 -0.000001102096303634786
          -0.0000011496998694162136 -0.0000011021181328724104 -0.0000011497244281858607 -0.000001052825805637308 -0.0000010528319502285356 -0.0000010528500396054135
          -0.000001484955447309785 -0.0000015372575430343945 -0.0000014849611439416897 -0.0000015372592967917317 -0.0000014849783978090643 -0.00000153725758991731
          -0.000001423554567287739 -0.0000014235565183516678 -0.0000014235614127105084 -0.0000015329054054525373 -0.0000015329073233800975 -0.000001532913002959898
          -0.0000014325235998057585 -0.0000014325269247184566 -0.0000014325364443522549 -0.0000014242241237053826 -0.0000013818370684657534 -0.0000014242260368482383
          -0.0000013818390377765212 -0.0000014242318628187685 -0.0000013818449210413838 -9.342758151003014e-7 -9.26754542989631e-7 -9.05871165210328e-7
          -9.342782102775575e-7 -9.267569403394802e-7 -9.058734751405749e-7 -9.342854963849004e-7 -9.267638496562138e-7 -9.058805393765637e-7
          -0.0000012504560446278917 -0.0000012504582479208743 -0.0000012504647853251465 -0.0000012759093777658943 -0.0000012759115996322935 -0.0000012759185322610092
          -0.000001475333261475287 -0.000001529269879569339 -0.0000014753354239954364 -0.0000015292723073603491 -0.000001475342164345667 -0.0000015292798080106992
          -0.0000013049428553145854 -0.0000013444819242515051 -0.0000013049450080255603 -0.0000013444839109911277 -0.00000130495148399342 -0.0000013444895132044515
          -0.0000010617856791522099 -0.0000011182544314275517 -0.0000010617882779655575 -0.0000011182570597959212 -0.0000010617958276757755 -0.0000011182652159796407
          -0.0000011157525596520813 -0.000001168697705293309 -0.0000011157550950484588 -0.0000011687001318626682 -0.000001115762675137591 -0.0000011687075247261348
          -0.0000010037153370261018 -0.0000010037178253034711 -0.0000010037253035186652 -6.786186908984191e-7 -6.977635807654681e-7 -6.786203937069056e-7
          -6.977655579066044e-7 -6.786251290025526e-7 -6.977715679706519e-7 -8.752957579989059e-7 -8.752981924627323e-7 -8.753050722257104e-7
          -7.828638110283916e-7 -7.349227261153223e-7 -7.82866148125325e-7 -7.349248421022205e-7 -7.82872917774852e-7 -7.349306897556994e-7
          -8.516843951304453e-7 -8.516868938367145e-7 -8.516939478088198e-7 -0.0000012127124016489859 -0.0000012127147315371712 -0.0000012127216551804777
          -8.018268019980345e-7 -8.018291624344131e-7 -8.018367986012132e-7
        </DataArray>
        <DataArray type="Float64" Name="disp_z" format="ascii" RangeMin="-3.596497623362145e-8" RangeMax="0">
          0 -1.7541266921152976e-8 -3.508316812935036e-8 0 -1.752345799516088e-8 -3.504610792732785e-8
          0 -1.7505404285773104e-8 -3.501174715533607e-8 0 -1.7854694644969044e-8 -3.5708707756686906e-8
          0 -1.7727208915674397e-8 -3.545456209004661e-8 0 -1.7629743638358973e-8 -3.5259518010825106e-8
          0 -1.755857847022738e-8 -3.511696959006353e-8 0 -1.750828677723817e-8 -3.5017237661223354e-8
          0 -1.7474629145954706e-8 -3.4948175822629567e-8 0 -1.7463234563208764e-8 -3.492744226326674e-8
          0 -1.781732900997402e-8 -3.56337034722731e-8 0 -1.7666928050373263e-8 -3.5334035341806625e-8
          0 -1.7560430739437245e-8 -3.512087448768173e-8 0 -1.748881309205356e-8 -3.49773879780788e-8
          0 -1.7442481132763553e-8 -3.488575093921328e-8 0 -1.7415198967236942e-8 -3.48288318878504e-8
          0 -1.741207609293018e-8 -3.48261914031348e-8 0 -1.7980040302560016e-8 -3.596497623362145e-8
          0 -1.7738689754703015e-8 -3.547599406876938e-8 0 -1.7569130515285633e-8 -3.513842528701766e-8
          0 -1.7460888682711772e-8 -3.492166414437012e-8 0 -1.739621119806484e-8 -3.479232693836324e-8
          0 -1.7361005151455474e-8 -3.4722206417491056e-8 0 -1.734490714089469e-8 -3.468968699427022e-8
          0 -1.734674080725942e-8 -3.469304780666264e-8 0 -1.7876711609599334e-8 -3.576168528011879e-8
          0 -1.7594277707475588e-8 -3.518716823342102e-8 0 -1.7418534950210883e-8 -3.483768751141955e-8
          0 -1.7322726088225884e-8 -3.464570701115182e-8 0 -1.7277659451302577e-8 -3.4555427492326976e-8
          0 -1.7262819106407153e-8 -3.45255553660181e-8 0 -1.7263848147378587e-8 -3.452851664622118e-8
          0 -1.727400082474932e-8 -3.4546337606538756e-8 0 -1.765659829680523e-8 -3.531407858884033e-8
          0 -1.735436876019969e-8 -3.4704782257398703e-8 0 -1.7198958453669395e-8 -3.439566556052841e-8
          0 -1.7140981332556022e-8 -3.428128587045297e-8 0 -1.7134139283323757e-8 -3.426800365785267e-8
          0 -1.7149427643987524e-8 -3.4297941054638355e-8 0 -1.7176482093747564e-8 -3.4353800708701284e-8
          0 -1.7201673362124904e-8 -3.44026945373151e-8 0 -1.7238025447667064e-8 -3.4477373884289064e-8
          0 -1.6976788952440423e-8 -3.395530739109322e-8 0 -1.688531264426037e-8 -3.377513998667445e-8
          0 -1.6922779141588454e-8 -3.384678317995489e-8 0 -1.6968845765893588e-8 -3.393675951314024e-8
          0 -1.7028514407260674e-8 -3.4057541431436565e-8 0 -1.7084929255138686e-8 -3.4170576445455195e-8
          0 -1.7130266151570085e-8 -3.426018181489621e-8 0 -1.6409456620727626e-8 -3.2810339475410966e-8
          0 -1.6402950475087656e-8 -3.281625708673719e-8 0 -1.6476955387376292e-8 -3.2940526407658036e-8
          0 -1.6659617445749853e-8 -3.332711210203319e-8 0 -1.6787759973194058e-8 -3.357271135132721e-8
          0 -1.690052892594167e-8 -3.380097561724971e-8 0 -1.6999138572159903e-8 -3.3998553112546444e-8
          0 -1.706800642015079e-8 -3.413337600054147e-8 0 0 0
          0 -1.669674164731979e-8 -1.683380196795383e-8 -1.680170374859815e-8 -1.6652750338908063e-8 -3.339728128224538e-8
          -3.366675801619428e-8 -3.3610720694486515e-8 -3.3296047353643397e-8 0 0 0
          0 -1.6078220534056756e-8 -1.5685526823267297e-8 -1.5063687954045235e-8 -1.579961605673607e-8 -3.217804484801465e-8
          -3.133400897901465e-8 -3.0166397941924696e-8 -3.156361426199378e-8 0 0 -1.6299739819030488e-8
          -1.6194411469119885e-8 -3.260861613650739e-8 -3.237719515287988e-8 0 0 -1.6485008420841574e-8
          -1.6505318626886212e-8 -3.297911656763148e-8 -3.3004961349581576e-8 0 0 -1.6932535824595568e-8
          -1.686948889984838e-8 -3.38657382808113e-8 -3.373057664964811e-8 0 0 -1.543022404870107e-8
          -1.4286940984686167e-8 -3.086163644754753e-8 -2.8519074473756254e-8 0 0 -1.6852228586069955e-8
          -1.6723578595373727e-8 -3.370856944022164e-8 -3.344756506278325e-8 0 -1.7020756903039433e-8 -3.404186026641864e-8
          0 -1.3615616690492048e-8 -2.7132033445138612e-8 0 -1.5030987652839484e-8 -3.007679907459042e-8
          0 0 -1.583929774356482e-8 -1.6225889780395036e-8 -3.172754911638885e-8 -3.244830269932939e-8
          0 -1.6521374254083106e-8 -3.304340481687513e-8 0 -1.6970303377475478e-8 -3.394065192848877e-8
          0 -1.7553879447947816e-8 -3.510771799100379e-8 0 0 0
          0 -1.7177460347233897e-8 -1.722795544311878e-8 -1.7249930545003875e-8 -1.7206719382527345e-8 -3.435460056998617e-8
          -3.445664721187506e-8 -3.4499511784701167e-8 -3.441256625215915e-8 0 -1.7567401485739547e-8 -3.51342736486606e-8
          0 0 -1.7169317302078308e-8 -1.712629219091427e-8 -3.434109986513506e-8 -3.425545083724551e-8
          0 0 0 0 -1.751521967320904e-8 -1.750933700680314e-8
          -1.7517269630606444e-8 -1.7534826685397758e-8 -3.5029673755491584e-8 -3.502020706451939e-8 -3.5033943192672235e-8 -3.5069940338321294e-8
          0 0 -1.729823241607256e-8 -1.728903482679912e-8 -3.459555844692056e-8 -3.4578502679966056e-8
          0 0 -1.755008024489298e-8 -1.7527648809022066e-8 -3.510041925303184e-8 -3.5055184590537737e-8
          0 0 0 -1.7239092220659937e-8 -1.7216199391019132e-8 -1.7211752945907327e-8
          -3.4477710248051474e-8 -3.443544772661151e-8 -3.441781219444117e-8 0 0 0
          0 -1.74305199630926e-8 -1.7447668079057723e-8 -1.7429832440155206e-8 -1.741467302413688e-8 -3.4860696635168e-8
          -3.489511387321716e-8 -3.485983301401237e-8 -3.482933002965664e-8 0 0 0
          -1.7509065280090187e-8 -1.7492592542434118e-8 -1.74864720346086e-8 -3.502043772325561e-8 -3.498482036368026e-8 -3.4972189607242586e-8
          0 0 0 0 -1.7534625487914847e-8 -1.753789663387376e-8
          -1.7519519863006436e-8 -1.7509734690535716e-8 -3.506886976494354e-8 -3.5077473743597736e-8 -3.503851880763088e-8 -3.501898527765567e-8
          0 0 -1.7327030837433423e-8 -1.7340417212093912e-8 -3.4656593826243374e-8 -3.4681550866211535e-8
          0 0 0 0 -1.7357106653454107e-8 -1.737588549383543e-8
          -1.7395161551892542e-8 -1.737402504314849e-8 -3.471421739568861e-8 -3.475155650500725e-8 -3.479048359150127e-8 -3.474818726929907e-8
          0 0 0 -1.7366659943889603e-8 -1.73691638384975e-8 -1.738272152531939e-8
          -3.4733611473920556e-8 -3.4736267993557104e-8 -3.476590074551575e-8 0 0 -1.733603693415348e-8
          -1.7357967931786195e-8 -3.467210897629426e-8 -3.471612519622997e-8 0 0 0
          0 -1.734299880271621e-8 -1.735820140280221e-8 -1.7371861931117e-8 -1.7362871465489815e-8 -3.468569554628085e-8
          -3.471631037193793e-8 -3.4744440723572976e-8 -3.472583992976138e-8 0 0 -1.7403283180403295e-8
          -1.7418709852232484e-8 -3.480677852199168e-8 -3.483701537939882e-8 0 0 -1.7496583631169566e-8
          -1.7491007888172394e-8 -3.499323654615036e-8 -3.498275460292455e-8 0 0 -1.7512893315469174e-8
          -1.7496880751583133e-8 -3.5025185228540885e-8 -3.499331770380946e-8 0 0 0
          0 -1.7396625086662875e-8 -1.7387265179810623e-8 -1.7423265123962367e-8 -1.7433104504877358e-8 -3.47931696079484e-8
          -3.4774420373531484e-8 -3.48462324743625e-8 -3.486583869825879e-8 0 -1.739762011247097e-8 -3.479530171412325e-8
          0 -1.7523334035701752e-8 -3.504733398919899e-8 0 0 -1.7592304721039712e-8
          -1.758428414894376e-8 -3.518459736218497e-8 -3.516893462238752e-8 0 0 -1.7273763386550252e-8
          -1.7231167033686796e-8 -3.454835530434895e-8 -3.4462898801222854e-8 0 0 -1.7138863764123372e-8
          -1.7097298167106475e-8 -3.4280984187920734e-8 -3.418310576929697e-8 0 -1.7312067465024057e-8 -3.462351135467455e-8
          0 0 -1.7381716379115935e-8 -1.7334170052003124e-8 -3.476399529339117e-8 -3.466844464435488e-8
          0 0 0 0 -1.7316523244268277e-8 -1.729856209203818e-8
          -1.7268086681257082e-8 -1.7291335427827918e-8 -3.463297604268719e-8 -3.4596974303930126e-8 -3.453656303454431e-8 -3.458271244059275e-8
          0 0 -1.7467688409737088e-8 -1.7474860734101546e-8 -3.49359896145609e-8 -3.49497008974008e-8
          0 0 0 -1.7185608116052057e-8 -1.7238678409097445e-8 -1.7239023120587035e-8
          -3.436590265561276e-8 -3.447592948656761e-8 -3.447971833246258e-8 0 0 0
          -1.745991718498488e-8 -1.7421210911567453e-8 -1.7456199249578104e-8 -3.491973242331633e-8 -3.484234814225324e-8 -3.491269072864878e-8
          0 -1.7452798243455245e-8 -3.490481749217532e-8 0 -1.7487530220083045e-8 -3.497501544225849e-8
          0 0 -1.7489951744083627e-8 -1.745695451364318e-8 -3.4979342890012215e-8 -3.4913697597121193e-8
          0 0 -1.726524135185791e-8 -1.7297334650145555e-8 -3.453164980939474e-8 -3.459483583733575e-8
          0 -1.741279318907403e-8 -3.482555292090491e-8 0 0 -1.7576107528425576e-8
          -1.7567089927608832e-8 -3.515206091932058e-8 -3.513418818063637e-8 0 -1.7599855322058866e-8 -3.519980150128855e-8
          0 0 0 0 -1.7469398120508562e-8 -1.746067664959432e-8
          -1.745171904844082e-8 -1.745945424383593e-8 -3.4938809739814486e-8 -3.492084872413023e-8 -3.490392778359589e-8 -3.491908152334199e-8
          0 -1.727604245548888e-8 -3.4551107699404006e-8 0 0 -1.7366191013903225e-8
          -1.735182086793657e-8 -3.4732360898756814e-8 -3.470348123646498e-8 0 -1.7417294599195065e-8 -3.4834152795141705e-8
          0 0 -1.7571237801682606e-8 -1.7557246860467173e-8 -3.514249870674087e-8 -3.511460930921982e-8
          0 -1.7521666376391603e-8 -3.504359605946751e-8 0 0 0
          -1.734857420646111e-8 -1.7381842129308085e-8 -1.736206143937594e-8 -3.469678986909105e-8 -3.476395393670915e-8 -3.472360561962963e-8
          0 0 -1.7484951774692914e-8 -1.7467863497285623e-8 -3.497016945898592e-8 -3.49366012639434e-8
          0 0 -1.744398247074446e-8 -1.7435185910769893e-8 -3.488799454685322e-8 -3.487006352648456e-8
          0 0 -1.7453964222266234e-8 -1.7438312069588052e-8 -3.4907931301119126e-8 -3.4876477622912666e-8
          0 0 -1.747624585211277e-8 -1.7476187217960858e-8 -3.4952197284817185e-8 -3.495153903567943e-8
          0 -1.743484224968443e-8 -3.486949060151893e-8 0 -1.7384443659603073e-8 -3.4768658953524334e-8
          0 -1.7434632254902133e-8 -3.4869283960124327e-8 0 -1.7430582135788644e-8 -3.486315433212066e-8
          0 -1.7418691026416734e-8 -3.4837692510757014e-8 0 -1.7575223488106652e-8 -3.515018125088333e-8
          0 0 -1.7322757416985702e-8 -1.7338970471223355e-8 -3.464560368458692e-8 -3.4677784633408795e-8
          0 0 -1.7515926614597196e-8 -1.7503833060342695e-8 -3.503231139457349e-8 -3.500784748773726e-8
          0 -1.7478654247526724e-8 -3.495702090847669e-8 0 -1.739458942054712e-8 -3.47894551591434e-8
          0 0 0 -1.753975539538999e-8 -1.754928396354565e-8 -1.7522474324457068e-8
          -3.507934903038645e-8 -3.50987584209378e-8 -3.5045430190678365e-8 0 0 -1.750808529099686e-8
          -1.7489066499261505e-8 -3.501590033687747e-8 -3.497805077432539e-8 0 -1.756143038314807e-8 -3.512309514629061e-8
          0 -1.7304567610158175e-8 -3.460904182343225e-8 0 -1.7472131044014613e-8 -3.4944416268024894e-8
          0 -1.7503415552080992e-8 -3.5007176223497816e-8 0 -1.7581551332495703e-8 -3.516338261642293e-8
          0 -1.7409485688749508e-8 -3.481838980119122e-8 0 -1.738135515835919e-8 -3.4762791895692966e-8
          0 -1.7529255318486704e-8 -3.5057875348813275e-8 0 -1.7495492774354e-8 -3.499011519170567e-8
          0 -1.7564430131636602e-8 -3.512769010817111e-8 0 -1.7456037997458613e-8 -3.491032709588414e-8
          0 -1.7559781867117583e-8 -3.511995890773099e-8 0 -1.7410781350053835e-8 -3.4821194672899246e-8
          0 -1.7319117110008446e-8 -3.4638151441820386e-8 0 -1.7419459702068227e-8 -3.483876844275464e-8
          0 -1.72912458845456e-8 -3.4582520887898686e-8 0 -1.7339087772915435e-8 -3.4678139117118666e-8
          0 -1.7313933687146678e-8 -3.46279286096628e-8 0 -1.7462528685190594e-8 -3.492631666306115e-8
          0 -1.7460609026364993e-8 -3.492111323553183e-8 0 0 -1.745769130300039e-8
          -1.7414111576280145e-8 -3.491680337730057e-8 -3.482942325267621e-8 0 -1.7492554037290073e-8 -3.4985531920346116e-8
          0 0 -1.7070707062642908e-8 -1.7071586474646657e-8 -3.414270761658267e-8 -3.414626449632351e-8
          0 -1.7378184464065702e-8 -3.4754887896995175e-8 0 -1.732792564045521e-8 -3.465567815969971e-8
          0 -1.7265031384027347e-8 -3.452887940210053e-8 0 0 -1.740836923599869e-8
          -1.742169751735805e-8 -3.4816452017627355e-8 -3.484351597164975e-8 0 0 0
          -1.7532629774717162e-8 -1.7529751991157376e-8 -1.7536150023924707e-8 -3.506536627716895e-8 -3.5058862625009166e-8 -3.507225459241751e-8
          0 -1.7449151458852625e-8 -3.489822821189005e-8 0 -1.7450338132492962e-8 -3.4900824017204304e-8
          0 0 -1.739357669606384e-8 -1.7373580896434585e-8 -3.478695343444132e-8 -3.474694834680065e-8
          0 0 -1.7448930599246935e-8 -1.7435238707687835e-8 -3.489756653901331e-8 -3.4870538911748726e-8
          0 0 -1.7499512028572117e-8 -1.748351932381448e-8 -3.4999270771902655e-8 -3.4967023957669885e-8
          0 0 -1.749150012916416e-8 -1.7476593725851677e-8 -3.498291878856482e-8 -3.495330956152258e-8
          0 -1.7513685157610176e-8 -3.502723525901277e-8 0 0 -1.760580262708483e-8
          -1.7595119022719576e-8 -3.52116474508557e-8 -3.5189954094938276e-8 0 -1.7545760829369475e-8 -3.509138984699229e-8
          0 0 -1.7573564566184052e-8 -1.758233039733024e-8 -3.5147589478217765e-8 -3.516439829383033e-8
          0 -1.7551154487234953e-8 -3.5101740604775974e-8 0 -1.7462794007625817e-8 -3.492561556136459e-8
          0 -1.7565147270851357e-8 -3.5130213125408855e-8
        </DataArray>
      </PointData>
      <CellData>
        <DataArray type="Int32" Name="libmesh_elem_id" format="ascii" RangeMin="1184" RangeMax="3139">
          1184 1185 1192 1193 1194 1195
          1196 1197 1198 1199 1200 1201
          1202 1203 1210 1211 1212 1213
          1214 1215 1216 1217 1218 1219
          1220 1221 1226 1227 1228 1229
          1230 1231 1232 1233 1234 1235
          1236 1237 1238 1239 1244 1245
          1246 1247 1248 1249 1250 1251
          1252 1253 1254 1255 1256 1257
          1262 1263 1264 1265 1266 1267
          1268 1269 1270 1271 1272 1273
          1274 1275 1280 1281 1282 1283
          1284 1285 1286 1287 1288 1289
          1290 1291 1292 1293 1294 1295
          1296 1297 1298 1299 1302 1303
          1308 1309 1310 1311 1312 1313
          1318 1319 1320 1321 1322 1323
          1324 1325 1332 1333 1334 1335
          1336 1337 1340 1341 1342 1343
          1346 1347 1350 1351 1352 1353
          1354 1355 1362 1363 1364 1365
          1368 1369 1370 1371 1382 1383
          1396 1397 1408 1409 1452 1453
          1456 1457 1468 1469 1476 1477
          1486 1487 1510 1511 1518 1519
          1532 1533 1558 1559 1560 1561
          1564 1565 1566 1567 1570 1571
          1586 1587 1602 1603 1618 1619
          1622 1623 1628 1629 1634 1635
          1680 1681 1686 1687 1696 1697
          1700 1701 1708 1709 1710 1711
          1728 1729 1740 1741 1750 1751
          1754 1755 1764 1765 1766 1767
          1782 1783 1804 1805 1814 1815
          1836 1837 1868 1869 1880 1881
          1884 1885 1890 1891 1900 1901
          1908 1909 1918 1919 1928 1929
          1948 1949 1952 1953 1968 1969
          1970 1971 1972 1973 1986 1987
          2004 2005 2006 2007 2008 2009
          2014 2015 2018 2019 2020 2021
          2030 2031 2040 2041 2044 2045
          2050 2051 2062 2063 2064 2065
          2068 2069 2082 2083 2092 2093
          2120 2121 2128 2129 2130 2131
          2134 2135 2146 2147 2160 2161
          2180 2181 2184 2185 2186 2187
          2208 2209 2214 2215 2216 2217
          2230 2231 2234 2235 2248 2249
          2262 2263 2270 2271 2276 2277
          2286 2287 2292 2293 2294 2295
          2296 2297 2302 2303 2304 2305
          2314 2315 2316 2317 2320 2321
          2330 2331 2332 2333 2344 2345
          2354 2355 2362 2363 2366 2367
          2374 2375 2382 2383 2390 2391
          2400 2401 2404 2405 2408 2409
          2410 2411 2412 2413 2414 2415
          2430 2431 2440 2441 2448 2449
          2456 2457 2460 2461 2474 2475
          2486 2487 2494 2495 2498 2499
          2500 2501 2506 2507 2520 2521
          2522 2523 2564 2565 2572 2573
          2578 2579 2586 2587 2592 2593
          2596 2597 2600 2601 2620 2621
          2624 2625 2658 2659 2660 2661
          2670 2671 2688 2689 2694 2695
          2722 2723 2754 2755 2764 2765
          2778 2779 2780 2781 2796 2797
          2824 2825 2832 2833 2846 2847
          2848 2849 2862 2863 2870 2871
          2878 2879 2880 2881 2886 2887
          2902 2903 2930 2931 2940 2941
          2958 2959 2968 2969 2988 2989
          3062 3063 3064 3065 3090 3091
          3106 3107 3132 3133 3138 3139
        </DataArray>
        <DataArray type="Int32" Name="subdomain_id" format="ascii" RangeMin="105" RangeMax="143">
          105 105 105 105 105 105
          105 105 105 105 105 105
          105 105 105 105 105 105
          105 105 105 105 105 105
          105 105 105 105 105 105
          105 105 105 105 105 105
          105 105 105 105 105 105
          105 105 105 105 105 105
          105 105 105 105 105 105
          105 105 105 105 105 105
          105 105 105 105 105 105
          105 105 105 105 105 105
          105 105 105 105 105 105
          105 105 105 105 106 106
          106 106 106 106 106 106
          106 106 106 106 106 106
          106 106 106 106 106 106
          106 106 106 106 106 106
          106 106 106 106 106 106
          106 106 106 106 106 106
          106 106 143 143 143 143
          143 143 143 143 107 107
          107 107 107 107 107 107
          107 107 107 107 107 107
          107 107 107 107 107 107
          107 107 107 107 107 107
          107 107 107 107 107 107
          107 107 107 107 107 107
          107 107 107 107 107 107
          107 107 107 107 107 107
          107 107 107 107 107 107
          107 107 107 107 107 107
          107 107 107 107 107 107
          107 107 107 107 107 107
          107 107 107 107 107 107
          107 107 107 107 107 107
          107 107 107 107 107 107
          107 107 107 107 107 107
          107 107 107 107 107 107
          107 107 107 107 107 107
          107 107 107 107 107 107
          107 107 107 107 107 107
          107 107 107 107 107 107
          107 107 107 107 107 107
          107 107 107 107 107 107
          107 107 107 107 107 107
          107 107 107 107 107 107
          107 107 107 107 107 107
          107 107 107 107 107 107
          107 107 107 107 107 107
          107 107 107 107 107 107
          107 107 107 107 107 107
          107 107 107 107 107 107
          107 107 107 107 107 107
          107 107 107 107 107 107
          107 107 107 107 107 107
          107 107 107 107 107 107
          107 107 107 107 107 107
          107 107 107 107 107 107
          107 107 107 107 107 107
          107 107 107 107 107 107
          107 107 107 107 107 107
          107 107 107 107 107 107
          107 107 107 107 107 107
          107 107 107 107 107 107
          107 107 107 107 107 107
          107 107 107 107 107 107
          107 107 107 107 107 107
          107 107 107 107 107 107
          107 107 107 107 107 107
          107 107 107 107 107 107
          107 107 107 107 107 107
          107 107 107 107 107 107
          107 107 107 107 107 107
          107 107 107 107 107 107
          107 107 107 107 107 107
        </DataArray>
        <DataArray type="Int32" Name="processor_id" format="ascii" RangeMin="4" RangeMax="4">
          4 4 4 4 4 4
          4 4 4 4 4 4
          4 4 4 4 4 4
          4 4 4 4 4 4
          4 4 4 4 4 4
          4 4 4 4 4 4
          4 4 4 4 4 4
          4 4 4 4 4 4
          4 4 4 4 4 4
          4 4 4 4 4 4
          4 4 4 4 4 4
          4 4 4 4 4 4
          4 4 4 4 4 4
          4 4 4 4 4 4
          4 4 4 4 4 4
          4 4 4 4 4 4
          4 4 4 4 4 4
          4 4 4 4 4 4
          4 4 4 4 4 4
          4 4 4 4 4 4
          4 4 4 4 4 4
          4 4 4 4 4 4
          4 4 4 4 4 4
          4 4 4 4 4 4
          4 4 4 4 4 4
          4 4 4 4 4 4
          4 4 4 4 4 4
          4 4 4 4 4 4
          4 4 4 4 4 4
          4 4 4 4 4 4
          4 4 4 4 4 4
          4 4 4 4 4 4
          4 4 4 4 4 4
          4 4 4 4 4 4
          4 4 4 4 4 4
          4 4 4 4 4 4
          4 4 4 4 4 4
          4 4 4 4 4 4
          4 4 4 4 4 4
          4 4 4 4 4 4
          4 4 4 4 4 4
          4 4 4 4 4 4
          4 4 4 4 4 4
          4 4 4 4 4 4
          4 4 4 4 4 4
          4 4 4 4 4 4
          4 4 4 4 4 4
          4 4 4 4 4 4
          4 4 4 4 4 4
          4 4 4 4 4 4
          4 4 4 4 4 4
          4 4 4 4 4 4
          4 4 4 4 4 4
          4 4 4 4 4 4
          4 4 4 4 4 4
          4 4 4 4 4 4
          4 4 4 4 4 4
          4 4 4 4 4 4
          4 4 4 4 4 4
          4 4 4 4 4 4
          4 4 4 4 4 4
          4 4 4 4 4 4
          4 4 4 4 4 4
          4 4 4 4 4 4
          4 4 4 4 4 4
          4 4 4 4 4 4
          4 4 4 4 4 4
          4 4 4 4 4 4
          4 4 4 4 4 4
          4 4 4 4 4 4
          4 4 4 4 4 4
          4 4 4 4 4 4
          4 4 4 4 4 4
          4 4 4 4 4 4
          4 4 4 4 4 4
          4 4 4 4 4 4
        </DataArray>
      </CellData>
      <Points>
        <DataArray type="Float64" Name="Points" NumberOfComponents="3" format="ascii" RangeMin="0.009206309225653747" RangeMax="0.01648243122598367">
          0.005 0.0086896551724064 0 0.005 0.0086896551724064 0.00015
          0.005 0.0086896551724064 0.0003 0.0045555555555561 0.0091034482758539 0
          0.0045555555555561 0.0091034482758539 0.00015 0.0045555555555561 0.0091034482758539 0.0003
          0.005 0.0091034482758539 0 0.005 0.0091034482758539 0.00015
          0.005 0.0091034482758539 0.0003 0.0023333333333353 0.0095172413793029 0
          0.0023333333333353 0.0095172413793029 0.00015 0.0023333333333353 0.0095172413793029 0.0003
          0.0027777777777802 0.0095172413793029 0 0.0027777777777802 0.0095172413793029 0.00015
          0.0027777777777802 0.0095172413793029 0.0003 0.0032222222222248 0.0095172413793029 0
          0.0032222222222248 0.0095172413793029 0.00015 0.0032222222222248 0.0095172413793029 0.0003
          0.0036666666666675 0.0095172413793029 0 0.0036666666666675 0.0095172413793029 0.00015
          0.0036666666666675 0.0095172413793029 0.0003 0.0041111111111126 0.0095172413793029 0
          0.0041111111111126 0.0095172413793029 0.00015 0.0041111111111126 0.0095172413793029 0.0003
          0.0045555555555561 0.0095172413793029 0 0.0045555555555561 0.0095172413793029 0.00015
          0.0045555555555561 0.0095172413793029 0.0003 0.005 0.0095172413793029 0
          0.005 0.0095172413793029 0.00015 0.005 0.0095172413793029 0.0003
          0.0023333333333355 0.0099310344827529 0 0.0023333333333355 0.0099310344827529 0.00015
          0.0023333333333355 0.0099310344827529 0.0003 0.0027777777777806 0.0099310344827529 0
          0.0027777777777806 0.0099310344827529 0.00015 0.0027777777777806 0.0099310344827529 0.0003
          0.0032222222222251 0.0099310344827529 0 0.0032222222222251 0.0099310344827529 0.00015
          0.0032222222222251 0.0099310344827529 0.0003 0.0036666666666677 0.0099310344827529 0
          0.0036666666666677 0.0099310344827529 0.00015 0.0036666666666677 0.0099310344827529 0.0003
          0.0041111111111127 0.0099310344827529 0 0.0041111111111127 0.0099310344827529 0.00015
          0.0041111111111127 0.0099310344827529 0.0003 0.0045555555555561 0.0099310344827529 0
          0.0045555555555561 0.0099310344827529 0.00015 0.0045555555555561 0.0099310344827529 0.0003
          0.005 0.0099310344827529 0 0.005 0.0099310344827529 0.00015
          0.005 0.0099310344827529 0.0003 0.0018888888888904 0.010344827586203 0
          0.0018888888888904 0.010344827586203 0.00015 0.0018888888888904 0.010344827586203 0.0003
          0.0023333333333357 0.010344827586203 0 0.0023333333333357 0.010344827586203 0.00015
          0.0023333333333357 0.010344827586203 0.0003 0.0027777777777809 0.010344827586203 0
          0.0027777777777809 0.010344827586203 0.00015 0.0027777777777809 0.010344827586203 0.0003
          0.0032222222222255 0.010344827586203 0 0.0032222222222255 0.010344827586203 0.00015
          0.0032222222222255 0.010344827586203 0.0003 0.0036666666666679 0.010344827586203 0
          0.0036666666666679 0.010344827586203 0.00015 0.0036666666666679 0.010344827586203 0.0003
          0.0041111111111129 0.010344827586203 0 0.0041111111111129 0.010344827586203 0.00015
          0.0041111111111129 0.010344827586203 0.0003 0.0045555555555562 0.010344827586203 0
          0.0045555555555562 0.010344827586203 0.00015 0.0045555555555562 0.010344827586203 0.0003
          0.005 0.010344827586203 0 0.005 0.010344827586203 0.00015
          0.005 0.010344827586203 0.0003 0.0018888888888905 0.010758620689653 0
          0.0018888888888905 0.010758620689653 0.00015 0.0018888888888905 0.010758620689653 0.0003
          0.0023333333333359 0.010758620689653 0 0.0023333333333359 0.010758620689653 0.00015
          0.0023333333333359 0.010758620689653 0.0003 0.0027777777777812 0.010758620689653 0
          0.0027777777777812 0.010758620689653 0.00015 0.0027777777777812 0.010758620689653 0.0003
          0.0032222222222258 0.010758620689653 0 0.0032222222222258 0.010758620689653 0.00015
          0.0032222222222258 0.010758620689653 0.0003 0.0036666666666681 0.010758620689653 0
          0.0036666666666681 0.010758620689653 0.00015 0.0036666666666681 0.010758620689653 0.0003
          0.004111111111113 0.010758620689653 0 0.004111111111113 0.010758620689653 0.00015
          0.004111111111113 0.010758620689653 0.0003 0.0045555555555562 0.010758620689653 0
          0.0045555555555562 0.010758620689653 0.00015 0.0045555555555562 0.010758620689653 0.0003
          0.005 0.010758620689653 0 0.005 0.010758620689653 0.00015
          0.005 0.010758620689653 0.0003 0.0018888888888907 0.0111724137931 0
          0.0018888888888907 0.0111724137931 0.00015 0.0018888888888907 0.0111724137931 0.0003
          0.002333333333336 0.0111724137931 0 0.002333333333336 0.0111724137931 0.00015
          0.002333333333336 0.0111724137931 0.0003 0.0027777777777815 0.0111724137931 0
          0.0027777777777815 0.0111724137931 0.00015 0.0027777777777815 0.0111724137931 0.0003
          0.0032222222222261 0.0111724137931 0 0.0032222222222261 0.0111724137931 0.00015
          0.0032222222222261 0.0111724137931 0.0003 0.0036666666666682 0.0111724137931 0
          0.0036666666666682 0.0111724137931 0.00015 0.0036666666666682 0.0111724137931 0.0003
          0.0041111111111132 0.0111724137931 0 0.0041111111111132 0.0111724137931 0.00015
          0.0041111111111132 0.0111724137931 0.0003 0.0045555555555562 0.0111724137931 0
          0.0045555555555562 0.0111724137931 0.00015 0.0045555555555562 0.0111724137931 0.0003
          0.005 0.0111724137931 0 0.005 0.0111724137931 0.00015
          0.005 0.0111724137931 0.0003 0.0018888888888908 0.01158620689655 0
          0.0018888888888908 0.01158620689655 0.00015 0.0018888888888908 0.01158620689655 0.0003
          0.0023333333333362 0.01158620689655 0 0.0023333333333362 0.01158620689655 0.00015
          0.0023333333333362 0.01158620689655 0.0003 0.0027777777777818 0.01158620689655 0
          0.0027777777777818 0.01158620689655 0.00015 0.0027777777777818 0.01158620689655 0.0003
          0.0032222222222264 0.01158620689655 0 0.0032222222222264 0.01158620689655 0.00015
          0.0032222222222264 0.01158620689655 0.0003 0.0036666666666684 0.01158620689655 0
          0.0036666666666684 0.01158620689655 0.00015 0.0036666666666684 0.01158620689655 0.0003
          0.0041111111111133 0.01158620689655 0 0.0041111111111133 0.01158620689655 0.00015
          0.0041111111111133 0.01158620689655 0.0003 0.0045555555555563 0.01158620689655 0
          0.0045555555555563 0.01158620689655 0.00015 0.0045555555555563 0.01158620689655 0.0003
          0.005 0.01158620689655 0 0.005 0.01158620689655 0.00015
          0.005 0.01158620689655 0.0003 0.0018888888888909 0.012 0
          0.0018888888888909 0.012 0.00015 0.0018888888888909 0.012 0.0003
          0.0023333333333364 0.012 0 0.0023333333333364 0.012 0.00015
          0.0023333333333364 0.012 0.0003 0.0027777777777821 0.012 0
          0.0027777777777821 0.012 0.00015 0.0027777777777821 0.012 0.0003
          0.0032222222222267 0.012 0 0.0032222222222267 0.012 0.00015
          0.0032222222222267 0.012 0.0003 0.0036666666666686 0.012 0
          0.0036666666666686 0.012 0.00015 0.0036666666666686 0.012 0.0003
          0.0041111111111135 0.012 0 0.0041111111111135 0.012 0.00015
          0.0041111111111135 0.012 0.0003 0.0045555555555563 0.012 0
          0.0045555555555563 0.012 0.00015 0.0045555555555563 0.012 0.0003
          0.005 0.012 0 0.005 0.012 0.00015
          0.005 0.012 0.0003 0.0037820013226837 0.012336480560236 0
          0.004185794034024 0.012345264070133 0 0.0042342826387353 0.012652901224832 0
          0.0038676442772706 0.012640465852933 0 0.0037820013226837 0.012336480560236 0.00015
          0.004185794034024 0.012345264070133 0.00015 0.0042342826387353 0.012652901224832 0.00015
          0.0038676442772706 0.012640465852933 0.00015 0.0037820013226837 0.012336480560236 0.0003
          0.004185794034024 0.012345264070133 0.0003 0.0042342826387353 0.012652901224832 0.0003
          0.0038676442772706 0.012640465852933 0.0003 0.0025889714655165 0.012382221976315 0
          0.0025681692138844 0.01272809974993 0 0.0020604062010233 0.012679406151259 0
          0.0021948734460593 0.012348192846391 0 0.0025889714655165 0.012382221976315 0.00015
          0.0025681692138844 0.01272809974993 0.00015 0.0020604062010233 0.012679406151259 0.00015
          0.0021948734460593 0.012348192846391 0.00015 0.0025889714655165 0.012382221976315 0.0003
          0.0025681692138844 0.01272809974993 0.0003 0.0020604062010233 0.012679406151259 0.0003
          0.0021948734460593 0.012348192846391 0.0003 0.0029921846324185 0.012381457466683 0
          0.0030781171064664 0.012687491868191 0 0.0029921846324185 0.012381457466683 0.00015
          0.0030781171064664 0.012687491868191 0.00015 0.0029921846324185 0.012381457466683 0.0003
          0.0030781171064664 0.012687491868191 0.0003 0.0035064061826528 0.012674722493539 0
          0.0033673902656471 0.012343623774248 0 0.0035064061826528 0.012674722493539 0.00015
          0.0033673902656471 0.012343623774248 0.00015 0.0035064061826528 0.012674722493539 0.0003
          0.0033673902656471 0.012343623774248 0.0003 0.0045893247731344 0.012399526217393 0
          0.004557077400537 0.01272310643902 0 0.0045893247731344 0.012399526217393 0.00015
          0.004557077400537 0.01272310643902 0.00015 0.0045893247731344 0.012399526217393 0.0003
          0.004557077400537 0.01272310643902 0.0003 0.0017386847932316 0.012348636106575 0
          0.001702980389272 0.012655949584096 0 0.0017386847932316 0.012348636106575 0.00015
          0.001702980389272 0.012655949584096 0.00015 0.0017386847932316 0.012348636106575 0.0003
          0.001702980389272 0.012655949584096 0.0003 0.0045555555555563 0.013 0
          0.0041111111111135 0.013 0 0.0045555555555563 0.013 0.00015
          0.0041111111111135 0.013 0.00015 0.0045555555555563 0.013 0.0003
          0.0041111111111135 0.013 0.0003 0.005 0.012499999999989 0
          0.005 0.012499999999989 0.00015 0.005 0.012499999999989 0.0003
          0.0018888888888909 0.013 0 0.0018888888888909 0.013 0.00015
          0.0018888888888909 0.013 0.0003 0.0023333333333364 0.013 0
          0.0023333333333364 0.013 0.00015 0.0023333333333364 0.013 0.0003
          0.0027777777777821 0.013 0 0.0032222222222267 0.013 0
          0.0027777777777821 0.013 0.00015 0.0032222222222267 0.013 0.00015
          0.0027777777777821 0.013 0.0003 0.0032222222222267 0.013 0.0003
          0.0036666666666686 0.013 0 0.0036666666666686 0.013 0.00015
          0.0036666666666686 0.013 0.0003 0.005 0.013 0
          0.005 0.013 0.00015 0.005 0.013 0.0003
          0.0058653844060618 0.0079194158644502 0 0.0058653844060618 0.0079194158644502 0.00015
          0.0058653844060618 0.0079194158644502 0.0003 0.0054092385319303 0.011645775400863 0
          0.0053833488776842 0.01122289251627 0 0.0057681451700529 0.011227839215398 0
          0.0058121034548515 0.011664867476358 0 0.0054092385319303 0.011645775400863 0.00015
          0.0053833488776842 0.01122289251627 0.00015 0.0057681451700529 0.011227839215398 0.00015
          0.0058121034548515 0.011664867476358 0.00015 0.0054092385319303 0.011645775400863 0.0003
          0.0053833488776842 0.01122289251627 0.0003 0.0057681451700529 0.011227839215398 0.0003
          0.0058121034548515 0.011664867476358 0.0003 0.0061750164335738 0.0074760206739226 0
          0.0061750164335738 0.0074760206739226 0.00015 0.0061750164335738 0.0074760206739226 0.0003
          0.0059117305299751 0.012157336766967 0 0.005424823391927 0.012092657417535 0
          0.0059117305299751 0.012157336766967 0.00015 0.005424823391927 0.012092657417535 0.00015
          0.0059117305299751 0.012157336766967 0.0003 0.005424823391927 0.012092657417535 0.0003
          0.0067343691031854 0.0082749920647978 0 0.0064165220606644 0.0085260954574503 0
          0.0061549788754448 0.0084621147205563 0 0.0063465715243025 0.0080645757596712 0
          0.0067343691031854 0.0082749920647978 0.00015 0.0064165220606644 0.0085260954574503 0.00015
          0.0061549788754448 0.0084621147205563 0.00015 0.0063465715243025 0.0080645757596712 0.00015
          0.0067343691031854 0.0082749920647978 0.0003 0.0064165220606644 0.0085260954574503 0.0003
          0.0061549788754448 0.0084621147205563 0.0003 0.0063465715243025 0.0080645757596712 0.0003
          0.0057156085606184 0.010806935576218 0 0.0053556270258422 0.010821833746382 0
          0.0057156085606184 0.010806935576218 0.00015 0.0053556270258422 0.010821833746382 0.00015
          0.0057156085606184 0.010806935576218 0.0003 0.0053556270258422 0.010821833746382 0.0003
          0.0066683322798844 0.007604545062767 0 0.0070645065688863 0.0079329639302151 0
          0.0066683322798844 0.007604545062767 0.00015 0.0070645065688863 0.0079329639302151 0.00015
          0.0066683322798844 0.007604545062767 0.0003 0.0070645065688863 0.0079329639302151 0.0003
          0.0064939459679252 0.012038015964773 0 0.0063228400853618 0.012437164584428 0
          0.0062168099714575 0.011953445524179 0 0.0064939459679252 0.012038015964773 0.00015
          0.0063228400853618 0.012437164584428 0.00015 0.0062168099714575 0.011953445524179 0.00015
          0.0064939459679252 0.012038015964773 0.0003 0.0063228400853618 0.012437164584428 0.0003
          0.0062168099714575 0.011953445524179 0.0003 0.0085394683783431 0.010062707851298 0
          0.0089610661825476 0.0099263712092025 0 0.0091044702108566 0.010399281799278 0
          0.0086466489465924 0.010543823526793 0 0.0085394683783431 0.010062707851298 0.00015
          0.0089610661825476 0.0099263712092025 0.00015 0.0091044702108566 0.010399281799278 0.00015
          0.0086466489465924 0.010543823526793 0.00015 0.0085394683783431 0.010062707851298 0.0003
          0.0089610661825476 0.0099263712092025 0.0003 0.0091044702108566 0.010399281799278 0.0003
          0.0086466489465924 0.010543823526793 0.0003 0.0070988195317831 0.0084027120924791 0
          0.0071605082668525 0.0086998196459927 0 0.0067922174506807 0.0087792626202703 0
          0.0070988195317831 0.0084027120924791 0.00015 0.0071605082668525 0.0086998196459927 0.00015
          0.0067922174506807 0.0087792626202703 0.00015 0.0070988195317831 0.0084027120924791 0.0003
          0.0071605082668525 0.0086998196459927 0.0003 0.0067922174506807 0.0087792626202703 0.0003
          0.0082212914374119 0.0076937845711927 0 0.0086800066977864 0.007743247126247 0
          0.0088477729813042 0.00814241905886 0 0.0083314775318771 0.0082316914297717 0
          0.0082212914374119 0.0076937845711927 0.00015 0.0086800066977864 0.007743247126247 0.00015
          0.0088477729813042 0.00814241905886 0.00015 0.0083314775318771 0.0082316914297717 0.00015
          0.0082212914374119 0.0076937845711927 0.0003 0.0086800066977864 0.007743247126247 0.0003
          0.0088477729813042 0.00814241905886 0.0003 0.0083314775318771 0.0082316914297717 0.0003
          0.0053430701544214 0.010541301697294 0 0.0055999206723275 0.01043253025418 0
          0.0053430701544214 0.010541301697294 0.00015 0.0055999206723275 0.01043253025418 0.00015
          0.0053430701544214 0.010541301697294 0.0003 0.0055999206723275 0.01043253025418 0.0003
          0.0082934157409751 0.011625007594535 0 0.0082561968973057 0.011128478524087 0
          0.0087259762319724 0.011059252375005 0 0.0087558560903097 0.01158375342748 0
          0.0082934157409751 0.011625007594535 0.00015 0.0082561968973057 0.011128478524087 0.00015
          0.0087259762319724 0.011059252375005 0.00015 0.0087558560903097 0.01158375342748 0.00015
          0.0082934157409751 0.011625007594535 0.0003 0.0082561968973057 0.011128478524087 0.0003
          0.0087259762319724 0.011059252375005 0.0003 0.0087558560903097 0.01158375342748 0.0003
          0.0059886023840467 0.010204624020488 0 0.005451541046517 0.010106162675601 0
          0.0057038380696848 0.0099786893665285 0 0.0059886023840467 0.010204624020488 0.00015
          0.005451541046517 0.010106162675601 0.00015 0.0057038380696848 0.0099786893665285 0.00015
          0.0059886023840467 0.010204624020488 0.0003 0.005451541046517 0.010106162675601 0.0003
          0.0057038380696848 0.0099786893665285 0.0003 0.0078369912454539 0.011665931946432 0
          0.0078144148304188 0.011182309200361 0 0.0078369912454539 0.011665931946432 0.00015
          0.0078144148304188 0.011182309200361 0.00015 0.0078369912454539 0.011665931946432 0.0003
          0.0078144148304188 0.011182309200361 0.0003 0.0086735759699153 0.012550377000034 0
          0.0087327775394086 0.012086203404192 0 0.0091819131238462 0.012082911785298 0
          0.0091730578335362 0.01253941989127 0 0.0086735759699153 0.012550377000034 0.00015
          0.0087327775394086 0.012086203404192 0.00015 0.0091819131238462 0.012082911785298 0.00015
          0.0091730578335362 0.01253941989127 0.00015 0.0086735759699153 0.012550377000034 0.0003
          0.0087327775394086 0.012086203404192 0.0003 0.0091819131238462 0.012082911785298 0.0003
          0.0091730578335362 0.01253941989127 0.0003 0.010056105947498 0.011950542930398 0
          0.010274327777913 0.011549885364188 0 0.010056105947498 0.011950542930398 0.00015
          0.010274327777913 0.011549885364188 0.00015 0.010056105947498 0.011950542930398 0.0003
          0.010274327777913 0.011549885364188 0.0003 0.0087795014641276 0.0086485955844896 0
          0.0083912374962093 0.008661976024637 0 0.0087795014641276 0.0086485955844896 0.00015
          0.0083912374962093 0.008661976024637 0.00015 0.0087795014641276 0.0086485955844896 0.0003
          0.0083912374962093 0.008661976024637 0.0003 0.0073407145553935 0.0082277946262138 0
          0.0075218701602762 0.0085641736532836 0 0.0073407145553935 0.0082277946262138 0.00015
          0.0075218701602762 0.0085641736532836 0.00015 0.0073407145553935 0.0082277946262138 0.0003
          0.0075218701602762 0.0085641736532836 0.0003 0.0073357310625303 0.010250124356937 0
          0.0069197896843151 0.010226005241683 0 0.0068905371289043 0.0097153304797672 0
          0.0074001182371208 0.0096888945892578 0 0.0073357310625303 0.010250124356937 0.00015
          0.0069197896843151 0.010226005241683 0.00015 0.0068905371289043 0.0097153304797672 0.00015
          0.0074001182371208 0.0096888945892578 0.00015 0.0073357310625303 0.010250124356937 0.0003
          0.0069197896843151 0.010226005241683 0.0003 0.0068905371289043 0.0097153304797672 0.0003
          0.0074001182371208 0.0096888945892578 0.0003 0.0081958803856553 0.010639401227375 0
          0.0081958803856553 0.010639401227375 0.00015 0.0081958803856553 0.010639401227375 0.0003
          0.0057785311780113 0.0084598603588589 0 0.0057785311780113 0.0084598603588589 0.00015
          0.0057785311780113 0.0084598603588589 0.0003 0.0068354780286894 0.0065149558629347 0
          0.0065694481807909 0.0068273110654121 0 0.0068354780286894 0.0065149558629347 0.00015
          0.0065694481807909 0.0068273110654121 0.00015 0.0068354780286894 0.0065149558629347 0.0003
          0.0065694481807909 0.0068273110654121 0.0003 0.0061608287914901 0.011213609336371 0
          0.0061928612734976 0.011646193292464 0 0.0061608287914901 0.011213609336371 0.00015
          0.0061928612734976 0.011646193292464 0.00015 0.0061608287914901 0.011213609336371 0.0003
          0.0061928612734976 0.011646193292464 0.0003 0.0060256410256453 0.013 0
          0.0057791181770977 0.012558961975135 0 0.0060256410256453 0.013 0.00015
          0.0057791181770977 0.012558961975135 0.00015 0.0060256410256453 0.013 0.0003
          0.0057791181770977 0.012558961975135 0.0003 0.0061071771839093 0.010748184383761 0
          0.0061071771839093 0.010748184383761 0.00015 0.0061071771839093 0.010748184383761 0.0003
          0.0064845320073614 0.010216336118065 0 0.0065278935143817 0.010725783571784 0
          0.0064845320073614 0.010216336118065 0.00015 0.0065278935143817 0.010725783571784 0.00015
          0.0064845320073614 0.010216336118065 0.0003 0.0065278935143817 0.010725783571784 0.0003
          0.0077968354342878 0.012121840026842 0 0.0077167513193965 0.012573751507337 0
          0.0072251022123942 0.012571145425366 0 0.0073422863282366 0.012132364188728 0
          0.0077968354342878 0.012121840026842 0.00015 0.0077167513193965 0.012573751507337 0.00015
          0.0072251022123942 0.012571145425366 0.00015 0.0073422863282366 0.012132364188728 0.00015
          0.0077968354342878 0.012121840026842 0.0003 0.0077167513193965 0.012573751507337 0.0003
          0.0072251022123942 0.012571145425366 0.0003 0.0073422863282366 0.012132364188728 0.0003
          0.0072550033809581 0.0091349332579085 0 0.0076541519095837 0.0089672912460138 0
          0.0072550033809581 0.0091349332579085 0.00015 0.0076541519095837 0.0089672912460138 0.00015
          0.0072550033809581 0.0091349332579085 0.0003 0.0076541519095837 0.0089672912460138 0.0003
          0.0065384615384679 0.013 0 0.0067552646820212 0.012548340065985 0
          0.007051282051287 0.013 0 0.0065384615384679 0.013 0.00015
          0.0067552646820212 0.012548340065985 0.00015 0.007051282051287 0.013 0.00015
          0.0065384615384679 0.013 0.0003 0.0067552646820212 0.012548340065985 0.0003
          0.007051282051287 0.013 0.0003 0.0068431084681841 0.0092248064360522 0
          0.0064629827835734 0.0097214310503871 0 0.0064401841603361 0.009249995775159 0
          0.0068431084681841 0.0092248064360522 0.00015 0.0064629827835734 0.0097214310503871 0.00015
          0.0064401841603361 0.009249995775159 0.00015 0.0068431084681841 0.0092248064360522 0.0003
          0.0064629827835734 0.0097214310503871 0.0003 0.0064401841603361 0.009249995775159 0.0003
          0.0078142698619037 0.0093821750433109 0 0.0078142698619037 0.0093821750433109 0.00015
          0.0078142698619037 0.0093821750433109 0.0003 0.0064227954769353 0.0088235452462607 0
          0.0064227954769353 0.0088235452462607 0.00015 0.0064227954769353 0.0088235452462607 0.0003
          0.0060749446210727 0.008846093909968 0 0.0060643722245677 0.0092551370126649 0
          0.0060749446210727 0.008846093909968 0.00015 0.0060643722245677 0.0092551370126649 0.00015
          0.0060749446210727 0.008846093909968 0.0003 0.0060643722245677 0.0092551370126649 0.0003
          0.0065702926001918 0.011654169374977 0 0.006566373886869 0.011214840249119 0
          0.0065702926001918 0.011654169374977 0.00015 0.006566373886869 0.011214840249119 0.00015
          0.0065702926001918 0.011654169374977 0.0003 0.006566373886869 0.011214840249119 0.0003
          0.0093206781870799 0.010991873758601 0 0.0093206781870799 0.010991873758601 0.00015
          0.0093206781870799 0.010991873758601 0.0003 0.0063586074578252 0.0071353312088165 0
          0.0066361392369192 0.0072470897144222 0 0.0063586074578252 0.0071353312088165 0.00015
          0.0066361392369192 0.0072470897144222 0.00015 0.0063586074578252 0.0071353312088165 0.0003
          0.0066361392369192 0.0072470897144222 0.0003 0.0070635342364542 0.0061542378287001 0
          0.0070635342364542 0.0061542378287001 0.00015 0.0070635342364542 0.0061542378287001 0.0003
          0.010295501843898 0.0098988447327244 0 0.010331968632679 0.010177975560165 0
          0.0100990439633 0.010345969653311 0 0.0099255608427027 0.010003443747144 0
          0.010295501843898 0.0098988447327244 0.00015 0.010331968632679 0.010177975560165 0.00015
          0.0100990439633 0.010345969653311 0.00015 0.0099255608427027 0.010003443747144 0.00015
          0.010295501843898 0.0098988447327244 0.0003 0.010331968632679 0.010177975560165 0.0003
          0.0100990439633 0.010345969653311 0.0003 0.0099255608427027 0.010003443747144 0.0003
          0.0075641025641077 0.013 0 0.0075641025641077 0.013 0.00015
          0.0075641025641077 0.013 0.0003 0.007358052416256 0.010740056955422 0
          0.0069470918478694 0.010735576046615 0 0.007358052416256 0.010740056955422 0.00015
          0.0069470918478694 0.010735576046615 0.00015 0.007358052416256 0.010740056955422 0.0003
          0.0069470918478694 0.010735576046615 0.0003 0.0060634003212644 0.00969554800092 0
          0.0060634003212644 0.00969554800092 0.00015 0.0060634003212644 0.00969554800092 0.0003
          0.0068797309840753 0.0070620910964483 0 0.0071475509773245 0.0073405239650904 0
          0.0068797309840753 0.0070620910964483 0.00015 0.0071475509773245 0.0073405239650904 0.00015
          0.0068797309840753 0.0070620910964483 0.0003 0.0071475509773245 0.0073405239650904 0.0003
          0.0094632087818517 0.0081862945076399 0 0.0094632087818517 0.0081862945076399 0.00015
          0.0094632087818517 0.0081862945076399 0.0003 0.0091025641025756 0.013 0
          0.0097400134531557 0.012425583162504 0 0.0096153846153981 0.013 0
          0.0091025641025756 0.013 0.00015 0.0097400134531557 0.012425583162504 0.00015
          0.0096153846153981 0.013 0.00015 0.0091025641025756 0.013 0.0003
          0.0097400134531557 0.012425583162504 0.0003 0.0096153846153981 0.013 0.0003
          0.0080231150782377 0.0087799001252051 0 0.0081700325353194 0.0091480386714452 0
          0.0080231150782377 0.0087799001252051 0.00015 0.0081700325353194 0.0091480386714452 0.00015
          0.0080231150782377 0.0087799001252051 0.0003 0.0081700325353194 0.0091480386714452 0.0003
          0.0095329104644106 0.010197774343332 0 0.0097620082938393 0.010606176712681 0
          0.0095329104644106 0.010197774343332 0.00015 0.0097620082938393 0.010606176712681 0.00015
          0.0095329104644106 0.010197774343332 0.0003 0.0097620082938393 0.010606176712681 0.0003
          0.008459458524824 0.0095324383395712 0 0.0079941048127097 0.0097727986382514 0
          0.008459458524824 0.0095324383395712 0.00015 0.0079941048127097 0.0097727986382514 0.00015
          0.008459458524824 0.0095324383395712 0.0003 0.0079941048127097 0.0097727986382514 0.0003
          0.0086852410268287 0.0090671784981495 0 0.0084121010432185 0.0089624922946051 0
          0.0086852410268287 0.0090671784981495 0.00015 0.0084121010432185 0.0089624922946051 0.00015
          0.0086852410268287 0.0090671784981495 0.0003 0.0084121010432185 0.0089624922946051 0.0003
          0.010101546658348 0.010930204106287 0 0.010101546658348 0.010930204106287 0.00015
          0.010101546658348 0.010930204106287 0.0003 0.009219770580739 0.01160836207586 0
          0.009219770580739 0.01160836207586 0.00015 0.009219770580739 0.01160836207586 0.0003
          0.010512959331867 0.011182607317474 0 0.010512959331867 0.011182607317474 0.00015
          0.010512959331867 0.011182607317474 0.0003 0.0077135351973544 0.0099243016659867 0
          0.0077135351973544 0.0099243016659867 0.00015 0.0077135351973544 0.0099243016659867 0.0003
          0.0098399724462143 0.011314297129672 0 0.0098399724462143 0.011314297129672 0.00015
          0.0098399724462143 0.011314297129672 0.0003 0.0071955324717728 0.0067909271139751 0
          0.0071955324717728 0.0067909271139751 0.00015 0.0071955324717728 0.0067909271139751 0.0003
          0.0081933420545987 0.012561933470251 0 0.0082754308174791 0.012106448253662 0
          0.0081933420545987 0.012561933470251 0.00015 0.0082754308174791 0.012106448253662 0.00015
          0.0081933420545987 0.012561933470251 0.0003 0.0082754308174791 0.012106448253662 0.0003
          0.0091885294783446 0.0083400759786555 0 0.009185366627384 0.008676208234384 0
          0.0091885294783446 0.0083400759786555 0.00015 0.009185366627384 0.008676208234384 0.00015
          0.0091885294783446 0.0083400759786555 0.0003 0.009185366627384 0.008676208234384 0.0003
          0.0091484396571168 0.0092413935725907 0 0.0091484396571168 0.0092413935725907 0.00015
          0.0091484396571168 0.0092413935725907 0.0003 0.0096530361744126 0.011754958706862 0
          0.0096530361744126 0.011754958706862 0.00015 0.0096530361744126 0.011754958706862 0.0003
          0.0074385983748104 0.0076487872335333 0 0.0078026145042184 0.0073499712891003 0
          0.0077209126941719 0.0079857422349365 0 0.0074385983748104 0.0076487872335333 0.00015
          0.0078026145042184 0.0073499712891003 0.00015 0.0077209126941719 0.0079857422349365 0.00015
          0.0074385983748104 0.0076487872335333 0.0003 0.0078026145042184 0.0073499712891003 0.0003
          0.0077209126941719 0.0079857422349365 0.0003 0.0096060866574151 0.0086034051599073 0
          0.0096917093907041 0.0090884547689663 0 0.0096060866574151 0.0086034051599073 0.00015
          0.0096917093907041 0.0090884547689663 0.00015 0.0096060866574151 0.0086034051599073 0.0003
          0.0096917093907041 0.0090884547689663 0.0003 0.0074956671905203 0.0070789212715492 0
          0.0074956671905203 0.0070789212715492 0.00015 0.0074956671905203 0.0070789212715492 0.0003
          0.0080769230769304 0.013 0 0.0080769230769304 0.013 0.00015
          0.0080769230769304 0.013 0.0003 0.0097960013481072 0.0095766790072516 0
          0.0097960013481072 0.0095766790072516 0.00015 0.0097960013481072 0.0095766790072516 0.0003
          0.0079025965714766 0.0083828176281282 0 0.0079025965714766 0.0083828176281282 0.00015
          0.0079025965714766 0.0083828176281282 0.0003 0.0075832963246375 0.0064815260672887 0
          0.0075832963246375 0.0064815260672887 0.00015 0.0075832963246375 0.0064815260672887 0.0003
          0.0077301559610225 0.010254379585944 0 0.0077301559610225 0.010254379585944 0.00015
          0.0077301559610225 0.010254379585944 0.0003 0.0077729216102883 0.010708725243031 0
          0.0077729216102883 0.010708725243031 0.00015 0.0077729216102883 0.010708725243031 0.0003
          0.0053754057810206 0.0085370600870078 0 0.0053754057810206 0.0085370600870078 0.00015
          0.0053754057810206 0.0085370600870078 0.0003 0.0053590367872451 0.0089652268696161 0
          0.0053590367872451 0.0089652268696161 0.00015 0.0053590367872451 0.0089652268696161 0.0003
          0.0077314143265107 0.0068791993815975 0 0.0077314143265107 0.0068791993815975 0.00015
          0.0077314143265107 0.0068791993815975 0.0003 0.0053527694027008 0.0093707431616054 0
          0.0053527694027008 0.0093707431616054 0.00015 0.0053527694027008 0.0093707431616054 0.0003
          0.0080272182678723 0.0070086219794164 0 0.0080272182678723 0.0070086219794164 0.00015
          0.0080272182678723 0.0070086219794164 0.0003 0.0053686841699875 0.0097656204902227 0
          0.0053686841699875 0.0097656204902227 0.00015 0.0053686841699875 0.0097656204902227 0.0003
          0.0069753270353201 0.011225035595701 0 0.0069753270353201 0.011225035595701 0.00015
          0.0069753270353201 0.011225035595701 0.0003 0.0081230348422786 0.010180774741819 0
          0.0081230348422786 0.010180774741819 0.00015 0.0081230348422786 0.010180774741819 0.0003
          0.0069714542407681 0.011681487349241 0 0.0069714542407681 0.011681487349241 0.00015
          0.0069714542407681 0.011681487349241 0.0003 0.0073877269320336 0.011214628569732 0
          0.0073877269320336 0.011214628569732 0.00015 0.0073877269320336 0.011214628569732 0.0003
          0.0073992085993983 0.011689991378362 0 0.0073992085993983 0.011689991378362 0.00015
          0.0073992085993983 0.011689991378362 0.0003 0.0088599825232994 0.0095868605102716 0
          0.0088599825232994 0.0095868605102716 0.00015 0.0088599825232994 0.0095868605102716 0.0003
          0.0093698999071837 0.0097470513643601 0 0.0093698999071837 0.0097470513643601 0.00015
          0.0093698999071837 0.0097470513643601 0.0003 0.005708830284701 0.0092938500467527 0
          0.005710003284826 0.0096895337898706 0 0.005708830284701 0.0092938500467527 0.00015
          0.005710003284826 0.0096895337898706 0.00015 0.005708830284701 0.0092938500467527 0.0003
          0.005710003284826 0.0096895337898706 0.0003 0.0057253261942579 0.008884797777202 0
          0.0057253261942579 0.008884797777202 0.00015 0.0057253261942579 0.008884797777202 0.0003
          0.0054465956081518 0.012540682824845 0 0.0055128205128226 0.013 0
          0.0054465956081518 0.012540682824845 0.00015 0.0055128205128226 0.013 0.00015
          0.0054465956081518 0.012540682824845 0.0003 0.0055128205128226 0.013 0.0003
          0.0095150035075373 0.012074113937236 0 0.0095150035075373 0.012074113937236 0.00015
          0.0095150035075373 0.012074113937236 0.0003 0.008589743589753 0.013 0
          0.008589743589753 0.013 0.00015 0.008589743589753 0.013 0.0003
          0.0068932543961937 0.012102712522565 0 0.0068932543961937 0.012102712522565 0.00015
          0.0068932543961937 0.012102712522565 0.0003 0.010475172867508 0.012102844227475 0
          0.010669582432454 0.011743114144408 0 0.010475172867508 0.012102844227475 0.00015
          0.010669582432454 0.011743114144408 0.00015 0.010475172867508 0.012102844227475 0.0003
          0.010669582432454 0.011743114144408 0.0003 0.0098857235699117 0.0079055319030787 0
          0.0092411258002763 0.0078319639415625 0 0.0095144479526816 0.0076594245921199 0
          0.0098857235699117 0.0079055319030787 0.00015 0.0092411258002763 0.0078319639415625 0.00015
          0.0095144479526816 0.0076594245921199 0.00015 0.0098857235699117 0.0079055319030787 0.0003
          0.0092411258002763 0.0078319639415625 0.0003 0.0095144479526816 0.0076594245921199 0.0003
          0.010385522435479 0.010608007769118 0 0.010385522435479 0.010608007769118 0.00015
          0.010385522435479 0.010608007769118 0.0003 0.010783127360108 0.010836567412064 0
          0.010783127360108 0.010836567412064 0.00015 0.010783127360108 0.010836567412064 0.0003
          0.010310686327751 0.012539165738252 0 0.010128205128219 0.013 0
          0.010310686327751 0.012539165738252 0.00015 0.010128205128219 0.013 0.00015
          0.010310686327751 0.012539165738252 0.0003 0.010128205128219 0.013 0.0003
          0.011222013645511 0.011097826594996 0 0.010925822172272 0.011428925131881 0
          0.011222013645511 0.011097826594996 0.00015 0.010925822172272 0.011428925131881 0.00015
          0.011222013645511 0.011097826594996 0.0003 0.010925822172272 0.011428925131881 0.0003
          0.010158980545183 0.0089928081418126 0 0.010234809282542 0.0094751596931164 0
          0.010158980545183 0.0089928081418126 0.00015 0.010234809282542 0.0094751596931164 0.00015
          0.010158980545183 0.0089928081418126 0.0003 0.010234809282542 0.0094751596931164 0.0003
          0.010689703280164 0.0094649590365737 0 0.010691300612525 0.0099168298135774 0
          0.010689703280164 0.0094649590365737 0.00015 0.010691300612525 0.0099168298135774 0.00015
          0.010689703280164 0.0094649590365737 0.0003 0.010691300612525 0.0099168298135774 0.0003
          0.010057653370411 0.0084974472595183 0 0.010057653370411 0.0084974472595183 0.00015
          0.010057653370411 0.0084974472595183 0.0003 0.0071984303565192 0.0057392272964834 0
          0.0077721363879251 0.0058968168784219 0 0.0071984303565192 0.0057392272964834 0.00015
          0.0077721363879251 0.0058968168784219 0.00015 0.0071984303565192 0.0057392272964834 0.0003
          0.0077721363879251 0.0058968168784219 0.0003 0.0089588909882048 0.0073942383853577 0
          0.0089588909882048 0.0073942383853577 0.00015 0.0089588909882048 0.0073942383853577 0.0003
          0.0081402125110085 0.0066115625704341 0 0.0082479601882269 0.0062087007836213 0
          0.0081402125110085 0.0066115625704341 0.00015 0.0082479601882269 0.0062087007836213 0.00015
          0.0081402125110085 0.0066115625704341 0.0003 0.0082479601882269 0.0062087007836213 0.0003
          0.0084364690699339 0.0071912877673881 0 0.0084364690699339 0.0071912877673881 0.00015
          0.0084364690699339 0.0071912877673881 0.0003 0.010601303654319 0.010290632654442 0
          0.010601303654319 0.010290632654442 0.00015 0.010601303654319 0.010290632654442 0.0003
          0.0085681017610313 0.0067725899286886 0 0.0085681017610313 0.0067725899286886 0.00015
          0.0085681017610313 0.0067725899286886 0.0003
          <InformationKey name="L2_NORM_RANGE" location="vtkDataArray" length="2">
            <Value index="0">
              0.0092063092257
            </Value>
            <Value index="1">
              0.016482431226
            </Value>
          </InformationKey>
        </DataArray>
      </Points>
      <Cells>
        <DataArray type="Int64" Name="connectivity" format="ascii" RangeMin="0" RangeMax="782">
          27 24 3 6 28 25
          4 7 28 25 4 7
          29 26 5 8 33 30
          9 12 34 31 10 13
          34 31 10 13 35 32
          11 14 36 33 12 15
          37 34 13 16 37 34
          13 16 38 35 14 17
          39 36 15 18 40 37
          16 19 40 37 16 19
          41 38 17 20 42 39
          18 21 43 40 19 22
          43 40 19 22 44 41
          20 23 45 42 21 24
          46 43 22 25 46 43
          22 25 47 44 23 26
          48 45 24 27 49 46
          25 28 49 46 25 28
          50 47 26 29 57 54
          30 33 58 55 31 34
          58 55 31 34 59 56
          32 35 60 57 33 36
          61 58 34 37 61 58
          34 37 62 59 35 38
          63 60 36 39 64 61
          37 40 64 61 37 40
          65 62 38 41 66 63
          39 42 67 64 40 43
          67 64 40 43 68 65
          41 44 69 66 42 45
          70 67 43 46 70 67
          43 46 71 68 44 47
          72 69 45 48 73 70
          46 49 73 70 46 49
          74 71 47 50 78 75
          51 54 79 76 52 55
          79 76 52 55 80 77
          53 56 81 78 54 57
          82 79 55 58 82 79
          55 58 83 80 56 59
          84 81 57 60 85 82
          58 61 85 82 58 61
          86 83 59 62 87 84
          60 63 88 85 61 64
          88 85 61 64 89 86
          62 65 90 87 63 66
          91 88 64 67 91 88
          64 67 92 89 65 68
          93 90 66 69 94 91
          67 70 94 91 67 70
          95 92 68 71 96 93
          69 72 97 94 70 73
          97 94 70 73 98 95
          71 74 102 99 75 78
          103 100 76 79 103 100
          76 79 104 101 77 80
          105 102 78 81 106 103
          79 82 106 103 79 82
          107 104 80 83 108 105
          81 84 109 106 82 85
          109 106 82 85 110 107
          83 86 111 108 84 87
          112 109 85 88 112 109
          85 88 113 110 86 89
          114 111 87 90 115 112
          88 91 115 112 88 91
          116 113 89 92 117 114
          90 93 118 115 91 94
          118 115 91 94 119 116
          92 95 120 117 93 96
          121 118 94 97 121 118
          94 97 122 119 95 98
          126 123 99 102 127 124
          100 103 127 124 100 103
          128 125 101 104 129 126
          102 105 130 127 103 106
          130 127 103 106 131 128
          104 107 132 129 105 108
          133 130 106 109 133 130
          106 109 134 131 107 110
          135 132 108 111 136 133
          109 112 136 133 109 112
          137 134 110 113 138 135
          111 114 139 136 112 115
          139 136 112 115 140 137
          113 116 141 138 114 117
          142 139 115 118 142 139
          115 118 143 140 116 119
          144 141 117 120 145 142
          118 121 145 142 118 121
          146 143 119 122 150 147
          123 126 151 148 124 127
          151 148 124 127 152 149
          125 128 153 150 126 129
          154 151 127 130 154 151
          127 130 155 152 128 131
          156 153 129 132 157 154
          130 133 157 154 130 133
          158 155 131 134 159 156
          132 135 160 157 133 136
          160 157 133 136 161 158
          134 137 162 159 135 138
          163 160 136 139 163 160
          136 139 164 161 137 140
          165 162 138 141 166 163
          139 142 166 163 139 142
          167 164 140 143 168 165
          141 144 169 166 142 145
          169 166 142 145 170 167
          143 146 171 172 173 174
          175 176 177 178 175 176
          177 178 179 180 181 182
          183 184 185 186 187 188
          189 190 187 188 189 190
          191 192 193 194 183 195
          196 184 187 197 198 188
          187 197 198 188 191 199
          200 192 201 202 171 174
          203 204 175 178 203 204
          175 178 205 206 179 182
          173 172 207 208 177 176
          209 210 177 176 209 210
          181 180 211 212 202 201
          196 195 204 203 198 197
          204 203 198 197 206 205
          200 199 213 186 185 214
          215 190 189 216 215 190
          189 216 217 194 193 218
          162 172 171 159 163 176
          175 160 163 176 175 160
          164 180 179 161 173 208
          219 220 177 210 221 222
          177 210 221 222 181 212
          223 224 159 171 202 156
          160 175 204 157 160 175
          204 157 161 179 206 158
          168 225 207 165 169 226
          209 166 169 226 209 166
          170 227 211 167 185 184
          231 228 189 188 232 229
          189 188 232 229 193 192
          233 230 234 184 196 235
          236 188 198 237 236 188
          198 237 238 192 200 239
          183 186 150 153 187 190
          151 154 187 190 151 154
          191 194 152 155 201 240
          235 196 203 241 237 198
          203 241 237 198 205 242
          239 200 174 220 240 201
          178 222 241 203 178 222
          241 203 182 224 242 205
          165 207 172 162 166 209
          176 163 166 209 176 163
          167 211 180 164 208 207
          225 243 210 209 226 244
          210 209 226 244 212 211
          227 245 195 153 156 202
          197 154 157 204 197 154
          157 204 199 155 158 206
          147 150 186 213 148 151
          190 215 148 151 190 215
          149 152 194 217 183 195
          153 187 197 154 187 197
          154 191 199 155 173 174
          220 177 178 222 177 178
          222 181 182 224 234 184
          231 236 188 232 236 188
          232 238 192 233 243 208
          219 244 210 221 244 210
          221 245 212 223 249 250
          251 252 253 254 255 256
          253 254 255 256 257 258
          259 260 264 265 249 252
          266 267 253 256 266 267
          253 256 268 269 257 260
          270 271 272 273 274 275
          276 277 274 275 276 277
          278 279 280 281 282 251
          250 283 284 255 254 285
          284 255 254 285 286 259
          258 287 273 288 289 270
          277 290 291 274 277 290
          291 274 281 292 293 278
          294 295 264 296 297 298
          266 299 297 298 266 299
          300 301 268 302 303 304
          305 306 307 308 309 310
          307 308 309 310 311 312
          313 314 270 315 316 317
          274 318 319 320 274 318
          319 320 278 321 322 323
          324 325 326 327 328 329
          330 331 328 329 330 331
          332 333 334 335 283 336
          337 282 285 338 339 284
          285 338 339 284 287 340
          341 286 342 343 344 345
          346 347 348 349 346 347
          348 349 350 351 352 353
          354 337 355 356 357 339
          358 359 357 339 358 359
          360 341 361 362 343 342
          363 364 347 346 365 366
          347 346 365 366 351 350
          367 368 369 370 371 372
          373 374 375 376 373 374
          375 376 377 378 379 380
          711 381 382 712 713 383
          384 714 713 383 384 714
          715 385 386 716 327 326
          387 388 331 330 389 390
          331 330 389 390 335 334
          391 392 393 394 316 315
          395 396 319 318 395 396
          319 318 397 398 322 321
          399 400 401 402 403 404
          405 406 403 404 405 406
          407 408 409 410 306 344
          343 411 310 348 347 412
          310 348 347 412 314 352
          351 413 414 246 273 272
          415 247 277 276 415 247
          277 276 416 248 281 280
          423 424 252 251 425 426
          256 255 425 426 256 255
          427 428 260 259 429 430
          264 295 431 432 266 298
          431 432 266 298 433 434
          268 301 282 337 354 435
          284 339 357 436 284 339
          357 436 286 341 360 437
          354 438 439 435 357 440
          441 436 357 440 441 436
          360 442 443 437 444 445
          446 447 448 449 450 451
          448 449 450 451 452 453
          454 455 456 316 394 457
          458 319 396 459 458 319
          396 459 460 322 398 461
          462 463 446 464 465 466
          450 467 465 466 450 467
          468 469 454 470 471 401
          472 473 474 405 475 476
          474 405 475 476 477 409
          478 479 402 456 457 480
          406 458 459 481 406 458
          459 481 410 460 461 482
          471 456 402 401 474 458
          406 405 474 458 406 405
          477 460 410 409 473 483
          317 471 476 484 320 474
          476 484 320 474 479 485
          323 477 486 483 473 487
          488 484 476 489 488 484
          476 489 490 485 479 491
          483 271 270 317 484 275
          274 320 484 275 274 320
          485 279 278 323 492 424
          423 493 494 426 425 495
          494 426 425 495 496 428
          427 497 498 344 306 305
          499 348 310 309 499 348
          310 309 500 352 314 313
          501 502 288 261 503 504
          290 262 503 504 290 262
          505 506 292 263 429 295
          463 462 431 298 466 465
          431 298 466 465 433 301
          469 468 510 511 512 513
          514 515 516 517 514 515
          516 517 518 519 520 521
          464 446 445 522 467 450
          449 523 467 450 449 523
          470 454 453 524 525 526
          400 399 527 528 404 403
          527 528 404 403 529 530
          408 407 487 473 472 531
          489 476 475 532 489 476
          475 532 491 479 478 533
          288 273 246 261 290 277
          247 262 290 277 247 262
          292 281 248 263 435 439
          493 423 436 441 495 425
          436 441 495 425 437 443
          497 427 288 502 534 535
          290 504 536 537 290 504
          536 537 292 506 538 539
          717 540 718 719 720 541
          721 722 720 541 721 722
          723 542 724 725 543 372
          544 545 546 376 547 548
          546 376 547 548 549 380
          550 551 480 457 552 553
          481 459 554 555 481 459
          554 555 482 461 556 557
          558 559 498 305 560 561
          499 309 560 561 499 309
          562 563 500 313 400 526
          439 438 404 528 441 440
          404 528 441 440 408 530
          443 442 564 565 480 553
          566 567 481 555 566 567
          481 555 568 569 482 557
          570 564 553 571 572 566
          555 573 572 566 555 573
          574 568 557 575 726 576
          559 512 727 577 561 516
          727 577 561 516 728 578
          563 520 579 345 344 498
          580 349 348 499 580 349
          348 499 581 353 352 500
          729 582 576 726 730 583
          577 727 730 583 577 727
          731 584 578 728 438 354
          531 472 440 357 532 475
          440 357 532 475 442 360
          533 478 438 472 401 400
          440 475 405 404 440 475
          405 404 442 478 409 408
          565 585 402 480 567 586
          406 481 567 586 406 481
          569 587 410 482 545 544
          732 733 548 547 734 735
          548 547 734 735 551 550
          736 737 534 502 501 418
          536 504 503 420 536 504
          503 420 538 506 505 422
          251 282 435 423 255 284
          436 425 255 284 436 425
          259 286 437 427 576 588
          498 559 577 589 499 561
          577 589 499 561 578 590
          500 563 591 534 418 417
          592 536 420 419 592 536
          420 419 593 538 422 421
          369 594 595 370 373 596
          597 374 373 596 597 374
          377 598 599 378 326 600
          601 387 330 602 603 389
          330 602 603 389 334 604
          605 391 606 570 387 601
          607 572 389 603 607 572
          389 603 608 574 391 605
          317 316 456 471 320 319
          458 474 320 319 458 474
          323 322 460 477 483 486
          272 271 484 488 276 275
          484 488 276 275 485 490
          280 279 582 729 738 739
          583 730 740 741 583 730
          740 741 584 731 742 743
          588 382 381 609 589 384
          383 610 589 384 383 610
          590 386 385 611 612 613
          324 614 615 616 328 617
          615 616 328 617 618 619
          332 620 382 582 739 712
          384 583 741 714 384 583
          741 714 386 584 743 716
          582 382 588 576 583 384
          589 577 583 384 589 577
          584 386 590 578 595 342
          345 370 597 346 349 374
          597 346 349 374 599 350
          353 378 621 622 606 601
          623 624 607 603 623 624
          607 603 625 626 608 605
          609 579 498 588 610 580
          499 589 610 580 499 589
          611 581 500 590 540 621
          601 600 541 623 603 602
          541 623 603 602 542 625
          605 604 591 627 535 534
          592 628 537 536 592 628
          537 536 593 629 539 538
          594 630 522 445 596 631
          523 449 596 631 523 449
          598 632 524 453 744 745
          633 622 746 747 634 624
          746 747 634 624 748 749
          635 626 324 327 636 614
          328 331 637 617 328 331
          637 617 332 335 638 620
          745 750 751 510 747 752
          753 514 747 752 753 514
          749 754 755 518 639 591
          417 507 640 592 419 508
          640 592 419 508 641 593
          421 509 371 370 345 579
          375 374 349 580 375 374
          349 580 379 378 353 581
          642 399 402 585 643 403
          406 586 643 403 406 586
          644 407 410 587 645 525
          399 642 646 527 403 643
          646 527 403 643 647 529
          407 644 326 718 540 600
          330 721 541 602 330 721
          541 602 334 724 542 604
          621 540 717 756 623 541
          720 757 623 541 720 757
          625 542 723 758 639 507
          759 760 640 508 761 762
          640 508 761 762 641 509
          763 764 388 387 570 571
          390 389 572 573 390 389
          572 573 392 391 574 575
          648 651 6 0 649 652
          7 1 649 652 7 1
          650 653 8 2 613 612
          535 627 616 615 537 628
          616 615 537 628 619 618
          539 629 627 591 639 654
          628 592 640 655 628 592
          640 655 629 593 641 656
          612 289 288 535 615 291
          290 537 615 291 290 537
          618 293 292 539 651 657
          27 6 652 658 28 7
          652 658 28 7 653 659
          29 8 756 744 622 621
          757 746 624 623 757 746
          624 623 758 748 626 625
          660 613 627 654 661 616
          628 655 661 616 628 655
          662 619 629 656 657 663
          48 27 658 664 49 28
          658 664 49 28 659 665
          50 29 666 493 439 526
          667 495 441 528 667 495
          441 528 668 497 443 530
          669 565 564 303 670 567
          566 307 670 567 566 307
          671 569 568 311 663 355
          72 48 664 358 73 49
          664 358 73 49 665 361
          74 50 672 492 493 666
          673 494 495 667 673 494
          495 667 674 496 497 668
          144 249 265 168 145 253
          267 169 145 253 267 169
          146 257 269 170 411 669
          303 306 412 670 307 310
          412 670 307 310 413 671
          311 314 765 718 326 325
          766 721 330 329 766 721
          330 329 767 724 334 333
          525 645 364 675 527 646
          366 676 527 646 366 676
          529 647 368 677 768 639
          760 769 770 640 762 771
          770 640 762 771 772 641
          764 773 669 411 645 642
          670 412 646 643 670 412
          646 643 671 413 647 644
          639 768 660 654 640 770
          661 655 640 770 661 655
          641 772 662 656 642 585
          565 669 643 586 567 670
          643 586 567 670 644 587
          569 671 393 315 270 289
          395 318 274 291 395 318
          274 291 397 321 278 293
          675 364 363 678 676 366
          365 679 676 366 365 679
          677 368 367 680 552 636
          327 388 554 637 331 390
          554 637 331 390 556 638
          335 392 675 678 672 666
          676 679 673 667 676 679
          673 667 677 680 674 668
          666 526 525 675 667 528
          527 676 667 528 527 676
          668 530 529 677 250 120
          96 283 254 121 97 285
          254 121 97 285 258 122
          98 287 444 447 678 363
          448 451 679 365 448 451
          679 365 452 455 680 367
          614 636 394 393 617 637
          396 395 617 637 396 395
          620 638 398 397 249 144
          120 250 253 145 121 254
          253 145 121 254 257 146
          122 258 564 681 304 303
          566 682 308 307 566 682
          308 307 568 683 312 311
          364 645 411 343 366 646
          412 347 366 646 412 347
          368 647 413 351 72 355
          337 336 73 358 339 338
          73 358 339 338 74 361
          341 340 304 681 606 684
          308 682 607 685 308 682
          607 685 312 683 608 686
          636 552 457 394 637 554
          459 396 637 554 459 396
          638 556 461 398 72 336
          283 96 73 338 285 97
          73 338 285 97 74 340
          287 98 289 612 614 393
          291 615 617 395 291 615
          617 395 293 618 620 397
          687 487 531 688 689 489
          532 690 689 489 532 690
          691 491 533 692 688 531
          354 356 690 532 357 359
          690 532 357 359 692 533
          360 362 388 571 553 552
          390 573 555 554 390 573
          555 554 392 575 557 556
          693 486 487 687 694 488
          489 689 694 488 489 689
          695 490 491 691 564 570
          606 681 566 572 607 682
          566 572 607 682 568 574
          608 683 414 272 486 693
          415 276 488 694 415 276
          488 694 416 280 490 695
          225 696 697 243 226 698
          699 244 226 698 699 244
          227 700 701 245 774 324
          613 660 775 328 616 661
          775 328 616 661 776 332
          619 662 544 702 609 381
          547 703 610 383 547 703
          610 383 550 704 611 385
          688 356 355 663 690 359
          358 664 690 359 358 664
          692 362 361 665 324 774
          765 325 328 775 766 329
          328 775 766 329 332 776
          767 333 684 558 305 304
          685 560 309 308 685 560
          309 308 686 562 313 312
          544 372 371 702 547 376
          375 703 547 376 375 703
          550 380 379 704 711 732
          544 381 713 734 547 383
          713 734 547 383 715 736
          550 385 513 512 559 558
          517 516 561 560 517 516
          561 560 521 520 563 562
          777 726 512 511 778 727
          516 515 778 727 516 515
          779 728 520 519 777 511
          510 751 778 515 514 753
          778 515 514 753 779 519
          518 755 294 296 424 492
          297 299 426 494 297 299
          426 494 300 302 428 496
          369 705 630 594 373 706
          631 596 373 706 631 596
          377 707 632 598 633 513
          558 684 634 517 560 685
          634 517 560 685 635 521
          562 686 684 606 622 633
          685 607 624 634 685 607
          624 634 686 608 626 635
          708 672 678 447 709 673
          679 451 709 673 679 451
          710 674 680 455 513 633
          745 510 517 634 747 514
          517 634 747 514 521 635
          749 518 774 660 768 780
          775 661 770 781 775 661
          770 781 776 662 772 782
          702 371 579 609 703 375
          580 610 703 375 580 610
          704 379 581 611 687 688
          663 657 689 690 664 658
          689 690 664 658 691 692
          665 659 696 265 264 430
          698 267 266 432 698 267
          266 432 700 269 268 434
          696 430 429 697 698 432
          431 699 698 432 431 699
          700 434 433 701 264 252
          424 296 266 256 426 299
          266 256 426 299 268 260
          428 302 708 294 492 672
          709 297 494 673 709 297
          494 673 710 300 496 674
          447 446 463 708 451 450
          466 709 451 450 466 709
          455 454 469 710 693 687
          657 651 694 689 658 652
          694 689 658 652 695 691
          659 653 595 594 445 444
          597 596 449 448 597 596
          449 448 599 598 453 452
          696 225 168 265 698 226
          169 267 698 226 169 267
          700 227 170 269 705 369
          372 543 706 373 376 546
          706 373 376 546 707 377
          380 549 414 693 651 648
          415 694 652 649 415 694
          652 649 416 695 653 650
          444 363 342 595 448 365
          346 597 448 365 346 597
          452 367 350 599 708 463
          295 294 709 466 298 297
          709 466 298 297 710 469
          301 300
        </DataArray>
        <DataArray type="Int64" Name="offsets" format="ascii" RangeMin="8" RangeMax="3632">
          8 16 24 32 40 48
          56 64 72 80 88 96
          104 112 120 128 136 144
          152 160 168 176 184 192
          200 208 216 224 232 240
          248 256 264 272 280 288
          296 304 312 320 328 336
          344 352 360 368 376 384
          392 400 408 416 424 432
          440 448 456 464 472 480
          488 496 504 512 520 528
          536 544 552 560 568 576
          584 592 600 608 616 624
          632 640 648 656 664 672
          680 688 696 704 712 720
          728 736 744 752 760 768
          776 784 792 800 808 816
          824 832 840 848 856 864
          872 880 888 896 904 912
          920 928 936 944 952 960
          968 976 982 988 994 1000
          1006 1012 1018 1024 1032 1040
          1048 1056 1064 1072 1080 1088
          1096 1104 1112 1120 1128 1136
          1144 1152 1160 1168 1176 1184
          1192 1200 1208 1216 1224 1232
          1240 1248 1256 1264 1272 1280
          1288 1296 1304 1312 1320 1328
          1336 1344 1352 1360 1368 1376
          1384 1392 1400 1408 1416 1424
          1432 1440 1448 1456 1464 1472
          1480 1488 1496 1504 1512 1520
          1528 1536 1544 1552 1560 1568
          1576 1584 1592 1600 1608 1616
          1624 1632 1640 1648 1656 1664
          1672 1680 1688 1696 1704 1712
          1720 1728 1736 1744 1752 1760
          1768 1776 1784 1792 1800 1808
          1816 1824 1832 1840 1848 1856
          1864 1872 1880 1888 1896 1904
          1912 1920 1928 1936 1944 1952
          1960 1968 1976 1984 1992 2000
          2008 2016 2024 2032 2040 2048
          2056 2064 2072 2080 2088 2096
          2104 2112 2120 2128 2136 2144
          2152 2160 2168 2176 2184 2192
          2200 2208 2216 2224 2232 2240
          2248 2256 2264 2272 2280 2288
          2296 2304 2312 2320 2328 2336
          2344 2352 2360 2368 2376 2384
          2392 2400 2408 2416 2424 2432
          2440 2448 2456 2464 2472 2480
          2488 2496 2504 2512 2520 2528
          2536 2544 2552 2560 2568 2576
          2584 2592 2600 2608 2616 2624
          2632 2640 2648 2656 2664 2672
          2680 2688 2696 2704 2712 2720
          2728 2736 2744 2752 2760 2768
          2776 2784 2792 2800 2808 2816
          2824 2832 2840 2848 2856 2864
          2872 2880 2888 2896 2904 2912
          2920 2928 2936 2944 2952 2960
          2968 2976 2984 2992 3000 3008
          3016 3024 3032 3040 3048 3056
          3064 3072 3080 3088 3096 3104
          3112 3120 3128 3136 3144 3152
          3160 3168 3176 3184 3192 3200
          3208 3216 3224 3232 3240 3248
          3256 3264 3272 3280 3288 3296
          3304 3312 3320 3328 3336 3344
          3352 3360 3368 3376 3384 3392
          3400 3408 3416 3424 3432 3440
          3448 3456 3464 3472 3480 3488
          3496 3504 3512 3520 3528 3536
          3544 3552 3560 3568 3576 3584
          3592 3600 3608 3616 3624 3632
        </DataArray>
        <DataArray type="UInt8" Name="types" format="ascii" RangeMin="12" RangeMax="13">
          12 12 12 12 12 12
          12 12 12 12 12 12
          12 12 12 12 12 12
          12 12 12 12 12 12
          12 12 12 12 12 12
          12 12 12 12 12 12
          12 12 12 12 12 12
          12 12 12 12 12 12
          12 12 12 12 12 12
          12 12 12 12 12 12
          12 12 12 12 12 12
          12 12 12 12 12 12
          12 12 12 12 12 12
          12 12 12 12 12 12
          12 12 12 12 12 12
          12 12 12 12 12 12
          12 12 12 12 12 12
          12 12 12 12 12 12
          12 12 12 12 12 12
          12 12 12 12 12 12
          12 12 13 13 13 13
          13 13 13 13 12 12
          12 12 12 12 12 12
          12 12 12 12 12 12
          12 12 12 12 12 12
          12 12 12 12 12 12
          12 12 12 12 12 12
          12 12 12 12 12 12
          12 12 12 12 12 12
          12 12 12 12 12 12
          12 12 12 12 12 12
          12 12 12 12 12 12
          12 12 12 12 12 12
          12 12 12 12 12 12
          12 12 12 12 12 12
          12 12 12 12 12 12
          12 12 12 12 12 12
          12 12 12 12 12 12
          12 12 12 12 12 12
          12 12 12 12 12 12
          12 12 12 12 12 12
          12 12 12 12 12 12
          12 12 12 12 12 12
          12 12 12 12 12 12
          12 12 12 12 12 12
          12 12 12 12 12 12
          12 12 12 12 12 12
          12 12 12 12 12 12
          12 12 12 12 12 12
          12 12 12 12 12 12
          12 12 12 12 12 12
          12 12 12 12 12 12
          12 12 12 12 12 12
          12 12 12 12 12 12
          12 12 12 12 12 12
          12 12 12 12 12 12
          12 12 12 12 12 12
          12 12 12 12 12 12
          12 12 12 12 12 12
          12 12 12 12 12 12
          12 12 12 12 12 12
          12 12 12 12 12 12
          12 12 12 12 12 12
          12 12 12 12 12 12
          12 12 12 12 12 12
          12 12 12 12 12 12
          12 12 12 12 12 12
          12 12 12 12 12 12
          12 12 12 12 12 12
          12 12 12 12 12 12
          12 12 12 12 12 12
          12 12 12 12 12 12
          12 12 12 12 12 12
          12 12 12 12 12 12
          12 12 12 12 12 12
          12 12 12 12 12 12
        </DataArray>
      </Cells>
    </Piece>
  </UnstructuredGrid>
</VTKFile>
