<?xml version="1.0"?>
<VTKFile type="UnstructuredGrid" version="0.1" byte_order="LittleEndian" header_type="UInt32" compressor="vtkZLibDataCompressor">
  <UnstructuredGrid>
    <Piece NumberOfPoints="756" NumberOfCells="468">
      <PointData>
        <DataArray type="Int32" Name="libmesh_node_id" format="ascii" RangeMin="120" RangeMax="2168">
          120 121 122 123 124 125
          126 127 128 129 130 131
          132 133 134 135 136 137
          138 139 140 141 142 143
          144 145 146 147 148 149
          150 151 152 153 154 155
          156 157 158 159 160 161
          162 163 164 165 166 167
          168 169 170 171 172 173
          174 175 176 177 178 179
          240 241 242 243 244 245
          246 247 248 249 250 251
          252 253 254 255 256 257
          258 259 260 261 262 263
          264 265 266 267 268 269
          330 331 332 333 334 335
          336 337 338 339 340 341
          342 343 344 345 346 347
          348 349 350 351 352 353
          354 355 356 357 358 359
          420 421 422 423 424 425
          426 427 428 429 430 431
          432 433 434 435 436 437
          438 439 440 441 442 443
          444 445 446 447 448 449
          510 511 512 513 514 515
          516 517 518 519 520 521
          522 523 524 525 526 527
          528 529 530 531 532 533
          534 535 536 537 538 539
          600 601 602 603 604 605
          606 607 608 609 610 611
          612 613 614 615 616 617
          618 619 620 621 622 623
          624 625 626 627 628 629
          690 691 692 693 694 695
          696 697 698 699 700 701
          702 703 704 705 706 707
          708 709 710 711 712 713
          714 715 716 717 718 719
          780 781 782 783 784 785
          786 787 788 789 790 791
          792 793 794 795 796 797
          798 799 800 801 802 803
          804 805 806 807 808 809
          876 877 878 879 880 881
          882 883 884 885 886 887
          888 889 890 891 892 893
          894 895 896 897 898 899
          900 901 902 903 904 905
          906 907 908 909 910 911
          912 913 914 915 916 917
          918 919 920 921 922 923
          924 925 926 927 928 929
          930 931 932 933 934 935
          936 937 938 939 940 941
          942 943 944 945 946 947
          948 949 950 951 952 953
          954 955 956 957 958 959
          960 961 962 963 964 965
          966 967 968 969 970 971
          972 973 974 975 976 977
          978 979 980 981 982 983
          984 985 986 987 988 989
          990 991 992 993 994 995
          996 997 998 999 1000 1001
          1002 1003 1004 1005 1006 1007
          1008 1009 1010 1011 1012 1013
          1014 1015 1016 1017 1018 1019
          1020 1021 1022 1023 1024 1025
          1026 1027 1028 1029 1030 1031
          1032 1033 1034 1035 1036 1037
          1038 1039 1040 1041 1042 1043
          1044 1045 1046 1047 1048 1049
          1050 1051 1052 1053 1054 1055
          1056 1057 1058 1059 1060 1061
          1062 1063 1064 1065 1066 1067
          1068 1069 1070 1071 1072 1073
          1074 1075 1076 1077 1078 1079
          1080 1081 1082 1083 1084 1085
          1086 1087 1088 1089 1090 1091
          1092 1093 1094 1095 1096 1097
          1098 1099 1100 1101 1102 1103
          1104 1105 1106 1107 1108 1109
          1110 1111 1112 1113 1114 1115
          1116 1117 1118 1119 1120 1121
          1122 1123 1124 1125 1126 1127
          1128 1129 1130 1131 1132 1133
          1134 1135 1136 1137 1138 1139
          1140 1141 1142 1143 1144 1145
          1146 1147 1148 1149 1150 1151
          1152 1153 1154 1155 1156 1157
          1158 1159 1160 1161 1162 1163
          1164 1165 1166 1167 1168 1169
          1170 1171 1172 1173 1174 1175
          1176 1177 1178 1179 1180 1181
          1182 1183 1184 1185 1186 1187
          1188 1189 1190 1191 1192 1193
          1194 1195 1196 1197 1198 1199
          1200 1201 1202 1203 1204 1205
          1206 1207 1208 1209 1210 1211
          1212 1213 1214 1215 1216 1217
          1218 1219 1220 1221 1222 1223
          1224 1225 1226 1227 1228 1229
          1230 1231 1232 1233 1234 1235
          1236 1237 1238 1239 1240 1241
          1242 1243 1244 1245 1246 1247
          1248 1249 1250 1251 1252 1253
          1254 1255 1256 1257 1258 1259
          1260 1261 1262 1263 1264 1265
          1266 1267 1268 1269 1270 1271
          1893 1894 1895 1896 1897 1898
          1920 1921 1922 1923 1924 1925
          1947 1948 1949 1974 1975 1976
          2001 2002 2003 2028 2029 2030
          2055 2056 2057 2112 2113 2114
          2115 2116 2117 2124 2125 2126
          2127 2128 2129 2130 2131 2132
          2133 2134 2135 2148 2149 2150
          2151 2152 2153 2164 2166 2168
          1926 1899 1927 1900 1928 1901
          1950 1951 1952 1953 1954 1955
          1977 1978 1979 2004 2005 2006
          2031 2032 2033 2058 2059 2060
          2142 2144 2146 2163 2143 2096
          2165 2145 2100 2167 2147 2104
        </DataArray>
        <DataArray type="Float64" Name="resid_x" format="ascii" RangeMin="-18.394031810976337" RangeMax="3.5904365007993087">
          0.000005921992269897203 -8.440205956846011 0.000012395035029477697 -16.879569036615223 -0.00000190974254454801 -8.438928571831305
          -0.0000012672363878252213 -8.436342423203442 -0.000003837906575654415 -16.870711608410485 -0.000012586760630206584 -8.433035159389132
          0.00007492650626250708 -8.428427954639664 0.0000759333632895931 -16.853978736713174 0.000028645724045262 -8.422274679722092
          0.00007900170871444345 -8.434835264279053 0.00007725647412115677 -16.871877941066415 0.000037688256829149225 -8.430820632865009
          0.00009561652157774603 -8.483050184511388 0.00008775148917639086 -17.005750481402792 0.000023403744034311558 -8.519174480275051
          0.00010407541418189226 -8.5629613168482 0.0029464851025702288 -17.31175055495919 -0.0007033459443208656 -8.806455988051706
          -0.019536723547775914 -8.720278355793644 -0.02101395927583738 -17.757831814246458 -0.002428528056516832 -9.301404833676362
          -0.006716239308276251 -8.851274617350747 -0.008604033770007291 -17.950048672050883 -0.0018997833193497016 -9.566183149961141
          -0.00037917740289206137 -9.160004896503898 -0.0006159742589391115 -18.394031810976337 0.0001641131033540688 -9.393617767953561
          0.0000905488129404608 -5.666674492006294 0.0006600471785883077 -11.197984733805665 0.0033929094776091184 -5.165193907161491
          -0.00016991099966556789 -0.0002465059179357354 -0.00011656266204607135 -0.00003614441327481899 -0.00016133904174964186 -0.0001258439123210664
          -0.000016920000685871628 -0.00007771940927892018 -0.00007633980759713666 -0.0000559023884925125 -0.00014491035184249768 -0.00009934251442800246
          -0.000040634026838404225 -0.00012728620813184932 -0.00014569062071068117 -0.00004297734512181961 0.013706506525956286 0.0033189941536173606
          -0.000268479703461999 -0.00835420708108714 -0.003723897562357692 -0.002150231995977414 -0.0019505839261126923 -0.0027343960340227014
          -0.0023235768303688786 -0.003629657532002284 0.00015295096547873754 0.00028878044508240386 0.0012868991571157729 0.006467577752653497
          -0.000010452473052424693 0.000032789013942213785 0.000002140270717099213 5.604488695354348e-7 -0.00002886298396997944 -0.000018689735300725374
          0.00002072350910520271 0.00002764313033143395 0.000007909707616882145 0.00001349665978178649 0.000012826827558320986 -0.000016996227170551492
          0.000019077660698307852 0.0055672328033642415 0.0013039884874990193 0.0000653078325054679 0.00449332208512665 0.0001493851596414686
          -0.000552691129567684 -0.0044874019014491395 -0.003791880937980885 -0.0017632776583891285 -0.0021378525286674943 -0.0028643868490201285
          -0.0030309964789445587 -0.0051004290220557635 0.0008190218562358353 -0.0030672345136529347 -0.004784034132035583 0.00743552690205361
          0.000001610815989039338 0.000058673808943865424 0.000014902436580754852 0.0000029282937603625214 -0.00002392244432858348 -0.000023012995500337752
          0.000019751759376518407 0.000018773622626255815 -0.000022697783277791928 0.00001186125412644401 0.00010344900617909047 0.00022837621861881985
          0.001064206364127962 0.00835804673508278 0.001741844407484372 0.0002469320927014351 -0.016138318824120645 -0.006410261319838462
          -0.0007034365058826708 -0.0005650508561760859 -0.0027398085900589564 -0.0015986170113526654 -0.0023177839243855303 -0.0024284604444169133
          -0.004136432527998224 -0.00629759529732965 0.0018947637808253148 -0.01064120324707818 -0.01627584353852396 0.003916837950996621
          0.000010928565643553156 0.0000803625519658624 0.0000222467964361428 0.000009370692295895822 -0.000015429187129711863 -0.00003963636468728993
          0.000022718103283025926 0.000021984548142839344 -0.00009855038168637975 0.004297377659794321 0.010431957365545586 0.010002655408456462
          0.01518249607783062 0.013852304129738258 -0.0016792346632499289 -0.00037585499487935436 -0.0032441614848526257 -0.0025838144882319725
          -0.0004881066876656348 -0.00043439008337031737 -0.0023588494402160265 -0.0013009960051446612 -0.002118595206981766 -0.0012932976808981422
          -0.003008268585801055 -0.004618509898790535 0.0023309536864788427 -0.004943800552023259 -0.009059014654538622 0.001400684467781188
          0.000012420889067499274 0.00008579976085787422 0.000015922830083781037 0.000014337708813094707 -0.0000033500554703636 -0.00009242597031544619
          0.0002243189756825359 0.006978880389847397 0.014367129459164296 -0.004214690703894242 0.001845181516452854 -0.004943541085884462
          -0.01641323087957325 -0.028151149632495986 -0.004476243531493118 -0.00028014502337647684 -0.00014457691590852306 -0.002377146605238245
          -0.00022394992963992166 -0.00023972301813657282 -0.0016606194898560744 -0.0007401229258041653 -0.0011796241035053612 0.0003048984176716729
          -0.0008646923030095621 -0.0024634184592891017 0.001763435856286577 0.0054078177490270996 0.006008529164624354 0.0012151375596016756
          -4.5707199358702155e-7 0.0000498644604061127 -0.000020194251010074993 0.000785497748484687 0.002331828510211409 0.00025845623390097217
          0.002504817085387856 0.0014440097416779096 -0.013407647957325963 -0.0015375154512149436 -0.013932841898070869 -0.007424843989053187
          -0.00045879900760059655 -0.0005951474731826778 -0.0022444244008488212 -0.0005743020884869665 -0.0006499063922724702 -0.0023809605915143806
          -0.00013626026979807193 -0.0003065592263347128 -0.0010694183334685192 0.00003188977959567296 -0.0005430286463070644 0.0008260257033612106
          0.00279130440778097 0.002389745526369502 0.0015508933877583786 0.013705341070109678 0.021711756378535396 0.005847256796368883
          0.00032366407765316296 0.0019741489221640762 0.002359924161746463 0.0113397783271445 -0.006565117997631376 0.008033386743608872
          -0.00020242814333926162 -0.011981781094494437 -0.0022658174805121334 -0.0007596120056954092 -0.0008646549509983004 -0.0016471035223188935
          -0.0003253658642172752 -0.0005917755832474114 -0.0025210635716348406 -0.0005866391922113579 -0.0009665105841927257 -0.0024458999739245257
          -0.00021704802628708109 -0.0004609489750979634 -0.0010659098195180405 0.0010207299745772502 0.0010361875391575737 0.00031044215188558155
          0.0057845847710691345 0.009503114954856784 0.0022186425074472993 0.008773002067621771 0.01695708601098378 0.005193785023622777
          -0.0034995765364636 0.0017698078780110649 -0.003475334336522806 0.0004507859122124813 0.000373169967026854 -0.0035151743167363136
          0.0006505459931309687 0.0009068081812095841 -0.0025620641281598466 0.0001914959234543545 0.00033584480106885195 -0.0008779915833239116
          0.0003842784009959743 0.0007728234298172154 0.0017331522135268784 0.001969951677166293 0.0030563934585927655 0.005380294518192663
          0.001823325124862052 0.003748150289268004 0.006099201671424304 -0.01102613084795645 -0.01945373612747514 -0.010917914612001312
          -0.0005140906481987464 -0.00011947467356510089 -0.000014103916541614858 -0.00038039598715666756 -0.23706470682520547 -0.4306754124410209
          0.00006565116042202279 -0.02324871998035885 -1.2048849857406856 -1.200860713007844 -0.00013316944847475976 -0.08073300575858688
          -0.00015414333422811288 0.00019436669910067456 -0.10382457559782765 -0.04638740414009189 -0.023263182717393086 -0.16129055133204015
          -0.0011539373496019245 -0.00010592464486449977 -0.001229915275708128 0.16394983359802048 -0.015659802518297544 0.07379407414087491
          1.660711043464557 0.041693781700249996 0.6127459328359408 0.00326707500746537 0.002929433496339562 0.003701768244783299
          0.005564806355638774 0.007515014716869439 0.005644280586997175 0.011697771543855318 0.010948682013950023 0.005496694023735427
          0.005969846684626967 0.011456851143982316 0.0076244237883462684 1.0873633330874877 0.4165186896046814 0.47870007061911535
          0.8695420279265356 1.6234140364052079 -0.3426606007457062 2.7360706724692445 1.432773534592256 0.5336484631000882
          -1.2260421400830523 3.5904365007993087 -0.17909749782630255 -0.004412486726929954 0.0057470584007695 0.009979342509232159
          0.007426070735224721 -0.006699647813248166 0.006678609542921876 0.016987853824476762 0.013180657043444732 0.0022172930468724594
          0.008252831133803928 0.01059786863324974 0.00874322029013852 0.09281933659783759 0.039500328555833075 -0.012553211585202562
          0.020365017540843633 0.0739229226911926 0.053444325073302434 -0.010293935434364465 0.10611381491034466 0.015872631377466195
          0.009831322867478787 0.0030935910583606563 0.0011649594593909907 -0.012373251666769836 0.0035399677438101573 -0.021241122076338437
          0.007496100639480696 -0.009700680666574923 0.0030048944800191713 0.0019599810259375294 0.01407192221875364 0.0030085992591322164
          0.025697536069995697 0.0029967030968269803 0.014840257009463453 -0.01196808410089795 -0.0005012394481727659 0.00028512305118851
          0.4570340023988626 -0.45699941551628326 -0.4687040045305627 -0.5020337780035485 -0.21518087954834234 -0.9875327689916273
          -0.927568876303881 0.0065118451748019945 -1.048951830318848 -0.00009250074677191744 0.0020826605565961165 0.0031234151491933426
          -1.4992837970962933 -0.0005167146350598673 0.0038786899260623287 0.006887780592473858 -2.9188634655745562 0.00040720147142625507
          0.0031521930015978583 0.004097071140127695 -1.191734990119261 0.0052431536591412975 0.00636242889359212 0.006071417840377791
          0.024895938025503273 0.0014171090149259769 0.025431663281550776 -0.0005609121059263478 -0.00021840611652901298 -0.00013202269558026947
          -0.0006862174377013641 -0.0005299191608207909 -0.00027290918343880755 -0.00040457675185279207 -0.0015563871102495241 -0.0004304293703676354
          -0.000003895675275034094 0.00008402890223685455 -0.0008892206640143119 -0.049408359495675014 -0.011243196695800761 0.013358671273931033
          0.030948063541072823 -0.11624659350836608 -0.01621281889654036 0.03085588661804145 0.06612734300904743 0.015763679067507308
          0.003499131226637142 0.01981778293520381 0.0259515162385483 0.00010761393750957637 0.000018783430651283378 0.00005188203053381902
          0.00008347428730080819 -0.10116082328538673 -0.1860723962584984 0.4405925374895108 -0.0988676380707145 0.08985255155307198
          0.1078878904874631 1.2241115841377934 -0.35779670105101125 -0.000521513460353118 0.05488078253341333 -0.00669776637314734
          0.06365759159368944 -0.008438566077895393 0.007341365256347765 0.003079768274868666 0.006112667364944979 0.006427497640584479
          -0.11226293616232058 -0.12078117002949995 -1.370576953537677 -1.4430193080678089 -1.4565060499095352 0.7813187596511062
          -1.3413237330923384 -0.9337074038943839 -0.0847704635622098 0.9262928795369687 -3.0726063113934305 -1.392844114025271
          2.4799826832279175 -1.535167346146272 -1.1434033246620534 0.21169016893200665 0.14549695918625577 0.28847963955602374
          0.04785229203638625 0.23246031578278759 0.349513819922692 0.7140476714956582 0.06746872557063303 0.044672838928022984
          0.3855709396465519 0.3672788206124734 0.020836300602535857 -1.4362449288595225 0.002299063966315684 -1.520487227314991
          -2.823558316892858 0.002967932140498175 -2.9594353119964336 -1.1286710324117597 0.0021421963151875834 -1.1507751843669722
          0.021964751531620585 0.018760266511194 0.02664207533754797 0.030134138288448797 -0.00810458709907946 0.008942155363217852
          0.03368254692520811 0.672735558409268 1.699134554811211 -0.939201270639675 1.483472728356582 -1.5491494630130818
          -0.06773867429757804 0.08609407737102276 -0.11360411490084654 -0.3359643394232719 0.010178729128321296 -0.12255358493855302
          -1.3706103682909032 0.000818050072228349 0.0007093407345421729 -1.4518516379197548 -2.7058434655732055 0.0011490171955291784
          0.002397003801599268 -2.8008883527371995 -1.1346211617448465 0.0021902646380054236 0.0036750183540670833 -1.1819996880532972
          -0.01166271914971373 0.023162656811128723 0.038653865266296106 -0.02406312598409066 0.023738406516556676 0.03462233402454029
          -0.009945036398661844 0.05460162854933737 0.011213162843883628 -0.061685394425977175 -0.00004459019407265785 -0.015928509550927155
          0.00012896198179701557 0.00016410001796619833 0.00040504936519003554 -0.022107928372211205 0.007556963053395371 -0.037363858525869986
          0.007310901790579916 -0.008097176191374178 -0.000679968597887326 -0.20673504908638093 0.1277124058694734 -0.20318955328160723
          0.3820334942765735 0.0660352761638921 0.1138118034545621 0.2986865380254591 -0.08063977614635598 0.3592294057413499
          0.05580760677374175 0.00415923334686874 0.18711411191420096 0.0005636140075184759 -0.001160283713218746 -0.0005198955136153094
          0.00033089619482681507 -0.0021547909189959663 0.000034686038222611626 0.0007184973787568078 -0.0014045690819912832 0.0004861534120894212
          0.007061692662212682 -0.3222627285703654 0.13178050357982685 0.055418377254329076 -0.5889022809715962 0.2857416758863019
          0.049770735236079666 -0.24499512047299987 0.1697819707540804 -0.00022403044160085317 -0.00006772313540887032 -1.5070172486746491
          0.00004124991505022324 -0.00005482694732861226 -2.947873767767877 0.0004502502296080402 0.0011637695297741502 -1.1387712075209002
          -1.3609032582370935 -2.6725637384008984 -1.0906514673557586 -0.00003633361394373216 -0.0002339257340035275 -0.0007917741812841356
          0.0001909533186062462 -0.00019498814675851127 0.0002870329048970735 -0.0021818377948996936 -0.0007303117233832188 -0.00008437611902830863
          0.0003161088400198929 -0.0012264684705693973 -0.0007766718964071703 0.002020425574617235 0.002659315849730115 0.004409173072426276
          0.0029023186743691864 0.0043275662876754994 0.004374567903132842 -0.001145536655213747 -0.0004270847048702944 -0.0013548039689142595
          -0.0017910166598102857 0.0005821668897948579 -0.0005282392937623476 0.003935508452142522 0.00152416684368889 0.0066826351017070795
          0.004808738562411166 0.003870744452532937 0.007117188902564478 0.010484418716205868 0.06686527683137888 0.013175837564076032
          0.19959989897927688 -0.00002478275519735007 0.04285840919027084 -0.0017464010589004486 -0.001243766294212606 0.00011674881519120606
          -0.010114360201790573 -0.02560994671163286 -0.021104486788140697 0.9964122779551573 -1.1033975884163363 2.3438490699451244
          -0.24786008543024174 0.7436473020460548 -0.8603122385910676 0.04035729133150456 0.04821853775409579 0.0027081997507658606
          -1.7459026629756949 -3.0007893308905937 0.18060850021115316 -0.0009140714118854032 0.0004669062416523522 0.006412375599388866
          -0.1616722925469809 -0.2067948025164168 -0.0956177051774556 -0.00037604167043148173 -0.0004946346428778003 -0.00018512864722075584
          -1.189944014697893 1.0504279755334087 0.844497595529413 0.05534760235409364 -0.05192721384457799 0.07513123113282638
          -0.8887638787353298 -1.7490437078740684 -0.7764372382307793 -1.419700416399864 -2.7803580845708558 -1.1779170740887281
          -0.0009018367471773092 -0.001329277682964869 -0.0008989780546195258 -0.00017561204874487826 0.0935896682518205 0.5549941671778156
          0.00018174499942702482 0.00010129453849305747 -0.002223647793117678 0.0007409477881843429 0.0016294464022621469 0.000513889065151929
          0.0011124081296927102 0.0017414766059857811 0.000331137701616413 0.0010595444038861146 0.0020417159707841748 0.0023232066787652883
          0.0021928159116892942 0.0035954679102569997 0.003426640658243052 0.002420420560612868 0.004200876885854576 0.006320468362419618
          0.0021622178563305283 0.0033159868094516654 0.007626978150516273 -0.0038518015901507496 -0.008781512609873587 0.0018924241669839859
          0.03541752325895531 0.0670520604578364 0.033308778508619685 0.04965929151402615 -0.0700227714149162 0.09083354348453443
          -0.11653782961585968 0.038908140757137 -0.04971165150480672 -0.00023754034540091062 -0.0007874938663574582 -0.00038093002507144647
          -0.0910999394474743 -0.0007305472333355434 -0.0019336472183879572 -0.0015869269396978636 -0.17505997429428222 -0.0005009822639265304
          -0.001190904460639075 -0.000874184181700044 -0.08556516766638111 -0.00030686740201274487 -0.0006506902775918477 -0.0006154801003471766
          -0.08438363883007471 -0.16689168572291257 -0.08952553155466592 -0.0016301134070802192 -0.004131693465580094 -0.0019221977375440957
          0.0010707621145620294 0.0010214643811297108 0.0015991723596826546 0.0019689736271306657 0.0027059136713276644 0.0017724626647259711
          0.0019111866057999194 0.0032171447022513178 0.004372251807539307 0.000017839980602119 -0.00028640376084254626 0.003079633926773795
          0.0012648164041006993 0.0022364741087024242 0.004669966993587238 -0.00015840080190621109 -0.0004254862992514319 0.0035476735661301717
          0.0019527427228993588 0.0054286493783521905 0.011862409072198155 -0.030194191648004853 -0.052905345491277345 -0.00551306263690865
          -0.012733755437649208 -0.02465602864494798 -0.013503580659366854 -0.001369357678147498 -0.0007739897244114502 -0.0006028166838052407
          -0.0024496516975114346 -0.0014647182441169804 -0.001290047567503727 -0.0013574192838854415 -0.0006414074895202404 -0.0010016726404873388
        </DataArray>
        <DataArray type="Float64" Name="resid_y" format="ascii" RangeMin="-2.365213381634468" RangeMax="3.177173656330138">
          0.0002510981563850212 0.00012403942477247354 0.0005325764315281534 0.00044628728862100564 0.00031309532485376823 0.0003500071707146363
          0.000018001789010319014 0.00018016430033072905 0.000035847886907636184 0.0006534165726016089 0.000044707920511324883 0.0004937948512358514
          0.00007726427853091411 0.0003103692754282267 0.000035337846680999485 0.000826376547622798 0.00004924796566840861 0.0005559161601685625
          0.00008358011705102142 0.0003536304536541357 0.00003835118912308422 0.0009314015050202185 0.000054499402738286684 0.0006201149174094311
          0.00011188027262774847 0.000406804012209272 0.00006718012991865918 0.0010631906812413883 0.000059502965046392964 0.0007010605880375664
          0.00015635104736597127 0.0004460469796692679 -0.001156059143607474 0.0010892280905938356 -0.0007794100785740721 0.00048285592567631763
          -0.0008248786406264141 -0.0003764451785208123 -0.0005616425619021093 -0.0005897785081935836 0.0003299292429503886 0.0008831635317304576
          0.0019508483828565293 0.0009889535661253834 0.0027040911725617067 0.002250422648238215 -0.0005808034192348321 0.0001646367295148332
          -0.00024341391721627303 0.00009387567964946886 -0.0003014203980344077 0.0007504784305236711 -0.0032734337590083484 -0.0009892843192209622
          0.00017814797069004573 0.00021269346360053287 0.00031438972506447893 0.000684895508377692 -0.0036110640789730197 -0.0007585875891719662
          0.0005166428346518592 0.0008317602515569011 0.0004829156062339801 0.0004618085076014966 0.0006598033156394595 0.0004026790249497536
          0.0005602769179526707 0.0008279384703699655 0.0004953183409698442 0.0006348739408264803 0.0009426135743974967 0.0005582253963841849
          0.0007209108284554552 0.0010619585838407136 0.0006073196563037009 0.000841162376212165 -0.0000023884645274779848 0.0006000505544681844
          0.0004543846978533883 0.0022436857489747664 0.0007646679002101808 0.0004931191710085825 0.0009922996387720096 -0.0001931462299430975
          -0.000470746890679663 -0.0008552621654515646 -0.002408102457460204 -0.0016599774026471725 -0.0036607585021525835 -0.005800214661059566
          0.0003151536585704606 0.0004733708320423524 0.0003530493294534587 0.00015704901301622637 0.000048861782063487624 0.00016838954035489767
          0.00020388113588393902 0.00009398329308960701 0.00020449967822668003 0.00022969580726261984 0.00011208189950117492 0.00022261858286127395
          0.0002696527990333278 -0.0010393911858621943 -0.00014284897925170847 0.0007013705610325639 -0.0005091054501773218 -0.00010377401989516977
          0.0005472873443336385 0.002017653895938637 0.0005328431544847356 -0.0006100669299856365 -0.0008799728323807821 -0.00047423666294593714
          -0.0027136694143219398 -0.004446291003245201 -0.002321618160611688 -0.007750260392832303 -0.013873436382769139 -0.008972141711733883
          0.00029980478062066607 0.00042856110882905085 0.0003427115670496528 0.00017397444617408414 0.00005059886941650299 0.0001830464051906719
          0.00022183975618725663 0.00009471421747839909 0.00021538643982835226 0.0002480616511268442 0.00010126259817690164 0.00017007121675974984
          0.00008034064138311842 -0.0032616968333527355 -0.0004440829124806034 -0.0003016653705313864 0.0036628303903152443 0.0010334363656309409
          0.00007740050495998185 0.000009823221909593949 0.00009725979085691006 -0.0010397791115639154 -0.0015022536078505844 -0.00032455095502753606
          -0.0018807442896245363 -0.003060786835107382 -0.0008479976854207927 -0.0031384841151599896 -0.007432928774855491 -0.0051939119292247204
          0.00027509609947778957 0.00036707625852416825 0.0003258592725949583 0.00018405285467879354 0.000046866137460035984 0.00019006026206958015
          0.0002265139065414411 0.00008750694416514992 0.00021251501074216056 -0.0006956398500129954 -0.002216580284016268 -0.0013992270134535467
          -0.00048591499768817215 -0.00074837360752502 0.0015179392537918723 0.00020374784291665032 0.0009825358723445018 0.0004706751046553437
          -0.00014918455501503058 -0.0003121282251371295 0.00004507646631339568 -0.0007479629466102811 -0.0008792293010956298 0.00006922864385227115
          -0.0007134054581472427 -0.0009573438986060501 0.0009083382357273455 -0.001490363675830584 -0.0038317204603844426 -0.0025493990354538004
          0.00025337092678553996 0.000309308055188362 0.0003064238405572073 0.0001909640563331049 0.000040492674020835284 0.00019284046348952422
          0.00019236335235306434 -0.0015027390233936164 -0.0011343581021971971 -0.0014172503803309006 -0.001542173097676909 0.0010231424540347867
          0.002322419918828242 0.003829248173442011 0.000815774036516885 0.00012879806936902036 0.00002764620803867579 0.0003059419366014844
          -0.0002992326156177477 -0.0006261423708151092 0.00007454215472059433 -0.0002868369097841217 -0.0005722703131170459 0.00007364575292541364
          0.0007845659752750422 0.0012618699911126907 0.0015713523546087918 0.004370625363973736 0.005897725297510734 0.0016052593494244594
          0.0002708597236689425 0.00031446457089207014 0.00031018968978513417 0.00008102849021982862 -0.00030525345223585826 0.0001355106779417775
          -0.00005128783299163109 -0.0008904369088265484 -0.0007986794558406535 -0.00046017569953905185 0.0005728920111301092 0.0017036500979759686
          0.0002492821214112109 0.00011079523017398785 0.00044745001445881463 0.00019091224989275027 -0.00011225992377270066 0.00025154447525355117
          -0.00008138276008699818 -0.0005258492564477867 0.00009469392442033875 0.00024550086834668194 -0.0000020188926116992967 0.00019269802231272615
          0.002217175734160942 0.003326527516577582 0.0013736527657302045 0.0017646149260789057 0.003053416370470921 0.0005863126388049381
          0.0003959375924461328 0.0003492572465477184 0.00010099569970059563 -0.0017549143685643698 0.0007309963449880219 0.0003474626873375686
          0.0013284736874087932 -0.000571776584102901 0.0003716576800719962 0.00011045958986379001 0.00004096965012753695 0.0003432890941079299
          0.00035247538925484156 0.00025719663341258053 0.00038826718627403556 0.00010993320113866084 -0.00018978541742948468 0.00022065665779982813
          0.00017706889805610415 -0.00011397380644502172 0.00000789083054814066 0.0006818356546876847 0.0011205988558217195 0.00039174957456021564
          0.002010344540850112 0.003522350890323933 0.00044598953872410085 -0.003717062261178433 -0.00590617236398348 -0.0033027411416695074
          0.0010363287552445644 0.0008125727002554761 0.0008829305392412945 0.0010481794442810388 0.0016606991459260367 0.0009789443988277302
          0.0008477279508139479 0.000751718257300471 0.00048684744646632083 0.0005775329073821611 0.00046875569587631616 0.00017164621631927945
          0.001295514888618808 0.0018688573501042735 0.0006823467758594881 0.002799307794019351 0.004738634208665798 0.0024610137147152433
          0.00044523449032624063 0.0000972624871148492 -0.00008615623841234932 -0.006010587147971425 -0.014284367637732387 -0.011487309789032396
          0.00011102198479905068 -0.000506442603613308 0.00010357779681895163 0.00047803458521056275 0.023026619843631194 -0.31522408950951736
          0.000717855780234011 -0.009334790276698951 -0.6475654499997786 -0.6096630837707621 0.000677004306226664 -0.024050653323766068
          0.0009100920117752209 0.0006697616457135075 0.29197079490066563 0.021123228755096087 0.9652889270175834 0.1152069237155241
          0.0009011045313866844 -0.0005175044914047314 -0.00026471341601348557 -0.28989633946818755 0.0921332912869578 0.3496429629332259
          -2.365213381634468 0.21022380900580834 0.6017236400933056 -0.0005244830988603288 0.0021937356942826336 0.0014193927350887314
          0.0018967338687459478 -0.0014648019373743049 0.000879564426846946 0.0008118764403492185 0.0023093841465597897 -0.002135613825767657
          -0.0027711052105278064 -0.0007990006599721544 0.00015029532219393293 -0.6026566723330107 -1.3028802275510893 -0.7020498074795596
          0.2635625315228684 -1.0120241340186071 -2.285074697145173 -0.5285156775591265 1.109887439891531 0.9112970969483616
          -0.2533112632206119 1.9441643859876525 0.6049822323885914 -0.011245723458175066 -0.027941015511864953 -0.00410865313656672
          -0.003549381070278357 -0.02028406078329785 -0.048444713313839954 -0.008698841355486098 -0.006581086846103701 -0.010193400067748465
          -0.02497026093021024 -0.005043024575607236 -0.004069746541488978 -0.0612278818655341 -0.027732538145632923 -0.05514656047644582
          -0.2596879768165997 -0.020764536085832785 -0.023516958917615405 -0.07381886416160542 -0.3030164712717767 0.0033929072010234207
          -0.010062686362221684 -0.030454965615998315 -0.05663777974682895 -0.006837540179241375 -0.007877940566519803 -0.0122815457391246
          -0.012369820378093255 -0.007880220453059 -0.008928476492750081 0.00008054648026864508 0.00283836466814269 -0.0000847859654683758
          0.0018492263272142095 -0.0005749911351413672 -0.0016956411024519613 -0.018503676754125224 -0.00032898831134244716 -0.000028985232608580436
          0.09099961743393008 0.4895451177506053 1.0319750358666602 0.1718681312910277 1.011457459755375 0.5982293748340832
          0.5806471436131921 -0.3177302207626005 -1.2527903163454537 0.0005323149819957892 0.0016231576703088502 0.0006362279545781249
          0.00012191692189800207 0.0013903059671288784 0.002875140753121286 0.0016231817754104563 0.0006729013048096255 0.000370416342884157
          0.0012688960964833407 0.00034852698344389234 0.000023732922607072604 0.002821197300249767 0.005380053450595695 0.0017260954344403417
          0.01093421262561299 -0.00549440223608506 0.006087989546963879 0.0004966312258007644 -0.00003119140547139937 0.0005989367174070725
          0.0002222826494599761 0.0017216435094797033 -0.0001436365983825197 0.001057107974206356 0.0010164272759386195 0.0007773372796589795
          -0.00027017712095324387 0.0006784693953288679 0.0010263465222587476 0.008240385548687557 -0.006477282192692724 0.010274701669723663
          0.03950394099064802 0.030460201780955765 -0.0032093110134863156 0.021664669904989275 0.08670361300443605 0.0015728199603524118
          0.0038724030634625928 0.008364163226693921 0.028485215705228946 0.00006804501246174266 0.00003511822737581327 0.00013505631865040613
          0.00012151108235280116 0.1760793515848616 -0.4895924257124859 0.20866277749139833 0.05426335078103445 0.4285332980247787
          -1.2762782833837307 -1.0350161493355574 0.10012113723033705 -0.019294435584506955 0.0013566537159594716 -0.030357169202467615
          0.013964870973737303 -0.014199699258971667 -0.025770149041374063 0.0005922106741390598 -0.00018387364809563378 -0.00214679167632581
          0.05571959298252213 -0.05951343899157065 -0.3737604912464634 -0.3130334924715859 -1.1274366469864012 0.2891033992569202
          -0.9416054042669518 -1.0392831414666301 -0.07203693229554914 2.34185295039676 -1.439863060293439 -0.7297253014927784
          2.6734294220765333 -0.4372249053640024 -0.2448496597293272 -0.062109187205315 -0.05068933990169955 -0.045409286986724196
          0.006864623081266341 -0.020723948135435336 -0.29892765721171793 -0.18149029220993618 0.0014916202175700166 -0.03478591084176241
          -0.28271045670581346 -0.08695266334311336 -0.012242044317784806 0.001088530522586506 0.0004587655581116956 -0.000020185352876636586
          0.0025686871407666345 0.0014682415133419613 0.0009617342624275715 0.0016745098929915603 0.00042399559155727184 0.000833849953956689
          -0.10637376605505593 -0.003107780932373974 -0.16727821922159536 -0.005816247660399204 -0.06684102766384041 -0.0076640510698324504
          0.22703072968018267 -0.7934980773197942 -1.9381929243775657 -0.4395339101465274 0.3481789827640223 -0.6310629292558361
          -0.10233033069433117 0.08846872326795045 -0.46301824611967796 -0.23646498289520904 -0.09198586318049368 -0.051967762220647966
          -0.0009599433926105599 -0.00037020306320919433 0.0005365838767371622 -0.0007994486378154683 -0.0011745510130371228 0.0008131729325800141
          0.002647926990141325 -0.00018993529481700633 0.0007335369133007856 0.0011057307520649616 0.0016685744259302693 0.0013792348502127405
          -0.05828309479754254 -0.09321118780499688 -0.02832419035132011 -0.0859198255325449 -0.11989749887617049 -0.06441044167810188
          -0.04675752670587571 -0.03905645729675758 -0.031545044135243616 0.1217967401652123 0.0014340932482397872 0.03727085908184458
          0.002069737117316367 0.0003150486595511655 -0.0003866804912214805 -0.02353480398128202 -0.007644677163301916 -0.041794318120341865
          -0.009943870751594211 -0.020537162588568338 -0.007682765005427167 0.20009509949724277 0.18923128357980687 0.2844273612265265
          0.016275169269069523 0.025845665722972925 -0.25331268804064583 0.005617929375089703 0.14384701096989885 0.002904380577883059
          0.27372404346616236 -0.01696964684491365 0.1071042791771577 0.00012729729710469172 0.0007997906861713089 0.00016827930069077124
          0.0002286728176245749 0.0014626592871078495 -0.00000956957355862818 0.00039774901480558317 0.0005043805014729348 -0.00007423358153274204
          -0.13881641189807176 0.06709321649269973 -0.12549946794648525 -0.23168121116108642 0.10215827170168382 -0.23413576175952527
          -0.08870412597386648 0.034897320120596376 -0.0881416112176765 0.0000654109297744121 0.0005229603551629158 0.0004366524084455231
          0.0017457342247613195 0.0037385786043378777 0.0008130816868532342 0.0008456104215352617 0.002731926693621975 0.000990470321980682
          -0.00015942616866568282 0.0009940076122782887 0.001361188374108157 0.00002248917887916549 -0.0002218760613109938 0.0004571300361764716
          0.00021950003701718887 0.00003385732924354734 0.0002966181904790338 0.0009041095730591558 0.0002445775729194577 0.000019480201110061435
          0.0002367460889481504 0.0004770725382408428 0.000014192713923139033 0.0010669203159999335 0.0023989363980145215 0.004092958625090237
          0.005507725723350043 0.0029539473659798213 0.004202819538633773 -0.00013375334033632197 0.0007268237169906662 0.0005451740033575805
          0.0015776107728208092 0.00011457601397676931 0.0008461251495400302 0.002752584302320671 0.002880653451702686 0.004480971003238465
          0.006135431379783812 0.0006542167306539393 0.0059018183145235215 0.017306276891770056 0.11601281812696596 0.051645810486894816
          0.1960471807533439 0.045546771562430116 0.011395170008341116 0.0006793907233717386 0.0002896421638161964 -0.0002635358161180816
          0.0040620196152730825 0.00506423533820477 -0.0030214636728249644 -0.1041111812437448 1.793191919244738 -0.2984273012419978
          3.177173656330138 0.30783457869752195 1.5715368912418792 -0.09009427821721509 -0.12252528706730058 -0.020146693626693135
          0.9020032754631805 2.609615747810083 -0.8667727923877149 0.0009407829363372424 0.0025586280204851763 0.0056181897414315785
          0.15729847049202342 0.4080950237292661 0.17276524613454097 0.0003223359350649768 0.0003101667835120059 -0.00007118739185163481
          0.4601500004682506 -0.32298269488640463 0.7023785314650086 0.15348051209378138 0.3285371016261476 0.18938981940633584
          -0.0030347389372551515 -0.0037351560043834787 -0.0005606016991783515 0.0015852397092235015 0.0031428913772919564 0.0018123161283379041
          0.00008755586224369746 0.0003547978227438882 -0.000022695474182430828 -0.00001878390565644998 0.017393108727773644 -0.3286044851571795
          0.0011193686125965385 0.0019524725555950528 0.001110469882600662 0.0009066454479101371 0.001737101134597241 0.0007628584826216353
          0.0006037606713816257 0.0007657430664965714 0.00044082972267230416 0.0006053886796890673 0.0009754240236546918 0.00028617435668279456
          0.0008614928002625283 0.0010459403484242014 0.0004464092912381812 0.000733899311680164 0.0010585606486203658 0.000543093123036964
          -0.00062302360167521 -0.002153638519500012 -0.0007101191709092958 -0.0018545365368644873 -0.006154014940882302 -0.00386051102071025
          -0.05029990409202134 -0.098813018289938 -0.052882291002700366 -0.017419932915616165 -0.02991551308903795 -0.028137082881071473
          -0.054138355573049704 -0.012670814986669901 -0.024809373389175507 0.00042980901990324893 0.0005833120294371219 0.00008133325696971228
          0.03588327074606003 0.001149910361444323 0.0018123041356354896 0.0005062462355910902 0.06402800530777436 0.0006241465912535382
          0.0005476610610403165 0.0006788179250737936 0.02686282698596476 0.0007131104110759358 0.0011216459671609252 0.0003937833459521402
          0.04451696940960129 0.08604592078004204 0.04087903351155146 0.001307600554058555 0.002382607774407533 0.0008407071264605603
          -0.00022418564929627127 0.0002957929244553348 -0.00043554882530386085 0.0007715391155664053 0.00013088734283357717 0.0006575884068190374
          0.0005033000158168877 0.000839515277451075 0.0008468852568059848 0.00011912586885731713 -0.00020501868673414303 0.00035540194734066943
          -0.0005376931310593913 -0.0015424717168368574 -0.0003020066107085051 -0.0004953493636294937 -0.0020823855624581 -0.00032628197453377084
          -0.0018279180302127607 -0.00628858076986627 -0.0066123716577010105 -0.008402766616096402 -0.017378976334604168 -0.004292973584931858
          0.020053620447661236 0.03882529187835004 0.020776341118432518 0.0013584461276059528 0.0012767049416950726 -0.00031874261394404524
          0.0010720633851179912 0.002142693267246587 -0.00022962019516947763 0.0007956110215096429 0.00105538010096623 0.000660243673906824
        </DataArray>
        <DataArray type="Float64" Name="resid_z" format="ascii" RangeMin="0" RangeMax="0">
          0 0 0 0 0 0
          0 0 0 0 0 0
          0 0 0 0 0 0
          0 0 0 0 0 0
          0 0 0 0 0 0
          0 0 0 0 0 0
          0 0 0 0 0 0
          0 0 0 0 0 0
          0 0 0 0 0 0
          0 0 0 0 0 0
          0 0 0 0 0 0
          0 0 0 0 0 0
          0 0 0 0 0 0
          0 0 0 0 0 0
          0 0 0 0 0 0
          0 0 0 0 0 0
          0 0 0 0 0 0
          0 0 0 0 0 0
          0 0 0 0 0 0
          0 0 0 0 0 0
          0 0 0 0 0 0
          0 0 0 0 0 0
          0 0 0 0 0 0
          0 0 0 0 0 0
          0 0 0 0 0 0
          0 0 0 0 0 0
          0 0 0 0 0 0
          0 0 0 0 0 0
          0 0 0 0 0 0
          0 0 0 0 0 0
          0 0 0 0 0 0
          0 0 0 0 0 0
          0 0 0 0 0 0
          0 0 0 0 0 0
          0 0 0 0 0 0
          0 0 0 0 0 0
          0 0 0 0 0 0
          0 0 0 0 0 0
          0 0 0 0 0 0
          0 0 0 0 0 0
          0 0 0 0 0 0
          0 0 0 0 0 0
          0 0 0 0 0 0
          0 0 0 0 0 0
          0 0 0 0 0 0
          0 0 0 0 0 0
          0 0 0 0 0 0
          0 0 0 0 0 0
          0 0 0 0 0 0
          0 0 0 0 0 0
          0 0 0 0 0 0
          0 0 0 0 0 0
          0 0 0 0 0 0
          0 0 0 0 0 0
          0 0 0 0 0 0
          0 0 0 0 0 0
          0 0 0 0 0 0
          0 0 0 0 0 0
          0 0 0 0 0 0
          0 0 0 0 0 0
          0 0 0 0 0 0
          0 0 0 0 0 0
          0 0 0 0 0 0
          0 0 0 0 0 0
          0 0 0 0 0 0
          0 0 0 0 0 0
          0 0 0 0 0 0
          0 0 0 0 0 0
          0 0 0 0 0 0
          0 0 0 0 0 0
          0 0 0 0 0 0
          0 0 0 0 0 0
          0 0 0 0 0 0
          0 0 0 0 0 0
          0 0 0 0 0 0
          0 0 0 0 0 0
          0 0 0 0 0 0
          0 0 0 0 0 0
          0 0 0 0 0 0
          0 0 0 0 0 0
          0 0 0 0 0 0
          0 0 0 0 0 0
          0 0 0 0 0 0
          0 0 0 0 0 0
          0 0 0 0 0 0
          0 0 0 0 0 0
          0 0 0 0 0 0
          0 0 0 0 0 0
          0 0 0 0 0 0
          0 0 0 0 0 0
          0 0 0 0 0 0
          0 0 0 0 0 0
          0 0 0 0 0 0
          0 0 0 0 0 0
          0 0 0 0 0 0
          0 0 0 0 0 0
          0 0 0 0 0 0
          0 0 0 0 0 0
          0 0 0 0 0 0
          0 0 0 0 0 0
          0 0 0 0 0 0
          0 0 0 0 0 0
          0 0 0 0 0 0
          0 0 0 0 0 0
          0 0 0 0 0 0
          0 0 0 0 0 0
          0 0 0 0 0 0
          0 0 0 0 0 0
          0 0 0 0 0 0
          0 0 0 0 0 0
          0 0 0 0 0 0
          0 0 0 0 0 0
          0 0 0 0 0 0
          0 0 0 0 0 0
          0 0 0 0 0 0
          0 0 0 0 0 0
          0 0 0 0 0 0
          0 0 0 0 0 0
          0 0 0 0 0 0
          0 0 0 0 0 0
          0 0 0 0 0 0
          0 0 0 0 0 0
          0 0 0 0 0 0
          0 0 0 0 0 0
          0 0 0 0 0 0
          0 0 0 0 0 0
        </DataArray>
        <DataArray type="Float64" Name="stress_zz" format="ascii" RangeMin="-116078606.7352831" RangeMax="151857038.19342628">
          -25607.929466894835 -35186.60987166632 -29580.95106394242 -36323.27770388969 -33553.97266099 -37459.94553611305
          11135.091365903563 -18937.240616722516 -14151.962793392133 -33705.316203197974 -39439.01695268783 -48473.391789673435
          154382.51282969507 80805.86636180799 75816.7860951526 24345.525986508503 -2748.9406393898807 -32114.814388790983
          605665.4588993101 457188.4824006166 359831.45770678075 269496.0628486752 113997.45651425136 81803.64329673385
          1735622.0926297922 1695814.8537722833 1127272.8844402432 1070681.9396350298 518923.6762506941 445549.02549777634
          1960905.9280757024 3132574.0490166387 1154320.686084399 1931823.8730081501 347735.44409309526 731073.6969996619
          -2430040.40956897 -1579837.0759980541 -2092174.551033746 -1528553.3209802448 -1754308.6924985212 -1477269.5659624347
          -7625764.612098345 -9296840.710792635 -5218186.187290644 -6592967.384288672 -2810607.7624829444 -3889094.0577847115
          -6122347.774986652 -7424275.754702278 -4577335.517278399 -5727449.813593961 -3032323.259570148 -4030623.8724856433
          9905939.276887786 5390253.931330394 6377574.347905306 2823603.035394998 2849209.4189228276 256952.1394596016
          8227.122283911454 -6077.720462016354 -20382.563207944164 111881.7615614131 53778.055467127706 -4325.650627157697
          384063.9055092483 231553.6872334828 79043.46895771731 1001199.5242093044 618413.9311254411 235628.33804157798
          1538144.0302666842 1015301.1590597924 492458.28785290034 -605526.722590657 -563806.485763666 -522086.248936675
          -3459989.945677883 -2638166.1799561162 -1816342.41423435 -3423015.845566091 -1774288.9831612292 -125562.12075636705
          -2771020.5603496623 -1758095.4797491971 -745170.3991487317 -576782.8626180913 -2299011.258499694 -4021239.654381296
          77536.44594131454 41186.324604093184 4836.20326687183 298795.6483021462 183216.47032883295 67637.29235551972
          757823.6527812679 478675.6263180538 199527.59985483976 1349211.0638101248 878877.8202680002 408544.5767258757
          238039.3850096156 58523.67655324831 -120992.03190311918 -2947564.9178405837 -2151632.7131335554 -1355700.5084265266
          -2428113.7645874033 -1555784.2712718286 -683454.7779562536 1472419.8538701239 2130597.594863152 2788775.3358561797
          882710.6266750044 1109212.7524342297 1335714.8781934548 -2299059.3564868877 -2521468.363736528 -2743877.3709861687
          191592.8726806414 120196.38229300246 48799.89190536352 553615.678473171 357904.56641394156 162193.45435471222
          1077742.2623695333 707871.0120608808 337999.76175222814 918316.7777782744 519425.9914930329 120535.20520779156
          -2077161.7274158946 -1649773.0741928206 -1222384.4209697465 -3819764.19933674 -2599637.0820162375 -1379509.9646957337
          372932.27835223684 797961.200354537 1222990.1223568371 5104108.608879143 4834812.586858947 4565516.56483875
          3848781.264585997 3124171.119239199 2399560.973892401 -672440.2339690197 -2214534.9818432108 -3756629.729717402
          334767.27657989145 219243.38343014597 103719.49028040054 710825.0083097436 480278.6554502166 249732.30259068956
          660292.5050796801 405848.3089393748 151404.11279906958 -1562624.1752463647 -1309297.431663725 -1055970.6880810854
          -4562157.836487413 -3286597.2505201176 -2011036.6645528213 -2692368.777040823 -1519399.0434194403 -346429.30979805783
          3165626.102407742 2994038.7896125168 2822451.476817292 6770209.284038689 5773324.013327771 4776438.742616853
          5461346.430402164 3764911.2805969426 2068476.130791721 545682.7338634592 -2137035.1472585658 -4819753.028380591
          406447.43492245127 277512.35469546303 148577.27446847473 202330.602452448 143772.78719545223 85214.9719384565
          -1900607.467998764 -1383464.5790633808 -866321.6901279977 -5485941.055618379 -3854188.995575905 -2222436.9355334304
          -5424418.184552679 -3511727.6149501363 -1599037.0453475923 -444210.2341967843 268782.94499159604 981776.1241799765
          4925940.5308123315 4254530.410012387 3583120.2892124425 7166741.161228684 5497365.186958184 3827989.212687682
          5925572.172008172 3522674.1280717556 1119776.0841353398 4516330.147392655 1548562.0256869588 -1419206.0960187365
          61981.53840848163 80027.30180827943 98073.06520807726 -2171229.6303355177 -1477057.820556998 -782886.0107784785
          -6178426.679599915 -4277999.058724298 -2377571.4378486797 -7656184.067163555 -5136368.382912835 -2616552.6986621134
          -3992886.1213268037 -2355115.133277697 -717344.1452285891 1535956.760478492 1642814.935701869 1749673.1109252465
          5776213.300583851 4668661.504939994 3561109.709296136 7256000.280225377 4990504.581988337 2725008.8837513
          6555843.713889275 3802341.5299688834 1048839.3460484918 5098512.990133289 3007253.9410136384 915994.8918939866
          -1156268.321812308 -1023652.2754786424 -891036.2291449769 -5225403.5962370895 -4373714.495771233 -3522025.3953053765
          -7672857.366864755 -6449990.476555022 -5227123.586245292 -5538288.176941392 -5080861.2957278555 -4623434.414514318
          -765022.5157137548 -1493574.5275563037 -2222126.539398852 3654322.780244101 2251201.360556487 848079.9408688743
          6220255.868826078 4894157.348304763 3568058.8277834486 6481916.216789277 5385237.449937285 4288558.6830852935
          5659185.630530998 5349608.240392524 5040030.850254049 3082787.969487043 4243724.319225996 5404660.6689649485
          -4268855.937403694 -4745059.679825814 -5221263.422247934 -1333584.4860570575 -2695605.7876453158 -4057627.089233574
          1830720.554130264 8391.083579769242 -1813938.3869707256 4022136.11168572 2471213.411806194 920290.7119266686
          4570349.6587438695 4016549.0849140855 3462748.5110843014 3618715.9744253457 4085914.795039775 4553113.615654204
          3143224.0527690453 4797206.796518224 6451189.540267404 3013244.8684380753 5435707.767372406 7858170.666306739
          26994636.48771158 18316979.071673628 22105102.088597707 16508530.115194649 33677674.44082989 44657009.72137155
          15055355.170287339 14271660.438888002 40360712.393948205 70997040.37106948 8005608.251976977 12034790.76258136
          18341849.217341408 5144218.84154631 15040304.02527907 6676896.369833646 11738758.833216732 8209573.898120984
          34047134.70728632 6969095.593937428 20125760.198925663 26986018.84556992 1730672.5954527096 16759240.450552585
          19924902.983853515 -3507750.4030320076 13392720.7021795 28287881.531764075 16741250.83291168 51462717.523783654
          40516389.02400854 20951762.605856344 12231441.532320652 40835412.00691957 30334140.643863194 13615643.679948622
          7721632.231729627 30208106.490055487 20151892.263717853 -282952.2787679732 -39832825.24884571 126126425.08464548
          148060620.85130754 10403313.304164901 -21213462.967164848 93466954.53551704 54816787.43171975 21089578.88709777
          -2594100.6854839833 60807483.98638862 -38427045.98786804 -2006609.8947640075 -5158276.863454621 4129484.9000110254
          -444177.9313874687 -503370.2268620058 -2395752.6538256044 4384430.903877346 -53418.3435147531 999869.4410399961
          366771.5558034133 4639376.907743666 337341.2443579631 -6252347.673510119 7172901.390846126 -7521184.360932839
          -11509657.111820571 -2301339.228252258 9347588.763669387 -5640916.996463006 -10679447.424626675 1649669.217005603
          11522276.13649265 -3760649.631993173 -9849237.737432782 2750474.162163211 4186446.5285935276 4765712.5249412535
          3833921.2897190237 6780950.887719296 3481396.050844521 12147832.730852045 1721174.3791575436 10040731.18922156
          996752.4788088393 7933629.647591073 272330.5784601351 9781382.916124856 13060932.075558534 -14248133.777765952
          -50047943.464296244 23966703.81070925 10323181.757565055 -32510474.959119726 7200945.675400992 38152024.70529364
          7585431.439571578 -50772816.14047351 64449834.81509823 21468443.325070515 23602708.189652063 34961815.53896589
          25981045.94530802 15120139.856274806 17259957.5561871 26125785.848811496 18747580.265663587 8771836.387479099
          10917206.922722146 17289756.158657108 11514114.586019157 3894727.9335055533 26967771.691581152 -1854755.5936658715
          15407832.222295333 -7604239.120837296 3847892.75300951 11308373.26536441 6917555.05702824 3462307.7224188927
          6020490.447525199 6828250.820255203 5076539.311267535 2184934.986927269 3521552.244026337 2348128.375145997
          3235523.5655068317 907562.2514356445 1022614.0405274758 68260314.98034571 82031986.86821397 33544231.43357817
          45912067.36020347 49950623.16917722 70019105.72863881 27830119.854915813 33449351.52896784 31640931.35800873
          58006224.589063644 22116008.27625345 20986635.697732203 -11133859.774734614 -12965689.363632882 10005981.230252327
          13632323.18583748 -29715082.73542379 -29928135.590807874 4517737.532059164 -864129.1189390831 -48296305.69611296
          -46890581.81798286 -970506.166133998 -15360581.423715645 7887686.935271922 785675.4485106597 8990059.744844839
          3448734.4192443434 10092432.554417752 6111793.389978027 9399457.270670775 6165542.216562675 2931627.1624545744
          -3778377.0197568852 6017692.039192005 58647820.350219786 78937365.11630914 121074017.72019646 151857038.19342628
          41690770.757485464 9049401.315108605 24568452.719893195 81017319.03323026 29658405.438293073 42399000.94733417
          120343867.3089751 50267409.56147754 60229549.17477514 -51295981.47249398 -113198679.6223564 -14814110.808909213
          3852092.4057032117 -36778608.87027718 -79318926.88386638 3213702.2588752313 5974127.084153399 -22261236.268060386
          -45439174.145376354 21241515.326659672 8096161.762603586 43857682.16470156 39259905.73871553 47527857.73619872
          33175339.366955724 27636814.895257372 34191347.60148705 22492996.56920989 16013724.051799215 20854837.466775373
          -546977.0514735315 373510.7862259939 1002204.8112446184 -1408124.22723488 2551386.6739627677 -3189759.240695754
          102514107.34712952 104036882.82822514 104222710.96949887 27434499.00677392 105931314.5918682 -49167884.814677306
          -86080901.2018422 -11016068.595647434 -50281231.68339065 -6129438.903248105 -14481562.16493909 -1242809.2108487787
          60128009.54122172 66434559.2553241 51409061.77308281 39504942.176858276 50501073.06374103 53901547.85502165
          41041993.38456429 32190097.127239477 40874136.586260326 41368536.4547192 30674924.99604576 24875252.077620685
          -4631881.301171515 -15961993.088053366 -8351653.01715236 -2099513.1586758713 -6828554.152310921 -4695176.655696771
          432854.9838197736 2304884.783431527 -1038700.2942411816 16335084.55285822 26388588.413717926 10059286.804512115
          18349838.03427108 3783489.056166009 10311087.654824242 549072.8709941193 4314040.243922341 425088.9985425078
          3129724.7297605197 301105.12609089585 1945409.2155986996 -40510991.95506807 -116078606.7352831 -25474537.748702258
          -80648215.29066515 -10438083.542336442 -45217823.846047185 -22653520.301089305 5035070.698602535 -19222801.551865924
          2703634.9833904468 -15792082.802642545 372199.2681783587 987457.4730714578 -3678419.7860044655 -8535358.959095512
          -7750731.256493077 -3494334.6864674133 -7649237.585833388 -16488919.986057611 -3310249.5869303606 -6763116.212571263
          -1073814.950327671 6772069.479380208 4105656.68250541 -1238361.9834124204 5963070.944795297 3984925.8564687576
          -1402909.0164971703 5154072.410210386 3864195.0304321055 44316195.5513807 47813564.23271321 42834108.90511885
          32960640.507624898 37719023.44017578 31148523.50898148 21605085.46386909 27624482.64763836 19462938.112844117
          49812695.06478503 40526463.59902023 31240232.133255407 -10422674.169313425 -6934079.4692119965 -5795837.338474592
          -9841679.563928965 -8934971.648122143 -5693611.651790539 -5279053.988620215 -8991642.598851774 -7447269.126930863
          -4453143.834369081 -4762270.638765839 -8141605.63377458 53826885.36232026 37186771.29439093 42949449.46210489
          24727711.460622072 32072013.56188951 12268651.626853205 -6475936.863486936 -10383863.479587529 -5280268.958574359
          -9481608.768324275 -4084601.0536617814 -8579354.057061018 39586751.415346526 20983513.35194469 33314084.063660443
          12427077.036379952 27041416.71197437 3870640.720815228 59180573.63217588 12648847.835994931 50677394.041591965
          12286238.755723283 42174214.45100806 11923629.675451634 992576.4098022054 461918.52370757516 -68739.36238705518
          -1659518.0422408343 -390747.8007067683 878022.440827298 25292495.89660784 109514941.15905094 24427206.178891767
          10808738.828383097 23561916.461175695 -87897463.50228475 -7423619.5320100775 -6553246.858097877 -5682874.184185676
          -12826780.802606478 63714861.41517363 140256503.63295373 15437304.352863267 -1376904.9789356869 -18191114.31073464
          9671198.678434413 7831649.939554721 5992101.20067503 -744438.2821497519 -1145737.067042863 -1547035.8519359739
          -39461067.766388424 40969484.28306693 121400036.33252229 35334558.888194025 24842429.09087168 14350299.293549335
          51979786.82942522 45768730.7257147 39557674.62200418 11950881.045764249 6585921.804436398 1220962.5631085476
          -4652239.529863626 -4596551.8063587565 -4540864.082853886 -27903383.04302588 -51000345.89602624 -74097308.7490266
          1805141.996065292 1587622.6944050821 1370103.3927448725 3307729.975543378 3487579.0642608893 3667428.152978401
          2673045.068497867 2549986.6395657915 2426928.210633715 2872433.46218035 3090125.3956999704 3307817.3292195923
          2651349.378146496 2670208.429230467 2689067.480314437 1659985.9514402046 1804931.0248717335 1949876.0983032621
          177345.85591391183 170241.1785172198 163136.50112052786 -171685.39713304793 -4854.682592306082 161976.0319484357
          1304867.495646285 1543187.4189180885 1781507.3421898917 1242003.0376793814 2820917.7368663605 716930.6196878921
          1870675.4811279073 191858.201696403 920433.225389454 922497.40493566 2875.4189809927484 2002181.4041983807
          4288928.519288308 335872.8379846611 -196695.5309704729 1332448.2739262835 3337887.5107934335 -250751.72896633792
          -396266.48092193855 662715.143654186 2386846.5022985595 -48514.397773638215 76416.36711999893 201347.13201363597
          1697927.106944535 1261036.320471695 824145.5339988549 -56096.105733948876 66103.1550711089 188302.41587616672
          1595959.0515731697 2700163.498082778 1446211.6515426615 2554644.7410769835 1296464.2515121533 2409125.9840711886
          1539162.9641989328 1695854.6104498452 1852546.2567007574 -109529.45636288915 -233505.2536000359 -357481.0508371825
          -461660.85532014095 -480991.08865007316 -500321.32198000536 -2350491.4053819794 -2564876.8350726734 -2779262.2647633674
          -3059684.9132997147 -3173912.97771594 -3288141.042132166 -1011156.1474800698 -903628.3530578595 -796100.5586356495
          444137.24686146824 269556.90845606185 94976.57005065544 772353.4738027677 416049.70029817265 396460.3084865861
          793434.1548570755 260675.02550961738 316856.5566621005 814514.8359113835 105300.35072106206 237252.8048376147
        </DataArray>
        <DataArray type="Float64" Name="peeq" format="ascii" RangeMin="0" RangeMax="0.02210121328884463">
          0 0 0 0 0 0
          0 0 0 0 0 0
          0 0 0 0 0 0
          0 0 0 0 0 0
          0 0 0 0 0 0
          0 0 0.000002868096553419949 2.266935982018094e-7 0.000005736193106839898 4.533871964036188e-7
          0.00009489146395302511 0.00006198953630774873 0.000124426877400065 0.00009077029036877434 0.00015396229084710492 0.00011955104442979996
          0.0006839952636960512 0.000598980571706576 0.0007303391814707454 0.0006517606316482022 0.0007766830992454398 0.0007045406915898285
          0.0024911080984300372 0.0024649324401698884 0.0024485130623909937 0.0024160125425065388 0.0024059180263519496 0.0023670926448431887
          0.005382202163663019 0.005115408502762264 0.005130901375146904 0.004865558203626556 0.004879600586630789 0.004615707904490848
          0 0 0 0 0 0
          0 0 0 0 0 0
          0 0 0 0.000013416707668498445 0.000021904766384304572 0.000030392825100110695
          0.00020740834746911882 0.00023653484455935582 0.00026566134164959283 0.0009234205040697177 0.000952452112818839 0.00098148372156796
          0.002566407076680509 0.0025364243927598713 0.0025064417088392333 0.0046741092903537845 0.004542755811983907 0.00441140233361403
          0 0 0 0 0 0
          0 0 0 0 0 0
          0 0.0000018604073388319978 0.0000037208146776639957 0.00006731703193858244 0.00008124867338633274 0.00009518031483408305
          0.00041990787834798827 0.00044195079287608226 0.00046399370740417614 0.0012699337046398452 0.0012742707733113072 0.001278607841982769
          0.0026670731817885623 0.0026472416612453456 0.0026274101407021285 0.004159536027251363 0.004147990281721143 0.004136444536190924
          0 0 0 0 0 0
          0 0 0 0 2.576136693005613e-8 5.152273386011226e-8
          0.000014193546850899854 0.000022146863100285396 0.00003010017934967093 0.00018784607538898534 0.00020620741628159784 0.00022456875717421032
          0.000720682607564996 0.0007273200065376708 0.0007339574055103455 0.0016481164770540244 0.0016254680627175526 0.0016028196483810807
          0.002744051804644622 0.0027273835948102548 0.002710715384975887 0.003406533811387268 0.0034557278605926115 0.003504921909797955
          0 0 0 0 0 0
          0 0 0 0.0000014013835960834588 0.000006006838492917328 0.000010612293389751198
          0.00007290193302606746 0.00009058322199497458 0.0001082645109638817 0.0003934759568971482 0.00041004981478467506 0.000426623672672202
          0.0010637320183774503 0.0010505726598550541 0.0010374133013326577 0.0019745689447935293 0.001930609513487152 0.001886650082180775
          0.002733965189630435 0.002716053824080577 0.002698142458530719 0.002886654906911584 0.0029545727809050498 0.003022490654898515
          0 0 0 0 0 0
          1.2276524390327806e-7 0.0000026986997757226587 0.00000527463430754204 0.00003158175850736263 0.00004498399806483004 0.00005838623762229747
          0.00021502127595294943 0.00023518994219709808 0.0002553586084412468 0.0006737253979263059 0.0006765659920503062 0.0006794065861743066
          0.001391828363363067 0.0013609591435202538 0.0013300899236774403 0.0021810066130787836 0.002130127820023084 0.0020792490269673845
          0.00259132063222943 0.002579638206367021 0.002567955780504612 0.0023648381974334435 0.002439615950062672 0.0025143937026919014
          0 0 0 1.7314718156308834e-7 0.0000010033059089266302 0.000001833464636290172
          0.000021900137949453124 0.00002758209790473714 0.000033264057860021155 0.00014121449842094866 0.0001517723486201405 0.00016233019881933236
          0.00045427867261410695 0.00045641516259152016 0.00045855165256893343 0.0009871712279824153 0.0009676036285228766 0.0009480360290633378
          0.0016520911954209909 0.00161294651246984 0.0015738018295186893 0.002227988628104214 0.0021921685740790777 0.0021563485200539415
          0.0023128436117548844 0.002325391152552531 0.0023379386933501784 0.0018230200491718693 0.0019043335112165992 0.001985646973261329
          0 2.1301418830831364e-7 4.260283766166273e-7 0.000016336334783230957 0.000018252712862681554 0.000020169090942132154
          0.00010682528361794183 0.00010949786008806151 0.00011217043655818118 0.0003421992147302624 0.00033699989075856634 0.0003318005667868703
          0.0007484402345302413 0.0007270847641027002 0.0007057292936751592 0.0012798341093608254 0.0012452388500127248 0.0012106435906646244
          0.0018077351109221118 0.0017741402438846729 0.001740545376847234 0.00211907093207625 0.002110263600536401 0.0021014562689965514
          0.0019323404984809421 0.0019701573008400757 0.002007974103199209 0.0012984877902140653 0.001375085361959098 0.0014516829337041302
          0.00030862488523890054 0.0003066740595111683 0.000304723233783436 0.0006232486878432834 0.0006116769636078331 0.0006001052393723827
          0.0010416712430212209 0.0010195851208355277 0.0009974989986498346 0.0014823449787431074 0.0014564392326895544 0.0014305334866360016
          0.0018081185747637395 0.001790518980510292 0.0017729193862568446 0.0018493050136551342 0.0018540292553510395 0.001858753497046945
          0.0014609856309761389 0.0014920072505468036 0.0015230288701174681 0.0008370567952470142 0.0008814922755786744 0.0009259277559103348
          0 0 0 0 0.0004130951861406997 0.0010192456133369056
          8.166996193973816e-8 0 0.0008261903722813994 0.002038491226673811 1.633399238794763e-7 0
          0 0 0.00011916681593149807 0 0.00023833363186299614 0
          0 0 0 0.0002679079482737795 0.000032520490084915304 0.00010607959719579057
          0.000535815896547559 0.00006504098016983061 0.00021215919439158113 0.008460740348259891 0.0073813443313682295 0.010350377165646511
          0.010459978214582668 0.008049531940904462 0.007225613558500545 0.009901629130173365 0.009859304309796852 0.007638323533549033
          0.007069882785632861 0.00945288109470022 0.009258630405011037 0.0018631471707154696 0.001178212766281881 0.0033100187576026972
          0.003480485408462467 0.003232662028955338 0.002375472807866121 0.005595365473477877 0.005360439357190237 0.004602176887195206
          0.0035727328494503607 0.007880712189353056 0.007240393305918009 0.004181414748372293 0.0039433076277741305 0.00515304620364266
          0.0050408337384547615 0.0042658219359588585 0.004115779328579651 0.005190597978254134 0.0050179528507979364 0.0043502291235454245
          0.004288251029385174 0.005228149752865608 0.004995071963141111 0.0011226689750800328 0.0016014892454009116 0.0007367286898706364
          0.0002862507141594703 0.0013175132970940928 0.0017867630348147572 0.0008698027220079436 0.0003811467760217288 0.0015123576191081525
          0.0019720368242286033 0.0010028767541452506 0.0004760428378839873 0.000682286251965222 0.0011378260662572495 0.0007639104401387176
          0.0012491350816209834 0.0008455346283122132 0.001360444096984717 0.006310303439373739 0.005181891439029438 0.006185577698887585
          0.005303639951721801 0.006060851958401431 0.005425388464414163 0.000007264178620147327 0 0
          0.00035593084216720513 0.0005791078592181767 0.000468341984523697 0.0005565711305669099 0.0016706776577392276 0.0011509515398162062
          0.000936683969047394 0.0011131422611338198 0.0029854244733112513 0.0071746845213629335 0.00715075231521931 0.009140816521992754
          0.008317444308665009 0.006752621801572153 0.006762836023605718 0.008568912966628126 0.007786428246224004 0.006330559081781372
          0.0063749197319921255 0.007997009411263504 0.0072554121837829985 0.007364916046869121 0.011031883741242022 0.007352052932871716
          0.010719169800055089 0.007339189818874312 0.010406455858868152 0 0 0
          0 0 0 0 0 0
          0 0 0 0.015236346998191035 0.020605622433222573 0.019571351139970022
          0.013490511367398692 0.014785638098871625 0.01959394002523778 0.018538900373613873 0.013223125476191954 0.014334929199552216
          0.01858225761725299 0.01750644960725773 0.012955739584985224 0 0 0
          0 0.0007713887970630779 0.0007973612367663793 0.0005416299222869328 0.000511488572265624 0.0015427775941261558
          0.0015947224735327586 0.0010832598445738655 0.001022977144531248 0.0021894847939155243 0.0019802737836203807 0.0023952425015885126
          0.0022119499467518813 0.002601000209261501 0.0024436261098833827 0.006416254203380926 0.006190663968275291 0.005965073733169655
          0.00011971590879007096 0.00017581621028966694 0.0017595671682434546 0.002852558455976751 0.003399418427696838 0.005529300701663835
          0.0018239180606397843 0.0007748997936533811 0.000050691584095794646 0.0044750251573013825 0.002295169800900266 0.001191779574835069
          0.007126132253962981 0.003815439808147151 0.002332867565574343 0.0018070184531129017 0.0011813513137668582 0.0044325133560498735
          0.004600951759606752 0.0022402070400087412 0.0018327934234691997 0.005362332293609495 0.004917964159556212 0.0026733956269045815
          0.0024842355331715408 0.006292151231169116 0.005234976559505672 0.010031580691139456 0.011064262157325049 0.012276228838166134
          0.00935442708921358 0.010327314375637518 0.011383219170279025 0.008677273487287699 0.009590366593949986 0.010490209502391915
          0.0003830072035700089 0.001667537535005243 0.00045513039190353457 0.0017978163603104805 0.0005272535802370602 0.0019280951856157182
          0.0037250930325881866 0.003922831716836863 0.005134434997374219 0.00539987307488977 0.006543776962160251 0.006876914432942675
          0.00007135904704929947 0.0000037840723648125808 0.0000972603193639378 0.000016478870384838605 0.00012316159167857614 0.000029173668404864622
          0.01834517798387985 0.017354697791213753 0.019631226423915304 0.020450624140779753 0.01685129821804374 0.016025587660534517
          0.018254709850354277 0.01889127653163386 0.01535741845220763 0.01469647752985528 0.016878193276793248 0.01733192892248797
          0.0028599124108134085 0.0023679579859031425 0.0036460732617763537 0.003081614666113179 0.002693889560269819 0.003935062985152898
          0.003303316921412949 0.0030198211346364945 0.004224052708529443 0 0 0
          1.0889328258631754e-7 0 2.1778656517263508e-7 0.0031164616944017475 0.0023538701095151653 0.003264147196487696
          0.0024962923259943077 0.0034118326985736456 0.00263871454247345 0.0009477804612256197 0.0006486894132359103 0.0011274482918363108
          0.0009236176134449251 0.001307116122447002 0.0011985458136539399 0.00011908535606930752 0 0.00019246687879064263
          0.000006886585801491755 0.00026584840151197775 0.00001377317160298351 0 0 0
          0 0 0 0 0 0
          0.00005671269040193056 0 0.00003205677329502165 0.00007501987611934228 7.484492294579952e-7 0.00005606713183043912
          0.00009332706183675399 0.0000014968984589159905 0.00008007749036585658 0.01296572742541336 0.015136312519066077 0.014943648879898413
          0.01203019894555532 0.013967004619541692 0.013759761993421443 0.011094670465697275 0.01279769672001731 0.012575875106944474
          0.016326824865782137 0.0149949743093424 0.013663123752902667 0 0 0
          0 0 0 0 0 0
          0 0 0 0.012872542182046292 0.01493332905758295 0.012051523320649436
          0.01401002247761493 0.011230504459252581 0.013086715897646914 0 0 0
          0 0 0 0.021322025314231895 0.01631472840315508 0.020045416123182083
          0.015466637926237809 0.018768806932132273 0.014618547449320535 0.00799366134477157 0.008515872069677554 0.00828090033273017
          0.00924771833398108 0.008568139320688771 0.009979564598284606 0 0 0
          0.0003209687625099578 0.0003614817682218662 0.00040199477393377457 0.0035968779840578795 0.0037259745586863628 0.004849922352029242
          0.004863124371252565 0.006102966720000606 0.006000274183818768 0.00012175870925334885 0.00019430724968602577 0.0002668557901187027
          0.0017640459886672656 0.003543289334498546 0.005322532680329827 0 0 0
          0 0 0 0 0 0
          0.0022975500804550634 0.003774599142350436 0.005251648204245809 0.007336099375745413 0.008198851066751472 0.009061602757757532
          0.02210121328884463 0.02075017759540189 0.019399141901959155 0.006956370247089217 0.006547377030334167 0.006138383813579116
          0 0 0 0 0.0005198004495949076 0.0010396008991898152
          0.0009488606498898041 0.000941839544664222 0.00093481843943864 0.0011869463095957329 0.001182761039935368 0.0011785757702750034
          0.0012731099089338558 0.0012636585704532324 0.0012542072319726082 0.0013384431185159062 0.001335164365165796 0.0013318856118156855
          0.0015252423255468378 0.001516658831651553 0.001508075337756268 0.0015986308931246168 0.001595096088768284 0.001591561284411951
          0.001395639487565943 0.0014006240432214187 0.0014056085988768947 0.000902220790144739 0.0009132448913265765 0.000924268992508414
          0.0003096371476475552 0.00031881176799806494 0.0003279863883485747 0.00013544740296692423 0.00001107785236759319 0.00014772305487507952
          0.0000153079776519936 0.00015999870678323484 0.000019538102936394012 0 0 0
          0 0 0 0 0 0
          0 0 0 0 0 0
          0.0000016952599974776236 0.0000021230726780452297 0.0000025508853586128356 0 0 0
          0.0011864985870615528 0.0012207328573579689 0.0011849437549788708 0.001217352842248726 0.0011833889228961888 0.0012139728271394828
          0.0013585242229513933 0.0013574289933155153 0.0013563337636796377 0.001017049759864969 0.001017966515615698 0.0010188832713664275
          0.0011956301452331708 0.0011976020406605928 0.0011995739360880146 0.0008435140084206163 0.0008481853499769562 0.0008528566915332963
          0.0003987003501749184 0.0004030279384751894 0.0004073555267754604 0.00008682590044881681 0.00008830980292039343 0.00008979370539197004
          0 0 0 0 0 0
          0 0 0 0 0 0
        </DataArray>
        <DataArray type="Float64" Name="pe11" format="ascii" RangeMin="-0.0024575625512104314" RangeMax="0.021646857001683735">
          0 0 0 0 0 0
          0 0 0 0 0 0
          0 0 0 0 0 0
          0 0 0 0 0 0
          0 0 0 0 0 0
          0 0 0.00000280224609829856 2.2165653143812004e-7 0.00000560449219659712 4.433130628762401e-7
          0.00009214537190357237 0.00006014723442701332 0.00011996607388820336 0.0000872576922670291 0.0001477867758728343 0.00011436815010704486
          0.0006557212898860464 0.0005717024817768383 0.0006954717645329426 0.0006174565553740058 0.0007352222391798389 0.0006632106289711734
          0.002341189368175946 0.002298939509184559 0.0022922338317782 0.0022441087622662357 0.0022432782953804536 0.0021892780153479124
          0.005010644917730936 0.004709303101886912 0.004770029718627961 0.004463291027779158 0.004529414519524987 0.004217278953671403
          0 0 0 0 0 0
          0 0 0 0 0 0
          0 0 0 0.000013124612532563137 0.000021403016331029575 0.00002968142012949601
          0.00020189679179993683 0.00022930896571934277 0.0002567211396387487 0.0008931416233615151 0.0009167735196077614 0.0009404054158540078
          0.0024550224654953504 0.0024187866458398903 0.0023825508261844305 0.004441503928105093 0.004317366566834668 0.004193229205564243
          0 0 0 0 0 0
          0 0 0 0 0 0
          0 0.0000018349130956147729 0.0000036698261912295457 0.00006585524601392684 0.00007946191579456929 0.00009306858557521176
          0.00041005275035791843 0.0004306550023036941 0.0004512572542494696 0.00123878328284943 0.0012394499777474977 0.001240116672645565
          0.0025966335111595284 0.002572426176981431 0.0025482188428033333 0.004041177235221064 0.004035690392753232 0.004030203550285398
          0 0 0 0 0 0
          0 0 0 0 2.5564355073243935e-8 5.112871014648787e-8
          0.00001396169203041957 0.000021805117647120204 0.00002964854326382084 0.00018405283555432775 0.00020204532803696476 0.0002200378205196018
          0.0007062125625477771 0.0007119298809293881 0.0007176471993109992 0.0016187714407189834 0.0015942974068023383 0.0015698233728856927
          0.0027037725918672853 0.00268569815698385 0.0026676237221004142 0.003348129327752346 0.003402208696392727 0.003456288065033108
          0 0 0 0 0 0
          0 0 0 0.0000013883446135219384 0.0000059518090750510205 0.000010515273536580102
          0.00007172542822266388 0.00008919087386990177 0.00010665631951713968 0.00038638571524662424 0.00040261987015460473 0.00041885402506258517
          0.0010461894938964599 0.0010326024415329663 0.001019015389169473 0.0019500017366153501 0.0019056610683597015 0.0018613204001040533
          0.0027108049936241394 0.002694043144486387 0.0026772812953486337 0.002840942818305253 0.0029136332255002497 0.002986323632695247
          0 0 0 0 0 0
          1.220381535179492e-7 0.000002683925216869003 0.000005245812280220057 0.000031221861796230744 0.000044519406747254786 0.00005781695169827883
          0.0002117430570211163 0.0002317108267561458 0.0002516785964911753 0.0006630661323718851 0.0006656998461689318 0.0006683335599659785
          0.0013738864931572131 0.0013428390880082487 0.001311791682859284 0.0021632837337758975 0.0021127301237934925 0.002062176513811087
          0.00257582543691842 0.00256614759197708 0.00255646974703574 0.002321672467180807 0.002399324057185811 0.0024769756471908146
          0 0 0 1.7231911370017817e-7 9.99250337624178e-7 0.0000018261815615481778
          0.000021721123053869504 0.00002738284111837068 0.00003304455918287186 0.0001395059365710491 0.00015006747430193118 0.00016062901203281325
          0.0004476734782628872 0.0004499163086760479 0.0004521591390892085 0.0009737450016451953 0.000954182855684596 0.0009346207097239965
          0.0016364881608564974 0.001597106155973271 0.001557724151090044 0.002217188619501145 0.0021816120519591105 0.0021460354844170756
          0.002299534179499454 0.0023135449056518615 0.002327555631804268 0.001783557727549127 0.0018653380637815272 0.0019471184000139274
          0 2.1214532115377166e-7 4.242906423075433e-7 0.000016236598883014145 0.00001813875418416784 0.000020040909485321538
          0.00010584479936997917 0.00010848662898881953 0.00011112845860765987 0.0003379286529312912 0.00033278799218271557 0.0003276473314341399
          0.0007383004777924999 0.0007171144048026868 0.000695928331812874 0.0012656305867743511 0.0012309614383272502 0.0011962922898801488
          0.0017963640409059433 0.0017622182574759014 0.0017280724740458592 0.002113220812874696 0.0021039292125858582 0.0020946376122970207
          0.0019175267213696304 0.0019552353505104783 0.0019929439796513267 0.0012651088018937218 0.0013398741487964936 0.0014146394956992651
          0.00030615942371613284 0.0003041786938473883 0.0003021979639786437 0.0006173242019642785 0.00060571965598475 0.0005941151100052216
          0.0010323199650010895 0.0010101646571246345 0.0009880093492481796 0.001473133809183963 0.0014470361035453286 0.0014209383979066944
          0.001802703730209769 0.001784769495413985 0.001766835260618201 0.001843904530714782 0.0018482443588889624 0.0018525841870631428
          0.0014445017922436133 0.001474707685858098 0.0015049135794725824 0.0008128087494822896 0.0008550916748922134 0.0008973746003021368
          0 0 0 0 -0.000013834204315766205 -0.00041730288282074276
          2.9307011492778112e-8 0 -0.00002766840863153241 -0.0008346057656414855 5.8614022985556224e-8 0
          0 0 -0.000023914968657534973 0 -0.000047829937315069946 0
          0 0 0 0.00009036641695159153 -0.00001184764847879076 0.000010479745060735512
          0.00018073283390318307 -0.00002369529695758152 0.000020959490121471024 0.007998172384188727 0.006898027541668812 0.009793340432929835
          0.00995006309905606 0.007614611642436698 0.006788093452303334 0.009389072843058132 0.0093852173801205 0.0072310509006846685
          0.006678159362937858 0.008984805253186429 0.00882037166118494 0.00024597094186929233 -0.00040531214382811593 -0.0015015290886490527
          0.0004395276604829834 0.0007916993322533213 -0.0005753955650294366 -0.0004522407787120015 0.002028958612584603 0.00133742772263735
          -0.0007454789862307574 0.0005970475312250495 0.0036183895646862223 0.004081642312557221 0.003817734578182417 0.004912136712368934
          0.004857222440249351 0.004177916364724527 0.003998807231948547 0.00497993009809258 0.00485496869687623 0.004274190416891834
          0.004179879885714678 0.005047723483816226 0.004852714953503107 0.0010440305458770422 0.0015266427754174411 0.0006886429344990947
          0.0002573632015506979 0.001227778245910205 0.0017090067849653526 0.0008130699360939074 0.0003434707225927479 0.0014115259459433678
          0.001891370794513264 0.0009374969376887202 0.000429578243634798 0.0006535997038952977 0.001088034687263911 0.0007310953553310149
          0.001196026447784772 0.000808591006766732 0.0013040182083056328 0.0059628602443213136 0.004842121332885217 0.005882914599219337
          0.004999716807789476 0.005802968954117361 0.005157312282693735 0.000002120560379683488 0 0
          0.000010006951110528313 0.000038902397525886315 0.00022432293326311896 0.00011994399388534287 -0.000600936136220828 0.00007568423467208915
          0.0004486458665262379 0.00023988798777068574 -0.0012118792235521843 0.0066619886056766935 0.006692892075525812 0.008688423493263934
          0.00782708050341808 0.006253961363660203 0.006329465810285566 0.008127080209347142 0.0073052608588846735 0.005845934121643713
          0.005966039545045321 0.007565736925430354 0.006783441214351266 0.00668478271552152 0.010237906066412596 0.006728893396235059
          0.01001514729215276 0.006773004076948599 0.009792388517892929 0 0 0
          0 0 0 0 0 0
          0 0 0 0.012993060677610326 0.01945866601288427 0.01859396464676534
          0.011860891541603427 0.012787945934797382 0.01848190281776249 0.017590980865913895 0.01178629637121457 0.012582831191984438
          0.017505139622640713 0.01658799708506245 0.011711701200825712 0 0 0
          0 -0.0002132140238157144 -0.000018964578353976676 0.000031225023894032355 -0.00016697189557573724 -0.0004264280476314288
          -0.00003792915670795335 0.00006245004778806471 -0.0003339437911514745 0.0020986416843535665 0.0018707776012188853 0.0023097522586722576
          0.0020991690725183846 0.0025208628329909497 0.002327560543817884 0.006071608170467324 0.005875173788031099 0.005678739405594875
          0.000017043046793705547 -0.000015297297138363135 -0.00018418473277715511 -0.0011190999643878915 -0.00038541251234801575 -0.0022229026316374196
          -0.0011569377914363837 -0.0004882968499929196 -0.00002417582684190816 -0.001775338514987322 -0.0014729297006016754 -0.0008044763909236601
          -0.00239373923853826 -0.0024575625512104314 -0.0015847769550054122 0.0016452554784127423 0.0008278949723916333 0.003192491682654095
          0.004039597464589185 0.002012114804762101 0.0011144354309786057 0.0038103648941577666 0.004356094653998899 0.0023789741311114588
          0.0014009758895655775 0.004428238105661438 0.004672591843408613 0.009621419326436993 0.01063107996028411 0.011938819855366373
          0.008943552928593702 0.009900341307617227 0.011031231411825016 0.008265686530750412 0.00916960265495034 0.01012364296828366
          0.00036389375967513097 0.0015993417882086405 0.0004314859522685006 0.0017287260734725138 0.0004990781448618702 0.0018581103587363872
          -0.001920827652580175 -0.0001809067869439863 0.00020616816307209192 0.0018001964346424414 0.002333163978724359 0.0037812996562288687
          0.00006109020050719403 0.0000031611625594748527 0.00008512351972064565 0.000014879756236746474 0.00010915683893409724 0.000026598349914018095
          0.01811084546924263 0.01700827730851238 0.019181596096315204 0.020141082560892108 0.016591823525283222 0.01567817177780544
          0.01776992877474591 0.018554671141366587 0.015072801581323814 0.014348066247098498 0.016358261453176613 0.016968259721841066
          0.002754745647605802 0.0022397538598477283 0.0034627746995348394 0.002980014124027777 0.0025525138931410253 0.00375309184745458
          0.003205282600449752 0.0028652739264343214 0.004043408995374321 0 0 0
          3.907601532370415e-8 0 7.81520306474083e-8 0.0030332226147824805 0.0022804410183788594 0.0031904019366374844
          0.0024268632502030345 0.0033475812584924888 0.00257328548202721 0.0008740663441265606 0.000582524264131195 0.001041220168295447
          0.0007365109609893446 0.0012083739924643336 0.0008904976578474943 0.000104263390375978 0 0.00017103403014216936
          0.000006435024378268381 0.00023780466990836073 0.000012870048756536762 0 0 0
          0 0 0 0 0 0
          0.00005386782611412522 0 0.00003088084679417895 0.00007069684905044448 7.119638225655394e-7 0.000053057078923647664
          0.00008752587198676376 0.0000014239276451310788 0.00007523331105311637 0.012636043904949833 0.014885639276345832 0.01474346052273907
          0.011696215866014735 0.013704941422444642 0.013535574550400508 0.010756387827079637 0.01252424356854345 0.012327688578061944
          0.016095405105660723 0.01474848518926 0.013401565272859278 0 0 0
          0 0 0 0 0 0
          0 0 0 0.012437473909458157 0.014381996660166499 0.011645718835915631
          0.013509771229952857 0.010853963762373098 0.01263754579973921 0 0 0
          0 0 0 0.020814471747946286 0.015492776328407825 0.019450324701544848
          0.014720309320992511 0.018086177655143414 0.01394784231357719 0.006794363927092189 0.006384799821276009 0.00717348552690135
          0.0070335949702376365 0.007552607126710511 0.007682390119199263 0 0 0
          0.0003064738634084834 0.00034402968783477447 0.0003815855122610655 0.0013937607342344954 0.0012485403032554416 0.002145466491157519
          0.002268811409384662 0.002897172248080543 0.003289082515513882 0.00011012313108714387 0.00017516499480276342 0.000240206858518383
          -0.0009306383921761977 -0.0007514853053535169 -0.000572332218530836 0 0 0
          0 0 0 0 0 0
          -0.0009935552183129336 -0.0010814873716875036 -0.0011694195250620738 0.004585739757701628 0.005180968279459742 0.005776196801217856
          0.021646857001683735 0.02022144991313586 0.018796042824587987 0.006425241047057708 0.006021085744333655 0.005616930441609602
          0 0 0 0 -0.00009248425647995433 -0.00018496851295990866
          0.0009447559872335076 0.0009376733619145435 0.0009305907365955794 0.0011857233733094427 0.0011814841909076504 0.0011772450085058585
          0.0012691664805894421 0.0012596215930208436 0.0012500767054522454 0.001337562219140432 0.0013342597823424057 0.0013309573455443792
          0.001522614839438411 0.0015139738134910285 0.0015053327875436467 0.0015957265995310418 0.00159224465937836 0.0015887627192256782
          0.0013879121842420555 0.0013929366139907476 0.0013979610437394397 0.0008898615258178701 0.0009004951563181697 0.0009111287868184694
          0.00030157292881221166 0.00031014633651616863 0.0003187197442201256 0.00013053835661171607 0.000010844577221231399 0.0001420948774304659
          0.000014910041052780598 0.00015365139824921573 0.000018975504884329796 0 0 0
          0 0 0 0 0 0
          0 0 0 0 0 0
          0.00000168107935043814 0.0000021032625168358384 0.000002525445683233537 0 0 0
          0.001184807715738432 0.0012201152811356208 0.0011832709019879801 0.0012167234646276964 0.0011817340882375282 0.001213331648119772
          0.0013566245261842356 0.0013555507378128014 0.001354476949441367 0.0010136720367835558 0.0010146117651337761 0.0010155514934839965
          0.0011910088885285302 0.001192985044481769 0.0011949612004350082 0.0008367924150757815 0.0008413307331324585 0.0008458690511891354
          0.0003938223844524826 0.00039792956194023376 0.00040203673942798497 0.00008550057000597529 0.00008688092573603195 0.00008826128146608862
          0 0 0 0 0 0
          0 0 0 0 0 0
        </DataArray>
        <DataArray type="Float64" Name="pe22" format="ascii" RangeMin="-0.010190125689540919" RangeMax="0.0016521259049159624">
          0 0 0 0 0 0
          0 0 0 0 0 0
          0 0 0 0 0 0
          0 0 0 0 0 0
          0 0 0 0 0 0
          0 0 -8.909223344005885e-7 -7.047183968910729e-8 -0.000001781844668801177 -1.4094367937821458e-7
          -0.000027435126193729678 -0.00001730064420155615 -0.00003262285658137161 -0.000022488831963281825 -0.00003781058696901354 -0.0000276770197250075
          -0.00016574029114172688 -0.00013455804870358062 -0.00016242236646702666 -0.000132341177272099 -0.00015910444179232644 -0.00013012430584061742
          -0.0004571991448427741 -0.00039772668932512394 -0.0004312939437358159 -0.00036926408175022487 -0.00040538874262885773 -0.0003408014741753258
          -0.000855007610060156 -0.0006628535938605832 -0.0008130697654372526 -0.0006124617629321247 -0.0007711319208143493 -0.000562069932003666
          0 0 0 0 0 0
          0 0 0 0 0 0
          0 0 0 -0.000004520358780615542 -0.000007034657939763103 -0.000009548957098910663
          -0.00006422731375877603 -0.00006876428167882852 -0.00007330124959888103 -0.0002585323429742784 -0.0002526620177845204 -0.0002467916925947624
          -0.0006129682458135513 -0.0005941977273200117 -0.0005754272088264721 -0.0010216971084429385 -0.0010078887870463079 -0.0009940804656496773
          0 0 0 0 0 0
          0 0 0 0 0 0
          0 -6.734574772266239e-7 -0.0000013469149544532478 -0.000023263907578632125 -0.000027205015238534723 -0.00003114612289843732
          -0.00013906688531345094 -0.00014120156118958477 -0.0001433362370657186 -0.00040398587696469497 -0.00039554876796944055 -0.0003871116589741862
          -0.0008090373426324932 -0.0008005600406237384 -0.0007920827386149837 -0.0012767746813338253 -0.001299853225881227 -0.0013229317704286287
          0 0 0 0 0 0
          0 0 0 0 -1.024965424980126e-8 -2.049930849960252e-8
          -0.000005361985376742274 -0.00000816310159994809 -0.000010964217823153907 -0.00006749686236297577 -0.0000725603262843479 -0.00007762379020572003
          -0.0002530807190023086 -0.000251331015140081 -0.00024958131127785356 -0.0005773231169333643 -0.0005677120834769507 -0.0005581010500205371
          -0.0009868718896885863 -0.0009881950600047168 -0.0009895182303208475 -0.001320134732130252 -0.001353638759984333 -0.0013871427878384137
          0 0 0 0 0 0
          0 0 0 -5.709878333057323e-7 -0.0000023808844919392445 -0.000004190781150572756
          -0.00002809220796362361 -0.00003425809538497424 -0.00004042398280632488 -0.00014710776467444692 -0.0001513222679851611 -0.00015553677129587527
          -0.00039368062196040233 -0.0003880572238570631 -0.0003824338257537238 -0.0007456294408658118 -0.0007368818861978102 -0.0007281343315298086
          -0.0011009799271067947 -0.0011083287252604533 -0.0011156775234141116 -0.0012777403160854467 -0.0013126282660125084 -0.0013475162159395703
          0 0 0 0 0 0
          -5.13984137778802e-8 -0.000001120749181766653 -0.000002190099949755426 -0.000012754056650873839 -0.000017959518919118838 -0.000023164981187363838
          -0.00008434581092399198 -0.00009120644508898641 -0.00009806707925398084 -0.0002602262353553012 -0.00026021805565402137 -0.00026020987595274156
          -0.0005410830031829785 -0.0005330675000669247 -0.0005250519969508709 -0.0008793469078093722 -0.0008732564341989627 -0.0008671659605885532
          -0.0011305193351952977 -0.0011411464267378287 -0.0011517735182803599 -0.0011428884965053116 -0.001175410679460473 -0.0012079328624156345
          0 0 0 -7.296781591670326e-8 -4.25867630759563e-7 -7.787674456024228e-7
          -0.000008955496345336125 -0.000011314306139087893 -0.000013673115932839659 -0.0000563691883800762 -0.000060561221851255145 -0.00006475325532243409
          -0.00017905653170032946 -0.0001799184872803971 -0.00018078044286046476 -0.0003916059820092318 -0.0003859205931351091 -0.0003802352042609864
          -0.0006748116861055796 -0.0006668747553134212 -0.0006589378245212631 -0.000958373395644645 -0.0009571053098611057 -0.0009558372240775666
          -0.0010811211970637533 -0.001095473324298553 -0.0011098254515333526 -0.0009398553741708576 -0.0009708709650032881 -0.0010018865558357186
          0 -9.006624398495229e-8 -1.8013248796990459e-7 -0.000006766754775870012 -0.000007528023501850686 -0.00000828929222783136
          -0.000042992729997759043 -0.000043937667054767 -0.00004488260411177496 -0.0001348877164360365 -0.00013281983103064833 -0.0001307519456252601
          -0.00029582989951549296 -0.00028878522816063563 -0.0002817405568057784 -0.000522156037056897 -0.0005130928385316082 -0.0005040296400063193
          -0.0007785712533156295 -0.0007738077034608032 -0.0007690441536059771 -0.0009758442282877921 -0.0009819544596716577 -0.000988064691055523
          -0.0009648045922524082 -0.0009843588034430105 -0.001003913014633613 -0.0007039888818547685 -0.000733155836119133 -0.0007623227903834976
          -0.000129019015146492 -0.00012775188353291795 -0.0001264847519193439 -0.00025778088738017313 -0.0002530860795872875 -0.00024839127179440197
          -0.0004368916621209888 -0.0004299734068976592 -0.00042305515167432944 -0.0006470960887506622 -0.0006417739919344812 -0.0006364518951182999
          -0.0008359252725037021 -0.0008366554635961097 -0.0008373856546885171 -0.000910303322592537 -0.0009197509009013783 -0.0009291984792102197
          -0.0007657323225526136 -0.0007815381250838625 -0.0007973439276151115 -0.0004672772098289251 -0.00048492200902399145 -0.000502566808219058
          0 0 0 0 -0.00012927606772286532 -0.00004564909987827093
          -2.5154799539469896e-9 0 -0.00025855213544573064 -0.00009129819975654187 -5.030959907893979e-9 0
          0 0 0.000015169134235248381 0 0.000030338268470496763 0
          0 0 0 -0.00009022518690998282 0.000012014917036994842 -0.00001213584962275476
          -0.00018045037381996567 0.000024029834073989684 -0.00002427169924550952 -0.0019494654826267563 -0.001805002434270809 -0.0029371015668442973
          -0.002772184506589051 -0.0018727441039359226 -0.0018333930331725632 -0.002811263688769253 -0.002590013659331611 -0.0017960227252450884
          -0.0018617836320743177 -0.002685425810694208 -0.0024078428120741712 0.00024751176804280265 0.000053611775556365276 0.00014237009305855688
          -0.0006309467599068064 0.0004012734471276128 0.0006340128798039088 0.00012636150591149728 -0.0007028627188363776 0.000555035126212423
          0.001214413984051452 0.00011035291876443777 -0.0007747786777659493 -0.0015146782420906997 -0.001458188763244556 -0.0014468044910618818
          -0.0014452175621481338 -0.001574264877373149 -0.0015339781054788176 -0.001522978162539964 -0.001491610686858999 -0.0016338515126555983
          -0.0016097674477130797 -0.0015991518340180465 -0.0015380038115698639 -0.0006182687803884005 -0.0008252874958588152 -0.0003943426721458814
          -0.00014995219568562186 -0.0006795345129274107 -0.0008881825996285898 -0.0004392126689947491 -0.00018159821515767495 -0.0007408002454664206
          -0.0009510777033983641 -0.0004840826658436168 -0.000213244234629728 -0.00038676453893632824 -0.0006259206726379443 -0.0004171338938244918
          -0.0006636090320822994 -0.0004475032487126554 -0.0007012973915266546 -0.0015412017879216434 -0.001407970387000226 -0.001587958465258287
          -0.0015112648418355442 -0.0016347151425949301 -0.0016145592966708628 -8.177193475341617e-7 0 0
          0.000041046382113066164 -0.00015271170011478224 -0.00023194606610982098 -0.0001049273454398268 -0.0001330411559746207 -0.00030460568088203034
          -0.00046389213221964196 -0.00020985469087965358 -0.0003071286940623075 -0.0010915004644803396 -0.0012636333660022807 -0.002065281394166999
          -0.0015695701421403502 -0.001015577897968852 -0.001207394597635521 -0.0019055127090232319 -0.001441815504865684 -0.0009396553314573646
          -0.0011511558292687616 -0.0017457440238794642 -0.0013140608675910176 -0.0018674977315091253 -0.0036870570067520174 -0.001932260025972822
          -0.0035845060706319355 -0.0019970223204365187 -0.0034819551345118514 0 0 0
          0 0 0 0 0 0
          0 0 0 -0.006086471005460434 -0.009562606978077402 -0.009134569504749454
          -0.005234310425210475 -0.005867458609070642 -0.008789578094302242 -0.008352076232411059 -0.005144888154415863 -0.005648446212680852
          -0.008016549210527083 -0.007569582960072665 -0.0050554658836212485 0 0 0
          0 0.0003025098289300668 0.00003936506684141009 -0.000044238708474615893 0.00020328634503821906 0.0006050196578601336
          0.00007873013368282018 -0.00008847741694923179 0.0004065726900764381 -0.0010806181227528975 -0.0010221123079047266 -0.00115137347359656
          -0.0010900010274038246 -0.0012221288244402223 -0.0011578897469029228 -0.0014272569699116634 -0.0014241720505631622 -0.0014210871312146617
          -0.000024345408640857475 -0.000007115462778582676 -0.000740704832207913 -0.00030543241117106113 -0.0014570642557749686 -0.0006037493595635397
          0.0004149701794176811 0.00018086088342744673 0.00001312978121179251 0.00012146234240428324 0.0009164933941717046 0.00029489791244656895
          -0.00017204549460911463 0.0016521259049159624 0.0005766660436813454 -0.0005488649178365767 -0.00003420595949532316 -0.0005478728092624187
          -0.0010595348479772496 -0.0006387989147155663 -0.000006087172478456889 -0.0008303419845650415 -0.0011811818713723487 -0.0007287329115945559
          0.000022031614538409384 -0.0011128111598676643 -0.001302828894767448 -0.002470008461438503 -0.0030301331118116185 -0.0038598068556940784
          -0.002247003630423123 -0.002743292058980834 -0.003424593360378594 -0.002023998799407743 -0.002456451006150049 -0.0029893798650631096
          -0.0002124693245507315 -0.0008686529561351628 -0.00023861927754370772 -0.000912186393269509 -0.0002647692305366838 -0.0009557198304038553
          0.0005770957320659452 -0.0005042205558012902 -0.0009521567509873743 -0.0013461650192655352 -0.002481409234040694 -0.0021881094827297803
          -0.000029739061015349814 -0.0000013683798167249458 -0.00003649692100233238 -0.0000055243409096943034 -0.00004325478098931495 -0.000009680302002663661
          -0.007877702224467936 -0.007222544061326859 -0.008723933041655446 -0.00900741806588205 -0.006900128946362807 -0.006385491465908299
          -0.007709257676950553 -0.007855217568433057 -0.005922555668257676 -0.0055484388704897395 -0.00669458231224566 -0.006703017070984063
          -0.0012937577704238766 -0.000983548097398983 -0.0012030753187400537 -0.00136001083627819 -0.0010799490524363343 -0.0013125295491316867
          -0.001426263902132504 -0.0011763500074736856 -0.0014219837795233195 0 0 0
          -3.3539732719293194e-9 0 -6.707946543858639e-9 -0.0013621039631060293 -0.001132684781801572 -0.00142400250530921
          -0.0011861239845325708 -0.0014859010475123916 -0.0012395631872635696 -0.00048194916600843575 -0.00025525769414651636 -0.0005340481454056791
          -0.0002367784214092407 -0.0005861471248029223 -0.00021829914867196496 -0.00005626603970643421 0 -0.00007919358146461413
          -0.000002751254357052799 -0.00010212112322279404 -0.000005502508714105598 0 0 0
          0 0 0 0 0 0
          -0.00003088897024619076 0 -0.00001619824809971249 -0.00003874563039131168 -3.412773672732301e-7 -0.00002555250608637407
          -0.00004660229053643259 -6.825547345464602e-7 -0.00003490676407303565 -0.0043176703426514385 -0.005821768140393919 -0.005808146013485938
          -0.0038526430476334477 -0.005152113596373141 -0.005097757006731724 -0.0033876157526154566 -0.004482459052352361 -0.004387367999977509
          -0.006593854724909528 -0.005790374316041983 -0.004986893907174438 0 0 0
          0 0 0 0 0 0
          0 0 0 -0.00428302442200572 -0.005838413111513183 -0.003914688476803737
          -0.00531135661681517 -0.0035463525316017535 -0.004784300122117156 0 0 0
          0 0 0 -0.009878257124902996 -0.007031132200302111 -0.008839002805767637
          -0.006480771433057063 -0.007799748486632281 -0.0059304106658120154 -0.0020335738223604257 -0.0021668772425810366 -0.0022674991155892414
          -0.002580073639377558 -0.002501424408818057 -0.00299327003617408 0 0 0
          -0.000184772421669006 -0.00020107862220792696 -0.00021738482274684788 0.0006382690569411748 0.00018183840237507033 0.00029596726234531144
          -0.00008243094781391169 -0.000046334532250551827 -0.0003467002980028937 -0.00006292685955002159 -0.00008988758156669686 -0.00011684830358337212
          0.0005154297320045043 -0.000774950297989914 -0.002065330327984332 0 0 0
          0 0 0 0 0 0
          0.0008219911767258603 -0.0002625053746267277 -0.0013470019259793156 -0.0009836254596526219 -0.0013492181507903194 -0.0017148108419280167
          -0.010190125689540919 -0.009094109944961473 -0.007998094200382026 -0.0009630288370330359 -0.0008806225691892376 -0.0007982163013454392
          0 0 0 0 0.00019844696778369548 0.00039689393556739097
          -0.00043052322933205794 -0.000428703910017968 -0.00042688459070387783 -0.0005784781609519433 -0.000578707026098772 -0.0005789358912456009
          -0.0005919392232813297 -0.0005908745483819085 -0.0005898098734824875 -0.000670902254956517 -0.000672323759722684 -0.0006737452644888513
          -0.0007341913661539885 -0.0007352414525545941 -0.0007362915389552 -0.0008001872835171262 -0.0008040519726319368 -0.0008079166617467471
          -0.0007243132854487456 -0.0007302133563094947 -0.0007361134271702437 -0.00048210493318570326 -0.00048750415907015086 -0.0004929033849545984
          -0.0001717562029053507 -0.00017495682412324947 -0.0001781574453411482 -0.00007887416070342087 -0.000006004298086422989 -0.00008365505520464393
          -0.000007945644166111695 -0.00008843594970586698 -0.000009886990245800401 0 0 0
          0 0 0 0 0 0
          0 0 0 0 0 0
          -9.15059596718551e-7 -0.0000011045716006981896 -0.0000012940836046778282 0 0 0
          -0.0006162516470255876 -0.0006195118792963869 -0.0006174030914194744 -0.000620028428062035 -0.0006185545358133612 -0.0006205449768276832
          -0.0007002087692338119 -0.0007027398052229013 -0.0007052708412119907 -0.0005387234429053009 -0.0005403036430601683 -0.0005418838432150355
          -0.0006305998066527429 -0.0006336289118166135 -0.0006366580169804841 -0.00045096140084695214 -0.00045352271158134543 -0.0004560840223157386
          -0.0002134162774276434 -0.0002147461687417724 -0.00021607606005590133 -0.00004598160327873451 -0.00004628269632575024 -0.00004658378937276597
          0 0 0 0 0 0
          0 0 0 0 0 0
        </DataArray>
        <DataArray type="Float64" Name="pe33" format="ascii" RangeMin="-0.011456731312142808" RangeMax="0.002826651991205297">
          0 0 0 0 0 0
          0 0 0 0 0 0
          0 0 0 0 0 0
          0 0 0 0 0 0
          0 0 0 0 0 0
          0 0 -0.000001911323763897971 -1.5118469174901282e-7 -0.000003822647527795942 -3.0236938349802563e-7
          -0.00006471024570984269 -0.00004284659022545716 -0.00008734321730683173 -0.00006476886030374727 -0.00010997618890382077 -0.00008669113038203737
          -0.0004899809987443196 -0.00043714443307325747 -0.0005330493980659159 -0.0004851153781019067 -0.0005761177973875123 -0.000533086323130556
          -0.0018839902233331717 -0.001901212819859435 -0.0018609398880423834 -0.0018748446805160106 -0.0018378895527515955 -0.0018484765411725863
          -0.004155637307670771 -0.004046449508026328 -0.003956959953190701 -0.003850829264847035 -0.0037582825987106305 -0.003655209021667742
          0 0 0 0 0 0
          0 0 0 0 0 0
          0 0 0 -0.000008604253751947593 -0.00001436835839126647 -0.000020132463030585346
          -0.00013766947804116073 -0.00016054468404051427 -0.00018341989003986775 -0.0006346092803872366 -0.0006641115018232408 -0.0006936137232592451
          -0.0018420542196817958 -0.0018245889185198752 -0.0018071236173579541 -0.0034198068196621086 -0.003309477779788304 -0.0031991487399145
          0 0 0 0 0 0
          0 0 0 0 0 0
          0 -0.0000011614556183881484 -0.0000023229112367762967 -0.00004259133843529471 -0.000052256900556034566 -0.00006192246267677442
          -0.0002709858650444675 -0.0002894534411141092 -0.00030792101718375096 -0.0008347974058847351 -0.0008439012097780567 -0.0008530050136713782
          -0.0017875961685270263 -0.0017718661363576825 -0.0017561361041883385 -0.002764402553887148 -0.0027358371668718883 -0.0027072717798566287
          0 0 0 0 0 0
          0 0 0 0 -1.5314700823442668e-8 -3.0629401646885336e-8
          -0.00000859970665367729 -0.000013642016047172111 -0.00001868432544066693 -0.00011655597319135198 -0.00012948500175261683 -0.00014241403031388172
          -0.00045313184354546846 -0.000460598865789307 -0.00046806588803314554 -0.0010414483237856178 -0.0010265853233253862 -0.0010117223228651546
          -0.0017169007021786869 -0.0016975030969791191 -0.0016781054917795512 -0.002027994595622035 -0.0020485699364083216 -0.002069145277194608
          0 0 0 0 0 0
          0 0 0 -8.173567802162064e-7 -0.000003570924583111777 -0.0000063244923860073475
          -0.00004363322025904025 -0.00005493277848492752 -0.00006623233671081479 -0.00023927795057217724 -0.00025129760216944353 -0.0002633172537667098
          -0.0006525088719360571 -0.000644545217675903 -0.0006365815634157488 -0.0012043722957495355 -0.0011687791821618889 -0.001133186068574242
          -0.0016098250665173323 -0.0015857144192259203 -0.001561603771934508 -0.0015632025022197765 -0.0016010049594877048 -0.001638807416755633
          0 0 0 0 0 0
          -7.063973974006896e-8 -0.0000015631760351023497 -0.0000030557123304646305 -0.000018467805145356905 -0.00002655988782813594 -0.00003465197051091498
          -0.0001273972460971243 -0.00014050438166715934 -0.0001536115172371944 -0.00040283989701658384 -0.00040548179051491033 -0.0004081236840132369
          -0.0008328034899742342 -0.0008097715879413232 -0.0007867396859084124 -0.0012839368259665212 -0.0012394736895945258 -0.0011950105532225303
          -0.001445306101723113 -0.0014250011652392413 -0.0014046962287553697 -0.0011787839706754837 -0.0012239133777253231 -0.0012690427847751626
          0 0 0 -9.935129778347487e-8 -5.733827068646146e-7 -0.0000010474141159457544
          -0.000012765626708533375 -0.000016068534979282783 -0.000019371443250032196 -0.00008313674819097287 -0.00008950625245067603 -0.00009587575671037918
          -0.00026861694656255767 -0.0002699978213956507 -0.0002713786962287438 -0.0005821390196359635 -0.0005682622625494868 -0.00055438550546301
          -0.0009616764747509172 -0.0009302314006598487 -0.0008987863265687802 -0.001258815223856496 -0.0012245067420980004 -0.0011901982603395047
          -0.0012184129824356947 -0.0012180715813533017 -0.0012177301802709086 -0.0008437023533782651 -0.0008944670987782339 -0.0009452318441782024
          0 -1.220790771688193e-7 -2.441581543376386e-7 -0.00000946984410714413 -0.000010610730682317154 -0.000011751617257490173
          -0.0000628520693722201 -0.0000645489619340525 -0.0000662458544958849 -0.00020304093649525464 -0.00019996816115206724 -0.0001968953858088798
          -0.00044247057827700683 -0.0004283291766420512 -0.00041418777500709544 -0.0007434745497174539 -0.0007178685997956416 -0.0006922626498738294
          -0.0010177927875903128 -0.000988410554015097 -0.000959028320439881 -0.0011373765845869004 -0.0011219747529141971 -0.0011065729212414942
          -0.0009527221291172185 -0.0009708765470674642 -0.0009890309650177095 -0.000561119920038952 -0.0006067183126773588 -0.0006523167053157658
          -0.00017714040856964082 -0.0001764268103144703 -0.00017571321205929976 -0.00035954331458410533 -0.00035263357639746246 -0.0003457238382108196
          -0.0005954283028801007 -0.0005801912502269753 -0.00056495419757385 -0.0008260377204333004 -0.0008052621116108474 -0.0007844865027883942
          -0.0009667784577060659 -0.0009481140318178744 -0.0009294496059296828 -0.0009336012081222428 -0.0009284934579875818 -0.0009233857078529211
          -0.0006787694696909982 -0.0006931695607742337 -0.0007075696518574693 -0.00034553153965336415 -0.00037016966586822135 -0.0003948077920830785
          0 0 0 0 0.00014311027203739476 0.0004629519826897536
          -2.679153153883112e-8 0 0.0002862205440747895 0.0009259039653795071 -5.358306307766224e-8 0
          0 0 0.000008745834422286592 0 0.000017491668844573184 0
          0 0 0 -1.4123004161026722e-7 -1.6726855820407763e-7 0.0000016561045620191226
          -2.8246008322053544e-7 -3.3453711640815526e-7 0.000003312209124038245 -0.006048706901561856 -0.005093025107397658 -0.006856238866085381
          -0.007177878592466978 -0.005741867538500603 -0.0049547004191300365 -0.0065778091542885095 -0.006795203720788852 -0.00543502817543935
          -0.0048163757308624135 -0.0062993794424916405 -0.006412528849110724 -0.0004934827099105028 0.0003517003682721072 0.0013591589955923558
          0.00019141909942504694 -0.0011929727793726103 -0.00005861731476234319 0.0003258792728213947 -0.0013260958937388807 -0.001892462848834718
          -0.00046893499779679355 -0.0007074004499495663 -0.0028436108869028085 -0.0025669640704663486 -0.0023595458149375474 -0.003465332221306644
          -0.0034120048781009866 -0.002603651487351143 -0.002464829126469278 -0.003456951935552023 -0.003363358010016927 -0.0026403389042359377
          -0.0025701124380010103 -0.0034485716497974035 -0.003314711141932868 -0.0004257617654886385 -0.0007013552795586177 -0.00029430026235321256
          -0.00010741100586507601 -0.0005482437329827865 -0.0008208241853367488 -0.000373857267099157 -0.0001618725074350728 -0.0006707257004769344
          -0.00094029309111488 -0.00045341427184510146 -0.00021633400900506963 -0.0002668351649589692 -0.00046211401462596544 -0.0003139614615065227
          -0.0005324174157024706 -0.00036108775805407617 -0.0006027208167789757 -0.0044216584563993395 -0.003434150945884277 -0.004294956133960547
          -0.003488451965952849 -0.004168253811521755 -0.0035427529860214213 -0.000001302841032149323 0 0
          -0.000051053333223592945 0.0001138093025890203 0.000007623132846700157 -0.000015016648445516061 0.000733977292195839 0.00022892144621018988
          0.00001524626569340032 -0.000030033296891032123 0.001519007917615271 -0.00557048814119635 -0.005429258709523504 -0.0066231420990969184
          -0.006257510361277728 -0.005238383465691355 -0.00512207121265002 -0.006221567500323913 -0.0058634453540189965 -0.004906278790186361
          -0.004814883715776535 -0.005819992901550907 -0.005469380346760266 -0.004817284984011734 -0.0065508490596602725 -0.004796633370260374
          -0.006430641221519843 -0.004775981756509015 -0.006310433383379411 0 0 0
          0 0 0 0 0 0
          0 0 0 -0.006906589672149799 -0.009896059034806858 -0.009459395142015815
          -0.0066265811163928505 -0.006920487325723309 -0.009692324723468683 -0.009238904633507298 -0.006641408216796647 -0.006934384979296821
          -0.009488590412130508 -0.009018414124998781 -0.006656235317200443 0 0 0
          0 -0.00008929580511435406 -0.00002040048848743431 0.000013013684580583067 -0.000036314449462482855 -0.0001785916102287081
          -0.00004080097697486862 0.000026027369161166134 -0.00007262889892496571 -0.0010180235616006508 -0.0008486652933141464 -0.0011583787850756669
          -0.0010091680451145323 -0.0012987340085506831 -0.0011696707969149184 -0.004644351200555486 -0.004451001737467705 -0.004257652274379926
          0.000007302361847151198 0.000022412759916945052 0.0009248895649812757 0.001424532375561121 0.0018424767681154003 0.002826651991205297
          0.0007419676120195142 0.0003074359665648704 0.000011046045630115625 0.0016538761726061512 0.0005564363064513294 0.000509578478481961
          0.002565784733192789 0.0008054366463377883 0.0010081109113338062 -0.0010963905605758254 -0.0007936890128957159 -0.002644618873390988
          -0.002980062616611205 -0.0013733158900458117 -0.001108348258499057 -0.002980022909588197 -0.003174912782624622 -0.001650241219515798
          -0.0014230075041023979 -0.003315426945785406 -0.0033697629486380398 -0.007151410864998488 -0.007600946848472486 -0.008079012999672293
          -0.006696549298170601 -0.007157049248636416 -0.0076066380514464545 -0.006241687731342713 -0.006713151648800347 -0.007134263103220619
          -0.0001514244351243994 -0.0007306888320734714 -0.0001928666747247928 -0.0008165396802029956 -0.00023430891432518622 -0.0009023905283325198
          0.001343731920516217 0.0006851273427453774 0.000745988587922978 -0.00045403141537473177 0.00014824525532973923 -0.0015931901734948406
          -0.000031351139491844215 -0.0000017927827427499065 -0.00004862659871831325 -0.000009355415327052172 -0.00006590205794478228 -0.000016918047911354435
          -0.010233143244774694 -0.009785733247185522 -0.010457663054659762 -0.011133664495010069 -0.009691694578921516 -0.00929268031189788
          -0.010060671097799026 -0.010699453572939855 -0.009150245913068338 -0.008799627376610239 -0.009663679140938292 -0.01026524265086964
          -0.0014609878771818302 -0.001256205762448575 -0.0022596993807941185 -0.0016200032877494346 -0.0014725648407043904 -0.0024405622983219547
          -0.0017790186983170392 -0.0016889239189602054 -0.002621425215849791 0 0 0
          -3.572204205177483e-8 0 -7.144408410354966e-8 -0.001671118651676376 -0.001147756236577261 -0.0017663994313281723
          -0.0012407392656704286 -0.0018616802109799678 -0.0013337222947635956 -0.0003921171781181176 -0.00032726656998465387 -0.0005071720228897483
          -0.0004997325395800127 -0.0006222268676613793 -0.0006721985091753715 -0.000047997350669543806 0 -0.00009184044867755521
          -0.0000036837700212155807 -0.0001356835466855666 -0.000007367540042431161 0 0 0
          0 0 0 0 0 0
          -0.000022978855867934442 0 -0.000014682598694466454 -0.000031951218659132785 -3.7068645529230927e-7 -0.000027504572837273574
          -0.000040923581450331135 -7.413729105846185e-7 -0.000040326546980080695 -0.00831837356229839 -0.009063871135951909 -0.008935314509253132
          -0.00784357281838132 -0.008552827826071589 -0.008437817543668822 -0.00736877207446425 -0.00804178451619127 -0.007940320578084512
          -0.009501550380751192 -0.00895811087321813 -0.008414671365685068 0 0 0
          0 0 0 0 0 0
          0 0 0 -0.008154449487452435 -0.008543583548653314 -0.0077310303591119536
          -0.008198414613137963 -0.007307611230771472 -0.007853245677622614 0 0 0
          0 0 0 -0.010936214623043283 -0.008461644128105659 -0.010611321895785402
          -0.008239537887935678 -0.01028642916852752 -0.008017431647765695 -0.00476079010473144 -0.004217922578694617 -0.004905986411309804
          -0.004453521330851165 -0.005051182717888167 -0.004689120083007713 0 0 0
          -0.0001217014417394773 -0.00014295106562684743 -0.0001642006895142176 -0.0020320297911749206 -0.0014303787056302835 -0.0024414337534978854
          -0.0021863804615693525 -0.00285083771582085 -0.0029423822175084213 -0.00004719627153712225 -0.00008527741323606658 -0.00012335855493501087
          0.0004152086601728857 0.001526435603345095 0.0026376625465173048 0 0 0
          0 0 0 0 0 0
          0.00017156404158722533 0.0013439927463146312 0.002516421451042037 -0.0036021142980486674 -0.003831750128660058 -0.0040613859592714486
          -0.011456731312142808 -0.011127339968185974 -0.01079794862422914 -0.0054622122100246705 -0.005140463175144425 -0.004818714140264177
          0 0 0 0 -0.0001059627113037424 -0.0002119254226074848
          -0.0005142327579014496 -0.0005089694518965755 -0.0005037061458917014 -0.0006072452123574994 -0.0006027771648088783 -0.0005983091172602573
          -0.0006772272573081122 -0.0006687470446389349 -0.0006602668319697575 -0.0006666599641839146 -0.0006619360226197211 -0.0006572120810555274
          -0.0007884234732844222 -0.000778732360936434 -0.0007690412485884461 -0.0007955393160139151 -0.0007881926867464228 -0.0007808460574789305
          -0.0006635988987933093 -0.0006627232576812524 -0.0006618476165691954 -0.0004077565926321664 -0.0004129909972480185 -0.0004182254018638708
          -0.00012981672590686084 -0.00013518951239291913 -0.0001405622988789774 -0.00005166419590829515 -0.00000484027913480841 -0.00005843982222582194
          -0.000006964396886668898 -0.00006521544854334875 -0.000009088514638529388 0 0 0
          0 0 0 0 0 0
          0 0 0 0 0 0
          -7.660197537195883e-7 -9.986909161376483e-7 -0.0000012313620785557085 0 0 0
          -0.0005685560687128441 -0.0006006034018392337 -0.0005658678105685056 -0.0005966950365656615 -0.000563179552424167 -0.0005927866712920891
          -0.0006564157569504232 -0.0006528109325898996 -0.0006492061082293757 -0.0004749485938782546 -0.0004743081220736077 -0.0004736676502689608
          -0.000560409081875787 -0.0005593561326651556 -0.0005583031834545239 -0.0003858310142288294 -0.000387808021551113 -0.00038978502887339664
          -0.0001804061070248391 -0.00018318339319846135 -0.0001859606793720836 -0.00003951896672724075 -0.00004059822941028171 -0.000041677492093322675
          0 0 0 0 0 0
          0 0 0 0 0 0
        </DataArray>
        <DataArray type="Float64" Name="disp_x" format="ascii" RangeMin="0" RangeMax="0.000006550589532323703">
          1.4073483198346252e-7 0 1.4072843371472783e-7 0 1.4070884260059888e-7 0
          1.4028952404188116e-7 0 1.4028014446947934e-7 0 1.402224463697577e-7 0
          1.3954490424991188e-7 0 1.3954093294183926e-7 0 1.3943254197768524e-7 0
          1.386958987709464e-7 0 1.38772528329174e-7 0 1.3858730127607832e-7 0
          1.380633906920472e-7 0 1.3850498371098932e-7 0 1.3882648239987346e-7 0
          1.376687713665901e-7 0 1.3921758924847017e-7 0 1.4134155934160223e-7 0
          1.3612635686180992e-7 0 1.3971605032858195e-7 0 1.5176018658496928e-7 0
          1.7521149484505477e-7 0 1.8303322202857165e-7 0 2.0904378852373135e-7 0
          3.360905113081281e-7 0 3.3572482597518223e-7 0 3.3971719673769197e-7 0
          7.66102463030886e-7 0 7.324576749969565e-7 0 6.270571108906814e-7 0
          2.8149555595508793e-7 2.814876219162665e-7 2.814497275126457e-7 2.806196439328184e-7 2.806175992947036e-7 2.8051620746989e-7
          2.7911773860453263e-7 2.7917432653129316e-7 2.7901547455696785e-7 2.7732528663122336e-7 2.7762536623903884e-7 2.7748402205997724e-7
          2.7603133025142466e-7 2.7719002537087183e-7 2.784049719195125e-7 2.748498091594992e-7 2.7799090214743276e-7 2.836205227447502e-7
          2.781240705679549e-7 2.853300602275721e-7 3.1238800685727985e-7 3.738463375535932e-7 3.8754121780563205e-7 4.325302245716277e-7
          6.993566108671675e-7 6.969551726848353e-7 6.998227808853698e-7 0.0000014933630803251565 0.0000014358912851242118 0.0000012588168377954278
          4.2230756187912726e-7 4.2230902647071457e-7 4.2225667786987397e-7 4.2100178998160774e-7 4.210556066704665e-7 4.209710455332353e-7
          4.1870755453549586e-7 4.1898402201306764e-7 4.189473071923163e-7 4.157567843444454e-7 4.1659108915219555e-7 4.1720037894499395e-7
          4.1385456342315267e-7 4.1621894539757004e-7 4.1924375708342725e-7 4.1197909997664543e-7 4.1636776119550716e-7 4.2948060301589073e-7
          4.371135404022399e-7 4.4916092125885664e-7 4.905948571582165e-7 6.149914203250341e-7 6.307330678240906e-7 6.83394107858378e-7
          0.000001104648013101402 0.000001098703266337961 0.0000010935936055123368 0.0000021593938447602986 0.000002090888211839407 0.0000018842745693275846
          5.631719635065033e-7 5.632060329146229e-7 5.631660817626051e-7 5.614064623084261e-7 5.616312671067242e-7 5.617141235558091e-7
          5.582109800773431e-7 5.589601423471759e-7 5.595439058750952e-7 5.53907862067213e-7 5.55892918147766e-7 5.585116077814076e-7
          5.51329296636348e-7 5.54703270155798e-7 5.616941920580375e-7 5.537781442188871e-7 5.60536893211024e-7 5.862818048638509e-7
          6.2824672782367e-7 6.435574504425127e-7 6.935373621893543e-7 9.089477324406804e-7 9.228051452202294e-7 9.70361579837825e-7
          0.0000015521563183952623 0.000001541192034244445 0.0000015206870447253938 0.0000027499061470010877 0.0000026832182389825547 0.0000024849596161966675
          7.040618750393691e-7 7.041834228466957e-7 7.042369808882717e-7 7.017696633056493e-7 7.023426885589902e-7 7.029184889371199e-7
          6.974290499701705e-7 6.990949079939965e-7 7.014618858774426e-7 6.920786128120413e-7 6.955027686208222e-7 7.016695856448517e-7
          6.885768169995493e-7 6.934099574385637e-7 7.095886802704195e-7 7.125996630344358e-7 7.240037528064509e-7 7.628291229929929e-7
          8.611187867723684e-7 8.762935008912938e-7 9.262166445332373e-7 0.0000012557084832419982 0.0000012642747535274482 0.0000012951456373464127
          0.0000020268870233880013 0.000002009644967057159 0.0000019690673449417868 0.000003265427173733783 0.0000032088276348471475 0.0000030377842197258496
          8.449363025174849e-7 8.452390673056029e-7 8.455518958906307e-7 8.419637835518085e-7 8.431100607236337e-7 8.449060677458781e-7
          8.366129134029356e-7 8.395611243622994e-7 8.452668336574406e-7 8.301816242421671e-7 8.348484034142798e-7 8.47725324426354e-7
          8.31829667256308e-7 8.412698573271029e-7 8.730781214377215e-7 9.030473850816458e-7 9.172896026351042e-7 9.632817221965084e-7
          0.0000011381561390596385 0.0000011503211396945646 0.0000011915497277972454 0.0000016440996989790066 0.0000016450699204379917 0.0000016519813381946245
          0.0000025054836508361466 0.000002482436954993318 0.0000024213778889126717 0.000003701144837249185 0.000003657320576683978 0.000003519321712610168
          9.857272622584293e-7 9.863197310488798e-7 9.87173664691584e-7 9.82141953102935e-7 9.840018356229013e-7 9.88253009100153e-7
          9.763334677393306e-7 9.800721734893285e-7 9.904397075949034e-7 9.715476787493828e-7 9.787535648489237e-7 0.0000010044429301508716
          0.0000010001506883747452 0.0000010128354803523793 0.0000010548730369547513 0.0000011324480298863673 0.000001145780225074095 0.0000011906879428655165
          0.0000014554220582388684 0.0000014625806547189384 0.00000148812923581856 0.0000020538840350178713 0.0000020478075852275143 0.000002030454100334232
          0.000002960334702453421 0.0000029354430299951684 0.0000028604794806313018 0.000004060594121926826 0.000004030212602818616 0.00000392638859366918
          0.0000011264809583337482 0.00000112740650995388 0.0000011293992954841882 0.0000011231331260843153 0.0000011248550728306891 0.0000011322387060680724
          0.000001119495741124882 0.000001123069448723809 0.0000011412451090775541 0.0000011334422897746337 0.000001140603210488904 0.000001172911363943249
          0.0000012054635082431157 0.0000012152268682420402 0.0000012560416145391732 0.0000014032294220296017 0.0000014115891399242473 0.000001445143661830595
          0.000001802003376550838 0.0000018040562937010919 0.0000018113499874083244 0.0000024602185126613934 0.0000024519693932870394 0.0000024189189633968295
          0.000003367181440178391 0.0000033484565510293593 0.000003275309007029641 0.000004349776225637426 0.000004333836784278785 0.000004265260026358006
          0.0000012768658579702673 0.0000012819282970325354 0.0000012997857546551629 0.0000013237968023227504 0.0000013313422719654937 0.0000013559336073011154
          0.00000144776327094602 0.0000014559726836344698 0.000001480850142052728 0.000001707589749808717 0.000001712992440456308 0.0000017273121605718553
          0.0000021624374313564943 0.0000021613954373782396 0.000002154347233633183 0.0000028456867570140174 0.0000028359910741077105 0.0000028027027737573517
          0.000003717517395614364 0.000003701462956973739 0.000003649941937562711 0.000004582043737702749 0.000004571410129329622 0.00000453807217210541
          0.00000546715525441022 0.00000531844777248672 0.000005337623417934468 0.000005493688088840985 0.000005470098738136612 0.000005275387712705555
          0.0000053319021080047105 0.000005492090396661695 0.000005427632904604345 0.000005420031882523902 0.0000053696957612197845 0.000005501810626562993
          0.000005632953485269914 0.000005650761833399441 0.000005624375434427327 0.0000056529460613475595 0.0000057059889418836626 0.000005667049204446496
          0.000005625218413233254 0.000005734953220417078 0.000005744163847618435 0.0000055935481656961755 0.0000057427564005358285 0.000005736564979174863
          0.000005745479355317245 0.000005789123610558084 0.0000058591051891285724 0.0000016091265071029622 0.0000025077280318120537 0.0000021018967199617684
          0.0000014639237995733963 0.0000015199754727903919 0.000002381823707869249 0.0000019725633970359973 0.0000013701936529807196 0.000001234415514952851
          0.0000019777828666572906 0.0000015806941657368633 0.0000010917615708667695 0.000005076680383362048 0.000005013940746889419 0.000005215004113054877
          0.0000053375050787997695 0.000005051607569244359 0.000004975056611581388 0.00000559501963283319 0.000005443059041709103 0.000004948929862555252
          0.000004695457026861642 0.000006396976951137726 0.000005528164840178608 0.0000029236213692471746 0.000003306391128115182 0.0000027829544116962274
          0.000002403373378947631 0.000002837574933755547 0.000003207170223393783 0.000002674717823682318 0.0000023158914151200987 0.0000025672192902289865
          0.000002893688386668855 0.0000023326791749951546 0.0000020362244069983413 0.000004522994633191517 0.000004258698844075536 0.000004569958816864796
          0.000004764581397752653 0.000004481610265779717 0.000004213287020688205 0.0000045471451163545365 0.000004749442675341367 0.00000435296279940432
          0.000004071289252846404 0.000004470030097853976 0.00000468348949925902 0.000004599807390971702 0.000004392143365306063 0.000004587345120732998
          0.0000043698463519734486 0.000004539624805263673 0.0000042886819667335815 0.000002369785940887026 0.0000031294976445144897 0.000002262475196527702
          0.000003003834828521781 0.0000019215223268549294 0.00000260275814806015 0.000005538411956553839 0.00000567506316292866 0.0000057097229136325195
          0.000005541899314473189 0.000005538805205912146 0.0000056537802385825245 0.000005654651420363513 0.000005522059431774629 0.000005399061898515373
          0.000005595220029949371 0.000005589535932270486 0.000005313766051232808 4.3312649212245317e-7 9.646149856813536e-7 7.536799548656777e-7
          0 4.118160614061731e-7 9.189368079176983e-7 7.091648782383964e-7 0 3.35215076352009e-7
          7.60358939968518e-7 5.704316369537075e-7 0 0.0000030619883145865778 0.0000028243060004532257 0.000002916382906038984
          0.00000266191229606932 0.0000024460101998077867 0.000002159058609262802 0.000005345888579022654 0.000005346805641281047 0.000005525748287314917
          0.000005538194909971744 0.000005346017223900434 0.000005347214496950556 0.0000055271232714854755 0.000005539780795080203 0.000005354580854009625
          0.00000534965567976785 0.000005532422519451392 0.000005548342330437358 0.000003941557956715432 0.00000227802796171659 0.000002294748635929013
          0.000003717310607842482 0.000003862365256262367 0.0000022117024941022444 0.0000022049899328266906 0.0000035772700613667722 0.0000033170727356215043
          0.0000018115835147107907 0.000001721094207658897 0.0000028760359805979275 0.000005874817852865365 0.000005796551974159062 0.00000576968336756671
          0.0000058515063734717405 0.00000583311451591246 0.000005747641704036338 0.000005742226808455012 0.000005860401469516087 0.000006091937205834345
          0.000005882622097697515 0.000005960065737553782 0.000005787805578870505 0.000004045747394189047 0.000004208042234494313 0.000003983755782566249
          0.000004144040283998053 0.00000379306001642145 0.000003940925200385556 0.0000017587620805498187 0.0000016795494122246393 0.0000014189260502112624
          0.000005379440169347874 0.0000052068095430597195 0.000005362289420673786 0.0000051981779055421285 0.000005227088991968164 0.00000594246572366157
          0.0000049990298678420345 0.0000050825084251738285 0.000005162175951330521 0.000005353266685415079 0.000005006324131081775 0.000005136556191628331
          0.000006550589532323703 0.000004959006611601824 0.0000051695385769618885 0.000004354536872189004 0.000004684664360407376 0.000004527100762729181
          0.0000038004838310525247 0.000004266485845128088 0.000004620967053430634 0.000004418868013305701 0.0000036592780214972474 0.000003960739407746519
          0.000004401625976545171 0.0000040755545404052395 0.0000032121186268173615 0 7.821948119919748e-7 0
          0 7.305929407990259e-7 0 0 5.809497761637415e-7 0
          0.0000047575695109623935 0.000004172010221321959 0.00000474794651348145 0.000004133387084295047 0.000004712738880435788 0.000004015165620004554
          0.000005322203133663856 0.000005736997490848482 0.000005638763557287552 0.000005608120828210227 0.000005863495906275646 0.000005136724031986826
          0.0000049038131445678236 0.0000050252854069954 0.000004858711766947499 0.000004975533379902329 0.0000047110813449788226 0.0000049133128706898375
          0 9.319635546495066e-7 0.0000011841434685026452 0 0 8.731834553070422e-7
          0.000001118988249709399 0 0 6.431796652730627e-7 8.223496534269918e-7 0
          0.000003831656815335173 0.000004120905031768786 0.0000036409088911333894 0.0000037468439373108436 0.000004038037091826364 0.0000035319715990050214
          0.000003485942726891306 0.000003771428973722739 0.000003185342805493637 0.000005176465989671624 0.000005216870926402674 0.000005171438684924502
          0.000005207724094809718 0.000005179721227578557 0.00000523422523439828 0.0000035083700301797138 0.0000038427982145754136 0.0000034332158603839854
          0.00000378770133168621 0.000003208320603536708 0.0000036233303783782057 0.0000046424459266263145 0.000004697933239115176 0.000004607922512820058
          0.000004662540676672352 0.000004466167811039736 0.000004471182573534431 0.00000483399724112016 0.000004967095132638747 0.000004801323057959352
          0.0000049576247717966005 0.0000047048040098880106 0.000004936348674420154 0.00000582704790414305 0.000005745958361573847 0.000005817824297950733
          0.000005829463400595367 0.000005750170278639795 0.000005823093992129724 0.000005853110332954798 0.000005787342352053156 0.000005853930861061926
          0.000005002246053567195 0.000005162126501117089 0.0000049177351466642 0.000004998718348849937 0.000005160248773397177 0.000004910233007601289
          0.000004991148250903672 0.000005160977696530315 0.000004891754657854033 7.528897021737194e-7 6.291088817135414e-7 0
          6.98829008292081e-7 5.885894261503443e-7 0 5.333609587366926e-7 4.4108566488824373e-7 0
          0 0 0 0.000005815868818624768 0.000005750660456525689 0.000005736240055646617
          0.000005821823365396057 0.0000058211143651688505 0.000005755222870777688 0.000005739519542658821 0.000005825468311385966 0.000005838388957684169
          0.000005770057318952593 0.000005750754450971038 0.000005837366423894264 0.0000014311871769719913 0.0000017394018834409765 0.0000013334869122998223
          0.0000016263253427259342 0.000001030738413958204 0.000001252196127534792 0.000005750843297671341 0.000005814184165680769 0.000005756324989494255
          0.0000058199057209237466 0.000005777905530449131 0.00000584633012776973 0.0000012764597640028872 0.0000024601947752320773 0.0000012213897010436142
          0.0000023254996222688806 9.266478407588237e-7 0.000001757632256270296 0.000003804181735097358 0.0000044711229440338335 0.0000036461852555797923
          0.000004367407904886954 0.000003126667639331656 0.000003828660588814528 0.000005665641658369764 0.000005668039258307664 0.000005680296422264491
          0.0000048157628565258445 0.000004808019220247179 0.000004786813264885665 0.000005131527428061979 0.000005117451175292911 0.000005094729411231097
          0.000005326169398525364 0.000004854122613107318 0.00000466531857211362 0.000004794623214110547 0.000004784046057107394 0.000004742914848097839
          0.000005157006694591583 0.000005289526028793936 0.0000056670128690594025 0.00000583928391150019 0.000005843300889355207 0.000005828217698221418
          0.000005136513718283534 0.000005134025587077204 0.000005127513908335159 0.0000056981312160072534 0.000005700976861801904 0.0000057079362157076916
          0.000005036580699080087 0.0000055588631715785495 0.00000583020253419294 0.00000509594873262908 0.000005057449584424613 0.000004537345037632882
          0 0 0 0 0 0
          0.000005831321835281409 0.000005834195862970244 0.0000058429017797643416 0.000005880122154475113 0.0000058131967283679575 0.000006198148405144155
          0.0000022421817733617205 0.000002245628463077209 0.000002253115758574632 0.0000033198057186018717 0.000003319757953869975 0.000003321946237183387
          0.0000025562949931424433 0.0000025569740004016346 0.0000025557601473332004 0.0000037534338925997633 0.0000037505735828609525 0.000003744525051475262
          0.000002997220876873357 0.000002994082201423889 0.0000029825106527545415 0.0000035603687219703357 0.0000035534407672101594 0.0000035329225914978635
          0.0000042051311206361395 0.0000041959226239167755 0.000004171313595147154 0.000004832247551072724 0.0000048249413251642906 0.000004805525151347817
          0.000005306783611132617 0.000005305051501577595 0.000005300151698697496 0.000005091649568967435 0.000005232806938571377 0.000005089494225766314
          0.000005232428930154751 0.000005083307175636024 0.000005231465345321314 0.000005623875487890105 0.000005787501960136541 0.000005589815879321543
          0.000005398606361411694 0.000005624165682455159 0.000005788470488704915 0.000005590952787718654 0.000005398690006002934 0.000005624961904360928
          0.000005791287203096329 0.0000055942269757237124 0.000005400754708616704 0.000005756971051181996 0.000005758723790637117 0.0000057637600816293685
          0.000005483535484414637 0.000005483051792387206 0.000005481689822763634 0.000006025872810849887 0.000006026941272806699 0.000006030833923427664
          0.000004927014690770339 0.0000044683091200076505 0.0000049235197957517226 0.000004466767712650331 0.000004912143495386416 0.000004461420387963368
          0.000004261435993748748 0.000004256043257410904 0.000004241680632779 0.000005389075427608864 0.00000538414114924969 0.000005368294956398374
          0.000004796945582917779 0.000004790255229297272 0.00000476998680616878 0.000005286226705152062 0.000005280048034300314 0.000005259164463346554
          0.000005648372749514494 0.00000564521663761732 0.000005631487267486338 0.000005866390280813563 0.000005865407531865888 0.000005862691775257405
          0.000005876483898843356 0.000005876294953109726 0.000005876136333305679 0.000006324800485302263 0.000006025968246372769 0.000006362873868453832
          0.000006325732504660211 0.000006026668505002788 0.000006363476614686514 0.000006328845802967673 0.000006028851684801483 0.000006365138937577198
        </DataArray>
        <DataArray type="Float64" Name="disp_y" format="ascii" RangeMin="-0.000006532709102891438" RangeMax="-0.0000027192299028573803">
          -0.0000027198542844311798 -0.0000027195366898341305 -0.0000027197796801592652 -0.000002719458879869807 -0.0000027195579347768985 -0.0000027192299028573803
          -0.000002837740529328827 -0.0000028373083238219004 -0.0000028376529026251133 -0.0000028372133370681223 -0.000002837384969080068 -0.000002836933669627821
          -0.000002949986635629765 -0.0000029493250024483105 -0.0000029498476223702697 -0.000002949189571432819 -0.0000029494608393552255 -0.000002948785084066802
          -0.0000030541222726388797 -0.000003053071853645856 -0.0000030538510761565356 -0.0000030527973465983124 -0.000003053131408066008 -0.000003052093082023752
          -0.000003147297244525754 -0.0000031455125965443933 -0.000003146680290998633 -0.0000031450179090854995 -0.0000031453839159475277 -0.000003143735229298781
          -0.000003227546670015513 -0.0000032245813788571093 -0.0000032250961956294824 -0.000003222488913091694 -0.000003221282556587717 -0.0000032198305621183815
          -0.0000032936049145559415 -0.000003288286480381765 -0.000003285752078912477 -0.000003280527808887811 -0.00000326694372651256 -0.000003263119438605958
          -0.0000033656765236376895 -0.000003350092090100723 -0.0000033470600466316695 -0.000003331202413962056 -0.000003291830566636604 -0.0000032761480303386114
          -0.000003496733826598587 -0.000003456796248418874 -0.000003462541800775107 -0.0000034212510798079803 -0.0000033351753093653066 -0.0000032884376461507703
          -0.000003720150861163958 -0.0000036321897742377966 -0.0000036769226016602737 -0.0000035878970274910067 -0.000003482771287575688 -0.0000033738837214527795
          -0.0000027208098357991413 -0.0000027207391776169358 -0.0000027205268807880195 -0.0000028390105337474806 -0.000002838925441137272 -0.000002838673938506456
          -0.000002951934054026238 -0.0000029517729879427195 -0.0000029514041497427686 -0.000003057238409422548 -0.000003056927700523331 -0.0000030561619925612964
          -0.000003152686588591012 -0.0000031516702352355683 -0.0000031500397264234375 -0.000003236093658670885 -0.0000032326402926651866 -0.0000032256248450369686
          -0.0000033108842705133585 -0.0000033028931732407618 -0.000003280433698810607 -0.0000034154732945414163 -0.0000033975854883662216 -0.000003342080413967394
          -0.0000036126585712572184 -0.0000035817794880564563 -0.0000034701945912360103 -0.0000039639409861042576 -0.000003926984785779484 -0.0000037820263760588014
          -0.0000027223989604572703 -0.0000027223254241373194 -0.000002722122930005226 -0.0000028411151128944447 -0.0000028410116049731237 -0.0000028407772305928813
          -0.000002955133278904674 -0.0000029549178370102437 -0.0000029545105967916977 -0.000003062479163911342 -0.0000030619952974749977 -0.000003061136153302573
          -0.000003161666445556576 -0.0000031598940490550456 -0.0000031568170875827814 -0.0000032501901694770477 -0.0000032456235188404992 -0.0000032341536340341346
          -0.000003345403827122269 -0.0000033374112930493297 -0.000003310335298900819 -0.000003504698515936588 -0.000003487840760164712 -0.0000034332947797904275
          -0.0000037968515294848127 -0.0000037713691319375087 -0.000003682904837657373 -0.000004278480946053502 -0.000004252015370612957 -0.000004170263932294673
          -0.0000027245986255315993 -0.000002724510364404836 -0.000002724310960733602 -0.0000028440106148241656 -0.0000028438481568159286 -0.000002843586801677792
          -0.0000029594957283351256 -0.0000029591504018647084 -0.00000295859118385443 -0.0000030699354893054925 -0.0000030689897525286848 -0.0000030676340526540237
          -0.0000031737119801155675 -0.0000031708364742334856 -0.000003164650920720218 -0.0000032727226890216434 -0.0000032674465537614213 -0.0000032514082372393813
          -0.0000034052697942687684 -0.00000339723221368696 -0.000003366029364572604 -0.0000036362690505463756 -0.000003620913867965794 -0.0000035702854444832603
          -0.000004029044421060054 -0.00000401015066255693 -0.00000394873152562784 -0.0000046151895207802245 -0.000004603082394802079 -0.000004580297573952958
          -0.0000027274068564082926 -0.0000027272706232646368 -0.0000027270422480067515 -0.0000028476478696638773 -0.000002847360720067709 -0.0000028469280826029293
          -0.0000029650469642952864 -0.000002964375971102198 -0.0000029634522461753217 -0.000003079430509985853 -0.0000030775944372274843 -0.0000030742503114248055
          -0.0000031891097597364926 -0.000003185276673945352 -0.00000317533394193344 -0.0000033105655318457363 -0.0000033054356125900603 -0.0000032855292492444167
          -0.000003496873347124222 -0.00000348852101843767 -0.0000034552654515238224 -0.0000038069004923593592 -0.0000037939700741297655 -0.000003751015971069623
          -0.0000042872801766579105 -0.000004275833026281486 -0.000004242483295588489 -0.000004926762229242498 -0.000004923788302274812 -0.000004938536784044246
          -0.000002730818457531651 -0.0000027305829199427393 -0.0000027301941768842403 -0.0000028520185755173 -0.0000028514661793777402 -0.0000028506868842374
          -0.0000029718051394915677 -0.000002970521027513817 -0.000002968201039818629 -0.0000030900653468268652 -0.0000030872338379512338 -0.0000030806696889629487
          -0.0000032119257725413837 -0.0000032081945116254887 -0.000003195402779469344 -0.000003372028425751216 -0.0000033667210103015773 -0.0000033440046220741824
          -0.0000036215808059117004 -0.0000036131029564122297 -0.000003581135076754332 -0.000004007697140887057 -0.0000039980703045141 -0.000003966088488520291
          -0.000004550703412993984 -0.0000045455670254133685 -0.000004536496696920707 -0.000005186604469314698 -0.000005190993399264821 -0.000005227947852699299
          -0.0000027348179311757356 -0.0000027344004337400643 -0.0000027336872273912082 -0.000002857190838445502 -0.00000285619942324199 -0.000002854361971024039
          -0.0000029790285528125037 -0.000002976983783462012 -0.0000029721575343634042 -0.0000031036722387781687 -0.000003100722109806162 -0.0000030914737784323565
          -0.000003250915180424262 -0.0000032471285821572143 -0.000003231381296389869 -0.00000346054865123622 -0.0000034545691710399948 -0.0000034309069023829397
          -0.0000037760525420448603 -0.0000037680225399408366 -0.000003740835914032144 -0.000004226645204683497 -0.00000422048100018307 -0.000004201020345439588
          -0.000004799937148602953 -0.000004800207619413332 -0.000004809930101914543 -0.000005402634909705238 -0.000005411084255239423 -0.0000054565406567797636
          -0.000002739443062984981 -0.0000027387240546478493 -0.0000027373289315049808 -0.000002862734822788863 -0.000002861078685027246 -0.0000028573986241052308
          -0.0000029877696903502726 -0.0000029853878643883005 -0.000002978042361821081 -0.0000031280979720491576 -0.0000031246994316342617 -0.000003112361651442429
          -0.0000033110447743920633 -0.0000033061108721781285 -0.0000032876801994602173 -0.0000035746453003620016 -0.000003568104016359152 -0.0000035456865126033864
          -0.0000039520326806848985 -0.0000039456691855936935 -0.000003925858943800322 -0.000004450071521422038 -0.000004448165465784237 -0.00000444148721014517
          -0.000005025786239561449 -0.000005030205231431625 -0.000005052029384437274 -0.00000557422977387278 -0.00000558339326121861 -0.000005628784886453642
          -0.0000030041622348320087 -0.000003001456002520645 -0.0000029908464222075623 -0.000003168583182638471 -0.0000031642504588448108 -0.000003147923422506757
          -0.000003392512201555823 -0.0000033863980792675593 -0.0000033661301127562816 -0.000003708917515720046 -0.0000037022096235543883 -0.000003683500401811161
          -0.000004138080124000757 -0.000004133222988736381 -0.000004123757078231273 -0.000004666620173917841 -0.000004667510858324682 -0.0000046749607980464085
          -0.000005226039820925493 -0.000005233416850168046 -0.000005263870933471515 -0.00000569832701594007 -0.000005709027558990046 -0.000005745316317944612
          -0.000005686854533220459 -0.00000568065699106816 -0.00000578195202043627 -0.000005824035081321106 -0.000005702210472537173 -0.000005712578313830713
          -0.00000579713894320249 -0.000005835769275798665 -0.000005757401726254132 -0.000005747456835194379 -0.000005826937216137271 -0.000005836981857628701
          -0.000005734244838804138 -0.000005849758594655948 -0.000005756591539964853 -0.000005852721121405379 -0.000005709569153774894 -0.00000586297793589039
          -0.000005608742554746282 -0.00000573917243657293 -0.000005630029162398727 -0.000005596963427306816 -0.000005755983725480252 -0.00000565001509326511
          -0.0000058541515606553615 -0.000005725946913080292 -0.000005722636395112876 -0.0000040116027782657985 -0.000004275670660458858 -0.000004187142823427016
          -0.000004079884460305711 -0.00000397081758050867 -0.000004244998689815391 -0.000004151493373872707 -0.000004028627945281943 -0.000003765956684762067
          -0.000004101554662574352 -0.000003937411431212965 -0.0000037719730554794302 -0.000005088172298236859 -0.000005449939354262122 -0.000005387250352044351
          -0.000005164843758463892 -0.000005163060193264764 -0.000005529436008892046 -0.000005454179501136319 -0.000005116334431000208 -0.000004866633300396875
          -0.000005448515386209095 -0.000004693586305434687 -0.000004980091028552871 -0.000004615560321052488 -0.00000475571921533858 -0.000004441639863173974
          -0.000004338252245926546 -0.000004598892459194584 -0.000004742703310872901 -0.000004423772780949721 -0.000004311293999200247 -0.000004572885099954398
          -0.000004729489895185105 -0.000004359811062995947 -0.00000422722047159841 -0.000005492744994102291 -0.0000054093507063374265 -0.00000561095690122921
          -0.000005645439208339425 -0.000005499650128578158 -0.000005411908086192076 -0.0000056183883232498836 -0.000005652680385534512 -0.0000055677362801214175
          -0.000005472160584590356 -0.0000056741574423177706 -0.000005702754879348242 -0.000005699670931121919 -0.0000055622648705028664 -0.000005710440486475833
          -0.000005570554980797188 -0.000005757665286895668 -0.0000056212903981577785 -0.000004250859112710445 -0.000004492377121031213 -0.0000042225084341665755
          -0.000004485657591188162 -0.000004104742614932099 -0.00000444772839997575 -0.000005451667008181096 -0.0000054686363212732 -0.000005304835304226357
          -0.000005230416768959048 -0.000005474296445389843 -0.00000544770452926028 -0.0000053173505121750006 -0.00000520812544536784 -0.0000054656536522595445
          -0.000005645561457907016 -0.000005542854705180124 -0.000005719921104788839 -0.0000037103558674766633 -0.0000038079678507724757 -0.000003833522276071751
          -0.0000037313062882445466 -0.000003666298322416301 -0.000003765073803627576 -0.0000037875507824324005 -0.0000036838888187582396 -0.0000034474833909227667
          -0.0000035593168365621394 -0.0000035487465379253498 -0.000003438170217761584 -0.000004434830749343598 -0.0000044136653079484425 -0.000004417840492136561
          -0.000004380842528152031 -0.000004311494952898273 -0.000004184411087673165 -0.000005876475240414468 -0.00000599000902038858 -0.000006026597613492602
          -0.000005946618984354765 -0.000005886352935909446 -0.00000599621282335062 -0.000006031509151518104 -0.0000059511615520126125 -0.000005905104024834042
          -0.000006008351473079886 -0.0000060433034346301135 -0.000005965448563601804 -0.000005500622315813015 -0.000006143015062995342 -0.0000055826664746130325
          -0.000004892809800343818 -0.000005418453381313407 -0.000005936932920940846 -0.000005410616542551411 -0.000004846264377098269 -0.000005187743966873969
          -0.0000050697075183376615 -0.000004770547411487759 -0.0000047703838500382196 -0.000005426090820260349 -0.000005422403045795165 -0.0000055237006412053625
          -0.00000555538080022239 -0.000005464212386944823 -0.000005441540453793653 -0.000005500740734035535 -0.0000055651695866422925 -0.000005665940467275653
          -0.0000057976925827593345 -0.000005858061069343252 -0.000005785812615503904 -0.000005239450634972445 -0.000005284973763024762 -0.000005240966218917326
          -0.00000528595493759976 -0.000005292812509310537 -0.000005344568316862821 -0.0000040335077045067235 -0.00000399514323840687 -0.000003840529657261833
          -0.000005511958920134935 -0.000005576168031818839 -0.000005566668362491518 -0.000005585345097895896 -0.000005557231650507935 -0.0000052513691540927145
          -0.000005607500335940011 -0.000005565414361007199 -0.00000564591218714312 -0.000005214391075119526 -0.000005531154163616969 -0.00000565192689104924
          -0.000004673200338269387 -0.000005615778277693579 -0.0000057760931587746536 -0.000005077855028451471 -0.00000505334920677311 -0.000004670775151561935
          -0.000004648904860289513 -0.000005085184466004148 -0.0000050955570836247396 -0.0000046997170288527864 -0.000004658639955095198 -0.000005115213977438376
          -0.000005057673030937453 -0.000004766161317654863 -0.0000046616763016104694 -0.000003859573426012205 -0.000004012226650149503 -0.000004003021648428277
          -0.000003802637541473136 -0.000003947100530237479 -0.000003930774827799819 -0.000003526049342085836 -0.000003658885551806863 -0.0000036186961512468083
          -0.0000057511131188640535 -0.000005423310848355192 -0.000005762226487521584 -0.000005429759729265806 -0.0000058080128595163905 -0.0000054839871620732355
          -0.000005282308394287728 -0.00000532435986569906 -0.000005457313085531441 -0.0000050390170439207795 -0.00000501972185117537 -0.000005344075766261766
          -0.000005536981262385095 -0.000005636847452044519 -0.000005542613727036832 -0.000005655783855731341 -0.000005567480712609457 -0.000005717092553519513
          -0.0000051655291879031235 -0.00000481251741878118 -0.000005292692552417327 -0.00000569201187649524 -0.000004993958207015225 -0.0000046576712998868304
          -0.000005103105215925024 -0.0000054852506620978854 -0.000004232295905830034 -0.000004115919949794745 -0.000004387103675863872 -0.00000448382821682584
          -0.000005082280702041519 -0.000005136469502553263 -0.0000048271499461755565 -0.0000050754817035235775 -0.000005131291401548598 -0.0000048190109630391405
          -0.000005110123977141161 -0.000005160879581187015 -0.000004810602018375901 -0.0000057700023646443425 -0.000005732776567199623 -0.000005793081581890025
          -0.000005754515305397994 -0.000005832743891699128 -0.000005800924533922242 -0.000004971967541166424 -0.000005205149171831303 -0.000004965492506160449
          -0.000005204618883687862 -0.000004989139438517084 -0.000005248803866944214 -0.000005468185922693585 -0.0000053252809353279725 -0.000005479784460295915
          -0.00000535186749124939 -0.000005534493295439924 -0.000005383247194475908 -0.00000559406863331813 -0.000005740815285051251 -0.000005606510317653411
          -0.000005751295072122784 -0.000005656263311260486 -0.000005787139033350701 -0.000005754699981654753 -0.000005824069687378776 -0.000005837225921351846
          -0.000005766875725497473 -0.000005830209509919414 -0.00000584170124361723 -0.000005738650499703476 -0.000005811711053611107 -0.000005826298138517549
          -0.000005890146706024169 -0.000005944622647082866 -0.000005784017100925806 -0.000005899097500598849 -0.000005953186332219934 -0.0000057959702998542
          -0.00000592391461082921 -0.000005969847035896368 -0.000005831743755640193 -0.000004163867117927404 -0.000004451402087751661 -0.000004349077071683615
          -0.000004077131570734917 -0.000004328279202933183 -0.000004237971509564948 -0.000003739939247625243 -0.000003893997115710102 -0.000003808860382134091
          -0.000004723517463232791 -0.000004578075309964601 -0.0000040085501451699164 -0.000005968434623995893 -0.000005945801652273397 -0.000005999394866586979
          -0.00000602434961775588 -0.0000059716878224140534 -0.0000059491212460683536 -0.000006003202885579143 -0.000006028015005808044 -0.000005981259099981751
          -0.000005959266769268714 -0.000006015321204889468 -0.000006038948660567086 -0.0000042763360354674305 -0.000004554595298168553 -0.0000041997497044906156
          -0.000004457972781580873 -0.000003881696535725606 -0.000004107021725947918 -0.0000058918610441863015 -0.000005906788686151327 -0.000005894356761443605
          -0.000005909713993902539 -0.000005898703332588759 -0.000005911149811624829 -0.000005634222292425794 -0.000004922544316837307 -0.000005429246453940224
          -0.0000048062303294550854 -0.000004592277568048833 -0.000004420594033093102 -0.000004593288494425871 -0.000004708130308463161 -0.000004586090203724075
          -0.000004712390031476596 -0.000004516569357112317 -0.000004890516547456597 -0.000005937330180220466 -0.000005941514469195092 -0.000005952293986013757
          -0.0000058151293293305415 -0.00000582595375715969 -0.0000058562315589270905 -0.000004661276481850937 -0.00000441032811033077 -0.0000047344699684834005
          -0.000004551168240750057 -0.000004837838335993345 -0.000004830701031675408 -0.00000570127069402985 -0.000005710945502551355 -0.000005756029874335083
          -0.000005292551508278025 -0.000005239515153837099 -0.000005543132254364402 -0.000005660524686001363 -0.00000567729744186982 -0.000005697649955364798
          -0.000005837179261384093 -0.0000058475884934292545 -0.000005873361664126377 -0.000006058848738839942 -0.0000060628292767722955 -0.000006074210543489022
          -0.000005002470783071545 -0.00000534411505106121 -0.000005472937080883351 -0.0000047976297137709695 -0.000004810104301130988 -0.000005239028522630661
          -0.000006251154479078217 -0.000006004810320189687 -0.000004737768418077673 -0.0000036706990846734957 -0.000003625992915762812 -0.0000034005955226971883
          -0.000006076836676147807 -0.000006080402840413783 -0.000006090558104210723 -0.0000053203856959191995 -0.000005335710353775026 -0.000005548039590283491
          -0.0000034635880306311308 -0.000003459023161223643 -0.0000034450679292725632 -0.000003887021665572074 -0.00000388493066547311 -0.000003878511655954654
          -0.000003818930612199078 -0.00000381519467414815 -0.0000038037988571739068 -0.000004319100486924259 -0.000004318594404692901 -0.000004317150994022937
          -0.000004260371727060063 -0.000004258962803990634 -0.000004254332916427446 -0.000004769426775963818 -0.000004771507287547122 -0.000004777344073096312
          -0.0000052926899361957155 -0.000005299014994721525 -0.000005317238999149461 -0.000005746774198715032 -0.000005754630899953326 -0.000005782196752160927
          -0.000006058199117668872 -0.000006064408555172782 -0.000006084989615718996 -0.000005964499673177037 -0.0000060378258923797 -0.000005972493862238372
          -0.0000060436821630952125 -0.000005993378628735392 -0.000006058989095575061 -0.000006221904298871433 -0.000006280632955073375 -0.000006151450213239695
          -0.000006100121836254762 -0.0000062247290558282414 -0.0000062831512690693605 -0.0000061546017534333076 -0.000006104763381631406 -0.000006232403723591917
          -0.000006290847145245621 -0.000006164792172617009 -0.0000061150759839569566 -0.000006182842052205172 -0.000006186107206964864 -0.000006195720593602637
          -0.0000061559515740841475 -0.000006160132190970451 -0.000006168524813745554 -0.000006387558403704416 -0.000006390187436670188 -0.000006397190780878247
          -0.000004783075406513174 -0.000004341333639338942 -0.000004785035693778024 -0.000004341607651991876 -0.000004791240145400575 -0.000004342567733854795
          -0.00000479183946394321 -0.000004793500159254106 -0.000004798854807289322 -0.000005214536935852228 -0.000005218092941823604 -0.000005229337955250497
          -0.000005266234988165722 -0.000005270281406351004 -0.0000052831221338392 -0.000005687630441350961 -0.000005693119858037629 -0.000005711372945988874
          -0.000006005537569875484 -0.000006010512961035368 -0.000006026784375241316 -0.000006210497169295704 -0.000006213438794150381 -0.000006221090948080477
          -0.000006306859177426711 -0.000006309034119431601 -0.0000063134089040288445 -0.0000065255781446862 -0.000006387934830349556 -0.0000064819537512477415
          -0.000006527180207964439 -0.000006389695945149039 -0.0000064832403702627985 -0.000006532709102891438 -0.000006395621907988782 -0.00000648736404864164
        </DataArray>
        <DataArray type="Float64" Name="disp_z" format="ascii" RangeMin="-0.000003939822626095327" RangeMax="0.0000012410798786101055">
          0 0 -6.270913665649463e-8 -6.271571028049543e-8 -1.2541168535729452e-7 -1.2542212145390093e-7
          0 0 -6.316288597389855e-8 -6.318053890657007e-8 -1.263269138373194e-7 -1.2635509856897125e-7
          0 0 -6.373296951385602e-8 -6.379205660609866e-8 -1.2751987925211918e-7 -1.2759551690810396e-7
          0 0 -6.45922526452513e-8 -6.472960398322016e-8 -1.2937920511164303e-7 -1.295790453919741e-7
          0 0 -6.575152773981203e-8 -6.603234176486254e-8 -1.3244340830034495e-7 -1.326808427128853e-7
          0 0 -6.669366867376451e-8 -6.690071024282609e-8 -1.3651553745234198e-7 -1.3689562220151408e-7
          0 0 -7.119410944947922e-8 -6.844637122023799e-8 -1.5126892158610035e-7 -1.455965920557624e-7
          0 0 -1.2075144226117603e-7 -1.1167763566411694e-7 -2.6512800725336795e-7 -2.4891158781891003e-7
          0 0 -2.9792753275341687e-7 -2.908908243452034e-7 -6.042358548485468e-7 -5.937259185579369e-7
          0 0 -7.669043980036068e-7 -8.11363132541944e-7 -0.000001470963468228922 -0.0000015443644901771052
          0 -6.269257739239724e-8 -1.2538823781075757e-7 0 -6.309385389492855e-8 -1.262268429009424e-7
          0 -6.353877296399319e-8 -1.2727678968377368e-7 0 -6.414362337445399e-8 -1.287589002591398e-7
          0 -6.499083746766413e-8 -1.3182428406915693e-7 0 -6.67230918670772e-8 -1.3634309349438156e-7
          0 -8.07201068937516e-8 -1.7200244940024572e-7 0 -1.4637759361107217e-7 -3.1002107872877774e-7
          0 -3.1436675060318036e-7 -6.296243709033168e-7 0 -6.599307218136931e-7 -0.0000012835505917760117
          0 -6.265656779358684e-8 -1.2533618535328684e-7 0 -6.294653304744315e-8 -1.2604170167092748e-7
          0 -6.317560325863022e-8 -1.268034058159734e-7 0 -6.334360600760015e-8 -1.2790933491609557e-7
          0 -6.414059277155984e-8 -1.3072574552189496e-7 0 -6.895743455169641e-8 -1.4161348430093923e-7
          0 -1.0005655975286053e-7 -2.105835388920151e-7 0 -1.8286057923571441e-7 -3.7314218334671695e-7
          0 -3.3239969879891343e-7 -6.574910329321351e-7 0 -5.321973429520824e-7 -0.0000010549696210948087
          0 -6.258399961377201e-8 -1.2524081479818677e-7 0 -6.27003110125882e-8 -1.2576545485617047e-7
          0 -6.260692544552258e-8 -1.261162238805645e-7 0 -6.24662722833694e-8 -1.27222901840411e-7
          0 -6.409277697170195e-8 -1.3050647581960204e-7 0 -7.700924560916357e-8 -1.6113004377221353e-7
          0 -1.2859336126625684e-7 -2.6319230236472874e-7 0 -2.2203095786322966e-7 -4.4055375953433474e-7
          0 -3.4326898368499633e-7 -6.70660062891343e-7 0 -4.107194268526188e-7 -8.322105953322701e-7
          0 -6.245492235626981e-8 -1.2510830336357947e-7 0 -6.238020371190503e-8 -1.2538970699939226e-7
          0 -6.196765661830443e-8 -1.2573838753239267e-7 0 -6.250003180732098e-8 -1.2704861681410854e-7
          0 -6.66550387689121e-8 -1.3898253542210296e-7 0 -9.473820139496844e-8 -1.9769754783727277e-7
          0 -1.6133013535865277e-7 -3.218856288159642e-7 0 -2.545824380839194e-7 -4.955920216760939e-7
          0 -3.3892642239600513e-7 -6.576547738560093e-7 0 -3.084616917096169e-7 -6.386917306683021e-7
          0 -6.229476272911306e-8 -1.2492968180799497e-7 0 -6.207524004202383e-8 -1.2528620303124379e-7
          0 -6.229648919140592e-8 -1.2624121043483092e-7 0 -6.467528883249364e-8 -1.3259247635647417e-7
          0 -7.812957927182727e-8 -1.645056145246575e-7 0 -1.2134200970396258e-7 -2.4622493713849016e-7
          0 -1.922379784454918e-7 -3.7715579367435756e-7 0 -2.718940399157573e-7 -5.245062145974122e-7
          0 -3.1562116569802054e-7 -6.144037769879066e-7 0 -2.2564768373597965e-7 -4.7407443472448306e-7
          0 -6.213315795159045e-8 -1.2486288110618277e-7 0 -6.252355598531989e-8 -1.26084644058916e-7
          0 -6.50318415938422e-8 -1.3090004230812955e-7 0 -7.439717053697378e-8 -1.5238732275529862e-7
          0 -1.0208922489429401e-7 -2.0642336257926088e-7 0 -1.5197793558389122e-7 -2.998742782247992e-7
          0 -2.1532060540672248e-7 -4.1876566189594346e-7 0 -2.688184719764531e-7 -5.210894537726828e-7
          0 -2.7292019646654247e-7 -5.411457290121217e-7 0 -1.5888193617854733e-7 -3.424730893863707e-7
          0 -6.230633864468e-8 -1.2514463403237566e-7 0 -6.522505630274921e-8 -1.2959037238758765e-7
          0 -7.390649148216609e-8 -1.4668784009856536e-7 0 -9.553672214740228e-8 -1.878522084303591e-7
          0 -1.3323156334435308e-7 -2.582235581004657e-7 0 -1.8116776027815866e-7 -3.5014452459224685e-7
          0 -2.2537609838860612e-7 -4.391950628626526e-7 0 -2.4510493989378923e-7 -4.854769468359005e-7
          0 -2.152996435907478e-7 -4.455452935676603e-7 0 -1.0791722018873034e-7 -2.4100449602721835e-7
          0 -8.813373320949482e-8 -1.7944623255486277e-7 0 -1.1901251898857621e-7 -2.398232796777186e-7
          0 -1.60049780650607e-7 -3.1857007056652625e-7 0 -1.9923227957649274e-7 -3.9322962142914097e-7
          0 -2.2056548930909055e-7 -4.3409569557751866e-7 0 -2.107783525789286e-7 -4.147380116940601e-7
          0 -1.6185473634348754e-7 -3.240069259383681e-7 0 -7.875976486326117e-8 -1.598167819570821e-7
          0 0 0 0 -2.143091522449708e-9 -1.7473402546873302e-8
          -2.1309215128657427e-8 -1.0744918286992264e-8 -3.283998208776391e-8 -2.0602470167822108e-8 -4.992973793167935e-8 -3.444370442249096e-8
          0 0 -1.492613833555854e-9 -7.788353510040414e-9 3.175765788173078e-8 -1.8533762576547877e-8
          0 0 0 1.6452174921502244e-8 -6.951011257914813e-10 1.7702682286514854e-8
          5.839097958268964e-8 6.912006748171758e-9 -2.793805403505702e-8 0 0 0
          0 -9.988528560602416e-7 -8.454246831149373e-7 -0.000001103802887885049 -0.000001157281541426548 -0.0000019035683641808575
          -0.0000016464602736970395 -0.0000021322564229452214 -0.00000220617455675147 0 0 0
          0 -8.752701063217052e-8 -1.3931599743852255e-7 9.998687369394881e-7 2.8922844311444608e-8 -3.3819866766760043e-7
          -1.3360176021554718e-7 5.388890744853247e-7 -7.286623088083032e-7 0 0 0
          0 -4.514969691465101e-7 -4.1605460391259117e-7 -5.951615117469709e-7 -5.95488112007185e-7 -9.094164880289244e-7
          -8.644496867211972e-7 -0.0000011898065075572524 -0.0000011744143921259185 0 0 0
          0 -1.004400103814883e-7 -1.4156320777459765e-7 -8.165546985135441e-8 -4.8535526464073675e-8 -2.3817835784678276e-7
          -3.2317932602555123e-7 -1.9935505426523461e-7 -1.3426860632854827e-7 0 0 -7.929989079803225e-8
          -1.0867039443919895e-7 -1.7249020162006729e-7 -2.5084184132486466e-7 0 0 -7.370116599687861e-7
          -6.000733972605088e-7 -0.0000014251761885510734 -0.0000012253076827060465 0 0 0
          0 1.1242288257539965e-8 2.5534661026903422e-8 -4.991216457008063e-8 5.250974226617275e-8 -1.2847610936672902e-7
          7.918037934075435e-8 3.297982864367305e-8 -1.1486794165438294e-7 0 0 0
          0 -9.239267512507545e-7 -9.048624042433372e-7 -0.000001083268634739751 -0.0000010372650826199406 -0.000001748491726351441
          -0.0000017117404558524402 -0.0000020448623460545363 -0.0000019626386441128172 0 0 -7.980143095889516e-7
          -0.0000010344434252312888 -0.0000015712799860609291 -0.0000020754609990534177 0 0 0
          0 -2.6159479763725642e-8 -3.246644065264589e-8 -2.7575119057266483e-8 -2.121674065932044e-8 -5.710515716375849e-8
          -6.736466778939421e-8 -5.630831021234363e-8 -4.446812956394886e-8 0 0 0
          0 -0.0000011055336780315632 -0.0000016524945917916501 -0.0000014672033163600795 -0.0000010390447155989453 -0.000002229400399986346
          -0.0000032720587135596605 -0.000002839922233601965 -0.0000021094875754556243 0 0 0
          0 7.096374011175939e-9 -3.613182941300099e-8 3.008436072336619e-8 1.7689039841844738e-8 -2.294964055536884e-7
          -4.2602685057494006e-8 4.916648919494873e-8 8.954093374843873e-8 0 0 -1.97988811616326e-7
          -1.7073598143306477e-7 -4.435241713726674e-7 -4.1756882061988985e-7 0 -7.815921645292796e-7 -0.0000015032054724806643
          0 0 1.766195954441934e-8 -8.591545018448506e-8 2.8012584394010002e-8 0.0000012410798786101055
          0 0 0 1.5517211784777768e-7 -2.3328888923636573e-8 -4.212267721392871e-9
          0.0000010453284904284775 -9.036736414307588e-8 -2.917956890158556e-8 0 0 0
          0 -2.1472912488764687e-7 -1.7876431702926317e-7 -3.6200388970923536e-7 -4.930929648758448e-7 -5.378531936559887e-7
          -4.4374758152615066e-7 -8.708584727669023e-7 -0.0000010456549050840617 0 0 0
          -0.0000011512800141504585 -0.0000012170800188208375 -0.0000012843438623064913 -0.0000021576871112551535 -0.0000023199355630531276 -0.0000024360218944339075
          0 0 -5.7174129322530226e-8 -1.506866764311957e-7 -1.2891176252583932e-7 -3.3841450728459726e-7
          0 0 4.0125170086116e-7 2.6784593403931464e-7 1.9932512443618196e-7 -3.6880146375830014e-7
          0 0 -5.3225646214157784e-8 -2.845869391238472e-8 -1.2025666583556758e-7 -7.918457900312722e-8
          0 0 0 0 -0.0000015997157297501174 -0.0000015320906179954747
          -0.0000016537213731487418 -0.0000017595049389056914 -0.0000030190526645114853 -0.000002905134132271334 -0.000003219048490674153 -0.0000034029588611162087
          0 0 0 -2.711930493526216e-7 -2.2835916034992444e-7 -3.8725052210789804e-7
          -5.983362777683218e-7 -5.365302299495197e-7 -8.370930020808389e-7 0 0 -2.2586706895505974e-8
          -1.986239670997881e-8 -5.96843888842173e-8 -5.411602608466472e-8 0 0 -3.069556446040579e-7
          -2.1821058032338692e-7 -6.435972539459124e-7 -4.691861428788686e-7 0 0 -9.563303532830481e-8
          -1.2271661771457538e-7 -2.2619690456024328e-7 -2.6681852816165424e-7 0 0 -5.002206627402186e-8
          -2.964024171041892e-8 -1.242584350517351e-7 -7.7042457097997e-8 0 0 0
          2.5378074781338668e-9 -4.992343338560081e-9 -5.6818132804074026e-9 -5.737266161753249e-9 -4.877860978259948e-9 -1.046242484975874e-8
          0 0 0 -4.388523056584777e-8 -3.505504114589449e-8 -3.953460441120362e-8
          -9.321254827762215e-8 -7.453054145246012e-8 -8.491036463686607e-8 0 0 0
          -0.0000013123577697608814 -0.0000014213451511638666 -0.0000013832473133052003 -0.000002490213912029103 -0.0000027023211633232965 -0.000002647877839900612
          0 -0.0000014797052626655837 -0.000002798787018958401 0 0 0
          0 -1.0475154957181872e-8 -1.1371606509981654e-8 -1.4740856918469226e-8 -1.2395411717607555e-8 -1.5600202625694072e-8
          -1.9124788541967245e-8 -2.7045797648643264e-8 -1.9707433112812624e-8 0 0 -0.0000012945117955900795
          -0.0000013644133634040621 -0.0000024474309915616696 -0.0000026397215971144937 0 0 -8.51689626670551e-9
          -8.536334303628319e-9 -1.4232817070341931e-8 -1.2595849133111073e-8 0 0 -0.0000017009466148511434
          -0.0000013539324563439624 -0.0000033221686824179746 -0.000002639438546428234 0 0 -7.573077278807801e-7
          -6.993928225204011e-7 -0.0000015753496039331385 -0.000001465947713741905 0 -1.370855981866376e-8 -2.709810550633185e-8
          0 -5.966524067955187e-8 -1.3039168419160768e-7 0 0 -5.042281417427426e-7
          -2.458021441448528e-7 -9.7223065569502e-7 -6.65197723515826e-7 0 -5.0160519963147344e-8 -1.1247340536373993e-7
          0 -1.6330835317311827e-7 0.0000010562013171266235 0 1.9647849273765773e-8 2.8997625539391215e-8
          0 -3.094188139469481e-8 -6.708629900697799e-8 0 -2.0384229030644606e-8 -4.164250005481413e-8
          0 -1.0293351723613088e-7 7.30779885232194e-7 0 -4.883696460049947e-7 -0.0000010995035918980286
          0 -0.0000020196721264911663 -0.000003939822626095327 0 -9.178400116176088e-7 -0.000001740647663305063
          0 -1.3747283239719188e-8 -2.771383651712869e-8 0 4.0626655005654795e-11 -1.6455321129679312e-7
          0 -1.4255874365781012e-7 -2.8139702296832824e-7 0 -1.54845151176342e-7 -3.086157082360297e-7
          0 -1.6781494929571323e-7 -3.30450475277315e-7 0 -1.6249997324472125e-7 -3.239696786350233e-7
          0 -1.8375382812673276e-7 -3.623995654789185e-7 0 -1.8273853072387393e-7 -3.624032132243802e-7
          0 -1.5905231650938414e-7 -3.1849327320099933e-7 0 -1.117299943948665e-7 -2.299754618601198e-7
          0 -5.814598391081378e-8 -1.1885125365210907e-7 0 0 -5.295842212929334e-8
          -4.665796993799259e-8 -1.1523747966705776e-7 -9.476762809538874e-8 0 0 0
          0 -4.2662746511313074e-8 -3.56250738160802e-8 -3.272508039792617e-8 -4.0291451200430086e-8 -8.617793159699936e-8
          -7.058667363051408e-8 -6.668324883502301e-8 -8.306464702180876e-8 0 -2.5237529089848927e-8 -4.6990686928057015e-8
          0 -4.6678767112794996e-8 -9.408424508448349e-8 0 -2.5373405399799695e-8 -5.1281128098009926e-8
          0 0 -1.4481955872701998e-7 -1.5205635949348232e-7 -2.8799260183839436e-7 -3.0201773287862816e-7
          0 -1.586205676609833e-7 -3.164411673985688e-7 0 -1.270670580019168e-7 -2.5350391467072044e-7
          0 -1.4065145038426372e-7 -2.8094413213993903e-7 0 -1.091211499992957e-7 -2.1888950502756955e-7
          0 -7.245405349905555e-8 -1.4554396928602224e-7 0 -5.022967815458072e-8 -1.0016358425993442e-7
          0 -4.604194101405415e-8 -9.336497984400617e-8 0 0 0
          -3.246131022007543e-8 -3.9547819314803146e-8 -4.20315370760856e-8 -6.424022639740336e-8 -7.872578754017461e-8 -8.430351557541718e-8
        </DataArray>
      </PointData>
      <CellData>
        <DataArray type="Int32" Name="libmesh_elem_id" format="ascii" RangeMin="40" RangeMax="1373">
          40 41 42 43 44 45
          46 47 48 49 50 51
          52 53 54 55 56 57
          98 99 100 101 102 103
          104 105 106 107 108 109
          110 111 112 113 114 115
          156 157 158 159 160 161
          162 163 164 165 166 167
          168 169 170 171 172 173
          214 215 216 217 218 219
          220 221 222 223 224 225
          226 227 228 229 230 231
          272 273 274 275 276 277
          278 279 280 281 282 283
          284 285 286 287 288 289
          330 331 332 333 334 335
          336 337 338 339 340 341
          342 343 344 345 346 347
          388 389 390 391 392 393
          394 395 396 397 398 399
          400 401 402 403 404 405
          446 447 448 449 450 451
          452 453 454 455 456 457
          458 459 460 461 462 463
          508 509 510 511 512 513
          514 515 516 517 518 519
          520 521 522 523 524 525
          526 527 528 529 530 531
          532 533 534 535 536 537
          538 539 540 541 542 543
          544 545 546 547 548 549
          550 551 552 553 554 555
          556 557 558 559 560 561
          562 563 564 565 566 567
          568 569 570 571 572 573
          574 575 576 577 578 579
          580 581 582 583 584 585
          586 587 588 589 590 591
          592 593 594 595 596 597
          598 599 600 601 602 603
          604 605 606 607 608 609
          610 611 612 613 614 615
          616 617 618 619 620 621
          622 623 624 625 626 627
          628 629 630 631 632 633
          634 635 636 637 638 639
          640 641 642 643 644 645
          646 647 648 649 650 651
          652 653 654 655 656 657
          658 659 660 661 662 663
          664 665 666 667 668 669
          670 671 672 673 674 675
          676 677 678 679 680 681
          682 683 684 685 686 687
          688 689 690 691 692 693
          694 695 696 697 698 699
          700 701 702 703 704 705
          706 707 708 709 710 711
          712 713 714 715 716 717
          718 719 720 721 722 723
          724 725 726 727 728 729
          730 731 732 733 734 735
          736 737 738 739 740 741
          742 743 744 745 746 747
          748 749 750 751 752 753
          754 755 756 757 758 759
          760 761 762 763 764 765
          766 767 768 769 770 771
          1186 1187 1188 1189 1190 1191
          1204 1205 1206 1207 1208 1209
          1222 1223 1224 1225 1240 1241
          1242 1243 1258 1259 1260 1261
          1276 1277 1278 1279 1300 1301
          1304 1305 1306 1307 1314 1315
          1316 1317 1326 1327 1328 1329
          1330 1331 1338 1339 1344 1345
          1348 1349 1356 1357 1358 1359
          1360 1361 1366 1367 1372 1373
        </DataArray>
        <DataArray type="Int32" Name="subdomain_id" format="ascii" RangeMin="103" RangeMax="143">
          103 103 103 103 103 103
          103 103 103 103 103 103
          103 103 103 103 103 103
          103 103 103 103 103 103
          103 103 103 103 103 103
          103 103 103 103 103 103
          103 103 103 103 103 103
          103 103 103 103 103 103
          103 103 103 103 103 103
          103 103 103 103 103 103
          103 103 103 103 103 103
          103 103 103 103 103 103
          103 103 103 103 103 103
          103 103 103 103 103 103
          103 103 103 103 103 103
          103 103 103 103 103 103
          103 103 103 103 103 103
          103 103 103 103 103 103
          103 103 103 103 103 103
          103 103 103 103 103 103
          103 103 103 103 103 103
          103 103 103 103 103 103
          103 103 103 103 103 103
          103 103 103 103 103 103
          103 103 103 103 103 103
          103 103 103 103 103 103
          103 103 104 104 104 104
          104 104 104 104 104 104
          104 104 104 104 104 104
          104 104 104 104 104 104
          104 104 104 104 104 104
          104 104 104 104 104 104
          104 104 104 104 104 104
          104 104 104 104 104 104
          104 104 104 104 104 104
          104 104 104 104 104 104
          104 104 104 104 104 104
          104 104 104 104 104 104
          104 104 104 104 104 104
          104 104 104 104 104 104
          104 104 104 104 104 104
          104 104 104 104 104 104
          104 104 104 104 104 104
          104 104 104 104 104 104
          104 104 104 104 104 104
          104 104 104 104 104 104
          104 104 104 104 104 104
          104 104 104 104 104 104
          104 104 104 104 104 104
          104 104 104 104 104 104
          104 104 104 104 104 104
          104 104 104 104 104 104
          104 104 104 104 104 104
          104 104 104 104 104 104
          104 104 104 104 104 104
          104 104 104 104 104 104
          104 104 104 104 104 104
          104 104 104 104 104 104
          104 104 104 104 104 104
          141 141 141 141 141 141
          141 141 141 141 141 141
          141 141 141 141 141 141
          141 141 141 141 141 141
          141 141 141 141 141 141
          141 141 141 141 141 141
          141 141 141 141 141 141
          141 141 141 141 141 141
          141 141 141 141 141 141
          105 105 105 105 105 105
          105 105 105 105 105 105
          105 105 105 105 105 105
          105 105 105 105 105 105
          105 105 105 105 106 106
          106 106 106 106 106 106
          106 106 106 106 106 106
          106 106 106 106 106 106
          106 106 106 106 106 106
          143 143 143 143 143 143
        </DataArray>
        <DataArray type="Int32" Name="processor_id" format="ascii" RangeMin="5" RangeMax="5">
          5 5 5 5 5 5
          5 5 5 5 5 5
          5 5 5 5 5 5
          5 5 5 5 5 5
          5 5 5 5 5 5
          5 5 5 5 5 5
          5 5 5 5 5 5
          5 5 5 5 5 5
          5 5 5 5 5 5
          5 5 5 5 5 5
          5 5 5 5 5 5
          5 5 5 5 5 5
          5 5 5 5 5 5
          5 5 5 5 5 5
          5 5 5 5 5 5
          5 5 5 5 5 5
          5 5 5 5 5 5
          5 5 5 5 5 5
          5 5 5 5 5 5
          5 5 5 5 5 5
          5 5 5 5 5 5
          5 5 5 5 5 5
          5 5 5 5 5 5
          5 5 5 5 5 5
          5 5 5 5 5 5
          5 5 5 5 5 5
          5 5 5 5 5 5
          5 5 5 5 5 5
          5 5 5 5 5 5
          5 5 5 5 5 5
          5 5 5 5 5 5
          5 5 5 5 5 5
          5 5 5 5 5 5
          5 5 5 5 5 5
          5 5 5 5 5 5
          5 5 5 5 5 5
          5 5 5 5 5 5
          5 5 5 5 5 5
          5 5 5 5 5 5
          5 5 5 5 5 5
          5 5 5 5 5 5
          5 5 5 5 5 5
          5 5 5 5 5 5
          5 5 5 5 5 5
          5 5 5 5 5 5
          5 5 5 5 5 5
          5 5 5 5 5 5
          5 5 5 5 5 5
          5 5 5 5 5 5
          5 5 5 5 5 5
          5 5 5 5 5 5
          5 5 5 5 5 5
          5 5 5 5 5 5
          5 5 5 5 5 5
          5 5 5 5 5 5
          5 5 5 5 5 5
          5 5 5 5 5 5
          5 5 5 5 5 5
          5 5 5 5 5 5
          5 5 5 5 5 5
          5 5 5 5 5 5
          5 5 5 5 5 5
          5 5 5 5 5 5
          5 5 5 5 5 5
          5 5 5 5 5 5
          5 5 5 5 5 5
          5 5 5 5 5 5
          5 5 5 5 5 5
          5 5 5 5 5 5
          5 5 5 5 5 5
          5 5 5 5 5 5
          5 5 5 5 5 5
          5 5 5 5 5 5
          5 5 5 5 5 5
          5 5 5 5 5 5
          5 5 5 5 5 5
          5 5 5 5 5 5
          5 5 5 5 5 5
        </DataArray>
      </CellData>
      <Points>
        <DataArray type="Float64" Name="Points" NumberOfComponents="3" format="ascii" RangeMin="0.0082758620689774" RangeMax="0.013139935358843113">
          0.00011111111111123 0.0082758620689751 0 0 0.0082758620689774 0
          0.00011111111111123 0.0082758620689751 0.00015 0 0.0082758620689774 0.00015
          0.00011111111111123 0.0082758620689751 0.0003 0 0.0082758620689774 0.0003
          0.00011111111111125 0.0086896551724226 0 0 0.0086896551724246 0
          0.00011111111111125 0.0086896551724226 0.00015 0 0.0086896551724246 0.00015
          0.00011111111111125 0.0086896551724226 0.0003 0 0.0086896551724246 0.0003
          0.00011111111111126 0.0091034482758696 0 0 0.0091034482758716 0
          0.00011111111111126 0.0091034482758696 0.00015 0 0.0091034482758716 0.00015
          0.00011111111111126 0.0091034482758696 0.0003 0 0.0091034482758716 0.0003
          0.00011111111111128 0.0095172413793168 0 0 0.0095172413793185 0
          0.00011111111111128 0.0095172413793168 0.00015 0 0.0095172413793185 0.00015
          0.00011111111111128 0.0095172413793168 0.0003 0 0.0095172413793185 0.0003
          0.00011111111111129 0.0099310344827632 0 0 0.0099310344827645 0
          0.00011111111111129 0.0099310344827632 0.00015 0 0.0099310344827645 0.00015
          0.00011111111111129 0.0099310344827632 0.0003 0 0.0099310344827645 0.0003
          0.00011111111111131 0.01034482758621 0 0 0.01034482758621 0
          0.00011111111111131 0.01034482758621 0.00015 0 0.01034482758621 0.00015
          0.00011111111111131 0.01034482758621 0.0003 0 0.01034482758621 0.0003
          0.00011111111111132 0.010758620689657 0 0 0.010758620689657 0
          0.00011111111111132 0.010758620689657 0.00015 0 0.010758620689657 0.00015
          0.00011111111111132 0.010758620689657 0.0003 0 0.010758620689657 0.0003
          0.00011111111111134 0.011172413793104 0 0 0.011172413793104 0
          0.00011111111111134 0.011172413793104 0.00015 0 0.011172413793104 0.00015
          0.00011111111111134 0.011172413793104 0.0003 0 0.011172413793104 0.0003
          0.00011111111111135 0.011586206896551 0 0 0.011586206896551 0
          0.00011111111111135 0.011586206896551 0.00015 0 0.011586206896551 0.00015
          0.00011111111111135 0.011586206896551 0.0003 0 0.011586206896551 0.0003
          0.00011111111111137 0.012 0 0 0.012 0
          0.00011111111111137 0.012 0.00015 0 0.012 0.00015
          0.00011111111111137 0.012 0.0003 0 0.012 0.0003
          0.00022222222222243 0.0082758620689727 0 0.00022222222222243 0.0082758620689727 0.00015
          0.00022222222222243 0.0082758620689727 0.0003 0.00022222222222246 0.0086896551724206 0
          0.00022222222222246 0.0086896551724206 0.00015 0.00022222222222246 0.0086896551724206 0.0003
          0.00022222222222249 0.0091034482758676 0 0.00022222222222249 0.0091034482758676 0.00015
          0.00022222222222249 0.0091034482758676 0.0003 0.00022222222222253 0.0095172413793151 0
          0.00022222222222253 0.0095172413793151 0.00015 0.00022222222222253 0.0095172413793151 0.0003
          0.00022222222222256 0.0099310344827619 0 0.00022222222222256 0.0099310344827619 0.00015
          0.00022222222222256 0.0099310344827619 0.0003 0.0002222222222226 0.010344827586209 0
          0.0002222222222226 0.010344827586209 0.00015 0.0002222222222226 0.010344827586209 0.0003
          0.00022222222222263 0.010758620689656 0 0.00022222222222263 0.010758620689656 0.00015
          0.00022222222222263 0.010758620689656 0.0003 0.00022222222222266 0.011172413793103 0
          0.00022222222222266 0.011172413793103 0.00015 0.00022222222222266 0.011172413793103 0.0003
          0.0002222222222227 0.011586206896551 0 0.0002222222222227 0.011586206896551 0.00015
          0.0002222222222227 0.011586206896551 0.0003 0.00022222222222273 0.012 0
          0.00022222222222273 0.012 0.00015 0.00022222222222273 0.012 0.0003
          0.00033333333333363 0.0082758620689704 0 0.00033333333333363 0.0082758620689704 0.00015
          0.00033333333333363 0.0082758620689704 0.0003 0.00033333333333368 0.0086896551724185 0
          0.00033333333333368 0.0086896551724185 0.00015 0.00033333333333368 0.0086896551724185 0.0003
          0.00033333333333373 0.0091034482758657 0 0.00033333333333373 0.0091034482758657 0.00015
          0.00033333333333373 0.0091034482758657 0.0003 0.00033333333333379 0.0095172413793133 0
          0.00033333333333379 0.0095172413793133 0.00015 0.00033333333333379 0.0095172413793133 0.0003
          0.00033333333333384 0.0099310344827607 0 0.00033333333333384 0.0099310344827607 0.00015
          0.00033333333333384 0.0099310344827607 0.0003 0.00033333333333389 0.010344827586208 0
          0.00033333333333389 0.010344827586208 0.00015 0.00033333333333389 0.010344827586208 0.0003
          0.00033333333333394 0.010758620689656 0 0.00033333333333394 0.010758620689656 0.00015
          0.00033333333333394 0.010758620689656 0.0003 0.000333333333334 0.011172413793103 0
          0.000333333333334 0.011172413793103 0.00015 0.000333333333334 0.011172413793103 0.0003
          0.00033333333333405 0.011586206896551 0 0.00033333333333405 0.011586206896551 0.00015
          0.00033333333333405 0.011586206896551 0.0003 0.0003333333333341 0.012 0
          0.0003333333333341 0.012 0.00015 0.0003333333333341 0.012 0.0003
          0.00044444444444486 0.0082758620689681 0 0.00044444444444486 0.0082758620689681 0.00015
          0.00044444444444486 0.0082758620689681 0.0003 0.00044444444444493 0.0086896551724165 0
          0.00044444444444493 0.0086896551724165 0.00015 0.00044444444444493 0.0086896551724165 0.0003
          0.00044444444444501 0.0091034482758637 0 0.00044444444444501 0.0091034482758637 0.00015
          0.00044444444444501 0.0091034482758637 0.0003 0.00044444444444508 0.0095172413793116 0
          0.00044444444444508 0.0095172413793116 0.00015 0.00044444444444508 0.0095172413793116 0.0003
          0.00044444444444516 0.0099310344827594 0 0.00044444444444516 0.0099310344827594 0.00015
          0.00044444444444516 0.0099310344827594 0.0003 0.00044444444444523 0.010344827586207 0
          0.00044444444444523 0.010344827586207 0.00015 0.00044444444444523 0.010344827586207 0.0003
          0.00044444444444531 0.010758620689655 0 0.00044444444444531 0.010758620689655 0.00015
          0.00044444444444531 0.010758620689655 0.0003 0.00044444444444538 0.011172413793103 0
          0.00044444444444538 0.011172413793103 0.00015 0.00044444444444538 0.011172413793103 0.0003
          0.00044444444444546 0.011586206896551 0 0.00044444444444546 0.011586206896551 0.00015
          0.00044444444444546 0.011586206896551 0.0003 0.00044444444444553 0.012 0
          0.00044444444444553 0.012 0.00015 0.00044444444444553 0.012 0.0003
          0.00055555555555597 0.0082758620689657 0 0.00055555555555597 0.0082758620689657 0.00015
          0.00055555555555597 0.0082758620689657 0.0003 0.00055555555555605 0.0086896551724145 0
          0.00055555555555605 0.0086896551724145 0.00015 0.00055555555555605 0.0086896551724145 0.0003
          0.00055555555555613 0.0091034482758618 0 0.00055555555555613 0.0091034482758618 0.00015
          0.00055555555555613 0.0091034482758618 0.0003 0.00055555555555621 0.0095172413793099 0
          0.00055555555555621 0.0095172413793099 0.00015 0.00055555555555621 0.0095172413793099 0.0003
          0.00055555555555629 0.0099310344827581 0 0.00055555555555629 0.0099310344827581 0.00015
          0.00055555555555629 0.0099310344827581 0.0003 0.00055555555555636 0.010344827586206 0
          0.00055555555555636 0.010344827586206 0.00015 0.00055555555555636 0.010344827586206 0.0003
          0.00055555555555644 0.010758620689655 0 0.00055555555555644 0.010758620689655 0.00015
          0.00055555555555644 0.010758620689655 0.0003 0.00055555555555652 0.011172413793102 0
          0.00055555555555652 0.011172413793102 0.00015 0.00055555555555652 0.011172413793102 0.0003
          0.0005555555555566 0.011586206896551 0 0.0005555555555566 0.011586206896551 0.00015
          0.0005555555555566 0.011586206896551 0.0003 0.00055555555555667 0.012 0
          0.00055555555555667 0.012 0.00015 0.00055555555555667 0.012 0.0003
          0.00066666666666675 0.0082758620689634 0 0.00066666666666675 0.0082758620689634 0.00015
          0.00066666666666675 0.0082758620689634 0.0003 0.00066666666666679 0.0086896551724125 0
          0.00066666666666679 0.0086896551724125 0.00015 0.00066666666666679 0.0086896551724125 0.0003
          0.00066666666666684 0.0091034482758598 0 0.00066666666666684 0.0091034482758598 0.00015
          0.00066666666666684 0.0091034482758598 0.0003 0.00066666666666688 0.0095172413793081 0
          0.00066666666666688 0.0095172413793081 0.00015 0.00066666666666688 0.0095172413793081 0.0003
          0.00066666666666693 0.0099310344827568 0 0.00066666666666693 0.0099310344827568 0.00015
          0.00066666666666693 0.0099310344827568 0.0003 0.00066666666666697 0.010344827586205 0
          0.00066666666666697 0.010344827586205 0.00015 0.00066666666666697 0.010344827586205 0.0003
          0.00066666666666701 0.010758620689654 0 0.00066666666666701 0.010758620689654 0.00015
          0.00066666666666701 0.010758620689654 0.0003 0.00066666666666706 0.011172413793102 0
          0.00066666666666706 0.011172413793102 0.00015 0.00066666666666706 0.011172413793102 0.0003
          0.0006666666666671 0.01158620689655 0 0.0006666666666671 0.01158620689655 0.00015
          0.0006666666666671 0.01158620689655 0.0003 0.00066666666666715 0.012 0
          0.00066666666666715 0.012 0.00015 0.00066666666666715 0.012 0.0003
          0.00077777777777787 0.0082758620689611 0 0.00077777777777787 0.0082758620689611 0.00015
          0.00077777777777787 0.0082758620689611 0.0003 0.00077777777777791 0.0086896551724104 0
          0.00077777777777791 0.0086896551724104 0.00015 0.00077777777777791 0.0086896551724104 0.0003
          0.00077777777777794 0.0091034482758578 0 0.00077777777777794 0.0091034482758578 0.00015
          0.00077777777777794 0.0091034482758578 0.0003 0.00077777777777797 0.0095172413793064 0
          0.00077777777777797 0.0095172413793064 0.00015 0.00077777777777797 0.0095172413793064 0.0003
          0.000777777777778 0.0099310344827555 0 0.000777777777778 0.0099310344827555 0.00015
          0.000777777777778 0.0099310344827555 0.0003 0.00077777777777803 0.010344827586205 0
          0.00077777777777803 0.010344827586205 0.00015 0.00077777777777803 0.010344827586205 0.0003
          0.00077777777777806 0.010758620689654 0 0.00077777777777806 0.010758620689654 0.00015
          0.00077777777777806 0.010758620689654 0.0003 0.00077777777777809 0.011172413793101 0
          0.00077777777777809 0.011172413793101 0.00015 0.00077777777777809 0.011172413793101 0.0003
          0.00077777777777813 0.01158620689655 0 0.00077777777777813 0.01158620689655 0.00015
          0.00077777777777813 0.01158620689655 0.0003 0.00077777777777816 0.012 0
          0.00077777777777816 0.012 0.00015 0.00077777777777816 0.012 0.0003
          0.0008888888888888 0.0082758620689588 0 0.0008888888888888 0.0082758620689588 0.00015
          0.0008888888888888 0.0082758620689588 0.0003 0.00088888888888881 0.0086896551724084 0
          0.00088888888888881 0.0086896551724084 0.00015 0.00088888888888881 0.0086896551724084 0.0003
          0.00088888888888882 0.0091034482758559 0 0.00088888888888882 0.0091034482758559 0.00015
          0.00088888888888882 0.0091034482758559 0.0003 0.00088888888888883 0.0095172413793047 0
          0.00088888888888883 0.0095172413793047 0.00015 0.00088888888888883 0.0095172413793047 0.0003
          0.00088888888888884 0.0099310344827542 0 0.00088888888888884 0.0099310344827542 0.00015
          0.00088888888888884 0.0099310344827542 0.0003 0.00088888888888885 0.010344827586204 0
          0.00088888888888885 0.010344827586204 0.00015 0.00088888888888885 0.010344827586204 0.0003
          0.00088888888888885 0.010758620689653 0 0.00088888888888885 0.010758620689653 0.00015
          0.00088888888888885 0.010758620689653 0.0003 0.00088888888888886 0.011172413793101 0
          0.00088888888888886 0.011172413793101 0.00015 0.00088888888888886 0.011172413793101 0.0003
          0.00088888888888887 0.01158620689655 0 0.00088888888888887 0.01158620689655 0.00015
          0.00088888888888887 0.01158620689655 0.0003 0.00088888888888888 0.012 0
          0.00088888888888888 0.012 0.00015 0.00088888888888888 0.012 0.0003
          0.001 0.0091034482758539 0 0.001 0.0091034482758539 0.00015
          0.001 0.0091034482758539 0.0003 0.001 0.0095172413793029 0
          0.001 0.0095172413793029 0.00015 0.001 0.0095172413793029 0.0003
          0.001 0.0099310344827529 0 0.001 0.0099310344827529 0.00015
          0.001 0.0099310344827529 0.0003 0.001 0.010344827586203 0
          0.001 0.010344827586203 0.00015 0.001 0.010344827586203 0.0003
          0.001 0.010758620689653 0 0.001 0.010758620689653 0.00015
          0.001 0.010758620689653 0.0003 0.001 0.0111724137931 0
          0.001 0.0111724137931 0.00015 0.001 0.0111724137931 0.0003
          0.001 0.01158620689655 0 0.001 0.01158620689655 0.00015
          0.001 0.01158620689655 0.0003 0.001 0.012 0
          0.001 0.012 0.00015 0.001 0.012 0.0003
          0.00067947077571632 0.012798245728111 0 0.00068678568032061 0.012710429785181 0
          0.00076344362314339 0.012698069087358 0 0.00078000626700894 0.012788238676479 0
          0.00067947077571632 0.012798245728111 0.00015 0.00068678568032061 0.012710429785181 0.00015
          0.00076344362314339 0.012698069087358 0.00015 0.00078000626700894 0.012788238676479 0.00015
          0.00067947077571632 0.012798245728111 0.0003 0.00068678568032061 0.012710429785181 0.0003
          0.00076344362314339 0.012698069087358 0.0003 0.00078000626700894 0.012788238676479 0.0003
          0.0007101811699723 0.012881232243155 0 0.00078737528777453 0.012884598822829 0
          0.0007101811699723 0.012881232243155 0.00015 0.00078737528777453 0.012884598822829 0.00015
          0.0007101811699723 0.012881232243155 0.0003 0.00078737528777453 0.012884598822829 0.0003
          0.00063149088332091 0.012876508075697 0 0.00071156048039536 0.012943694476106 0
          0.00064992343237843 0.012944046337553 0 0.00063149088332091 0.012876508075697 0.00015
          0.00071156048039536 0.012943694476106 0.00015 0.00064992343237843 0.012944046337553 0.00015
          0.00063149088332091 0.012876508075697 0.0003 0.00071156048039536 0.012943694476106 0.0003
          0.00064992343237843 0.012944046337553 0.0003 0.00014271480927744 0.012184528409521 0
          0.00021074182908597 0.012239195039162 0 0.00014617236906556 0.012274772666576 0
          0.00010836971036758 0.0122326927564 0 0.00014271480927744 0.012184528409521 0.00015
          0.00021074182908597 0.012239195039162 0.00015 0.00014617236906556 0.012274772666576 0.00015
          0.00010836971036758 0.0122326927564 0.00015 0.00014271480927744 0.012184528409521 0.0003
          0.00021074182908597 0.012239195039162 0.0003 0.00014617236906556 0.012274772666576 0.0003
          0.00010836971036758 0.0122326927564 0.0003 0.00040316247653445 0.012523054457121 0
          0.00050524235438491 0.012516470580574 0 0.00047556583290331 0.012611926172403 0
          0.00040677839563254 0.01259579728731 0 0.00040316247653445 0.012523054457121 0.00015
          0.00050524235438491 0.012516470580574 0.00015 0.00047556583290331 0.012611926172403 0.00015
          0.00040677839563254 0.01259579728731 0.00015 0.00040316247653445 0.012523054457121 0.0003
          0.00050524235438491 0.012516470580574 0.0003 0.00047556583290331 0.012611926172403 0.0003
          0.00040677839563254 0.01259579728731 0.0003 0.00038389728538556 0.012111104172094 0
          0.00037958632650406 0.012195366170904 0 0.00029855370140418 0.012181148574691 0
          0.00029802321336891 0.012105931916082 0 0.00038389728538556 0.012111104172094 0.00015
          0.00037958632650406 0.012195366170904 0.00015 0.00029855370140418 0.012181148574691 0.00015
          0.00029802321336891 0.012105931916082 0.00015 0.00038389728538556 0.012111104172094 0.0003
          0.00037958632650406 0.012195366170904 0.0003 0.00029855370140418 0.012181148574691 0.0003
          0.00029802321336891 0.012105931916082 0.0003 0.00062435778703091 0.012280526392523 0
          0.00063694887874418 0.012191685157308 0 0.00075163746499696 0.012211869018538 0
          0.0007101306235237 0.012330652999586 0 0.00062435778703091 0.012280526392523 0.00015
          0.00063694887874418 0.012191685157308 0.00015 0.00075163746499696 0.012211869018538 0.00015
          0.0007101306235237 0.012330652999586 0.00015 0.00062435778703091 0.012280526392523 0.0003
          0.00063694887874418 0.012191685157308 0.0003 0.00075163746499696 0.012211869018538 0.0003
          0.0007101306235237 0.012330652999586 0.0003 0.00090036231429234 0.012108977226849 0
          0.00080269198720626 0.012096984730608 0 0.00090036231429234 0.012108977226849 0.00015
          0.00080269198720626 0.012096984730608 0.00015 0.00090036231429234 0.012108977226849 0.0003
          0.00080269198720626 0.012096984730608 0.0003 0.00023865656240352 0.012177237347116 0
          0.00029061852669854 0.01224857812735 0 0.00023865656240352 0.012177237347116 0.00015
          0.00029061852669854 0.01224857812735 0.00015 0.00023865656240352 0.012177237347116 0.0003
          0.00029061852669854 0.01224857812735 0.0003 0.00056164385173704 0.012835416164401 0
          0.00056508360468666 0.012898794448667 0 0.00049240387645224 0.012913175910861 0
          0.00046984631090009 0.012828989929731 0 0.00056164385173704 0.012835416164401 0.00015
          0.00056508360468666 0.012898794448667 0.00015 0.00049240387645224 0.012913175910861 0.00015
          0.00046984631090009 0.012828989929731 0.00015 0.00056164385173704 0.012835416164401 0.0003
          0.00056508360468666 0.012898794448667 0.0003 0.00049240387645224 0.012913175910861 0.0003
          0.00046984631090009 0.012828989929731 0.0003 0.000050495613361417 0.012066083920595 0
          0.00011131843390441 0.012086989142678 0 0.000069577205110887 0.012153607960951 0
          0 0.012111111111109 0 0.000050495613361417 0.012066083920595 0.00015
          0.00011131843390441 0.012086989142678 0.00015 0.000069577205110887 0.012153607960951 0.00015
          0 0.012111111111109 0.00015 0.000050495613361417 0.012066083920595 0.0003
          0.00011131843390441 0.012086989142678 0.0003 0.000069577205110887 0.012153607960951 0.0003
          0 0.012111111111109 0.0003 0.00022470825547396 0.012306913365418 0
          0.00017103954025546 0.012340304715306 0 0.00022470825547396 0.012306913365418 0.00015
          0.00017103954025546 0.012340304715306 0.00015 0.00022470825547396 0.012306913365418 0.0003
          0.00017103954025546 0.012340304715306 0.0003 0.00085640575367095 0.012657655614724 0
          0.001 0.012571428571438 0 0.001 0.012714285714292 0
          0.00089085524488654 0.012778191533234 0 0.00085640575367095 0.012657655614724 0.00015
          0.001 0.012571428571438 0.00015 0.001 0.012714285714292 0.00015
          0.00089085524488654 0.012778191533234 0.00015 0.00085640575367095 0.012657655614724 0.0003
          0.001 0.012571428571438 0.0003 0.001 0.012714285714292 0.0003
          0.00089085524488654 0.012778191533234 0.0003 0.00017101007138246 0.012530153689505 0
          0.000086824088695593 0.01250759612347 0 0.00010015626416536 0.012463076177022 0
          0.00018026894988108 0.012457509098897 0 0.00017101007138246 0.012530153689505 0.00015
          0.000086824088695593 0.01250759612347 0.00015 0.00010015626416536 0.012463076177022 0.00015
          0.00018026894988108 0.012457509098897 0.00015 0.00017101007138246 0.012530153689505 0.0003
          0.000086824088695593 0.01250759612347 0.0003 0.00010015626416536 0.012463076177022 0.0003
          0.00018026894988108 0.012457509098897 0.0003 0.00055555555555552 0.013 0
          0.00054972466987376 0.012958523613261 0 0.00059017772624368 0.012950117696029 0
          0.00061111111111072 0.013 0 0.00055555555555552 0.013 0.00015
          0.00054972466987376 0.012958523613261 0.00015 0.00059017772624368 0.012950117696029 0.00015
          0.00061111111111072 0.013 0.00015 0.00055555555555552 0.013 0.0003
          0.00054972466987376 0.012958523613261 0.0003 0.00059017772624368 0.012950117696029 0.0003
          0.00061111111111072 0.013 0.0003 0.00056012017374448 0.012193168747791 0
          0.00054338833040714 0.012250054231166 0 0.00056012017374448 0.012193168747791 0.00015
          0.00054338833040714 0.012250054231166 0.00015 0.00056012017374448 0.012193168747791 0.0003
          0.00054338833040714 0.012250054231166 0.0003 0.00020164702899907 0.012111009853496 0
          0.00020164702899907 0.012111009853496 0.00015 0.00020164702899907 0.012111009853496 0.0003
          0.00058698867508036 0.01276393301723 0 0.00061242021253103 0.012689969395149 0
          0.00058698867508036 0.01276393301723 0.00015 0.00061242021253103 0.012689969395149 0.00015
          0.00058698867508036 0.01276393301723 0.0003 0.00061242021253103 0.012689969395149 0.0003
          0.00054704952286259 0.01264760123259 0 0.00058547756026548 0.012574831423214 0
          0.00066845126455385 0.012625352450745 0 0.00054704952286259 0.01264760123259 0.00015
          0.00058547756026548 0.012574831423214 0.00015 0.00066845126455385 0.012625352450745 0.00015
          0.00054704952286259 0.01264760123259 0.0003 0.00058547756026548 0.012574831423214 0.0003
          0.00066845126455385 0.012625352450745 0.0003 0.00040316497174951 0.012375710115571 0
          0.00038996592658543 0.012448925709731 0 0.00030251984068288 0.012451026681152 0
          0.00030273327950676 0.012339921797294 0 0.00040316497174951 0.012375710115571 0.00015
          0.00038996592658543 0.012448925709731 0.00015 0.00030251984068288 0.012451026681152 0.00015
          0.00030273327950676 0.012339921797294 0.00015 0.00040316497174951 0.012375710115571 0.0003
          0.00038996592658543 0.012448925709731 0.0003 0.00030251984068288 0.012451026681152 0.0003
          0.00030273327950676 0.012339921797294 0.0003 0 0.012166666666663 0
          0.000060257043043922 0.012213388328671 0 0 0.012222222222217 0
          0 0.012166666666663 0.00015 0.000060257043043922 0.012213388328671 0.00015
          0 0.012222222222217 0.00015 0 0.012166666666663 0.0003
          0.000060257043043922 0.012213388328671 0.0003 0 0.012222222222217 0.0003
          0.00086766031505541 0.012218873949421 0 0.00070802748250363 0.01210226547145 0
          0.00086766031505541 0.012218873949421 0.00015 0.00070802748250363 0.01210226547145 0.00015
          0.00086766031505541 0.012218873949421 0.0003 0.00070802748250363 0.01210226547145 0.0003
          0.00045681564832724 0.012667985356076 0 0.00038302222240927 0.012678606196169 0
          0.00045681564832724 0.012667985356076 0.00015 0.00038302222240927 0.012678606196169 0.00015
          0.00045681564832724 0.012667985356076 0.0003 0.00038302222240927 0.012678606196169 0.0003
          0.00057343997443155 0.012462111372123 0 0.00067467937701806 0.012497336760124 0
          0.00057343997443155 0.012462111372123 0.00015 0.00067467937701806 0.012497336760124 0.00015
          0.00057343997443155 0.012462111372123 0.0003 0.00067467937701806 0.012497336760124 0.0003
          0 0.012388888888886 0 0.00004805763346656 0.012364070531781 0
          0.000052775834931525 0.012418323433379 0 0 0.012444444444443 0
          0 0.012388888888886 0.00015 0.00004805763346656 0.012364070531781 0.00015
          0.000052775834931525 0.012418323433379 0.00015 0 0.012444444444443 0.00015
          0 0.012388888888886 0.0003 0.00004805763346656 0.012364070531781 0.0003
          0.000052775834931525 0.012418323433379 0.0003 0 0.012444444444443 0.0003
          0.0004655657017567 0.012222981448331 0 0.0004403524252846 0.012306679111378 0
          0.00036518397892919 0.012268658791136 0 0.0004655657017567 0.012222981448331 0.00015
          0.0004403524252846 0.012306679111378 0.00015 0.00036518397892919 0.012268658791136 0.00015
          0.0004655657017567 0.012222981448331 0.0003 0.0004403524252846 0.012306679111378 0.0003
          0.00036518397892919 0.012268658791136 0.0003 0.00079059026611164 0.012574208252283 0
          0.00074033738884001 0.012629472897336 0 0.00079059026611164 0.012574208252283 0.00015
          0.00074033738884001 0.012629472897336 0.00015 0.00079059026611164 0.012574208252283 0.0003
          0.00074033738884001 0.012629472897336 0.0003 0.00049134001885305 0.012124425854677 0
          0.00060162315338905 0.012101782274206 0 0.00049134001885305 0.012124425854677 0.00015
          0.00060162315338905 0.012101782274206 0.00015 0.00049134001885305 0.012124425854677 0.0003
          0.00060162315338905 0.012101782274206 0.0003 0.00055165526617401 0.012365152711649 0
          0.00046621557592763 0.012427373679685 0 0.00055165526617401 0.012365152711649 0.00015
          0.00046621557592763 0.012427373679685 0.00015 0.00055165526617401 0.012365152711649 0.0003
          0.00046621557592763 0.012427373679685 0.0003 0.00065175768920993 0.012395993188634 0
          0.00078658012555766 0.01242031863996 0 0.00065175768920993 0.012395993188634 0.00015
          0.00078658012555766 0.01242031863996 0.00015 0.00065175768920993 0.012395993188634 0.0003
          0.00078658012555766 0.01242031863996 0.0003 0.00072222222222142 0.013 0
          0.00076767785213736 0.012949407633443 0 0.00077777777777722 0.013 0
          0.00072222222222142 0.013 0.00015 0.00076767785213736 0.012949407633443 0.00015
          0.00077777777777722 0.013 0.00015 0.00072222222222142 0.013 0.0003
          0.00076767785213736 0.012949407633443 0.0003 0.00077777777777722 0.013 0.0003
          0.001 0.01228571428572 0 0.001 0.012428571428581 0
          0.00085243404696798 0.012340254950119 0 0.001 0.01228571428572 0.00015
          0.001 0.012428571428581 0.00015 0.00085243404696798 0.012340254950119 0.00015
          0.001 0.01228571428572 0.0003 0.001 0.012428571428581 0.0003
          0.00085243404696798 0.012340254950119 0.0003 0.000047305708530005 0.012255757186949 0
          0.000035989657241992 0.012305788523607 0 0 0.012277777777773 0
          0.000047305708530005 0.012255757186949 0.00015 0.000035989657241992 0.012305788523607 0.00015
          0 0.012277777777773 0.00015 0.000047305708530005 0.012255757186949 0.0003
          0.000035989657241992 0.012305788523607 0.0003 0 0.012277777777773 0.0003
          0 0.01233333333333 0 0 0.01233333333333 0.00015
          0 0.01233333333333 0.0003 0.00088888888888861 0.013 0
          0.00086852226729803 0.012945143609779 0 0.00092105077811413 0.012923509600428 0
          0.0009444444444442 0.013 0 0.00088888888888861 0.013 0.00015
          0.00086852226729803 0.012945143609779 0.00015 0.00092105077811413 0.012923509600428 0.00015
          0.0009444444444442 0.013 0.00015 0.00088888888888861 0.013 0.0003
          0.00086852226729803 0.012945143609779 0.0003 0.00092105077811413 0.012923509600428 0.0003
          0.0009444444444442 0.013 0.0003 0.000088322519872331 0.012287262323421 0
          0.000098057359918883 0.01234321954228 0 0.000088322519872331 0.012287262323421 0.00015
          0.000098057359918883 0.01234321954228 0.00015 0.000088322519872331 0.012287262323421 0.0003
          0.000098057359918883 0.01234321954228 0.0003 0.00082037799021753 0.012949927278989 0
          0.00083333333333302 0.013 0 0.00082037799021753 0.012949927278989 0.00015
          0.00083333333333302 0.013 0.00015 0.00082037799021753 0.012949927278989 0.0003
          0.00083333333333302 0.013 0.0003 0.000055423585756317 0.01245648439217 0
          0.00011750487062481 0.01240389197138 0 0.000055423585756317 0.01245648439217 0.00015
          0.00011750487062481 0.01240389197138 0.00015 0.000055423585756317 0.01245648439217 0.0003
          0.00011750487062481 0.01240389197138 0.0003 0.00022703795328819 0.012397087263253 0
          0.00024412512388832 0.012487409031957 0 0.00022703795328819 0.012397087263253 0.00015
          0.00024412512388832 0.012487409031957 0.00015 0.00022703795328819 0.012397087263253 0.0003
          0.00024412512388832 0.012487409031957 0.0003 0.00086622784349606 0.012879340816766 0
          0.00086622784349606 0.012879340816766 0.00015 0.00086622784349606 0.012879340816766 0.0003
          0.001 0.01214285714286 0 0.001 0.01214285714286 0.00015
          0.001 0.01214285714286 0.0003 0.00032807036377433 0.012530514194312 0
          0.00032139380548758 0.012616977778981 0 0.00032807036377433 0.012530514194312 0.00015
          0.00032139380548758 0.012616977778981 0.00015 0.00032807036377433 0.012530514194312 0.0003
          0.00032139380548758 0.012616977778981 0.0003 0.00078653837511981 0.012300730611142 0
          0.00078653837511981 0.012300730611142 0.00015 0.00078653837511981 0.012300730611142 0.0003
          0.00050187285486533 0.012723776617989 0 0.00050187285486533 0.012723776617989 0.00015
          0.00050187285486533 0.012723776617989 0.0003 0.00066666666666612 0.013 0
          0.00066666666666612 0.013 0.00015 0.00066666666666612 0.013 0.0003
          0.00086640285866826 0.012499721374928 0 0.00086640285866826 0.012499721374928 0.00015
          0.00086640285866826 0.012499721374928 0.0003 0.001 0.012857142857146 0
          0.001 0.012857142857146 0.00015 0.001 0.012857142857146 0.0003
          0.00043301270230906 0.012750000000722 0 0.00043301270230906 0.012750000000722 0.00015
          0.00043301270230906 0.012750000000722 0.0003 0.00025000000019401 0.01256698729822 0
          0.00025000000019401 0.01256698729822 0.00015 0.00025000000019401 0.01256698729822 0.0003
          0 0.0125 0 0 0.0125 0.00015
          0 0.0125 0.0003 0 0.012055555555554 0
          0 0.012055555555554 0.00015 0 0.012055555555554 0.0003
          0.001 0.013 0 0.001 0.013 0.00015
          0.001 0.013 0.0003 0.0005 0.013 0
          0.0005 0.013 0.00015 0.0005 0.013 0.0003
          0.0014444444444451 0.0095172413793029 0 0.0014444444444451 0.0095172413793029 0.00015
          0.0014444444444451 0.0095172413793029 0.0003 0.0018888888888902 0.0095172413793029 0
          0.0018888888888902 0.0095172413793029 0.00015 0.0018888888888902 0.0095172413793029 0.0003
          0.0014444444444452 0.0099310344827529 0 0.0014444444444452 0.0099310344827529 0.00015
          0.0014444444444452 0.0099310344827529 0.0003 0.0018888888888903 0.0099310344827529 0
          0.0018888888888903 0.0099310344827529 0.00015 0.0018888888888903 0.0099310344827529 0.0003
          0.0014444444444452 0.010344827586203 0 0.0014444444444452 0.010344827586203 0.00015
          0.0014444444444452 0.010344827586203 0.0003 0.0014444444444453 0.010758620689653 0
          0.0014444444444453 0.010758620689653 0.00015 0.0014444444444453 0.010758620689653 0.0003
          0.0014444444444453 0.0111724137931 0 0.0014444444444453 0.0111724137931 0.00015
          0.0014444444444453 0.0111724137931 0.0003 0.0014444444444454 0.01158620689655 0
          0.0014444444444454 0.01158620689655 0.00015 0.0014444444444454 0.01158620689655 0.0003
          0.0014444444444455 0.012 0 0.0014444444444455 0.012 0.00015
          0.0014444444444455 0.012 0.0003 0.0011659770658264 0.012184916069452 0
          0.0011978981211319 0.012291694091132 0 0.0011659770658264 0.012184916069452 0.00015
          0.0011978981211319 0.012291694091132 0.00015 0.0011659770658264 0.012184916069452 0.0003
          0.0011978981211319 0.012291694091132 0.0003 0.0014134281085546 0.012468353283698 0
          0.001412897365997 0.01265802692797 0 0.0011710921098332 0.012660749606473 0
          0.0011928404820732 0.012464476127519 0 0.0014134281085546 0.012468353283698 0.00015
          0.001412897365997 0.01265802692797 0.00015 0.0011710921098332 0.012660749606473 0.00015
          0.0011928404820732 0.012464476127519 0.00015 0.0014134281085546 0.012468353283698 0.0003
          0.001412897365997 0.01265802692797 0.0003 0.0011710921098332 0.012660749606473 0.0003
          0.0011928404820732 0.012464476127519 0.0003 0.0011801499871676 0.012824831216028 0
          0.0011801499871676 0.012824831216028 0.00015 0.0011801499871676 0.012824831216028 0.0003
          0.0014335559245349 0.012265987585326 0 0.0014335559245349 0.012265987585326 0.00015
          0.0014335559245349 0.012265987585326 0.0003 0.0014444444444455 0.013 0
          0.0014444444444455 0.013 0.00015 0.0014444444444455 0.013 0.0003
          0.0023333333333355 0.0099310344827529 0 0.0023333333333353 0.0095172413793029 0
          0.0023333333333355 0.0099310344827529 0.00015 0.0023333333333353 0.0095172413793029 0.00015
          0.0023333333333355 0.0099310344827529 0.0003 0.0023333333333353 0.0095172413793029 0.0003
          0.0018888888888904 0.010344827586203 0 0.0018888888888904 0.010344827586203 0.00015
          0.0018888888888904 0.010344827586203 0.0003 0.0023333333333357 0.010344827586203 0
          0.0023333333333357 0.010344827586203 0.00015 0.0023333333333357 0.010344827586203 0.0003
          0.0018888888888905 0.010758620689653 0 0.0018888888888905 0.010758620689653 0.00015
          0.0018888888888905 0.010758620689653 0.0003 0.0018888888888907 0.0111724137931 0
          0.0018888888888907 0.0111724137931 0.00015 0.0018888888888907 0.0111724137931 0.0003
          0.0018888888888908 0.01158620689655 0 0.0018888888888908 0.01158620689655 0.00015
          0.0018888888888908 0.01158620689655 0.0003 0.0018888888888909 0.012 0
          0.0018888888888909 0.012 0.00015 0.0018888888888909 0.012 0.0003
          0.0017386847932316 0.012348636106575 0 0.0017386847932316 0.012348636106575 0.00015
          0.0017386847932316 0.012348636106575 0.0003 0.0018888888888909 0.013 0
          0.001702980389272 0.012655949584096 0 0.0020604062010233 0.012679406151259 0
          0.0018888888888909 0.013 0.00015 0.001702980389272 0.012655949584096 0.00015
          0.0020604062010233 0.012679406151259 0.00015 0.0018888888888909 0.013 0.0003
          0.001702980389272 0.012655949584096 0.0003 0.0020604062010233 0.012679406151259 0.0003
          <InformationKey name="L2_NORM_RANGE" location="vtkDataArray" length="2">
            <Value index="0">
              0.008275862069
            </Value>
            <Value index="1">
              0.013139935359
            </Value>
          </InformationKey>
        </DataArray>
      </Points>
      <Cells>
        <DataArray type="Int64" Name="connectivity" format="ascii" RangeMin="0" RangeMax="755">
          1 0 6 7 3 2
          8 9 3 2 8 9
          5 4 10 11 7 6
          12 13 9 8 14 15
          9 8 14 15 11 10
          16 17 13 12 18 19
          15 14 20 21 15 14
          20 21 17 16 22 23
          19 18 24 25 21 20
          26 27 21 20 26 27
          23 22 28 29 25 24
          30 31 27 26 32 33
          27 26 32 33 29 28
          34 35 31 30 36 37
          33 32 38 39 33 32
          38 39 35 34 40 41
          37 36 42 43 39 38
          44 45 39 38 44 45
          41 40 46 47 43 42
          48 49 45 44 50 51
          45 44 50 51 47 46
          52 53 49 48 54 55
          51 50 56 57 51 50
          56 57 53 52 58 59
          0 60 63 6 2 61
          64 8 2 61 64 8
          4 62 65 10 6 63
          66 12 8 64 67 14
          8 64 67 14 10 65
          68 16 12 66 69 18
          14 67 70 20 14 67
          70 20 16 68 71 22
          18 69 72 24 20 70
          73 26 20 70 73 26
          22 71 74 28 24 72
          75 30 26 73 76 32
          26 73 76 32 28 74
          77 34 30 75 78 36
          32 76 79 38 32 76
          79 38 34 77 80 40
          36 78 81 42 38 79
          82 44 38 79 82 44
          40 80 83 46 42 81
          84 48 44 82 85 50
          44 82 85 50 46 83
          86 52 48 84 87 54
          50 85 88 56 50 85
          88 56 52 86 89 58
          60 90 93 63 61 91
          94 64 61 91 94 64
          62 92 95 65 63 93
          96 66 64 94 97 67
          64 94 97 67 65 95
          98 68 66 96 99 69
          67 97 100 70 67 97
          100 70 68 98 101 71
          69 99 102 72 70 100
          103 73 70 100 103 73
          71 101 104 74 72 102
          105 75 73 103 106 76
          73 103 106 76 74 104
          107 77 75 105 108 78
          76 106 109 79 76 106
          109 79 77 107 110 80
          78 108 111 81 79 109
          112 82 79 109 112 82
          80 110 113 83 81 111
          114 84 82 112 115 85
          82 112 115 85 83 113
          116 86 84 114 117 87
          85 115 118 88 85 115
          118 88 86 116 119 89
          90 120 123 93 91 121
          124 94 91 121 124 94
          92 122 125 95 93 123
          126 96 94 124 127 97
          94 124 127 97 95 125
          128 98 96 126 129 99
          97 127 130 100 97 127
          130 100 98 128 131 101
          99 129 132 102 100 130
          133 103 100 130 133 103
          101 131 134 104 102 132
          135 105 103 133 136 106
          103 133 136 106 104 134
          137 107 105 135 138 108
          106 136 139 109 106 136
          139 109 107 137 140 110
          108 138 141 111 109 139
          142 112 109 139 142 112
          110 140 143 113 111 141
          144 114 112 142 145 115
          112 142 145 115 113 143
          146 116 114 144 147 117
          115 145 148 118 115 145
          148 118 116 146 149 119
          120 150 153 123 121 151
          154 124 121 151 154 124
          122 152 155 125 123 153
          156 126 124 154 157 127
          124 154 157 127 125 155
          158 128 126 156 159 129
          127 157 160 130 127 157
          160 130 128 158 161 131
          129 159 162 132 130 160
          163 133 130 160 163 133
          131 161 164 134 132 162
          165 135 133 163 166 136
          133 163 166 136 134 164
          167 137 135 165 168 138
          136 166 169 139 136 166
          169 139 137 167 170 140
          138 168 171 141 139 169
          172 142 139 169 172 142
          140 170 173 143 141 171
          174 144 142 172 175 145
          142 172 175 145 143 173
          176 146 144 174 177 147
          145 175 178 148 145 175
          178 148 146 176 179 149
          150 180 183 153 151 181
          184 154 151 181 184 154
          152 182 185 155 153 183
          186 156 154 184 187 157
          154 184 187 157 155 185
          188 158 156 186 189 159
          157 187 190 160 157 187
          190 160 158 188 191 161
          159 189 192 162 160 190
          193 163 160 190 193 163
          161 191 194 164 162 192
          195 165 163 193 196 166
          163 193 196 166 164 194
          197 167 165 195 198 168
          166 196 199 169 166 196
          199 169 167 197 200 170
          168 198 201 171 169 199
          202 172 169 199 202 172
          170 200 203 173 171 201
          204 174 172 202 205 175
          172 202 205 175 173 203
          206 176 174 204 207 177
          175 205 208 178 175 205
          208 178 176 206 209 179
          180 210 213 183 181 211
          214 184 181 211 214 184
          182 212 215 185 183 213
          216 186 184 214 217 187
          184 214 217 187 185 215
          218 188 186 216 219 189
          187 217 220 190 187 217
          220 190 188 218 221 191
          189 219 222 192 190 220
          223 193 190 220 223 193
          191 221 224 194 192 222
          225 195 193 223 226 196
          193 223 226 196 194 224
          227 197 195 225 228 198
          196 226 229 199 196 226
          229 199 197 227 230 200
          198 228 231 201 199 229
          232 202 199 229 232 202
          200 230 233 203 201 231
          234 204 202 232 235 205
          202 232 235 205 203 233
          236 206 204 234 237 207
          205 235 238 208 205 235
          238 208 206 236 239 209
          210 240 243 213 211 241
          244 214 211 241 244 214
          212 242 245 215 213 243
          246 216 214 244 247 217
          214 244 247 217 215 245
          248 218 216 246 249 219
          217 247 250 220 217 247
          250 220 218 248 251 221
          219 249 252 222 220 250
          253 223 220 250 253 223
          221 251 254 224 222 252
          255 225 223 253 256 226
          223 253 256 226 224 254
          257 227 225 255 258 228
          226 256 259 229 226 256
          259 229 227 257 260 230
          228 258 261 231 229 259
          262 232 229 259 262 232
          230 260 263 233 231 261
          264 234 232 262 265 235
          232 262 265 235 233 263
          266 236 234 264 267 237
          235 265 268 238 235 265
          268 238 236 266 269 239
          246 270 273 249 247 271
          274 250 247 271 274 250
          248 272 275 251 249 273
          276 252 250 274 277 253
          250 274 277 253 251 275
          278 254 252 276 279 255
          253 277 280 256 253 277
          280 256 254 278 281 257
          255 279 282 258 256 280
          283 259 256 280 283 259
          257 281 284 260 258 282
          285 261 259 283 286 262
          259 283 286 262 260 284
          287 263 261 285 288 264
          262 286 289 265 262 286
          289 265 263 287 290 266
          264 288 291 267 265 289
          292 268 265 289 292 268
          266 290 293 269 294 295
          296 297 298 299 300 301
          298 299 300 301 302 303
          304 305 306 294 297 307
          308 298 301 309 308 298
          301 309 310 302 305 311
          312 306 313 314 315 308
          316 317 315 308 316 317
          318 310 319 320 321 322
          323 324 325 326 327 328
          325 326 327 328 329 330
          331 332 333 334 335 336
          337 338 339 340 337 338
          339 340 341 342 343 344
          345 346 347 348 349 350
          351 352 349 350 351 352
          353 354 355 356 357 358
          359 360 361 362 363 364
          361 362 363 364 365 366
          367 368 267 369 370 237
          268 371 372 238 268 371
          372 238 269 373 374 239
          375 347 376 322 377 351
          378 326 377 351 378 326
          379 355 380 330 381 382
          383 384 385 386 387 388
          385 386 387 388 389 390
          391 392 393 394 395 396
          397 398 399 400 397 398
          399 400 401 402 403 404
          323 322 405 406 327 326
          407 408 327 326 407 408
          331 330 409 410 411 412
          413 414 415 416 417 418
          415 416 417 418 419 420
          421 422 423 424 425 426
          427 428 429 430 427 428
          429 430 431 432 433 434
          435 436 437 438 439 440
          441 442 439 440 441 442
          443 444 445 446 447 358
          357 448 449 362 361 450
          449 362 361 450 451 366
          365 452 54 87 453 394
          56 88 454 398 56 88
          454 398 58 89 455 402
          456 457 295 294 458 459
          299 298 458 459 299 298
          460 461 303 302 457 462
          463 464 459 465 466 467
          459 465 466 467 461 468
          469 470 456 294 312 381
          458 298 315 385 458 298
          315 385 460 302 318 389
          471 472 473 474 475 476
          477 478 475 476 477 478
          479 480 481 482 483 395
          484 485 486 399 487 488
          486 399 487 488 489 403
          490 491 370 492 359 493
          372 494 363 495 372 494
          363 495 374 496 367 497
          237 370 493 207 238 372
          495 208 238 372 495 208
          239 374 497 209 336 335
          498 499 340 339 500 501
          340 339 500 501 344 343
          502 503 463 334 504 505
          466 338 506 507 466 338
          506 507 469 342 508 509
          510 511 512 513 514 515
          516 517 514 515 516 517
          518 519 520 521 522 523
          524 346 525 526 527 350
          525 526 527 350 528 529
          530 354 531 532 464 505
          533 534 467 507 533 534
          467 507 535 536 470 509
          537 147 177 538 539 148
          178 540 539 148 178 540
          541 149 179 542 523 543
          544 471 526 545 546 475
          526 545 546 475 529 547
          548 479 549 360 550 505
          551 364 552 507 551 364
          552 507 553 368 554 509
          555 313 556 557 558 316
          559 560 558 316 559 560
          561 319 562 563 564 565
          566 492 567 568 569 494
          567 568 569 494 570 571
          572 496 573 574 575 485
          576 577 578 488 576 577
          578 488 579 580 581 491
          582 574 511 510 583 577
          515 514 583 577 515 514
          584 580 519 518 87 117
          348 453 88 118 352 454
          88 118 352 454 89 119
          356 455 504 334 544 543
          506 338 546 545 506 338
          546 545 508 342 548 547
          585 586 587 588 589 590
          591 592 589 590 591 592
          593 594 595 596 574 597
          598 511 577 599 600 515
          577 599 600 515 580 601
          602 519 375 322 321 453
          377 326 325 454 377 326
          325 454 379 330 329 455
          557 556 603 604 560 559
          605 606 560 559 605 606
          563 562 607 608 425 609
          512 610 429 611 516 612
          429 611 516 612 433 613
          520 614 207 493 538 177
          208 495 540 178 208 495
          540 178 209 497 542 179
          615 473 616 426 617 477
          618 430 617 477 618 430
          619 481 620 434 297 414
          621 307 301 418 622 309
          301 418 622 309 305 422
          623 311 492 369 624 564
          494 371 625 567 494 371
          625 567 496 373 626 570
          627 333 336 628 629 337
          340 630 629 337 340 630
          631 341 344 632 360 633
          566 550 364 634 569 552
          364 634 569 552 368 635
          572 554 457 456 636 462
          459 458 637 465 459 458
          637 465 461 460 638 468
          357 360 549 543 361 364
          551 545 361 364 551 545
          365 368 553 547 295 464
          532 296 299 467 534 300
          299 467 534 300 303 470
          536 304 639 314 313 555
          640 317 316 558 640 317
          316 558 641 320 319 561
          471 474 524 523 475 478
          527 526 475 478 527 526
          479 482 530 529 426 610
          406 615 430 612 408 617
          430 612 408 617 434 614
          410 619 504 543 549 505
          506 545 551 507 506 545
          551 507 508 547 553 509
          566 565 642 550 569 568
          643 552 569 568 643 552
          572 571 644 554 610 512
          511 598 612 516 515 600
          612 516 515 600 614 520
          519 602 621 414 645 587
          622 418 646 591 622 418
          646 591 623 422 647 595
          405 474 615 406 407 478
          617 408 407 478 617 408
          409 482 619 410 381 384
          636 456 385 388 637 458
          385 388 637 458 389 392
          638 460 648 499 498 636
          649 501 500 637 649 501
          500 637 650 503 502 638
          616 651 423 426 618 652
          427 430 618 652 427 430
          620 653 431 434 324 597
          573 484 328 599 576 487
          328 599 576 487 332 601
          579 490 642 412 411 531
          643 416 415 533 643 416
          415 533 644 420 419 535
          538 358 447 537 540 362
          449 539 540 362 449 539
          542 366 451 541 524 376
          347 346 527 378 351 350
          527 378 351 350 530 380
          355 354 627 651 616 473
          629 652 618 477 629 652
          618 477 631 653 620 481
          405 322 376 474 407 326
          378 478 407 326 378 478
          409 330 380 482 306 307
          556 313 308 309 559 316
          308 309 559 316 310 311
          562 319 345 117 147 537
          349 118 148 539 349 118
          148 539 353 119 149 541
          414 297 296 411 418 301
          300 415 418 301 300 415
          422 305 304 419 621 586
          603 307 622 590 605 309
          622 590 605 309 623 594
          607 311 544 334 333 472
          546 338 337 476 546 338
          337 476 548 342 341 480
          348 347 375 453 352 351
          377 454 352 351 377 454
          356 355 379 455 531 505
          550 642 533 507 552 643
          533 507 552 643 535 509
          554 644 321 324 484 395
          325 328 487 399 325 328
          487 399 329 332 490 403
          598 597 323 406 600 599
          327 408 600 599 327 408
          602 601 331 410 447 448
          522 537 449 450 525 539
          449 450 525 539 451 452
          528 541 513 512 609 654
          517 516 611 655 517 516
          611 655 521 520 613 656
          604 603 586 585 606 605
          590 589 606 605 590 589
          608 607 594 593 463 462
          335 334 466 465 339 338
          466 465 339 338 469 468
          343 342 438 437 314 639
          442 441 317 640 442 441
          317 640 446 445 320 641
          436 383 382 437 440 387
          386 441 440 387 386 441
          444 391 390 445 393 657
          55 54 397 658 57 56
          397 658 57 56 401 659
          59 58 312 314 437 382
          315 317 441 386 315 317
          441 386 318 320 445 390
          346 345 537 522 350 349
          539 525 350 349 539 525
          354 353 541 528 498 335
          462 636 500 339 465 637
          500 339 465 637 502 343
          468 638 369 267 291 624
          371 268 292 625 371 268
          292 625 373 269 293 626
          358 538 493 359 362 540
          495 363 362 540 495 363
          366 542 497 367 394 453
          321 395 398 454 325 399
          398 454 325 399 402 455
          329 403 587 645 660 588
          591 646 661 592 591 646
          661 592 595 647 662 596
          448 543 523 522 450 545
          526 525 450 545 526 525
          452 547 529 528 472 333
          627 473 476 337 629 477
          476 337 629 477 480 341
          631 481 436 435 663 383
          440 439 664 387 440 439
          664 387 444 443 665 391
          411 296 532 531 415 300
          534 533 415 300 534 533
          419 304 536 535 609 425
          424 654 611 429 428 655
          611 429 428 655 613 433
          432 656 492 566 633 359
          494 569 634 363 494 569
          634 363 496 572 635 367
          393 394 54 397 398 56
          397 398 56 401 402 58
          413 414 645 417 418 646
          417 418 646 421 422 647
          628 627 651 630 629 652
          630 629 652 632 631 653
          117 348 345 118 352 349
          118 352 349 119 356 353
          565 642 412 568 643 416
          568 643 416 571 644 420
          457 295 464 459 299 467
          459 299 467 461 303 470
          463 464 505 466 467 507
          466 467 507 469 470 509
          499 336 628 501 340 630
          501 340 630 503 344 632
          384 636 648 388 637 649
          388 637 649 392 638 650
          492 369 370 494 371 372
          494 371 372 496 373 374
          473 474 615 477 478 617
          477 478 617 481 482 619
          381 382 312 385 386 315
          385 386 315 389 390 318
          471 472 544 475 476 546
          475 476 546 479 480 548
          582 574 575 583 577 578
          583 577 578 584 580 581
          312 306 294 315 308 298
          315 308 298 318 310 302
          524 376 474 527 378 478
          527 378 478 530 380 482
          396 393 657 400 397 658
          400 397 658 404 401 659
          483 395 396 486 399 400
          486 399 400 489 403 404
          357 448 543 361 450 545
          361 450 545 365 452 547
          485 573 484 488 576 487
          488 576 487 491 579 490
          621 586 587 622 590 591
          622 590 591 623 594 595
          324 597 323 328 599 327
          328 599 327 332 601 331
          603 307 556 605 309 559
          605 309 559 607 311 562
          610 425 426 612 429 430
          612 429 430 614 433 434
          360 633 359 364 634 363
          364 634 363 368 635 367
          598 610 406 600 612 408
          600 612 408 602 614 410
          574 597 573 577 599 576
          577 599 576 580 601 579
          672 276 273 666 673 277
          274 667 673 277 274 667
          674 278 275 668 675 672
          666 669 676 673 667 670
          676 673 667 670 677 674
          668 671 720 675 669 721
          722 676 670 723 722 676
          670 723 724 677 671 725
          678 279 276 672 679 280
          277 673 679 280 277 673
          680 281 278 674 726 678
          672 675 727 679 673 676
          727 679 673 676 728 680
          674 677 729 726 675 720
          730 727 676 722 730 727
          676 722 731 728 677 724
          681 282 279 678 682 283
          280 679 682 283 280 679
          683 284 281 680 732 681
          678 726 733 682 679 727
          733 682 679 727 734 683
          680 728 684 285 282 681
          685 286 283 682 685 286
          283 682 686 287 284 683
          735 684 681 732 736 685
          682 733 736 685 682 733
          737 686 683 734 687 288
          285 684 688 289 286 685
          688 289 286 685 689 290
          287 686 738 687 684 735
          739 688 685 736 739 688
          685 736 740 689 686 737
          690 291 288 687 691 292
          289 688 691 292 289 688
          692 293 290 689 741 690
          687 738 742 691 688 739
          742 691 688 739 743 692
          689 740 693 694 564 624
          695 696 567 625 695 696
          567 625 697 698 570 626
          699 700 701 702 703 704
          705 706 703 704 705 706
          707 708 709 710 702 701
          412 565 706 705 416 568
          706 705 416 568 710 709
          420 571 413 701 711 645
          417 705 712 646 417 705
          712 646 421 709 713 647
          690 741 744 714 691 742
          745 715 691 742 745 715
          692 743 746 716 714 699
          702 694 715 703 706 696
          715 703 706 696 716 707
          710 698 694 702 565 564
          696 706 568 567 696 706
          568 567 698 710 571 570
          747 717 748 749 750 718
          751 752 750 718 751 752
          753 719 754 755 699 744
          748 700 703 745 751 704
          703 745 751 704 707 746
          754 708 711 701 700 717
          712 705 704 718 712 705
          704 718 713 709 708 719
          714 694 693 690 715 696
          695 691 715 696 695 691
          716 698 697 692 291 690
          693 624 292 691 695 625
          292 691 695 625 293 692
          697 626 711 717 660 645
          712 718 661 646 712 718
          661 646 713 719 662 647
          714 699 744 715 703 745
          715 703 745 716 707 746
          748 700 717 751 704 718
          751 704 718 754 708 719
          413 701 412 417 705 416
          417 705 416 421 709 420
        </DataArray>
        <DataArray type="Int64" Name="offsets" format="ascii" RangeMin="8" RangeMax="3624">
          8 16 24 32 40 48
          56 64 72 80 88 96
          104 112 120 128 136 144
          152 160 168 176 184 192
          200 208 216 224 232 240
          248 256 264 272 280 288
          296 304 312 320 328 336
          344 352 360 368 376 384
          392 400 408 416 424 432
          440 448 456 464 472 480
          488 496 504 512 520 528
          536 544 552 560 568 576
          584 592 600 608 616 624
          632 640 648 656 664 672
          680 688 696 704 712 720
          728 736 744 752 760 768
          776 784 792 800 808 816
          824 832 840 848 856 864
          872 880 888 896 904 912
          920 928 936 944 952 960
          968 976 984 992 1000 1008
          1016 1024 1032 1040 1048 1056
          1064 1072 1080 1088 1096 1104
          1112 1120 1128 1136 1144 1152
          1160 1168 1176 1184 1192 1200
          1208 1216 1224 1232 1240 1248
          1256 1264 1272 1280 1288 1296
          1304 1312 1320 1328 1336 1344
          1352 1360 1368 1376 1384 1392
          1400 1408 1416 1424 1432 1440
          1448 1456 1464 1472 1480 1488
          1496 1504 1512 1520 1528 1536
          1544 1552 1560 1568 1576 1584
          1592 1600 1608 1616 1624 1632
          1640 1648 1656 1664 1672 1680
          1688 1696 1704 1712 1720 1728
          1736 1744 1752 1760 1768 1776
          1784 1792 1800 1808 1816 1824
          1832 1840 1848 1856 1864 1872
          1880 1888 1896 1904 1912 1920
          1928 1936 1944 1952 1960 1968
          1976 1984 1992 2000 2008 2016
          2024 2032 2040 2048 2056 2064
          2072 2080 2088 2096 2104 2112
          2120 2128 2136 2144 2152 2160
          2168 2176 2184 2192 2200 2208
          2216 2224 2232 2240 2248 2256
          2264 2272 2280 2288 2296 2304
          2312 2320 2328 2336 2344 2352
          2360 2368 2376 2384 2392 2400
          2408 2416 2424 2432 2440 2448
          2456 2464 2472 2480 2488 2496
          2504 2512 2520 2528 2536 2544
          2552 2560 2568 2576 2584 2592
          2600 2608 2616 2624 2632 2640
          2648 2656 2664 2672 2680 2688
          2696 2704 2712 2720 2728 2736
          2744 2752 2760 2768 2776 2784
          2792 2800 2808 2816 2824 2832
          2838 2844 2850 2856 2862 2868
          2874 2880 2886 2892 2898 2904
          2910 2916 2922 2928 2934 2940
          2946 2952 2958 2964 2970 2976
          2982 2988 2994 3000 3006 3012
          3018 3024 3030 3036 3042 3048
          3054 3060 3066 3072 3078 3084
          3090 3096 3102 3108 3114 3120
          3126 3132 3138 3144 3150 3156
          3164 3172 3180 3188 3196 3204
          3212 3220 3228 3236 3244 3252
          3260 3268 3276 3284 3292 3300
          3308 3316 3324 3332 3340 3348
          3356 3364 3372 3380 3388 3396
          3404 3412 3420 3428 3436 3444
          3452 3460 3468 3476 3484 3492
          3500 3508 3516 3524 3532 3540
          3548 3556 3564 3572 3580 3588
          3594 3600 3606 3612 3618 3624
        </DataArray>
        <DataArray type="UInt8" Name="types" format="ascii" RangeMin="12" RangeMax="13">
          12 12 12 12 12 12
          12 12 12 12 12 12
          12 12 12 12 12 12
          12 12 12 12 12 12
          12 12 12 12 12 12
          12 12 12 12 12 12
          12 12 12 12 12 12
          12 12 12 12 12 12
          12 12 12 12 12 12
          12 12 12 12 12 12
          12 12 12 12 12 12
          12 12 12 12 12 12
          12 12 12 12 12 12
          12 12 12 12 12 12
          12 12 12 12 12 12
          12 12 12 12 12 12
          12 12 12 12 12 12
          12 12 12 12 12 12
          12 12 12 12 12 12
          12 12 12 12 12 12
          12 12 12 12 12 12
          12 12 12 12 12 12
          12 12 12 12 12 12
          12 12 12 12 12 12
          12 12 12 12 12 12
          12 12 12 12 12 12
          12 12 12 12 12 12
          12 12 12 12 12 12
          12 12 12 12 12 12
          12 12 12 12 12 12
          12 12 12 12 12 12
          12 12 12 12 12 12
          12 12 12 12 12 12
          12 12 12 12 12 12
          12 12 12 12 12 12
          12 12 12 12 12 12
          12 12 12 12 12 12
          12 12 12 12 12 12
          12 12 12 12 12 12
          12 12 12 12 12 12
          12 12 12 12 12 12
          12 12 12 12 12 12
          12 12 12 12 12 12
          12 12 12 12 12 12
          12 12 12 12 12 12
          12 12 12 12 12 12
          12 12 12 12 12 12
          12 12 12 12 12 12
          12 12 12 12 12 12
          12 12 12 12 12 12
          12 12 12 12 12 12
          12 12 12 12 12 12
          12 12 12 12 12 12
          12 12 12 12 12 12
          12 12 12 12 12 12
          12 12 12 12 12 12
          12 12 12 12 12 12
          12 12 12 12 12 12
          12 12 12 12 12 12
          13 13 13 13 13 13
          13 13 13 13 13 13
          13 13 13 13 13 13
          13 13 13 13 13 13
          13 13 13 13 13 13
          13 13 13 13 13 13
          13 13 13 13 13 13
          13 13 13 13 13 13
          13 13 13 13 13 13
          12 12 12 12 12 12
          12 12 12 12 12 12
          12 12 12 12 12 12
          12 12 12 12 12 12
          12 12 12 12 12 12
          12 12 12 12 12 12
          12 12 12 12 12 12
          12 12 12 12 12 12
          12 12 12 12 12 12
          13 13 13 13 13 13
        </DataArray>
      </Cells>
    </Piece>
  </UnstructuredGrid>
</VTKFile>
