<?xml version="1.0"?>
<VTKFile type="UnstructuredGrid" version="0.1" byte_order="LittleEndian" header_type="UInt32" compressor="vtkZLibDataCompressor">
  <UnstructuredGrid>
    <Piece NumberOfPoints="819" NumberOfCells="454">
      <PointData>
        <DataArray type="Int32" Name="libmesh_node_id" format="ascii" RangeMin="2316" RangeMax="5735">
          2316 2317 2318 2319 2320 2321
          2322 2323 2324 2325 2326 2327
          2433 2434 2435 2436 2437 2438
          2439 2440 2441 2442 2443 2444
          2598 2599 2600 2601 2602 2603
          2643 2644 2645 2646 2647 2648
          2649 2650 2651 2709 2710 2711
          2712 2713 2714 2715 2716 2717
          2718 2719 2720 2766 2767 2768
          2769 2770 2771 2772 2773 2774
          2775 2776 2777 2808 2809 2810
          2811 2812 2813 2814 2815 2816
          2817 2818 2819 2852 2853 2856
          2857 2860 2861 2970 2971 2973
          2974 2976 2977 2991 2994 2995
          2998 2999 3002 3081 3082 3083
          3084 3085 3086 3087 3088 3089
          3090 3091 3092 3187 3190 3193
          3241 3243 3245 3270 3271 3272
          3312 3313 3314 3315 3316 3317
          3495 3496 3497 3498 3499 3500
          3501 3502 3503 3504 3505 3506
          3765 3766 3767 3768 3769 3770
          3852 3853 3854 4470 4471 4472
          4584 4585 4586 4587 4588 4589
          4635 4636 4637 4638 4639 4640
          4641 4642 4643 4644 4645 4646
          4659 4660 4661 4662 4663 4664
          4722 4723 4724 4782 4783 4784
          4791 4792 4793 4794 4795 4796
          4797 4798 4799 4812 4813 4814
          4815 4816 4817 4818 4819 4820
          4833 4834 4835 4836 4837 4838
          4848 4849 4850 4851 4852 4853
          4896 4897 4898 4899 4900 4901
          4911 4912 4913 4935 4936 4937
          4938 4939 4940 4944 4945 4946
          4947 4948 4949 4950 4951 4952
          4953 4954 4955 4956 4957 4958
          4992 4993 4994 5007 5008 5009
          5010 5011 5012 5013 5014 5015
          5016 5017 5018 5019 5020 5021
          5025 5026 5027 5028 5029 5030
          5040 5041 5042 5043 5044 5045
          5055 5056 5057 5073 5074 5075
          5079 5080 5081 5088 5089 5090
          5094 5095 5096 5103 5104 5105
          5151 5152 5153 5160 5161 5162
          5169 5170 5171 5178 5179 5180
          5187 5188 5189 5202 5203 5204
          5205 5206 5207 5208 5209 5210
          5211 5212 5213 5214 5215 5216
          5217 5218 5219 5220 5221 5222
          5223 5224 5225 5226 5227 5228
          5229 5230 5231 5232 5233 5234
          5235 5236 5237 5238 5239 5240
          5241 5242 5243 5244 5245 5246
          5247 5248 5249 5253 5254 5255
          5256 5257 5258 5259 5260 5261
          5262 5263 5264 5265 5266 5267
          5268 5269 5270 5271 5272 5273
          5274 5275 5276 5280 5281 5282
          5283 5284 5285 5286 5287 5288
          5289 5290 5291 5292 5293 5294
          5295 5296 5297 5298 5299 5300
          5301 5302 5303 5307 5308 5309
          5310 5311 5312 5313 5314 5315
          5316 5317 5318 5319 5320 5321
          5322 5323 5324 5325 5326 5327
          5328 5329 5330 5334 5335 5336
          5337 5338 5339 5340 5341 5342
          5343 5344 5345 5346 5347 5348
          5349 5350 5351 5352 5353 5354
          5355 5356 5357 5358 5359 5360
          5361 5362 5363 5364 5365 5366
          5367 5368 5369 5370 5371 5372
          5373 5374 5375 5376 5377 5378
          5379 5380 5381 5382 5383 5384
          5385 5386 5387 5388 5389 5390
          5391 5392 5393 5394 5395 5396
          5397 5398 5399 5400 5401 5402
          5403 5404 5405 5406 5407 5408
          5409 5410 5411 5412 5413 5414
          5415 5416 5417 5418 5419 5420
          5421 5422 5423 5424 5425 5426
          5427 5428 5429 5430 5431 5432
          5433 5434 5435 5436 5437 5438
          5439 5440 5441 5442 5443 5444
          5445 5446 5447 5448 5449 5450
          5451 5452 5453 5454 5455 5456
          5457 5458 5459 5460 5461 5462
          5463 5464 5465 5466 5467 5468
          5469 5470 5471 5472 5473 5474
          5475 5476 5477 5478 5479 5480
          5481 5482 5483 5484 5485 5486
          5487 5488 5489 5490 5491 5492
          5493 5494 5495 5496 5497 5498
          5499 5500 5501 5502 5503 5504
          5505 5506 5507 5508 5509 5510
          5511 5512 5513 5514 5515 5516
          5517 5518 5519 5520 5521 5522
          5523 5524 5525 5526 5527 5528
          5529 5530 5531 5532 5533 5534
          5535 5536 5537 5538 5539 5540
          5541 5542 5543 5544 5545 5546
          5547 5548 5549 5550 5551 5552
          5553 5554 5555 5556 5557 5558
          5559 5560 5561 5562 5563 5564
          5565 5566 5567 5568 5569 5570
          5571 5572 5573 5574 5575 5576
          5577 5578 5579 5580 5581 5582
          5583 5584 5585 5586 5587 5588
          5589 5590 5591 5592 5593 5594
          5595 5596 5597 5598 5599 5600
          5601 5602 5603 5604 5605 5606
          5607 5608 5609 5610 5611 5612
          5613 5614 5615 5616 5617 5618
          5619 5620 5621 5622 5623 5624
          5625 5626 5627 5628 5629 5630
          5631 5632 5633 5634 5635 5636
          5637 5638 5639 5640 5641 5642
          5643 5644 5645 5646 5647 5648
          5649 5650 5651 5652 5653 5654
          5655 5656 5657 5658 5659 5660
          5661 5662 5663 5664 5665 5666
          5667 5668 5669 5670 5671 5672
          5673 5674 5675 5676 5677 5678
          5679 5680 5681 5682 5683 5684
          5685 5686 5687 5688 5689 5690
          5691 5692 5693 5694 5695 5696
          5697 5698 5699 5700 5701 5702
          5703 5704 5705 5706 5707 5708
          5709 5710 5711 5712 5713 5714
          5715 5716 5717 5718 5719 5720
          5721 5722 5723 5724 5725 5726
          5727 5728 5729 5730 5731 5732
          5733 5734 5735
        </DataArray>
        <DataArray type="Float64" Name="resid_x" format="ascii" RangeMin="-2.5944615752731224" RangeMax="68.97403632484426">
          -0.03333946228740814 0.01961966685060368 0.021192176683604735 -0.002943711832372742 -0.0579572165270843 0.06940691305841717
          -0.000532230610991391 -0.017540299786132252 -0.0034383727351716686 -0.009853962153858475 -0.028992413093710923 -0.03150123500598845
          -0.01346011997316321 -0.004246290768313621 0.0024285007450419727 -0.005727723047002975 -0.027477532619000655 -0.0021119202210613253
          0.017704241793051523 -0.01354319664698922 -0.034844641860084735 -0.02105392767840719 -0.024296998048910723 -0.0444271556687621
          -0.03508431322663341 -0.03446878054159963 -0.0024842277646133226 -0.01296718796713403 -0.0346750355619001 -0.025518472342689558
          -0.03371109576956677 -0.04412704813071855 -0.005489962127434467 -0.016313768991411237 -0.07499230186370198 0.05147877269246237
          -0.016090748744797878 -0.04569071891483745 -0.004798325987664498 0.004363406001593545 0.0026120095430197665 -0.0025411896658824595
          -0.0299561283095926 -0.024740383875466343 -0.005808190198587582 -0.03808815614835259 -0.023934229953841424 -0.03668789372779391
          -0.0039519248717869715 -0.050038172919181 -0.0042589398574648385 0.004038782282009379 -0.0035140377887357133 -0.0065503546411580515
          0.0019316550616998995 0.004172355792564808 0.0034027628681378985 -0.01342185400202034 0.005657187861729085 -0.008235447297535003
          0.010698860079681793 -0.0030938524720580673 -0.019078906769439463 -0.02290807137925288 -0.01146859003313594 -0.030375282097098832
          -0.023409775941590993 -0.010311733554788205 -0.006555027456287554 -0.03158383136873244 -0.02588984586808607 -0.034689307185117535
          -0.03654664954679454 -0.006787074737294674 0.014714381080416672 -0.05071315479440308 -0.023707764118181984 -0.036285506448425764
          -0.004580917730450551 -0.020373007560024803 -0.020954591987020876 -0.04000848087127373 -0.03580879961349481 0.06475717617031584
          -0.031105612710927488 -0.03679469803382496 0.0013111947614810049 0.001189688003785605 -0.11070982454228595 0.07914073963093315
          -0.20189584412069728 0.041468914832424986 -0.17624836565051805 -0.02374389184447878 -0.005208489029862706 -0.007116131283735783
          -0.016337553429344787 -0.03740497316552194 -0.006167714651665768 -0.01035690035991177 -0.0034758846414021383 -0.01691537431027257
          -0.015025699996548236 -0.05765791816928001 0.0031921679049147222 -0.9685519012905637 -1.8480878376436678 -0.69972664510966
          -0.17571432348704263 -0.34955247017442304 -0.18653428028802654 -0.03942789309828498 -0.03777162585780758 -0.009176473112820993
          -0.005502431009465791 -0.008420181709901442 -0.006810351730743847 -0.029437360592826423 -0.022007364683212183 -0.03049415507977038
          -0.10615027966514035 0.03765589364530797 -0.0616164302592237 0.08589453505869038 -0.2936629359661467 0.03412894375462727
          -0.22696397423978443 0.1588815506364618 -0.2256942248615772 -0.019522669973737194 -0.05451820003515273 0.036229824645499065
          -0.010424854747332901 -0.009609271057423041 -0.0011442574738946831 -0.0012074744085498468 -0.014828278373101966 -0.012454925209352874
          -0.07693336267696527 -0.13334268414626393 -0.06147045743000046 -0.04956165529615841 -0.07501050873230763 -0.04919130149463058
          -0.00942081511978543 0.0014088571277577344 -0.03023100403806467 -0.08993612464398026 -0.011179424337241173 -0.0709761066845882
          -0.00704253546645961 -0.0029171120629509772 -0.004045019287645224 0.0038558304746443284 -0.009335467565999345 -0.011952844995613887
          -0.018491102762755673 -0.025269804729877166 -0.010584503485060015 -0.016420144420667526 -0.06155635175088392 -0.02479032374591661
          -0.08756883978450425 -0.16784024103075446 -0.12572701871968128 -0.05157629902421501 -0.016897859229577428 -0.019968618293959572
          -0.048652732753469374 -0.04099717647958956 -0.02116688988591453 -0.04385934282825321 -0.01688089557935868 -0.02880815274246773
          -0.03310255258219463 -0.016091202999353627 -0.023146358862288885 -0.021524324531116967 -0.14141342373567767 -0.042264791596156925
          -0.3369823024465717 0.04659938812031239 -0.14116011716886945 -0.011442976001953653 0.0172657354618444 0.005695492110199041
          0.0042202158960371605 -0.019692399182239306 0.031056040567248644 -0.01118319499961773 0.0005281098840619336 -0.00838952450023589
          0.009808050032328097 0.03431615449933556 0.04190243232173607 0.023624591721189248 -0.0733557853077702 0.058052810530935695
          -0.007629696599730451 0.0018529544134198161 -0.0037602400971810113 -0.007419466220071946 -0.006332401711064861 -0.009181488754806288
          -0.04880662447332185 -0.02962629119672755 -0.024471488332542535 -0.012985832899218508 -0.06137871704095588 -0.06808295350077387
          -0.07572983578075743 -0.05640892372707995 -0.019428484294101267 -0.04424268064250381 0.00966419343597913 -0.07397965561913278
          0.02721921721592313 -0.024296406601408194 0.05902904127816022 -0.019903823790158093 0.0043291004276868605 -0.08972429770150825
          0.0010721843615870696 -0.04328733649617966 0.021508316524431415 0.0024502710945872863 0.0573693761580687 0.025017203446113356
          0.031289748798757344 0.055840092342515746 0.04252750625140411 0.004240659917273959 0.004362364495229976 0.01710466913936326
          0.007903724132454215 0.03197065306515601 0.022784735639042708 -0.034139616846067256 -0.01710913599240005 0.004040980532101557
          0.01907465715206591 -0.03485811225096214 -0.02451630954835693 0.007539410358903709 -0.02892564441880907 -0.0035483754269467482
          0.005911484154527358 -0.017973040244398497 0.005145093906522291 0.019515746051779637 0.009626923852298575 -0.00594240487286779
          -0.027370200672058864 -0.03834994366359634 0.01132310342109033 -0.010019168301689696 0.0020209199172800396 0.003427410772268047
          0.013310017760311155 0.011126326559788069 0.03132952034265557 0.023014357772948912 0.010790557776170218 0.007902289313785893
          0.011721949395209208 0.02863470572337068 0.006488285652687331 0.020763095721068936 0.03916160962234816 0.014672391828322695
          -0.025986766948641105 -0.02116901581975661 -0.013493474851358656 0.012590049563753425 0.035481505510322364 0.016845374099418997
          0.00465658839879346 0.036648279722411026 0.016429224197283432 -0.005767694554906555 0.043505931493411865 0.013534347760790766
          -0.06820428986477012 -0.12313028650149249 -0.04451152198251229 0.04126658874411859 0.1727391952401689 0.02236782918518543
          -0.10131256558278778 -0.04928843367149227 -0.03921121682464346 -0.09075697347763167 -0.007920888353027067 0.04981409847189866
          0.008755305708358918 0.061189119505147715 0.05323188027252179 0.0005985773057126664 0.0004947107812274254 0.000399323595019041
          0.00036028517927988446 0.0041774264165859165 0.001344438452095531 0.0001578106504975807 -0.000071098835675798 0.00029945487934313064
          0.00004999385173576343 0.00691513793430687 0.0046527365319537495 0.0033193160270457156 0.002294403554508051 0.0006236424592813705
          -0.001435588932212184 0.007739167822364834 0.007684828390331688 0.004159969714086387 0.0029999799802791216 0.00018733613834065466
          -0.0002850549183506246 0.006857148082364262 0.0037767389794556294 0.002674304502297886 0.0022017057026726405 0.00026944008069484937
          -0.00024039848808499187 0.004507301695113597 0.0017728177369384923 0.0020104823120608017 0.00043618351354623996 0.000513134106576274
          0.00015312028200753502 0.003226632351481129 0.0013794373463085208 0.0007396574147300328 -0.000081018796660004 0.000597468721000638
          -0.000014845827184473137 0.004767920203288867 0.003439417368777953 0.0005182784318229494 0.0006454079719055983 0.0005382745335076322
          0.00008571360251963256 0.003967574216034109 0.0021694003442789267 -0.12249117387705155 -0.24766579048117165 -0.11897807645215863
          0.0011353564862783827 0.0007939823053160211 0.004842188605696407 0.0019340562211720425 0.0004604431103416573 0.008441810929014082
          0.003699760996049406 -0.0007651361364811038 0.009393872329443553 0.006084831736030694 0.0002573975494630787 0.005292720017832764
          0.0046953596701566624 0.000517006785941021 0.0046218339488444116 0.001902743876710744 0.00027093954873791404 0.007028060850613471
          0.0047267005811448826 0.00010504185755522144 0.007753922124358326 -1.2991622753551582 -2.5944615752731224 -1.2895408901742975
          0.00042919119594664323 0.0013959774488245813 0.00663212095028598 0.00422632921592303 0.0005818629649816387 0.009961628331693007
          0.004721162268660706 0.0007090693046034602 0.009270675619879043 0.00565982611447069 0.0008458882266815237 0.005427171572652156
          0.004237668306030784 0.0008743093033274363 0.0049818132497669865 0.0031878939461549294 0.0012024463432265264 0.0072677090192101446
          0.004033548864381231 0.0005866837636894218 0.008998405987881597 -0.5066173965763596 -1.0145807708207144 -0.46262723153489915
          -0.14174947492427847 -0.28552396891613085 -0.13689897097976633 0.005919549854557005 0.0008167915403554105 0.009579572745659348
          0.0048442687270267015 0.0009640298885056353 0.007033807858961794 0.003937489624536994 0.0010043531717016663 0.005004403423928494
          0.003264341691625816 0.0011244168254762599 0.003885798263716822 0.0023496322743170595 0.0016348034835207415 0.004833326878005195
          0.0013596245890923342 0.0006248063657388059 0.007425165018659641 0.9627142376657893 1.8924062790182958 1.01346221952695
          -0.8684527646095255 -1.7305158012691244 -0.850187862709932 0.003966421058972713 0.0017081929791729067 0.00677785008372922
          0.0033288843480843155 0.0012668215975288888 0.006525505408047749 0.0024181612400990815 0.0008590134638826186 0.0058300319146837865
          0.0024297203870702333 0.0012640758974775679 0.0037609785270298346 0.001803620722915511 0.0018390481548546944 0.003597150033820995
          0.0005426326627002709 0.0006476402017661087 0.006437939208332466 0.024244631446322273 0.03845430903282221 0.0636638958141198
          0.25688546399629786 0.5000896466526541 0.2721008768937647 -0.07032792067641402 -0.14614443876121186 -0.008516992977311233
          -0.17558237518114872 -0.3475586327544846 -0.1657688718053194 0.003051496473998938 0.002123708034709182 0.006298398215427881
          0.0016244060499843727 0.00013093242825590323 0.005766789831536556 0.002429860642603643 0.001412583145031121 0.0036272246593522794
          0.002047328881889854 0.0015215704914837147 0.0031722230482653657 0.00044371302197454554 0.0007353005540906565 0.004591250664759627
          -0.06415012025922096 -0.11298447034024406 0.009268493150621282 -0.049900558840128895 -0.09550849589550836 -0.02772957477810678
          0.1295594600054848 0.2386316817412819 0.17998550608500352 -0.1614547308960308 -0.31742616147417024 -0.14393607208541148
          0.0026964212665951948 0.003192573610792948 0.006439462244124172 0.0009945056599711677 -0.0008754446093437451 0.005749373364032806
          0.001983173357112733 0.002194395694230522 0.004998481507902497 0.002773343149177876 0.0011452585711282381 0.002339880427319585
          -0.0006146736783119167 0.00019352794692828468 0.00023873355531023321 -0.3590839287691985 -0.7161010855295373 -0.21063889881062892
          -0.0375440762276682 -0.08344176200911946 -0.0762417135748521 -0.02635849683309921 -0.06027430474800255 -0.0030492827352386342
          -0.004051908260802151 -0.013226892840409121 0.0639418661138329 0.003941821624863451 -0.00127958138722839 0.008108502009275043
          0.003677268808276679 0.0010318484899496383 0.009092935494582122 0.0032745157561553384 0.0026225378900655016 0.005752901080752437
          0.0017995671394555046 0.0003440366957159213 -0.002541957221108504 -0.003970390235958021 -0.00103742896784631 -0.0034386015470975195
          -1.1932086955365602 -2.392153004016805 -1.20875133335724 0.022016663602284936 0.03517146842142793 -0.014334829116704029
          0.005146106147771334 -0.0016697908613920731 0.015938623188320733 -0.004806672822533997 -0.01786951750969834 0.05135631416344033
          -0.01555067376065189 -0.04428428087949854 -0.01714060050768751 -0.003105621212895926 -0.016927344030655433 -0.005848657442273364
          -0.004969259027953754 -0.013239722133345566 -0.0066925489119782355 -0.007251683545863585 -0.009834755932823569 -0.006371826589268714
          -0.005158744532441695 -0.004704187181517661 -0.003725096278452966 0.0015909643038760635 0.0024702823101065974 0.00019163620883944077
          0.0006652090909895492 0.0008688509695318203 0.002734651354497686 0.005890957642083805 0.0005059159900362431 0.004509274322739287
          0.007546703351813733 0.0009651673003823191 0.007111781475874324 0.005158920086891783 0.000981863692437912 0.006914793643829853
          0.0042001339366990464 0.0010849196840041486 0.0046484681858665056 0.0035931634252790445 0.0011468494572532961 0.00038247770685551075
          0.0002991937054677152 0.00015199030982060435 -0.0029241825269892274 -0.0026660309955701678 -0.0014981055254814635 -0.0033185934739439205
          -0.0018884874967834975 -0.0021350856009219044 -0.003042340176663494 0.0007387010150878837 0.0017637040016857952 0.00003569780719914206
          0.000234686477696755 0.00045557323323919263 0.0016284375169171028 0.003993130100440112 0.000201552795836335 0.0018453105395970226
          0.006409564583080396 0.0003926077788456439 0.0032729951499668175 0.005576752705039212 0.000520277983969919 0.0029271642840562606
          0.0035976997635209784 0.0005118139575124303 -0.0007996667795246992 0.00038278151487070033 0.000463053085619336 -0.00539422174569637
          -0.003030320716320034 0.00019756427512795938 -0.007291656959075965 -0.0028562453307223734 -0.0006198524445757414 -0.009039791477048809
          -0.0026291766603776523 -0.0014286959855418502 -0.005921428137778406 0.0004625811709502159 0.0006684611381864158 0.00010854563499052006
          0.00024328506705728614 0.0010668871096868315 0.0024600394198301956 0.0005265212056144719 0.00021358949937422267 0.0022315506457211143
          0.0015037201174266102 0.0002990980994184156 0.002463047939279761 0.0006367910787687947 0.0005066493536141081 0.0013522678852169179
          -0.002748098095993967 0.0009882244367638293 -0.0030849999490545343 -0.007209054579098151 0.0006033802715634806 -0.007499572478213423
          -0.00946576408094657 0.0002122177006977921 -0.010366644024365712 -0.009738841003709808 -0.0005520050904124219 -0.01184047755849349
          -0.005963128085442193 -0.0010254956401922755 -0.006196508596948647 0.00028392772044938397 0.0011492332985874043 0.00013122241911389665
          0.0002739630213532962 0.0014285899451564887 0.003865649798505899 0.0009370701860333952 0.00021592711449969215 0.004167358556500744
          0.0014556174029358715 0.0003214034113909747 0.005010546093316748 0.0018347776916129988 0.0004684276065241022 0.0028203322199082947
          -0.0011056742753865478 0.0005238227278763219 -0.002454679134219262 -0.0047770642581852485 0.00042449651776088615 -0.007935120570737197
          -0.006581723359367686 0.0002997389900674108 -0.011570839698899604 -0.009096754261825879 -0.00038994802410918794 -0.01157582402092494
          -0.0053607479740716 -0.0006214313976240504 -0.006376694682485251 0.000872517769458625 0.0028755837536067475 0.00006360675791938775
          0.00023620261520918007 0.0005287748704212447 0.0030803334601294807 0.003433265831350951 0.00019460153199091224 0.004999838530039824
          0.004993242507151052 0.00030524607173632035 0.006036586692591328 0.005126410377695123 0.0003944570124474467 0.004287010785155587
          0.0014453829745146862 0.0005924993983743576 0.0017430929981934185 -0.0025010111365624255 0.0001258417960201541 -0.0030718452880300617
          -0.006404844874635884 -0.00004651012934253629 -0.006776295538140076 -0.008730202535355502 -0.0004793845248070028 -0.007131914049548271
          -0.005273453142196516 -0.00034923365936734285 -0.0049891258550456286 0.0006502184622441121 0.0026579036011753487 0.00000661800854828698
          0.0001317213705647191 0.000043263246290337065 0.0013916620940150892 0.0035950365039845167 0.0001850944249959241 0.0038434790161474552
          0.003925975265289594 0.00025909812501723195 0.0029630396932915914 0.0005848659927458755 0.0001681161612641091 0.001494370308472881
          -0.00491020405808662 0.00014572642668575497 0.0005473072837212101 -0.009587109139603811 0.00048296912381751156 -0.0009899336035008588
          -0.014639701540341221 0.0005878993269057275 -0.002453050150840852 -0.013504245097204048 0.0002978263790698321 -0.006195958143958791
          -0.006074316930384072 -0.00012440160666571387 -0.0038463534093988727 -0.00007865628380443468 0.0012536111928014293 -0.0000025214178940302645
          0.00008302842703145075 0.0003695416683235919 0.0005128690623941168 0.0029095716528679816 0.00009217325918342567 0.0016341925270637603
          0.0018238893779063403 0.00026509628393256435 -0.00013462607736869359 -0.0015438136799694746 0.0000024674779499633814 -0.0020636153300639393
          -0.0046622583677411455 -0.0010086543288085892 -0.0037221737168060542 -0.008095219715858804 -0.0014198689409727905 -0.0035465468774376063
          -0.011071660350541634 -0.0012943688210960147 -0.0035207043075793365 -0.012132351026009403 -0.002150677953848046 -0.009268493267461153
          -0.0074965943031592985 -0.0013116872691050219 -0.00401394999402882 0.0002121436211730554 0.000645465046130056 0.00003377490859790555
          0.0002234493795398862 -0.000023399230109077962 0.000008663772177897044 0.0015551510034441662 0.0004426036251246046 0.0004047227092840444
          0.0007945600470016245 0.0017400201399553339 -0.00017242509229120628 0.0021777192250809208 0.007757353577737547 0.00023575355936777953
          0.011600801707384534 0.02511927909677958 0.006436918593623275 0.025489107055991056 0.048946694579628414 0.01503657758018484
          0.026576802180297676 0.054403844965074555 0.018202985895237944 0.03205385873381239 0.06937929102536522 0.02472316878914782
          0.013001158504119203 0.03298698320261906 0.011788174240376037 17.34538392730493 34.486910428704526 34.690859242186775
          68.97403632484426 17.347252240787505 34.490666494051936 33.87195129441595 67.74387734226795 33.875063123384955
          32.83879410857028 65.67799782577015 32.840436302743534 31.388334236387074 62.777460485102374 31.385332612545785
          29.558726111692096 59.117480291965734 29.546453636773585 27.478491509710786 54.95560469527542 27.457031361004887
          25.42352567462903 50.84626550535127 25.410974820815092 23.836186683371302 47.671958425859536 23.82018032686662
          11.616579862784679 23.233568783759566 11.607804820227202
        </DataArray>
        <DataArray type="Float64" Name="resid_y" format="ascii" RangeMin="-7.508399884246722" RangeMax="5.707519784906356">
          0.010612911880257467 0.011849777358445196 0.0009810765358343743 0.005483863694815294 0.025815420448347892 -0.00175937072400284
          0.016486009419250266 0.01034776922611863 -0.010565805090039654 -0.03805591124692452 -0.012210633706917495 -0.0335292845394253
          0.00187506223666533 0.001554806842883949 -0.004065839227072099 0.010552627439326778 0.0014988193675550335 0.00372287992831824
          -0.008917676583823364 0.020585055224566884 -0.0051302174166639805 -0.008432789876463342 -0.03194008371110979 -0.007733737774347993
          -0.02754130042654078 -0.019360654103905556 -0.005670132690002181 0.008358998176066251 -0.021664832526820672 -0.03175337359251133
          -0.00965031903753133 0.005827667563540584 -0.023935923766774336 -0.01040766393886372 0.011366659850132965 -0.00992277863258395
          -0.030814722173838294 -0.019016562709278206 -0.030589516641044256 0.0069149676645560605 0.013560768368361606 -0.0005663787642055246
          -0.010582805449113147 0.008083927079660547 0.011189369463966427 -0.005521689261885586 -0.02109176982593536 -0.011793421881545658
          -0.006743302356762775 -0.027790423281506688 -0.02454737325639163 -0.0010165682691534728 0.011292200867218653 -0.011038379313193333
          -0.0027456677012564247 0.00024540613851198323 0.022543780186703527 0.0014468582211294287 0.0031452810713410613 -0.006055041211407507
          0.0034090329977115134 -0.004379357060254486 -0.013371718983618396 0.00508140744131505 -0.0007261403372239572 -0.014048764075385634
          0.008940351585134204 0.001689979273106712 -0.007291140254358952 -0.005357970589374983 -0.0030109253254207435 -0.01548432264940855
          -0.029322182034518363 -0.011513332463131853 -0.0389879137776353 -0.021162097211693986 -0.018008470315672875 -0.025220673093508283
          -0.014591272060812788 -0.01410590793114902 -0.03596248394000112 -0.012943718623316058 -0.020035459411429257 0.01896055034457944
          -0.010122828215594293 0.010699355232082097 -0.010800515249422271 0.011328741863662471 -0.05540696871384315 0.04096458743412515
          -0.08119340797039026 0.002971937464988944 -0.03668893084223368 -0.016352877310599902 -0.008737807269468031 -0.010958135984802206
          -0.022399651459325876 -0.021277305803960058 -0.010940456168905877 -0.01125219318037507 -0.015382577823436881 0.0009741830340296853
          -0.005080549745597095 0.0038305054287951917 0.007976379471857177 0.5237786514807095 0.7870223596285467 0.16455686414754972
          -0.13702296043202716 -0.2778535471503709 -0.11447978459047775 -0.017184900639598544 -0.010974723483472282 -0.0037934739064446887
          -0.006519527528326477 -0.012586474835251243 0.02467241467837933 -0.016329157491529078 -0.00913213266672161 -0.018767590948913254
          -0.021050439210383076 0.02245501005327924 0.032395668037284164 0.0723457497266104 -0.022918584018544075 0.04865866546630088
          0.04577923830500347 0.0997464184797503 0.043393592728682984 0.05780390989523343 -0.006422793020916584 0.053828318678968756
          -0.0031694001253708484 -0.005078154645511673 0.017965121042550884 -0.0024376240600088722 -0.014136279073842684 -0.024494225384539693
          -0.037263550012533744 -0.07116781682404369 -0.04391414944376695 -0.009651545152230729 0.010519430083150896 0.004005570121028449
          0.00957678445877716 -0.005108436934307264 0.03522710513646654 -0.018721654873658122 0.04182475213144177 -0.010373569836452629
          -0.010825593186303587 -0.005997248019940053 -0.011118801761071079 -0.006747538800201167 -0.009927087655679043 -0.00941175121201429
          0.0017740955422845955 0.0013604238380882372 0.0046044161177447585 0.0014326568017699048 0.010495138748789073 0.005052296607691326
          0.005494763274568132 0.013677867235047575 0.025582570970412333 0.022950058446870203 0.020978458702627933 0.014312879872033113
          -0.01485073659276083 -0.011125569124672594 -0.00082491296885338 0.016826937832840783 0.014158859915394617 0.0008389732970953134
          0.002569309637480678 -0.014641887481580768 -0.015372907607295636 0.02633965278793507 -0.010102073618437898 0.07289615061823185
          -0.03467113640364101 0.03498012516373471 -0.025908429799115104 -0.006220431506499998 0.007058312446950833 -0.014412566101554218
          -0.024909465004703316 -0.0018195046986232769 -0.021266487139517454 0.0040506894920869715 -0.0298443130660833 -0.005380106160069634
          -0.007692663583802162 -0.005369491216131894 0.00023333794389174267 -0.00854027553399933 0.015865685330201162 -0.01639404121884841
          -0.016556587019722457 -0.004759906204090197 -0.01085012697709957 0.0011139597438864224 -0.01801376620340077 -0.008110237184276392
          -0.015379971758079508 -0.007506101116725283 0.00304594723569062 -0.06331462737809843 -0.15172212320582168 -0.100467805986308
          -0.034597181789705334 -0.06517196826355282 -0.0614672823459492 -0.04843234945120673 0.06379610278466682 -0.05195426614355148
          0.13054592142990426 -0.025431084927074743 0.011057365510410255 -0.002360194394311496 0.0037440921975027963 -0.03214272841361932
          -0.0016442837236220892 -0.0335461281671609 -0.02691170012515843 -0.032242667287458344 0.020374672657624354 -0.013082062948799586
          -0.041380326582691744 0.032204263905437784 -0.025744748550776235 -0.01515855744056039 -0.005176843026972813 -0.01823809523930635
          -0.015290878337662954 0.0016670040159923183 0.0021381763473816012 0.0030529055980844377 -0.013633436282400043 -0.0006416550357474099
          -0.014407330165528084 -0.006261027743914783 -0.004193782316408684 -0.01573259605341327 0.005428434181175626 -0.008827975244809792
          0.004657385136440942 -0.02094840327698834 -0.01627166991339339 0.01411827256492268 0.016509260690852665 -0.0033631835966491455
          0.019115545320097807 0.021553123904042903 -0.03131913654639888 -0.011791490532573896 -0.011911432528285339 -0.007567360787140431
          -0.009514634536246364 -0.008299489363981897 -0.005887111292469757 -0.005352836390230899 -0.007407705764329433 -0.0062429777774204425
          -0.009937709741389751 -0.015381473856673308 -0.015072913434910191 -0.009079441675271124 -0.0006310746546236388 -0.0055801911741053985
          -0.0006170778805636712 0.0013188539875691463 -0.0012141514243033114 -0.007799874532416002 0.0029943574084851585 -0.0004988291940725559
          -0.007206333811584212 0.0011210225742404288 -0.00676585587508957 -0.0067294107977732415 0.015670243871198947 -0.013339626013331246
          -0.033447328968534196 -0.0486931936109789 -0.03230342320619628 -0.02799227833375373 -0.028162071054256277 -0.045411400181667005
          -0.004512858176020207 0.03659375274673993 -0.0162613585491046 -0.011959260705704633 -0.010762859202326336 -0.03904060215110827
          -0.03658676564673444 -0.005827064718156083 -0.020071024328232212 -0.0009232118024367075 -3.7567544751002098 -0.0018608323789537362
          -7.508399884246722 -0.004693864458266361 -3.6941412299376575 -0.000002470469140147813 -3.14645308943656 -0.000004821875307925438
          -6.2940955018716185 -0.003272939547601661 -3.1579970623462854 0.0009530534160213655 -2.3960825558523635 0.00003931170762694336
          -4.792779210168316 -0.0005241434371991982 -2.4027877300817053 0.0016561838579147725 -1.508529887329443 0.00015696133361031706
          -3.017626231058708 0.00026266900756855005 -1.5131355104767858 0.0015193617051613706 -0.536980281806641 0.00003694387061364823
          -1.0748256687091415 -0.0007925687374717438 -0.5410877333604374 0.0006606312376182255 0.42388433617584653 0.0001515980723648669
          0.8474907746147726 -0.0019937451361742575 0.42341894439210515 0.00013773699861552302 1.310642131580362 0.00014254397315005551
          2.621261051794648 -0.0018721610907342923 1.3141022626741685 0.00015365084029184128 1.7170064736588366 0.00008990419630744428
          3.4340342913516735 -0.0010367075359825617 1.7221938912247516 -0.06943845996083264 -0.13181315740299104 -0.060591305761588554
          -0.003223667974201261 -0.00007641123125434746 -0.004671466552002901 0.0010931413678045843 0.0013496799397736403 -0.004878614003021031
          0.0018250839316892309 0.00032495542455024395 -0.0022836330783856384 0.00012113496525384404 0.00047138368133808894 -0.002287791015927021
          -0.000910547986721244 0.00012546592704291287 -0.002588572848935676 -0.0015301072499823154 0.00006105900467279213 -0.003198679117692449
          -0.0011399916116842101 0.00022460098860666022 -0.0026953562598532876 -0.43816246080349575 -0.8543841244280364 -0.428645929137339
          -0.005284562547431815 0.00002320353222851068 -0.006153456969571813 -0.002950247629885716 0.0005783388328479688 -0.00537866986147062
          -0.002329691545832846 0.0004471098404910112 -0.002271499808809585 -0.0011585724093525762 0.00040965510229851176 -0.0011442451851627622
          -0.0016877964034655024 0.00020885485009658478 -0.0023013626511302343 -0.0030119240788041846 -0.00010269408345175979 -0.005005392682686766
          -0.0029354760968990715 0.00018420942699079457 -0.004665452693567038 0.1138144923065687 0.24016948774470626 0.10864521994345089
          -0.21002167358258994 -0.40444311120734744 -0.20972086646488952 -0.0070190933012188594 0.0011303881385702486 -0.0055611296367197305
          -0.004158908094826552 0.0007804299379408075 -0.00277083138798484 -0.0012934560347916957 0.0006071453378988512 -0.0020574447849281974
          -0.0017500363568593302 0.00039434182972097886 -0.0027136867410982868 -0.005123579679876006 0.00004716807518653776 -0.005876326343433422
          -0.0049688985008399245 0.00028930178705705023 -0.005428384575307976 0.1779706691344054 0.3667243861459295 0.1529031893817243
          -0.136903446357719 -0.25388119799221087 -0.14633398039795775 -0.007877932610984573 0.0018952027461445198 -0.005123357924105676
          -0.003364892990249002 0.0012335087991304228 -0.0035550980898619855 -0.002190746477789718 0.0011344036438865057 -0.0031494467810597726
          -0.0029436039124797198 0.000771277966481243 -0.0018140146342497943 -0.005942583760429387 0.00039325824999225656 -0.005124072201934393
          -0.006299183406732856 0.0004618714396421586 -0.004668500350989091 0.043673150399466065 0.09080468295168997 0.034525565664138114
          0.12108390394221846 0.2566824842231741 0.10900009298502589 -0.0730662627809493 -0.12981220891944867 -0.06679183556491486
          -0.09922802000057818 -0.17963400587680045 -0.09122314396395481 -0.003642757469872304 0.002293263249211641 -0.003191864816853407
          -0.004253058767673457 0.0016928955653476851 -0.0026421679586154934 -0.0026952860027418257 0.001507386896645313 -0.0006004076284036319
          -0.0043629316505170435 0.0012764499470288015 -0.004982455615580417 -0.00553342092515785 0.0009668339250366031 -0.0029965666836433424
          0.0641549394998846 0.13210336023776392 0.054703698345011764 0.0033005098175427072 0.033820631713493476 0.00191815607720347
          0.09999840751151057 0.20961183539206374 0.0917517721885881 0.013557965154553209 0.040992657727418 0.014475348418394596
          -0.005934732856427871 0.0024011616226755628 -0.003047067260987024 -0.004271603730011453 0.0019238459672639152 -0.0031272643174702353
          -0.0005917681810876374 0.0026947431157071655 -0.0020679405120351824 -0.0038002947948723165 0.0019902825519158007 -0.003630923697382382
          -0.00412374378943281 0.0012785365777603364 -0.0007141591014012683 -0.4034389735860855 -0.799957412229058 -0.4087042465523951
          -0.03049926773681788 -0.03965468909129599 -0.026047392141564707 -0.03414700402833715 -0.04886103854679624 -0.030703124079947575
          -0.027803469911150014 -0.04073376354805802 -0.022655784131178525 -0.011369669787527403 -0.007031977208691309 -0.005252698626959873
          -0.0032172132875563086 0.002408773487696969 -0.003349073816619974 -0.0008212891781185228 0.003850500759473352 -0.0024549444443691115
          -0.0029329061234819598 0.003623427181290495 -0.00023816792926178998 -0.0017375392888001606 0.0013813098883159736 0.0006247999843069785
          0.3035442879673018 0.6335684277362215 0.3171510159040294 -0.014090307902743682 0.00001558388362266072 -0.004195624299769385
          -0.005893644629974659 0.012820099663032991 0.0034410575471257587 -0.0026432138722585208 0.0117247327104959 0.005749548533313664
          -0.011312731697461942 -0.014558744013464242 -0.007432954401007663 -0.006756904519177098 -0.005538694884450912 -0.0036524722564852397
          -0.005405578225607499 -0.004780869111087327 -0.0030033011703558543 -0.003052992336884941 -0.0018082298689292564 -0.0014331390493378393
          -0.0017713001484478408 -0.0005883502699197685 0.0003434404948714498 1.7953717964803968 -0.00005187764643566073 3.5908080657446835
          -0.00004998284504442729 1.8007190101469552 -0.0009735512199627872 -0.0015345707761015293 -0.000014587928312548293 -0.0019062963387559972
          -0.002597881167550581 -0.000022425415901347612 -0.0017439517406179078 -0.0034215696688691954 0.00007027433542794448 -0.001764859894347215
          -0.004011893167291225 0.00010942640490740896 -0.0008725376221626613 -0.0024428128620872513 0.0004501770521898596 0.000601190079478231
          -0.0004531275447032801 0.0006151816953317013 0.0017199713634645786 -0.00003081219683775949 0.000385648539092065 0.003604644911070931
          0.0010674202016505152 -0.000260016795038176 0.0014498201133434918 2.072905037413299 -0.0005303348226008975 4.146122098986316
          0.00018916045485461996 2.0788384705588014 -0.000799933652508078 -0.0019132583936877223 0.0004339332285085984 -0.0014803542863931485
          -0.0023326558328800595 0.00025562144878765736 -0.0011304257749960023 -0.0019286406689077995 0.0003154430880405873 -0.0009154740362272984
          -0.0014470709987900454 0.00035525275119885347 -0.00021463301084301278 0.00011051942362882983 0.0006061886523522908 0.0005301907664236882
          0.0008168333391307403 0.0004479588057719752 0.001545632072604608 0.0018483977117019768 0.00039217310973516106 0.0025738343244389172
          0.0017943202462262775 0.00010064261416053988 0.0013883344190037672 2.3030527771051457 -0.0005204986443380077 4.606463262164524
          0.0001482324123420753 2.309272769117819 -0.0007033345647552425 -0.0013884808526661852 0.00043248553806518597 -0.001660917686905794
          -0.0017869384499025753 0.00022529764917234019 -0.0016848964005266587 -0.0014521232816347672 0.0002640505183701368 -0.001624855181544059
          -0.00008443704021787735 0.0004195348009429778 -0.0008904998818226595 0.0011053171274986173 0.0005803447182092247 -0.00034690187165120623
          0.0013232691852795853 0.00046781088939962245 0.00001871895891336628 0.0020089630690153237 0.00038956174947013533 0.0013510405318504226
          0.0006652403958271602 0.00011750771528251658 0.001839313539649945 2.488312173566624 -0.0002686498086379441 4.97688460999645
          0.00009953829629893995 2.4946041342635037 -0.00048162401284002065 -0.0011814475848350714 0.00040576303283479387 -0.001639662122383978
          -0.002075163104235278 0.00018545140184633713 -0.001664705714352177 -0.0015930143114841477 0.00025462579083604386 -0.001140847738123868
          -0.00001127609556200726 0.00043428618100355143 -0.00032366445282625 0.0010819706088425196 0.000481907073156318 -0.0004897457349127832
          0.0012028775939095793 0.0004739217926591488 0.000292857755240572 0.0011294201554923888 0.00038789508306597 0.0032274018130942217
          0.0010632971190647211 0.000111996983409135 0.0022598693469277897 2.632119859112653 -0.0004765683504390772 5.2645964265114085
          0.00013942031878855232 2.638554458922113 -0.00034421589518052187 -0.0013194419807176505 0.00046782113182086693 -0.0015769123899966875
          -0.0021010414652631315 0.0002143596035332207 -0.0012946499299446579 -0.0014979172144661823 0.0003479334095081166 -0.0003378983217716125
          -0.00009878195954513697 0.0005414299560715444 0.000390602742980653 0.00040325591737655486 0.0005794011015928802 -0.00035837945134725713
          0.000010183790597917408 0.0005929398109387751 0.0017288279256848504 -0.000192933422272612 0.0004166973416947495 0.003194603064056889
          0.000648206654581096 0.000047406387878645706 0.0015802205021301363 2.738553096744142 -0.00039488691860944947 5.47742367263491
          0.00022167743261447548 2.745035096872197 -0.00030544815872790565 -0.0013501182348834018 0.00047093499308958897 -0.0014795427314029386
          -0.001967391495497073 0.00013479859811782458 -0.0010308797375535583 -0.001162444249966088 0.00011582181721636609 0.0005151894532867685
          0.0000771124194302586 0.00025629676011520997 0.0011362438643464645 0.0007931318540388144 0.0005016862665756794 0.0006940206129958382
          0.00010710615470133078 0.0006252918583908307 0.0009380768514311577 0.0008201076990637379 0.00036359992583515077 -0.00030805000337444377
          0.0010138526221108446 0.00001140838639296371 -0.00046525862330015766 2.811310466371027 -0.0004949362736734741 5.622984088033971
          0.0002587541130267823 2.8177980544356718 -0.0002731065088286133 -0.0014817460685290218 0.0005992766205593636 -0.0005379895565393866
          -0.0018867114005064467 0.0003839858308214428 0.0022423794027179866 0.000051706926841643686 0.0005439751327984688 0.004955458716689343
          0.0020727570413011653 0.0011242335517875346 0.004705081611943218 0.003119915719735175 0.0016933074114493518 0.004509525305375073
          0.0028591284825313368 0.0010577133195238952 0.00248441541276731 0.0014721715270808455 -0.0005331314132676207 -0.00034498687852847765
          0.0000829098886103441 -0.00026384279980487535 0.0000051623579374882045 2.85361798772319 -0.0004077448760979596 5.707519784906356
          0.00026094599916115513 2.859962868864498 -0.0005513739387370542 -0.0013752819753063417 0.001230812082938293 0.0003404396197197457
          -0.0008209163701491384 0.0008432917487957159 0.005765852360275048 0.0030617217605305447 0.0015604499169602493 0.00553237772843751
          0.005000073114966974 0.00309690668242546 0.004471245068797036 0.003936973617895079 0.0038220334106828235 0.00399712165399535
          0.0018602411247191086 0.001797728359094905 0.0031985069756181317 -0.003391388125045981 -0.0007339738118787372 0.0005093065904082129
          -0.006121084436327459 -0.006529669487062753 -0.0013752745249636794 1.433757625868636 -0.00023448350268195917 2.8675660722987697
          0.000026794982911804155 1.4369144639368094 -0.0002871532460566595 -0.0009472639082701573 0.0006490828437617502 0.00031498074988345337
          0.0015145219044570002 0.0006894638100842787 0.002055659734358173 0.004615730645838978 0.0022077173361587654 0.0012353422282302962
          0.006090758373277438 0.005621135578970815 0.0017062990362176622 0.0018289211468953681 0.0007218351460570593 0.0015307448297375847
          0.00021547635696961276 0.0014138702111964885 0.003509917532026341 0.0008537889321443837 0.002041776764297537 0.0016603056988926806
          -0.004810157252401594 -0.008409489926739596 -0.0033676980707054004
        </DataArray>
        <DataArray type="Float64" Name="resid_z" format="ascii" RangeMin="0" RangeMax="0">
          0 0 0 0 0 0
          0 0 0 0 0 0
          0 0 0 0 0 0
          0 0 0 0 0 0
          0 0 0 0 0 0
          0 0 0 0 0 0
          0 0 0 0 0 0
          0 0 0 0 0 0
          0 0 0 0 0 0
          0 0 0 0 0 0
          0 0 0 0 0 0
          0 0 0 0 0 0
          0 0 0 0 0 0
          0 0 0 0 0 0
          0 0 0 0 0 0
          0 0 0 0 0 0
          0 0 0 0 0 0
          0 0 0 0 0 0
          0 0 0 0 0 0
          0 0 0 0 0 0
          0 0 0 0 0 0
          0 0 0 0 0 0
          0 0 0 0 0 0
          0 0 0 0 0 0
          0 0 0 0 0 0
          0 0 0 0 0 0
          0 0 0 0 0 0
          0 0 0 0 0 0
          0 0 0 0 0 0
          0 0 0 0 0 0
          0 0 0 0 0 0
          0 0 0 0 0 0
          0 0 0 0 0 0
          0 0 0 0 0 0
          0 0 0 0 0 0
          0 0 0 0 0 0
          0 0 0 0 0 0
          0 0 0 0 0 0
          0 0 0 0 0 0
          0 0 0 0 0 0
          0 0 0 0 0 0
          0 0 0 0 0 0
          0 0 0 0 0 0
          0 0 0 0 0 0
          0 0 0 0 0 0
          0 0 0 0 0 0
          0 0 0 0 0 0
          0 0 0 0 0 0
          0 0 0 0 0 0
          0 0 0 0 0 0
          0 0 0 0 0 0
          0 0 0 0 0 0
          0 0 0 0 0 0
          0 0 0 0 0 0
          0 0 0 0 0 0
          0 0 0 0 0 0
          0 0 0 0 0 0
          0 0 0 0 0 0
          0 0 0 0 0 0
          0 0 0 0 0 0
          0 0 0 0 0 0
          0 0 0 0 0 0
          0 0 0 0 0 0
          0 0 0 0 0 0
          0 0 0 0 0 0
          0 0 0 0 0 0
          0 0 0 0 0 0
          0 0 0 0 0 0
          0 0 0 0 0 0
          0 0 0 0 0 0
          0 0 0 0 0 0
          0 0 0 0 0 0
          0 0 0 0 0 0
          0 0 0 0 0 0
          0 0 0 0 0 0
          0 0 0 0 0 0
          0 0 0 0 0 0
          0 0 0 0 0 0
          0 0 0 0 0 0
          0 0 0 0 0 0
          0 0 0 0 0 0
          0 0 0 0 0 0
          0 0 0 0 0 0
          0 0 0 0 0 0
          0 0 0 0 0 0
          0 0 0 0 0 0
          0 0 0 0 0 0
          0 0 0 0 0 0
          0 0 0 0 0 0
          0 0 0 0 0 0
          0 0 0 0 0 0
          0 0 0 0 0 0
          0 0 0 0 0 0
          0 0 0 0 0 0
          0 0 0 0 0 0
          0 0 0 0 0 0
          0 0 0 0 0 0
          0 0 0 0 0 0
          0 0 0 0 0 0
          0 0 0 0 0 0
          0 0 0 0 0 0
          0 0 0 0 0 0
          0 0 0 0 0 0
          0 0 0 0 0 0
          0 0 0 0 0 0
          0 0 0 0 0 0
          0 0 0 0 0 0
          0 0 0 0 0 0
          0 0 0 0 0 0
          0 0 0 0 0 0
          0 0 0 0 0 0
          0 0 0 0 0 0
          0 0 0 0 0 0
          0 0 0 0 0 0
          0 0 0 0 0 0
          0 0 0 0 0 0
          0 0 0 0 0 0
          0 0 0 0 0 0
          0 0 0 0 0 0
          0 0 0 0 0 0
          0 0 0 0 0 0
          0 0 0 0 0 0
          0 0 0 0 0 0
          0 0 0 0 0 0
          0 0 0 0 0 0
          0 0 0 0 0 0
          0 0 0 0 0 0
          0 0 0 0 0 0
          0 0 0 0 0 0
          0 0 0 0 0 0
          0 0 0 0 0 0
          0 0 0 0 0 0
          0 0 0 0 0 0
          0 0 0 0 0 0
          0 0 0 0 0 0
          0 0 0 0 0 0
          0 0 0
        </DataArray>
        <DataArray type="Float64" Name="stress_zz" format="ascii" RangeMin="-9440827.317307517" RangeMax="4468795.50169726">
          1856391.2511871844 1004149.3610889642 1035734.1701591318 1274412.7568030139 1870461.486399476 1002165.1130904641
          1019707.2151808311 1249153.573110082 1884531.7216117675 1000180.8650919639 1003680.2602025308 1223894.38941715
          1330337.1693707984 2038745.1483535904 2053621.5577195014 1422194.5905409653 1318419.3490068568 2023212.9648711884
          2041109.2168671938 1414085.0647638931 1306501.5286429152 2007680.7813887866 2028596.876014886 1405975.5389868207
          1517141.5526925423 624086.3461898426 1509124.9836421637 605243.2390832459 1501108.4145917848 586400.1319766492
          2342794.2187925563 1981744.5553364637 2584965.700367254 2346057.456840313 1973090.1196230033 2577480.917242013
          2349320.694888071 1964435.6839095433 2569996.1341167716 -744982.35504951 -1043968.8853365611 -471219.2746880183
          -555815.9040402737 -710415.2802020902 -985781.5197159615 -448014.6161416272 -538446.5845116474 -675848.2053546703
          -927594.1540953619 -424809.95759523596 -521077.2649830212 -235849.4279476048 188131.39807019883 -422480.54468710406
          -886880.396512044 -204385.53158780333 139878.75511259292 -426093.4357188523 -859275.2507166 -172921.63522800186
          91626.112154987 -429706.3267506004 -831670.1049211562 1015543.7499929024 2624313.303931047 2886272.7126353355
          1046373.9012588437 2694148.4484497034 2940279.617561356 1077204.052524785 2763983.5929683596 2994286.522487378
          2653054.1556310793 2695287.9907741356 2737521.8259171923 1336464.7397598168 2276886.490902565 1347887.9141221014
          2336887.0162911657 1359311.088484386 2396887.5416797665 3041096.7768193237 1915260.7303068172 3106868.9505253937
          1885462.3808265019 3172641.124231464 1855664.0313461868 -400570.691019578 222348.54120579624 -534149.1027770322
          230337.22788909264 -667727.5145344863 238325.9145723888 -282404.6632231556 310987.2220821063 -424579.56370564905
          -363278.7833019021 -314536.361049093 196677.99107272457 -454074.10087780224 -350703.1512551743 -346668.0588750305
          82368.76006334278 -483568.6380499555 -338127.51920844655 2194877.8464588793 1555743.3925072784 916608.9385556774
          -650537.3790792177 -352172.22072773834 -53807.062376259244 1691783.658719188 1702047.0290260285 1712310.3993328686
          712297.2628879566 1022053.1574336942 698176.9839042816 1029025.5193927251 684056.7049206068 1035997.881351756
          -148198.05443624547 -1592176.8785902862 -1760390.0680642487 -359485.88866458426 -215827.88115908147 -1787433.1560519862
          -1835880.424287094 -417559.8116403526 -283457.707881917 -1982689.433513686 -1911370.7805099394 -475633.73461612104
          331054.5717738965 151816.90115285068 323783.1514294986 129270.15879728578 316511.7310851007 106723.41644172097
          554025.2270058938 575785.0962487857 597544.9654916776 80217.91858705395 77678.09110762294 75138.26362819191
          4345026.866753887 3665189.430302646 4406911.184225574 3789367.838318056 4468795.50169726 3913546.2463334664
          -1285136.9473600385 -667468.0972629506 -1273128.0987698233 -653333.061345561 -1261119.2501796077 -639198.025428171
          -2653359.2766289245 -4239257.652005302 -2681007.9273731876 -4407370.261467692 -2708656.578117452 -4575482.870930082
          761812.9891443456 648090.8756629364 534368.7621815269 2665563.249576169 2356666.5614002873 2047769.873224406
          128353.98021304538 42438.13835743876 -43477.70349816786 -1511363.7305981398 -1462490.6076467512 -1413617.4846953624
          1769976.3371952614 1771363.3660512655 1772750.3949072696 -692053.3416696514 -678977.4120023053 -471220.7424808146
          -418274.72439737874 -250388.14329197776 -157572.03679245233 49213.926865506255 39992.849665784146 30771.772466062044
          362952.83120648074 -58559.63269525478 374865.0653089351 -32300.181882562625 386777.29941138945 -6040.73106987038
          -1951892.1065463247 -488036.45666995033 -1926880.083363444 -478366.6363483712 -1901868.0601805635 -468696.81602679205
          -454489.4765131773 -209958.0364335647 -495382.01779079024 -237645.48966525524 -536274.5590684032 -265332.94289694575
          1690562.3477489613 1741809.0779143109 1793055.808079661 -1185895.6850950837 -1048346.6225397036 -910797.5599843235
          1733771.5734735848 1707958.2914720436 1682145.0094705024 -809059.786712273 -1168820.256473584 -843243.3704520589
          -1180822.4102067044 -877426.9541918444 -1192824.5639398247 1140733.9273475339 1103179.135314151 1139665.6645516076
          1144414.474535684 1138597.401755681 1185649.8137572173 -80918.22303042104 187466.47448781348 680335.6781762838
          -163274.95133206534 138619.26911226788 576651.1745069862 -245631.67963370972 89772.06373672227 472966.67083768843
          1086727.7865916695 1017053.2185522495 947378.6505128292 -1783254.3626584997 -861223.5375882275 -1644370.9273097496
          -797149.5720781012 -1505487.4919609996 -733075.606567975 238727.9879769573 366040.82360824797 264707.83291867154
          352601.4310371587 290687.6778603858 339162.0384660694 408192.1967877828 363612.02401888365 319031.85124998447
          15419.169887513242 -3332.4735284716153 -22084.116944456473 865101.5784468137 913417.9264786585 961734.2745105034
          -232047.3260077433 128505.59943543794 -212675.2573720493 168637.91045793847 -193303.18873635528 208770.22148043898
          360396.88239869114 327030.4341603832 293663.9859220752 107948.94030756126 101103.34154509104 94257.74278262083
          664669.2007406937 679100.6386793451 693532.0766179964 178741.15642382173 237035.37707740994 295329.5977309981
          361171.7558548143 323338.3891086668 285505.02236251923 302256.6820134234 263045.38336931024 223834.0847251971
          2692917.4808554314 2689182.491137525 2685447.5014196187 2312851.436416651 2307852.95804735 2302854.4796780488
          2181996.9223839706 2171369.998825539 2160743.0752671068 873806.722405728 880596.4585638081 887386.1947218883
          -593686.645944373 -572492.3477768824 -551298.0496093917 3424129.973516426 3959371.583172807 3392245.8384279925
          3931557.853179422 3360361.703339559 3903744.123186037 -861191.46135955 -916658.3311062449 -850777.5394993991
          -903399.6622436033 -840363.6176392481 -890140.993380962 140124.32740732332 118133.15487656958 143378.23030387543
          121553.11518897784 146632.13320042752 124973.0755013861 -14663.584796449522 -17983.811382521304 -18236.655936755735
          -21699.662947303026 -21809.727077061954 -25415.51451208474 45754.77317804077 53036.26230451371 47725.42841695891
          55401.44181429235 49696.083655877046 57766.62132407099 60527.62957236747 63787.52939421704 59761.87179793474
          63059.08549914007 58996.114023502014 62330.64160406308 52600.50569278178 56616.85656090271 52965.59155626933
          57130.78021663845 53330.6774197569 57644.70387237421 8853.62115640544 17780.642408030275 8741.679686778525
          17785.08197000181 8629.738217151611 17789.521531973347 2839225.9754302623 2808210.143118792 2777194.3108073217
          -318537.87106309936 -313503.2678918004 -308468.66472050134 65287.715281875535 69942.81395713749 74597.91263239946
          12792.848193582155 9763.634546370424 6734.420899158691 51890.969153501646 53051.53738860809 54212.105623714524
          68480.4299525425 68099.15013026136 67717.87030798022 48314.128069960585 48619.68932010956 48925.25057025852
          -17752.28416941659 -17816.134906347455 -17879.985643278316 1948863.3903745408 1924484.2955110422 1900105.2006475437
          671442.7897197201 660517.4009197046 649592.0121196893 -197067.31394636648 -191987.57400403166 -186907.83406169692
          99982.71042987824 99845.66248146867 99708.61453305907 66648.67018644091 66188.253022203 65727.8358579651
          87005.28235059764 87351.42272536701 87697.56310013638 39520.08829394971 39345.85199846688 39171.61570298405
          -68172.92234226475 -68734.62435875805 -69296.32637525137 -958007.7083989303 -970302.4070020549 -982597.1056051799
          1334340.9454911316 1307608.4053844365 1280875.8652777413 181090.49056818752 178135.0629716648 175179.6353751421
          49277.80077319491 52245.33898810713 55212.87720301935 91532.63853399985 90327.46807065276 89122.29760730569
          89447.11281856957 89919.05268258553 90390.99254660153 7723.903531052783 8540.047629031498 9356.19172701021
          -152068.6835913125 -152035.1538690775 -152001.6241468425 -3603367.7023916123 -3590748.744456969 -3578129.786522326
          -87765.60209874093 -101393.38536230256 -115021.1686258642 927503.5374980227 913586.1178384739 899668.6981789252
          -32493.675900345203 -30255.8045016092 -28017.933102873183 96523.65718207438 97718.57478839578 98913.49239471722
          64182.00897804902 62935.01282832138 61688.016678593725 -69817.37092725081 -69978.96870741603 -70140.56648758125
          -303188.7939833358 -306036.5323757634 -308884.270768191 74944.11948143627 54971.15429805292 34998.18911466957
          -3461938.248038682 -3462409.9860629775 -3462881.724087274 -3107051.4569805115 -3111287.1586965304 -3115522.86041255
          -45606.09226902123 -64693.11613840866 -83780.14000779603 345059.94698525814 337914.1308302864 330768.3146753146
          -57120.92700543195 -55971.868664895956 -54822.81032435997 58433.15188910205 58918.10413182317 59403.056374544285
          -142953.14691444353 -140533.80167773078 -138114.45644101803 -484553.83156614506 -484449.4605887394 -484345.08961133374
          2141305.0857962975 2117558.115305123 2093811.1448139485 -120870.94573692133 -142308.03310136637 -163745.12046581123
          -3915935.7740568975 -3905699.832800498 -3895463.891544099 -2638021.339215038 -2636371.686510424 -2634722.033805811
          380707.71972372767 367690.1704768352 354672.6212299429 -8261.46166881619 -12210.538204387078 -16159.614739957964
          8473.580798530287 10722.933810637689 12972.286822745089 -657298.7303487714 -655934.1855888044 -654569.6408288375
          -1298156.1561294259 -1300980.364850218 -1303804.57357101 1962788.5549483271 1973888.5377044333 1984988.5204605395
          1099702.5140600672 1073495.8615971985 1047289.2091343297 -5585597.5194141 -5563524.683714069 -5541451.84801404
          -6747713.137929142 -6718045.440191075 -6688377.742453006 -1559105.0025901862 -1567688.1351213746 -1576271.2676525633
          645301.077443924 634394.798612114 623488.5197803042 498801.1107145546 500523.9318521995 502246.7529898445
          -316323.9671783191 -315694.66978551145 -315065.3723927036 -1545558.8495106827 -1554099.4356884016 -1562640.0218661202
          709045.5826856357 742387.9555372435 775730.3283888514 -300172.7822466241 -337801.6362800612 -375430.49031349877
          -7883450.039448466 -7870106.3585945405 -7856762.677740615 -9440827.317307517 -9404978.418868171 -9369129.520428825
          -3188998.9635724453 -3195316.469500403 -3201633.9754283596 1114912.500801021 1100161.876580909 1085411.252360797
          1053734.1367446657 1056437.0807683577 1059140.0247920495 520129.70615598565 526196.7326714047 532263.7591868239
          -1060758.1526698412 -1064995.6043392078 -1069233.0560085743 -16034.507872340955 -23232.915208682218 -15953.887108140736
          -23159.50932795655 -15873.266343940519 -23086.10344723089 -45022.91453297751 -44768.27502902613 -44513.63552507475
          -82669.39025318838 -82605.75018589459 -82542.11011860083 -134796.2747289423 -133795.3789426418 -132794.4831563413
          -221930.06494603786 -221932.23220878784 -221934.39947153785 -288016.64595137414 -285082.7357852264 -282148.8256190786
          -779571.300219425 -775489.9960620675 -771408.69190471 -399574.8541322616 -394061.4990460978 -388548.1439599341
          463951.45469121484 475005.31085528777 486059.1670193608 -28378.73488053131 -32129.268032883498 -28385.409588596558
          -32116.777456259366 -28392.084296661807 -32104.286879635234 -42642.73899319829 -42529.16764393175 -42415.596294665214
          -58944.701760212905 -58855.72932428387 -58766.756888354845 -78245.96881548589 -77819.03504585811 -77392.10127623033
          -103267.52765398797 -103136.45713749625 -103005.38662100451 -113625.0621444862 -112449.55412689055 -111274.0461092949
          -328992.693380406 -327352.9528838531 -325713.2123873002 518711.70171947917 518061.0657839499 517410.4298484206
          1586685.510307067 1585065.0419497276 1583444.573592388 -41577.626460534826 -45618.58836572767 -41587.2813739822
          -45634.09544497293 -41596.93628742959 -45649.6025242182 -56984.6381076768 -57040.03381291381 -57095.42951815083
          -74838.8834935995 -75020.77153517818 -75202.65957675685 -98246.85799573947 -98531.37652785647 -98815.89505997348
          -127659.9022418199 -128299.91069889895 -128939.91915597799 -180152.6647660871 -181159.8622668592 -182167.0597676313
          -243992.84665332126 -246244.4793825306 -248496.11211174 353874.749968634 349565.30072010757 345255.8514715812
          979623.9932466631 974479.2889741353 969334.5847016077 -55185.41836366613 -59108.951636613645 -55182.68094696263
          -59088.25762284695 -55179.94353025913 -59067.56360908026 -69979.26438054186 -69921.84870793567 -69864.4330353295
          -86454.18651402759 -86372.76080769082 -86291.33510135408 -106745.28435129639 -106607.35123085293 -106469.41811040949
          -132848.9184929057 -132597.33388452983 -132345.7492761539 -156322.38545774255 -155949.29377030645 -155576.20208287035
          -98576.44908606226 -97667.35102918731 -96758.25297231233 385086.73628043075 387576.9590140036 390067.1817475762
          802871.1972772522 806465.656351364 810060.1154254758 -67306.183187326 -71509.61093369193 -67296.49414824057
          -71486.61638910725 -67286.80510915515 -71463.62184452257 -82911.78224695189 -82880.75205846674 -82849.72186998157
          -98968.63012646159 -98980.50278920359 -98992.37545194558 -117314.76223714034 -117394.14324970053 -117473.52426226073
          -133676.19218098745 -133788.2601967186 -133900.3282124497 -120944.85370791148 -121385.85788258858 -121826.86205726568
          -5238.501976824264 -5782.555613901321 -6326.6092509783775 362669.99301409605 361693.2320988973 360716.4711836985
          634476.8768927893 632844.3336459039 631211.7903990184 -77739.58069144432 -82005.12912796304 -77744.39129629225
          -81983.53962142578 -77749.20190114016 -81961.9501148885 -93323.369810376 -93277.81688893995 -93232.2639675039
          -108139.75052859173 -108114.40339971047 -108089.0562708292 -122187.57072910747 -122203.47141829255 -122219.37210747761
          -124923.5046548924 -124938.28196602824 -124953.05927716407 -83970.6853221184 -84100.2958607675 -84229.9063994166
          54039.47287915171 54259.03666822247 54478.60045729323 338944.0919337403 339556.82942792785 340169.5669221155
          523243.1743174234 523760.4758614475 524277.77740547166 -86306.90727770759 -90354.43847935458 -86351.02222055651
          -90360.01732537358 -86395.13716340542 -90365.5961713926 -101339.5018415708 -101299.91222064127 -101260.32259971174
          -115027.518043371 -114981.36367624854 -114935.20930912609 -123823.26027675232 -123702.43642682671 -123581.61257690113
          -112429.7648894676 -112030.90103744126 -111632.03718541493 -52892.06946494678 -52497.25693656069 -52102.44440817458
          90068.2745449132 90577.10715971794 91085.93977452269 321361.6955949054 321829.29527645436 322296.8949580033
          455793.7144801235 455898.70692298573 456003.6993658481 -92039.95498224489 -96250.12974818802 -92041.20840151471
          -96234.70239495285 -92042.4618207845 -96219.27504171766 -108892.97596663475 -108810.67476743317 -108728.3735682316
          -128120.70248096704 -127967.09629530447 -127813.49010964192 -149884.31856486472 -149396.68392437234 -148909.04928387998
          -163973.45460217743 -162729.66819391306 -161485.8817856487 -114600.28713616703 -113160.81507897138 -111721.34302177573
          37731.88779281221 38984.258406094494 40236.62901937679 243732.60284495307 244801.12721293222 245869.65158091145
          349894.8854493688 350719.1154389478 351543.34542852675 -94060.94042268791 -98544.31977773778 -94001.27956845684
          -98500.15297843296 -93941.61871422575 -98455.98617912814 -112799.97641593305 -112706.2137628191 -112612.45110970514
          -137658.16196894067 -137495.6389643075 -137333.1159596743 -174656.34910263075 -174100.17987197932 -173544.01064132788
          -221049.48528420966 -219658.4444679603 -218267.40365171095 -189138.8922856073 -187465.35863505123 -185791.82498449524
          -27087.102286332323 -25571.61026875854 -24056.11825118475 173551.66619309637 174810.21970932276 176068.77322554914
          268530.09498960356 269527.3486694079 270524.6023492123
        </DataArray>
        <DataArray type="Float64" Name="peeq" format="ascii" RangeMin="0" RangeMax="0.006201239850021295">
          0.003993989847629541 0.004073731864170956 0.0040864642160633215 0.004144037681961632 0.00399392628819078 0.00407366453235275
          0.004086324496698864 0.004143446493640421 0.003993862728752022 0.004073597200534544 0.004086184777334408 0.004142855305319211
          0.004391345439281657 0.004526630047837133 0.004353474626242229 0.004314870464045226 0.004391582443606167 0.004527108100918993
          0.004352875966717147 0.004314165325881745 0.004391819447930676 0.004527586154000853 0.004352277307192067 0.004313460187718265
          0.0041879340145261805 0.004201742403306518 0.004187256521528545 0.004201006506583025 0.004186579028530909 0.00420027060985953
          0.004405695664020491 0.003984629053530934 0.004100772476923513 0.004405653276829385 0.003984370919866292 0.004100265542972421
          0.004405610889638279 0.003984112786201649 0.004099758609021328 0.004037520929014872 0.00400730463818567 0.004055365299694039
          0.004074970540894302 0.00403810901659377 0.0040079634816704126 0.004056054453321052 0.004076066966371461 0.00403869710417267
          0.004008622325155158 0.0040567436069480645 0.0040771633918486195 0.0039289318934406115 0.003938635861402449 0.0039813044983684
          0.004002231241582038 0.00392945108449524 0.003938987610929053 0.003981704402723104 0.0040025419283484754 0.003929970275549867
          0.003939339360455656 0.0039821043070778096 0.004002852615114914 0.004647046233154843 0.005028626765345051 0.004755049579978683
          0.004648791179795774 0.005029724179722919 0.004756008905756445 0.004650536126436705 0.005030821594100786 0.004756968231534205
          0.003751892367475012 0.0037520092826612466 0.0037521261978474816 0.005214637649318347 0.005607642642867984 0.005215271990664662
          0.005606702169402341 0.005215906332010978 0.0056057616959367 0.00348985242357875 0.003848572021815418 0.0034901231484447113
          0.0038486643009344747 0.0034903938733106725 0.0038487565800535304 0.00424950706414787 0.004427798791147254 0.004250538589101849
          0.004429691038305459 0.004251570114055828 0.0044315832854636625 0.004215300020724519 0.004413330586122563 0.004451618127287282
          0.004192631327919839 0.0042156228440572 0.004413358328097191 0.004452190078066845 0.004193653114464792 0.004215945667389879
          0.004413386070071819 0.004452762028846407 0.004194674901009744 0.0061963562911296465 0.006198798070575471 0.006201239850021295
          0.004704150792042207 0.00470769043393294 0.004711230075823674 0.004616891544145371 0.00461773714839374 0.0046185827526421105
          0.004238712348352715 0.0042773641113636705 0.004238460233990517 0.004278104425601097 0.004238208119628321 0.004278844739838524
          0.0060287049354063125 0.005675178112862981 0.005387161893562833 0.0058002794968154605 0.006029481309620445 0.005673592465036535
          0.005386790356419782 0.005800678122879327 0.0060302576838345764 0.00567200681721009 0.00538641881927673 0.005801076748943192
          0.0041232092985471645 0.004100442528918349 0.004123094884906545 0.004099985853810431 0.004122980471265925 0.004099529178702512
          0.004615255437889165 0.004618011259241459 0.004620767080593753 0.0039929671707341005 0.003993424298168308 0.003993881425602516
          0.005115660973550811 0.004865247304710407 0.005117790578225406 0.004868213656197064 0.005119920182899999 0.004871180007683722
          0.0039905002293143255 0.003938128787864596 0.003990765301672667 0.0039385693343013594 0.00399103037403101 0.003939009880738122
          0.0050315263102157035 0.005324013553018622 0.005031695389276922 0.00532261019785936 0.0050318644683381404 0.005321206842700099
          0.004407746513690743 0.004408194478709843 0.004408642443728945 0.0058777159525805495 0.005875563591727207 0.005873411230873864
          0.004242997180770397 0.004242981721982141 0.004242966263193884 0.005218997290861151 0.005218977933718288 0.0052189585765754255
          0.0046355322301810525 0.0046371882860157315 0.00463884434185041 0.003972848743218781 0.0040159771675473506 0.003975616817126127
          0.004018383078622985 0.0039783848910334724 0.004020788989698621 0.004135557797860873 0.004136191383057205 0.004136824968253537
          0.004200006639607187 0.004343129028145665 0.004201280759179118 0.00434457245678683 0.004202554878751048 0.004346015885427995
          0.004715450484352031 0.005039608759434983 0.004716247383443959 0.005040224257691454 0.004717044282535887 0.005040839755947926
          0.004046606837668268 0.003981826447692941 0.004046300445714163 0.0039820283738499 0.004045994053760057 0.003982230300006861
          0.004775890384045366 0.004777095720282892 0.004778301056520418 0.004118559082241794 0.004120305888678021 0.0041220526951142485
          0.005470999727340493 0.005472023338894306 0.00547304695044812 0.004097170959043713 0.004132381152158351 0.004097363224399544
          0.004132643901628726 0.004097555489755374 0.0041329066510991 0.0040118389356143674 0.0039802826661159505 0.004012092689633048
          0.003980643132404327 0.004012346443651729 0.003981003598692703 0.00402916179815369 0.003958232217148239 0.0039932199607136416
          0.004029200732579265 0.0039583502615586665 0.003992789127331081 0.00402923966700484 0.003958468305969094 0.003992358293948521
          0.003977749166857229 0.0039769417395259694 0.00397613431219471 0.004785100353399036 0.004536552763897217 0.004787043575405967
          0.004538231478362399 0.004788986797412898 0.00453991019282758 0.004036206996826148 0.004079547579033789 0.004036539056108604
          0.004079475313526276 0.004036871115391061 0.004079403048018765 0.0039433810520527295 0.003943189400370209 0.003942997748687688
          0.004078675173133714 0.004078890659254591 0.0040791061453754685 0.0043298307125397084 0.004331349732504716 0.004332868752469722
          0.003905153668190033 0.0038976319491553536 0.003905601803017729 0.0038982134933401393 0.0039060499378454246 0.003898795037524925
          0.003914296330037505 0.003914703328435346 0.003915110326833187 0.003947079218789912 0.003947570415230877 0.003948061611671843
          0.004447770461570972 0.004449197270288323 0.004450624079005674 0.004007592520951479 0.004008147905089832 0.004008703289228185
          0.004079939089573322 0.004079578678857452 0.004079218268141583 0.004121863609814303 0.0041213481865924025 0.004120832763370502
          0.002908698705078671 0.002908612031917783 0.0029085253587568948 0.003303082181242629 0.003302968150295164 0.0033028541193476993
          0.003656652822483051 0.003656477249629792 0.003656301676776533 0.003953979592573044 0.003953711532760167 0.00395344347294729
          0.0040855355882929295 0.00408523658650589 0.004084937584718851 0 0 0
          0 0 0 0 0 0
          0 0 0 0 0 0
          0 0 0 0 0 0
          0 0 0 0 0 0
          0 0 0 0 0 0
          0 0 0 0 0 0
          0 0 0 0 0 0
          0 0 0 0 0 0
          0 0 0 0 0 0
          0 0 0 0 0 0
          0 0 0 0 0 0
          0 0 0 0 0 0
          0 0 0 0 0 0
          0 0 0 0 0 0
          0 0 0 0 0 0
          0 0 0 0.000031284441321186966 0.00003146820943575031 0.00003165197755031366
          0 0 0 0 0 0
          0 0 0 0 0 0
          0 0 0 0 0 0
          0 0 0 0.00017324223208455675 0.00017362058411502 0.00017399893614548326
          0.000012237866890371934 0.000012313240437260883 0.000012388613984149832 0 0 0
          0 0 0 0 0 0
          0 0 0 0 0 0
          0 0 0 0.0012057448034524317 0.0012057736372302048 0.001205802471007978
          0.0004946719058900424 0.0004950600100961757 0.0004954481143023088 0.00009871706599358867 0.00009901093385004191 0.00009930480170649517
          0.0000017804807013039933 0.0000018283575706011708 0.0000018762344398983481 0 0 0
          0 0 0 0 0 0
          0 0 0 0 0 0
          0.0018333442972388383 0.0018330608146273427 0.001832777332015847 0.0010042500817485246 0.0010043980461784338 0.0010045460106083428
          0.00033896670752014144 0.0003394677430068664 0.0003399687784935914 0.00004125697382040891 0.00004150823195973882 0.00004175949009906873
          0 0 0 0 0 0
          0 0 0 0 0 0
          0 0 0 0.0025354229396997545 0.002534797751679971 0.0025341725636601874
          0.0016833457337745354 0.001682929179075822 0.0016825126243771088 0.0007676025957474014 0.0007680492690393676 0.0007684959423313337
          0.00016709526711933766 0.0001676129168543092 0.00016813056658928076 2.2269978798745978e-7 2.819125539902249e-7 3.4112531999299e-7
          0 0 0 0 0 0
          0 0 0 0 0 0
          0.002904443305848347 0.0029036507715901076 0.002902858237331867 0.002063619534305367 0.0020628775366285886 0.002062135538951811
          0.0010302301746609533 0.0010305584388905643 0.0010308867031201753 0.0002552375480004655 0.00025586608493034313 0.0002564946218602208
          4.4539957597491957e-7 5.638251079804498e-7 6.8225063998598e-7 0 0 0
          0 0 0 0 0 0
          0 0 0 0 0 0
          0 0 0 0 0 0
          0 0 0 0 0 0
          0 0 0 0 0 0
          0 0 0 0 0 0
          0 0 0 0 0 0
          0 0 0 0 0 0
          0 0 0 0 0 0
          0 0 0 0 0 0
          0 0 0 0 0 0
          0 0 0 0 0 0
          0 0 0 0 0 0
          0 0 0 0 0 0
          0 0 0 0 0 0
          0 0 0 0 0 0
          0 0 0 0 0 0
          0 0 0 0 0 0
          0 0 0 0 0 0
          0 0 0 0 0 0
          0 0 0 0 0 0
          0 0 0 0 0 0
          0 0 0 0 0 0
          0 0 0 0 0 0
          0 0 0 0 0 0
          0 0 0 0 0 0
          0 0 0 0 0 0
          0 0 0 0 0 0
          0 0 0 0 0 0
          0 0 0 0 0 0
          0 0 0 0 0 0
          0 0 0 0 0 0
          0 0 0 0 0 0
          0 0 0 0 0 0
          0 0 0 0 0 0
          0 0 0 0 0 0
          0 0 0 0 0 0
          0 0 0 0 0 0
          0 0 0 0 0 0
          0 0 0 0 0 0
          0 0 0 0 0 0
          0 0 0 0 0 0
          0 0 0 0 0 0
          0 0 0 0 0 0
          0 0 0 0 0 0
          0 0 0 0 0 0
          0 0 0
        </DataArray>
        <DataArray type="Float64" Name="pe11" format="ascii" RangeMin="0" RangeMax="0.006199720288644151">
          0.003993098896561704 0.004073381442187981 0.0040860557987655215 0.0041433741182149465 0.003993032272513465 0.004073309723006853
          0.0040859076649077475 0.0041427812988051 0.003992965648465226 0.0040732380038257235 0.004085759531049974 0.004142188479395254
          0.004390813159626457 0.004525841652624989 0.004352533856366225 0.004314231839688584 0.004391043451075381 0.004526303521749798
          0.004351926334786573 0.00431352219963017 0.0043912737425243036 0.004526765390874607 0.004351318813206922 0.004312812559571758
          0.004187119968958639 0.004201095659579658 0.004186441310013931 0.004200360844269132 0.004185762651069224 0.004199626028958605
          0.004404423485736967 0.003983288878345898 0.004099768687815825 0.004404361912296317 0.0039830184127820694 0.00409925603544624
          0.004404300338855669 0.0039827479472182405 0.004098743383076654 0.004037282606345674 0.004007105862542857 0.004055140523953291
          0.0040747025254547625 0.004037870192980965 0.004007763609393301 0.004055827489992167 0.004075795679618206 0.004038457779616257
          0.004008421356243744 0.004056514456031042 0.004076888833781649 0.003928733735302917 0.00393851005272484 0.0039811582547438825
          0.004001994464954425 0.003929250921851711 0.003938863231370055 0.003981558753349443 0.0040023105436762735 0.003929768108400505
          0.003939216410015269 0.003981959251955004 0.0040026266223981205 0.0046464628007243545 0.005027428597773062 0.004753845665907981
          0.0046481900404365195 0.005028506821950553 0.004754777187356084 0.0046499172801486854 0.005029585046128045 0.0047557087088041855
          0.003750509421141033 0.0037506197943181956 0.0037507301674953573 0.005212486681617154 0.005605669192444059 0.005213101504813793
          0.005604732189568717 0.0052137163280104315 0.005603795186693376 0.003488066060405125 0.0038464193217597202 0.003488326286419809
          0.003846489934787004 0.0034885865124344925 0.0038465605478142876 0.004249069377799243 0.004427230969595128 0.004250094956162835
          0.004429116989801855 0.004251120534526428 0.004431003010008583 0.004214912370925965 0.004412812852987922 0.0044511574794393865
          0.00419230108729602 0.004215233541493545 0.004412842509267031 0.004451726686430317 0.004193318581598875 0.004215554712061125
          0.00441287216554614 0.004452295893421249 0.004194336075901729 0.006194843894126935 0.006197282091385543 0.006199720288644151
          0.004703549670389463 0.004707089546855574 0.004710629423321686 0.0046147526848278175 0.004615566744190139 0.004616380803552459
          0.004238280109312917 0.004277040667957455 0.00423802539498605 0.004277776231588933 0.004237770680659184 0.004278511795220411
          0.006027301738717229 0.005674038652375403 0.005386132549665412 0.005799194081472309 0.006028076900458368 0.005672459277128913
          0.005385763716246385 0.0057995834264327585 0.0060288520621995054 0.005670879901882424 0.005385394882827359 0.0057999727713932085
          0.004122822407953517 0.004100010615956528 0.0041227082091083 0.004099557251500615 0.004122594010263082 0.004099103887044701
          0.004614634339619803 0.004617400370251872 0.004620166400883942 0.00399285072118831 0.003993306501043397 0.0039937622808984856
          0.005114460048902449 0.004864398788256222 0.005116600956799252 0.004867386265072912 0.005118741864696054 0.0048703737418896035
          0.003990257180318834 0.003937952349314055 0.003990524612163797 0.00393838591925633 0.0039907920440087575 0.003938819489198605
          0.0050307398969511585 0.005322933151553928 0.005030909992865548 0.005321540116215884 0.005031080088779935 0.005320147080877837
          0.004407155925111976 0.004407604803097749 0.0044080536810835215 0.005876277090451669 0.005874131591764819 0.005871986093077969
          0.004242540773380123 0.004242524381467315 0.0042425079895545064 0.005217815918283254 0.0052177945986387544 0.005217773278994256
          0.00463491207438804 0.004636582572259505 0.004638253070130971 0.0039726879781640904 0.004015774101892789 0.003975443034836671
          0.004018166568333009 0.003978198091509252 0.004020559034773231 0.004135248263963375 0.004135878068808951 0.004136507873654525
          0.004199740649227984 0.004342848381765848 0.00420100889608508 0.004344284317015951 0.004202277142942176 0.0043457202522660535
          0.0047148947813923665 0.005038644305298911 0.004715687999065293 0.005039264172989077 0.0047164812167382174 0.005039884040679244
          0.004046292789288102 0.003981653058090482 0.004045980830369831 0.003981845990087011 0.004045668871451558 0.003982038922083541
          0.004775114874608879 0.004776332865952416 0.004777550857295953 0.004118276847888996 0.004120013370703695 0.004121749893518395
          0.005469747680519356 0.005470768277294702 0.005471788874070048 0.004096913050061583 0.004132082829288438 0.004097105758195947
          0.004132347851789048 0.004097298466330311 0.004132612874289658 0.004011639550511161 0.003980099092806978 0.004011878399808241
          0.003980433190926801 0.0040121172491053205 0.003980767289046623 0.004029017875699597 0.003958137920354238 0.003993096285696933
          0.004029056618674892 0.003958255926927473 0.0039926565316398075 0.004029095361650185 0.0039583739335007076 0.003992216777582682
          0.003977626842210759 0.003976802729670151 0.0039759786171295435 0.004784525661381513 0.004536223700849838 0.004786455287770038
          0.004537892331231171 0.004788384914158563 0.004539560961612503 0.0040359296654847755 0.004079273798852594 0.004036255679729491
          0.004079197771148038 0.004036581693974209 0.004079121743443482 0.0039432882392783 0.003943096831549883 0.003942905423821466
          0.004078447733654715 0.004078662030821258 0.004078876327987801 0.004329596981903247 0.004331110457441729 0.00433262393298021
          0.003905007347676086 0.0038974590542762613 0.0039054445109780404 0.00389803150208379 0.0039058816742799946 0.0038986039498913197
          0.003914171363487198 0.003914578887507842 0.003914986411528486 0.003946934049071853 0.003947422157330094 0.003947910265588337
          0.004447426169423894 0.004448845517785161 0.004450264866146428 0.004007354564924312 0.004007908233796922 0.004008461902669534
          0.004079711229462374 0.004079347002913673 0.004078982776364974 0.0041216551823379625 0.004121135804038655 0.004120616425739347
          0.0029054359371343823 0.00290534050722848 0.002905245077322578 0.0033006127681355062 0.0033004914914045035 0.0033003702146735003
          0.0036551503610429146 0.0036549699003361625 0.0036547894396294104 0.003953244996776526 0.003952973065381394 0.0039527011339862625
          0.004085054502541819 0.00408475178730451 0.0040844490720672 0 0 0
          0 0 0 0 0 0
          0 0 0 0 0 0
          0 0 0 0 0 0
          0 0 0 0 0 0
          0 0 0 0 0 0
          0 0 0 0 0 0
          0 0 0 0 0 0
          0 0 0 0 0 0
          0 0 0 0 0 0
          0 0 0 0 0 0
          0 0 0 0 0 0
          0 0 0 0 0 0
          0 0 0 0 0 0
          0 0 0 0 0 0
          0 0 0 0 0 0
          0 0 0 0.000030847013001489545 0.00003102887085621077 0.000031210728710932
          0 0 0 0 0 0
          0 0 0 0 0 0
          0 0 0 0 0 0
          0 0 0 0.0001707781932151651 0.00017115302100455723 0.00017152784879394934
          0.000012027973861736201 0.000012102409542986377 0.000012176845224236555 0 0 0
          0 0 0 0 0 0
          0 0 0 0 0 0
          0 0 0 0.0011945668328247313 0.0011945965603785383 0.0011946262879323453
          0.0004870308956596847 0.00048742385978057894 0.00048781682390147295 0.0000965532118431147 0.00009684873418179264 0.00009714425652047055
          0.0000017349817464011546 0.000001781777593737758 0.0000018285734410743615 0 0 0
          0 0 0 0 0 0
          0 0 0 0 0 0
          0.0018179991683460956 0.0018177131244883952 0.0018174270806306943 0.0009871104909348312 0.0009872772035275114 0.0009874439161201916
          0.0003294508723528969 0.00032996387007971445 0.000330476867806532 0.00003952261125047819 0.000039770764634955816 0.00004001891801943344
          0 0 0 0 0 0
          0 0 0 0 0 0
          0 0 0 0.0025145145939242126 0.002513873987845542 0.0025132333817668713
          0.001648685596841675 0.0016483095440078899 0.0016479334911741047 0.0007374585961525181 0.0007379590519133221 0.0007384595076741262
          0.0001567960205518257 0.00015732066418649984 0.00015784530782117398 2.0044981352924724e-7 2.5386511989676703e-7 3.0728042626428677e-7
          0 0 0 0 0 0
          0 0 0 0 0 0
          0.002879913268642369 0.002879098295252027 0.0028782833218616846 0.0020173496427057062 0.0020166641002252223 0.002015978557744738
          0.0009850659235619993 0.0009854830129448278 0.0009859001023276564 0.00023801678209549735 0.00023866335429056356 0.00023930992648562977
          4.008996270584945e-7 5.077302397935341e-7 6.145608525285735e-7 0 0 0
          0 0 0 0 0 0
          0 0 0 0 0 0
          0 0 0 0 0 0
          0 0 0 0 0 0
          0 0 0 0 0 0
          0 0 0 0 0 0
          0 0 0 0 0 0
          0 0 0 0 0 0
          0 0 0 0 0 0
          0 0 0 0 0 0
          0 0 0 0 0 0
          0 0 0 0 0 0
          0 0 0 0 0 0
          0 0 0 0 0 0
          0 0 0 0 0 0
          0 0 0 0 0 0
          0 0 0 0 0 0
          0 0 0 0 0 0
          0 0 0 0 0 0
          0 0 0 0 0 0
          0 0 0 0 0 0
          0 0 0 0 0 0
          0 0 0 0 0 0
          0 0 0 0 0 0
          0 0 0 0 0 0
          0 0 0 0 0 0
          0 0 0 0 0 0
          0 0 0 0 0 0
          0 0 0 0 0 0
          0 0 0 0 0 0
          0 0 0 0 0 0
          0 0 0 0 0 0
          0 0 0 0 0 0
          0 0 0 0 0 0
          0 0 0 0 0 0
          0 0 0 0 0 0
          0 0 0 0 0 0
          0 0 0 0 0 0
          0 0 0 0 0 0
          0 0 0 0 0 0
          0 0 0 0 0 0
          0 0 0 0 0 0
          0 0 0 0 0 0
          0 0 0 0 0 0
          0 0 0 0 0 0
          0 0 0 0 0 0
          0 0 0
        </DataArray>
        <DataArray type="Float64" Name="pe22" format="ascii" RangeMin="-0.0030843686773501643" RangeMax="0">
          -0.0019890775733194766 -0.002033341501354541 -0.002038945662046403 -0.0020648133561783012 -0.001989283503815827 -0.0020333306405951506
          -0.002038970901905618 -0.0020648153812696584 -0.001989489434312178 -0.0020333197798357615 -0.002038996141764833 -0.002064817406361016
          -0.002179372495479794 -0.0022367990452286297 -0.002145159983659587 -0.0021328497618599636 -0.002179098565031975 -0.0022366236605866592
          -0.002145102621705083 -0.0021327153150190216 -0.0021788246345841567 -0.0022364482759446892 -0.0021450452597505795 -0.00213258086817808
          -0.0020758300521966223 -0.002087676934073013 -0.0020758710746510553 -0.0020875562527901434 -0.002075912097105488 -0.0020874355715072733
          -0.0021611425360834684 -0.001963322802837917 -0.002026683240994945 -0.0021610696817244246 -0.0019633696170839572 -0.0020267587585144735
          -0.0021609968273653807 -0.0019634164313299977 -0.002026834276034002 -0.002016556186200307 -0.0020057517098732076 -0.0020256974917189988
          -0.002034011236188417 -0.002016646520953098 -0.0020058091034571416 -0.0020254668101798903 -0.0020340573213217103 -0.0020167368557058893
          -0.002005866497041075 -0.0020252361286407818 -0.002034103406455003 -0.0019653331224419386 -0.001968548637295813 -0.001990959540116383
          -0.0019991636465933643 -0.0019655986969929684 -0.0019687112459987836 -0.001991118216539708 -0.001999348208186685 -0.0019658642715439972
          -0.001968873854701754 -0.0019912768929630327 -0.001999532769780006 -0.0022987194888434274 -0.002468803173986122 -0.0023357269019164545
          -0.002298277032429528 -0.0024681475587681485 -0.0023354886303507466 -0.0022978345760156288 -0.002467491943550175 -0.002335250358785038
          -0.001863542208465894 -0.0018638110295233145 -0.001864079850580735 -0.0025444797629962566 -0.002735579685277788 -0.002544523126867255
          -0.0027350407694547905 -0.002544566490738253 -0.0027345018536317923 -0.001728391882282494 -0.0018884340584115835 -0.0017286601785098804
          -0.0018884743666208945 -0.0017289284747372667 -0.0018885146748302047 -0.0021255564100524853 -0.0022201536696200676 -0.0021255026198351437
          -0.0022203534919380758 -0.0021254488296178022 -0.002220553314256084 -0.0021036281231053945 -0.0022067191135691604 -0.0022293906858645704
          -0.0020941350875238775 -0.0021032874038700916 -0.002206030962427853 -0.0022288445315481555 -0.0020940879775241668 -0.002102946684634788
          -0.0022053428112865456 -0.00222829837723174 -0.002094040867524456 -0.0030829515262234815 -0.003083660101786823 -0.0030843686773501643
          -0.0023676690145959635 -0.002368648024208748 -0.0023696270338215324 -0.0022501488340873864 -0.0022502597159279295 -0.0022503705977684725
          -0.0021023730152936525 -0.002129094325328979 -0.0021021228006022448 -0.0021287941384063092 -0.002101872585910837 -0.0021284939514836405
          -0.0030186548460469386 -0.0028040750620873384 -0.002672126120831212 -0.0029077629467284165 -0.003019347647078489 -0.0028040627167496596
          -0.002672367817852798 -0.002908403562922347 -0.0030200404481100394 -0.002804050371411981 -0.002672609514874383 -0.0029090441791162778
          -0.0020520098244156226 -0.0020423775964874364 -0.0020519166535182456 -0.0020423262668533386 -0.0020518234826208685 -0.00204227493721924
          -0.0023166238721739904 -0.002316758877584927 -0.0023168938829958644 -0.001994883175052993 -0.0019945528408688838 -0.001994222506684774
          -0.0025771286752308336 -0.0024512023966641013 -0.0025765236204942188 -0.0024508133862274576 -0.002575918565757604 -0.0024504243757908144
          -0.0019914853880152656 -0.0019691999083667868 -0.0019914346921024533 -0.001969135840454569 -0.0019913839961896405 -0.0019690717725423515
          -0.00248802869381806 -0.0026157348068832167 -0.0024875046239746144 -0.002615155864152343 -0.0024869805541311686 -0.0026145769214214703
          -0.0022037288248535937 -0.0022030621576936632 -0.0022023954905337323 -0.002888370048778589 -0.0028873675583868984 -0.002886365067995207
          -0.002116565813045359 -0.002115963487802665 -0.0021153611625599703 -0.002562503110426637 -0.002561675234401598 -0.0025608473583765595
          -0.0023283918588730417 -0.002327836991137399 -0.0023272821234017567 -0.0019885779150693858 -0.002010444426752166 -0.001989399398868736
          -0.0020112069288737017 -0.001990220882668087 -0.0020119694309952366 -0.002056581328068634 -0.0020564946753887058 -0.002056408022708778
          -0.0020932370242652113 -0.002170271544529126 -0.0020931715912510473 -0.00217015840282207 -0.0020931061582368836 -0.0021700452611150152
          -0.002352741545725314 -0.00252041301651264 -0.0023519991305948184 -0.002519703981710609 -0.0023512567154643236 -0.0025189949469085777
          -0.00201682029048762 -0.0019895854631064923 -0.0020167223369514237 -0.0019894886237767596 -0.0020166243834152274 -0.0019893917844470274
          -0.002402354782556633 -0.002401462580977975 -0.002400570379399317 -0.0020615716655309735 -0.0020620106824640544 -0.0020624496993971357
          -0.0027488754149393806 -0.00274865770739916 -0.0027484399998589392 -0.0020445736249232777 -0.002067546864857448 -0.002044004243356778
          -0.002067093684965568 -0.0020434348617902783 -0.002066640505073689 -0.002009595757446759 -0.0019926362427162333 -0.0020091669964546143
          -0.00199187767834692 -0.0020087382354624693 -0.0019911191139776064 -0.00201493297593948 -0.001977088051264028 -0.0019962962525012676
          -0.0020143419061342182 -0.0019768613685533344 -0.001995721187583113 -0.0020137508363289565 -0.001976634685842641 -0.0019951461226649578
          -0.0019875368205016846 -0.0019868279494392833 -0.001986119078376882 -0.0023685289477844364 -0.002262794952505262 -0.002368005015863469
          -0.002262438956395089 -0.002367481083942501 -0.0022620829602849153 -0.002017954674770708 -0.0020402275975749088 -0.0020180268833862895
          -0.002040083128872428 -0.0020180990920018703 -0.0020399386601699476 -0.0019692239944917424 -0.0019690384503453754 -0.0019688529061990087
          -0.002044289078098221 -0.00204399659305479 -0.0020437041080113593 -0.0021611045277909278 -0.0021609041690088516 -0.0021607038102267754
          -0.001953774427158178 -0.0019494797789165385 -0.0019537503490586025 -0.001949804764536548 -0.001953726270959027 -0.0019501297501565576
          -0.0019564667241290653 -0.0019565898063638484 -0.001956712888598631 -0.0019747390280601355 -0.0019746931292154942 -0.001974647230370853
          -0.0022148249777192335 -0.0022144888650760886 -0.0022141527524329433 -0.002004732799717592 -0.002004881567550578 -0.0020050303353835643
          -0.002040275382663649 -0.002040021623822462 -0.0020397678649812755 -0.0020578712480748395 -0.0020576120447514026 -0.0020573528414279656
          -0.0014204041184992986 -0.0014205036262716752 -0.001420603134044052 -0.001622911050276986 -0.0016230471243931822 -0.0016231831985093785
          -0.0018073798330257673 -0.0018074786482286552 -0.001807577463431543 -0.0019613072951824794 -0.001961300331342006 -0.001961293367501532
          -0.002028012189406912 -0.002027942653851279 -0.002027873118295647 0 0 0
          0 0 0 0 0 0
          0 0 0 0 0 0
          0 0 0 0 0 0
          0 0 0 0 0 0
          0 0 0 0 0 0
          0 0 0 0 0 0
          0 0 0 0 0 0
          0 0 0 0 0 0
          0 0 0 0 0 0
          0 0 0 0 0 0
          0 0 0 0 0 0
          0 0 0 0 0 0
          0 0 0 0 0 0
          0 0 0 0 0 0
          0 0 0 0 0 0
          0 0 0 -0.000012168373893992115 -0.00001222747268074792 -0.000012286571467503726
          0 0 0 0 0 0
          0 0 0 0 0 0
          0 0 0 0 0 0
          0 0 0 -0.00006886417770596363 -0.00006895155845559587 -0.0000690389392052281
          -0.000004601266830653224 -0.0000046242143461658345 -0.000004647161861678445 0 0 0
          0 0 0 0 0 0
          0 0 0 0 0 0
          0 0 0 -0.00052156645352063 -0.0005215085030849388 -0.0005214505526492476
          -0.00020199426517105893 -0.0002020515826169778 -0.0002021089000628967 -0.000038565034577550385 -0.00003865287670378721 -0.00003874071883002404
          -6.812884479322376e-7 -6.98747618010954e-7 -7.162067880896702e-7 0 0 0
          0 0 0 0 0 0
          0 0 0 0 0 0
          -0.0008239914523615788 -0.000823826862571652 -0.0008236622727817251 -0.0004292458945074204 -0.00042916977318044363 -0.0004290936518534669
          -0.00013904558523172644 -0.00013916078005831383 -0.00013927597488490122 -0.000016518117268939913 -0.00001660300093887179 -0.000016687884608803673
          0 0 0 0 0 0
          0 0 0 0 0 0
          0 0 0 -0.0011729808394495978 -0.0011725501699226635 -0.0011721195003957293
          -0.0007457222355018655 -0.0007453213994010862 -0.0007449205633003066 -0.00032442101367097443 -0.0003244390015657343 -0.0003244569894604941
          -0.00006744844231377427 -0.00006761245625323474 -0.00006777647019269523 -8.211440621305328e-8 -1.0390903316999854e-7 -1.257036601269438e-7
          0 0 0 0 0 0
          0 0 0 0 0 0
          -0.001354161956479818 -0.0013535812840085914 -0.0013530006115373646 -0.0009235496047070652 -0.0009229582461255446 -0.0009223668875440238
          -0.0004386783923722904 -0.00043861376773008363 -0.00043854914308787693 -0.0001032232269855332 -0.00010341640586474783 -0.00010360958474396244
          -1.6422881242610656e-7 -2.0781806633999708e-7 -2.514073202538876e-7 0 0 0
          0 0 0 0 0 0
          0 0 0 0 0 0
          0 0 0 0 0 0
          0 0 0 0 0 0
          0 0 0 0 0 0
          0 0 0 0 0 0
          0 0 0 0 0 0
          0 0 0 0 0 0
          0 0 0 0 0 0
          0 0 0 0 0 0
          0 0 0 0 0 0
          0 0 0 0 0 0
          0 0 0 0 0 0
          0 0 0 0 0 0
          0 0 0 0 0 0
          0 0 0 0 0 0
          0 0 0 0 0 0
          0 0 0 0 0 0
          0 0 0 0 0 0
          0 0 0 0 0 0
          0 0 0 0 0 0
          0 0 0 0 0 0
          0 0 0 0 0 0
          0 0 0 0 0 0
          0 0 0 0 0 0
          0 0 0 0 0 0
          0 0 0 0 0 0
          0 0 0 0 0 0
          0 0 0 0 0 0
          0 0 0 0 0 0
          0 0 0 0 0 0
          0 0 0 0 0 0
          0 0 0 0 0 0
          0 0 0 0 0 0
          0 0 0 0 0 0
          0 0 0 0 0 0
          0 0 0 0 0 0
          0 0 0 0 0 0
          0 0 0 0 0 0
          0 0 0 0 0 0
          0 0 0 0 0 0
          0 0 0 0 0 0
          0 0 0 0 0 0
          0 0 0 0 0 0
          0 0 0 0 0 0
          0 0 0 0 0 0
          0 0 0
        </DataArray>
        <DataArray type="Float64" Name="pe33" format="ascii" RangeMin="-0.003115351611293986" RangeMax="0">
          -0.002004021323242227 -0.0020400399408334402 -0.0020471101367191187 -0.002078560762036645 -0.0020037487686976373 -0.0020399790824117007
          -0.0020469367630021294 -0.002077965917535442 -0.0020034762141530483 -0.002039918223989962 -0.00204676338928514 -0.002077371073034238
          -0.002211440664146663 -0.0022890426073963587 -0.0022073738727066373 -0.00218138207782862 -0.002211944886043405 -0.002289679861163138
          -0.0022068237130814894 -0.0021808068846111486 -0.0022124491079401464 -0.0022903171149299176 -0.0022062735534563414 -0.0021802316913936775
          -0.002111289916762016 -0.002113418725506646 -0.002110570235362876 -0.002112804591478989 -0.0021098505539637355 -0.0021121904574513315
          -0.0022432809496534976 -0.002019966075507981 -0.00207308544682088 -0.0022432922305718928 -0.0020196487956981118 -0.0020724972769317652
          -0.002243303511490287 -0.002019331515888243 -0.002071909107042651 -0.0020207264201453673 -0.0020013541526696494 -0.002029443032234293
          -0.0020406912892663447 -0.002021223672027867 -0.002001954505936159 -0.0020303606798122765 -0.0020417383582964944 -0.0020217209239103665
          -0.0020025548592026692 -0.0020312783273902595 -0.002042785427326644 -0.0019634006128609774 -0.0019699614154290272 -0.0019901987146275
          -0.002002830818361061 -0.0019636522248587425 -0.0019701519853712705 -0.001990440536809736 -0.002002962335489588 -0.0019639038368565076
          -0.001970342555313514 -0.0019906823589919717 -0.002003093852618115 -0.0023477433118809267 -0.0025586254237869397 -0.002418118763991525
          -0.0023499130080069917 -0.0025603592631824046 -0.0024192885570053354 -0.0023520827041330562 -0.0025620931025778686 -0.002420458350019147
          -0.0018869672126751388 -0.0018868087647948802 -0.0018866503169146214 -0.002668006918620897 -0.0028700895071662696 -0.002668578377946537
          -0.0028696914201139265 -0.0026691498372721774 -0.002869293333061583 -0.0017596741781226311 -0.0019579852633481365 -0.001759666107909928
          -0.0019580155681661097 -0.001759658037697225 -0.001958045872984083 -0.002123512967746756 -0.00220707729997506 -0.0021245923363276908
          -0.0022087634978637787 -0.002125671704908626 -0.002210449695752498 -0.0021112842478205694 -0.0022060937394187607 -0.002221766793574815
          -0.002098165999772142 -0.0021119461376234534 -0.002206811546839177 -0.0022228821548821607 -0.002099230604074707 -0.0021126080274263366
          -0.0022075293542595936 -0.0022239975161895075 -0.0021002952083772723 -0.003111892367903453 -0.00311362198959872 -0.003115351611293986
          -0.0023358806557934996 -0.002338441522646826 -0.0023410023895001526 -0.0023646038507404306 -0.0023653070282622078 -0.0023660102057839853
          -0.002135907094019265 -0.0021479463426284763 -0.002135902594383805 -0.002148982093182623 -0.0021358980947483452 -0.0021500178437367694
          -0.00300864689267029 -0.0028699635902880638 -0.0027140064288342 -0.002891431134743892 -0.0030087292533798778 -0.0028683965603792535
          -0.0027133958983935878 -0.0028911798635104114 -0.003008811614089466 -0.002866829530470443 -0.002712785367952975 -0.0028909285922769303
          -0.0020708125835378947 -0.0020576330194690914 -0.002070791555590054 -0.0020572309846472758 -0.002070770527642213 -0.0020568289498254606
          -0.0022980104674458126 -0.0023006414926669445 -0.0023032725178880765 -0.0019979675461353165 -0.001998753660174513 -0.0019995397742137103
          -0.002537331373671615 -0.00241319639159212 -0.002540077336305032 -0.002416572878845454 -0.002542823298938449 -0.002419949366098788
          -0.0019987717923035677 -0.001968752440947268 -0.0019990899200613426 -0.0019692500788017603 -0.001999408047819117 -0.0019697477166562526
          -0.002542711203133099 -0.002707198344670711 -0.0025434053688909324 -0.002706384252063539 -0.0025440995346487664 -0.0027055701594563674
          -0.0022034271002583814 -0.002204542645404085 -0.002205658190549789 -0.0029879070416730788 -0.0029867640333779205 -0.002985621025082762
          -0.002125974960334764 -0.0021265608936646497 -0.0021271468269945353 -0.0026553128078566166 -0.0026561193642371562 -0.0026569259206176963
          -0.0023065202155149976 -0.0023087455811221054 -0.002310970946729213 -0.0019841100630947055 -0.0020053296751406224 -0.0019860436359679353
          -0.0020069596394593084 -0.001987977208841165 -0.0020085896037779945 -0.0020786669358947413 -0.0020793833934202436 -0.002080099850945746
          -0.002106503624962773 -0.002172576837236722 -0.0021078373048340317 -0.00217412591419388 -0.002109170984705291 -0.0021756749911510374
          -0.0023621532356670524 -0.00251823128878627 -0.0023636888684704727 -0.0025195601912784684 -0.002365224501273894 -0.002520889093770666
          -0.0020294724988004827 -0.0019920675949839893 -0.002029258493418406 -0.0019923573663102505 -0.0020290444880363295 -0.0019926471376365126
          -0.0023727600920522454 -0.00237487028497444 -0.002376980477896636 -0.0020567051823580217 -0.002058002688239641 -0.002059300194121259
          -0.0027208722655799747 -0.002722110569895541 -0.002723348874211108 -0.0020523394251383054 -0.002064535964430989 -0.0020531015148391686
          -0.002065254166823479 -0.002053863604540032 -0.002065972369215969 -0.002002043793064403 -0.001987462850090746 -0.0020027114033536277
          -0.0019885555125798817 -0.002003379013642852 -0.0019896481750690176 -0.002014084899760117 -0.00198104986909021 -0.001996800033195666
          -0.002014714712540673 -0.0019813945583741386 -0.001996935344056695 -0.002015344525321229 -0.001981739247658066 -0.0019970706549177243
          -0.0019900900217090754 -0.001989974780230869 -0.0019898595387526623 -0.002415996713597077 -0.0022734287483445765 -0.0024184502719065692
          -0.002275453374836082 -0.002420903830216062 -0.0022774780013275877 -0.002017974990714067 -0.0020390462012776847 -0.002018228796343202
          -0.0020391146422756093 -0.0020184826019723373 -0.0020391830832735343 -0.0019740642447865584 -0.001974058381204507 -0.0019740525176224558
          -0.002034158655556494 -0.0020346654377664686 -0.0020351722199764425 -0.002168492454112319 -0.002170206288432876 -0.0021719201227534336
          -0.0019512329205179078 -0.0019479792753597214 -0.0019516941619194374 -0.001948226737547242 -0.0019521554033209672 -0.0019484741997347623
          -0.0019577046393581318 -0.001957989081143993 -0.001958273522929854 -0.001972195021011717 -0.0019727290281146 -0.001973263035217483
          -0.0022326011917046602 -0.0022343566527090715 -0.0022361121137134837 -0.0020026217652067183 -0.002003026666246344 -0.0020034315672859695
          -0.002039435846798725 -0.002039325379091212 -0.0020392149113836987 -0.0020637839342631226 -0.002063523759287252 -0.0020632635843113815
          -0.001485031818635084 -0.0014848368809568047 -0.0014846419432785255 -0.00167770171785852 -0.0016774443670113208 -0.0016771870161641214
          -0.0018477705280171477 -0.001847491252107507 -0.0018472119761978665 -0.001991937701594046 -0.0019916727340393873 -0.0019914077664847296
          -0.0020570423131349063 -0.002056809133453229 -0.0020565759537715523 0 0 0
          0 0 0 0 0 0
          0 0 0 0 0 0
          0 0 0 0 0 0
          0 0 0 0 0 0
          0 0 0 0 0 0
          0 0 0 0 0 0
          0 0 0 0 0 0
          0 0 0 0 0 0
          0 0 0 0 0 0
          0 0 0 0 0 0
          0 0 0 0 0 0
          0 0 0 0 0 0
          0 0 0 0 0 0
          0 0 0 0 0 0
          0 0 0 0 0 0
          0 0 0 -0.00001867863910749743 -0.00001880139817546285 -0.000018924157243428263
          0 0 0 0 0 0
          0 0 0 0 0 0
          0 0 0 0 0 0
          0 0 0 -0.00010191401550920147 -0.00010220146254896132 -0.00010248890958872121
          -0.000007426707031082978 -0.0000074781951968205434 -0.000007529683362558108 0 0 0
          0 0 0 0 0 0
          0 0 0 0 0 0
          0 0 0 -0.0006730003793041014 -0.0006730880572935992 -0.0006731757352830972
          -0.00028503663048862584 -0.0002853722771636011 -0.00028570792383857634 -0.000057988177265564316 -0.00005819585747800542 -0.00005840353769044652
          -0.0000010536932984689174 -0.0000010830299757268039 -0.0000011123666529846905 0 0 0
          0 0 0 0 0 0
          0 0 0 0 0 0
          -0.000994007715984517 -0.000993886261916743 -0.000993764807848969 -0.0005578645964274109 -0.0005581074303470677 -0.0005583502642667247
          -0.00019040528712117044 -0.0001908030900214006 -0.00019120089292163077 -0.00002300449398153828 -0.000023167763696084026 -0.000023331033410629776
          0 0 0 0 0 0
          0 0 0 0 0 0
          0 0 0 -0.001341533754474615 -0.0013413238179228785 -0.001341113881371142
          -0.0009029633613398096 -0.000902988144606804 -0.0009030129278737983 -0.0004130375824815436 -0.00041352005034758776 -0.0004140025182136319
          -0.00008934757823805146 -0.0000897082079332651 -0.00009006883762847874 -1.1833540731619397e-7 -1.4995608672676845e-7 -1.8157676613734293e-7
          0 0 0 0 0 0
          0 0 0 0 0 0
          -0.0015257513121625511 -0.0015255170112434355 -0.0015252827103243197 -0.0010938000379986414 -0.0010937058540996776 -0.001093611670200714
          -0.0005463875311897089 -0.0005468692452147441 -0.0005473509592397791 -0.0001347935551099642 -0.00013524694842581577 -0.00013570034174166732
          -2.3667081463238795e-7 -2.999121734535369e-7 -3.6315353227468587e-7 0 0 0
          0 0 0 0 0 0
          0 0 0 0 0 0
          0 0 0 0 0 0
          0 0 0 0 0 0
          0 0 0 0 0 0
          0 0 0 0 0 0
          0 0 0 0 0 0
          0 0 0 0 0 0
          0 0 0 0 0 0
          0 0 0 0 0 0
          0 0 0 0 0 0
          0 0 0 0 0 0
          0 0 0 0 0 0
          0 0 0 0 0 0
          0 0 0 0 0 0
          0 0 0 0 0 0
          0 0 0 0 0 0
          0 0 0 0 0 0
          0 0 0 0 0 0
          0 0 0 0 0 0
          0 0 0 0 0 0
          0 0 0 0 0 0
          0 0 0 0 0 0
          0 0 0 0 0 0
          0 0 0 0 0 0
          0 0 0 0 0 0
          0 0 0 0 0 0
          0 0 0 0 0 0
          0 0 0 0 0 0
          0 0 0 0 0 0
          0 0 0 0 0 0
          0 0 0 0 0 0
          0 0 0 0 0 0
          0 0 0 0 0 0
          0 0 0 0 0 0
          0 0 0 0 0 0
          0 0 0 0 0 0
          0 0 0 0 0 0
          0 0 0 0 0 0
          0 0 0 0 0 0
          0 0 0 0 0 0
          0 0 0 0 0 0
          0 0 0 0 0 0
          0 0 0 0 0 0
          0 0 0 0 0 0
          0 0 0 0 0 0
          0 0 0
        </DataArray>
        <DataArray type="Float64" Name="disp_x" format="ascii" RangeMin="0.00011387118437822103" RangeMax="0.00021000000000000006">
          0.00015256054407130018 0.00014816773159730145 0.000142352831129351 0.0001434341243779999 0.0001525594161402941 0.00014816767633486362
          0.000142352294483827 0.00014343339891650976 0.0001525561678297577 0.00014816787281850052 0.00014235100276655332 0.00014343127639001392
          0.00013930244303079554 0.00014138535366359925 0.00014653741532837588 0.0001432499053963243 0.00013930248462489005 0.00014138462057996127
          0.00014653626410268076 0.00014324947232852018 0.00013930248299667198 0.00014138232634394116 0.0001465331224613143 0.00014324879519334407
          0.00014738300700685826 0.00014196455084384692 0.00014738197805940474 0.00014196477804373885 0.00014737827642297653 0.00014196515798232324
          0.00014904603436541647 0.00015511822864788013 0.0001516786592255176 0.00014904467449674373 0.00015511522948379036 0.00015167670872643792
          0.00014904097561362233 0.00015510620859871414 0.000151670150207479 0.0001324060372820821 0.00012946042388346015 0.00012666391487712193
          0.00013095756131912338 0.00013240619263696392 0.00012946038245168154 0.00012666285294356388 0.00013095757128045958 0.00013240727326359163
          0.00012946003982359974 0.00012666042979868306 0.000130957228417748 0.00013122904439864265 0.00012821177412402759 0.00012898937901384346
          0.00013305282686282508 0.00013122864617394296 0.00012821156914761582 0.00012898938765190977 0.00013305328284120524 0.00013122788658450797
          0.00012821093048964624 0.00012898915546748113 0.00013305436588349304 0.0001365355759165867 0.0001368593637573 0.00014278852679694686
          0.00013653448708949762 0.0001368559020194866 0.00014278665625420397 0.00013653145129324037 0.0001368467028445864 0.00014277984986385116
          0.0001566335188588684 0.00015663196283737242 0.0001566272346057217 0.00014288800685215906 0.00013625084768332385 0.00014288359358580899
          0.00013624649666240307 0.00014286913121358 0.00013623312582157542 0.00016039260116952194 0.00015829184498588413 0.0001603905130029254
          0.00015828858201328094 0.00016038360021667703 0.00015827822212666827 0.00011779780397641955 0.00011573483525093904 0.00011779748552093652
          0.00011573411062386437 0.00011779471159545196 0.00011573224563160063 0.00012487570255231945 0.00012259766077426853 0.00012667701134439608
          0.00012902711753293156 0.00012487430985266262 0.00012259633958694395 0.00012667520606577423 0.00012902606559627125 0.0001248698454841855
          0.00012259227663240872 0.00012667032729756818 0.0001290225765077867 0.0001228542961558221 0.00012285522747943736 0.00012285882835438484
          0.00011388280491673502 0.00011387969178572044 0.00011387118437822103 0.00015117167136839926 0.0001511680707911825 0.00015115780254756748
          0.0001393430750067235 0.00013666752887883175 0.0001393436582309448 0.00013666776987245188 0.0001393449387923545 0.00013666894754127613
          0.00012175345291804373 0.0001259803643295143 0.00012454837757353517 0.00012043249271791398 0.00012175096490452071 0.00012597785759735605
          0.0001245447647101573 0.00012042933258270969 0.00012174514979386631 0.00012597294246790257 0.00012453554780747836 0.00012041987883703163
          0.00013686406964773433 0.0001378511646629473 0.00013686485583911108 0.00013785181286801024 0.00013686693901554802 0.0001378535364042993
          0.00011720006450495085 0.0001171989614033906 0.00011719574771470049 0.00012568116153502734 0.00012568106510707714 0.00012568045673994218
          0.00011864773825043724 0.00011812174930490204 0.00011864427233931847 0.00011811819772063393 0.00011863347374104856 0.00011810959982830705
          0.00013505166815143838 0.00013397217764348542 0.00013505232339174438 0.00013397263409015606 0.0001350533762009926 0.00013397363771714617
          0.00012828255433104836 0.00012868424254915215 0.0001282787746093166 0.00012868159023316978 0.00012826565141227245 0.00012866855110738593
          0.00011915965046340566 0.00011915890576561677 0.00011915699900819507 0.0001293009534352395 0.0001292994607432458 0.00012929286719645428
          0.00012113664719046627 0.00012113575765716715 0.0001211321045893117 0.00013191265792127175 0.00013190839194088377 0.0001318932542038465
          0.0001200510463824214 0.00012005005891950452 0.00012004654109675454 0.0001168364378005069 0.00011691613615204377 0.00011683424794359672
          0.00011691588042529712 0.00011683569781521836 0.00011691511422752962 0.00013518567447029075 0.0001351864978058683 0.00013518833406755173
          0.0001331807350661353 0.00013179067092474004 0.00013318068669409202 0.00013178961095800432 0.00013318019229241276 0.0001317855610185719
          0.0001275677651295053 0.0001235340318107799 0.00012756541049637097 0.0001235307046300676 0.0001275583908538334 0.00012352115582363264
          0.00013788121405217636 0.00013691421625032618 0.00013788167997583515 0.00013691460960046825 0.00013788236862085894 0.00013691580535509293
          0.00012215382737400962 0.00012215221337787097 0.00012214617997801066 0.00011712793826783371 0.00011712756579588586 0.00011712465875464366
          0.00011942944463578602 0.00011942631738106 0.00011941460248967736 0.00012239879098148774 0.00012004165762886958 0.00012239810706076785
          0.00012004085089739468 0.00012239538429690812 0.00012003866187795528 0.00011957810063917802 0.00011951322869309696 0.0001195776066494293
          0.00011951627631847233 0.00011957868472812972 0.00011951799162822062 0.00012264172691630666 0.00012527285002461502 0.00012238112480253475
          0.0001226415313975171 0.00012527234375818788 0.00012238083232757002 0.00012263955939832062 0.0001252711118411363 0.00012237946774831286
          0.0001222161466547979 0.0001222171310159281 0.00012221752824202584 0.00013217278784326261 0.00013172375127214515 0.00013217032954583165
          0.00013172231189128385 0.00013216223806997152 0.00013171699033871147 0.00014003506227174608 0.00014157077645125235 0.00014003544680991377
          0.00014157185310022217 0.00014003661506945567 0.00014157386223697296 0.00012490692050447428 0.00012490589921098394 0.00012490376222866793
          0.00011983763484781785 0.00011983789077259264 0.00011983819854503343 0.00013470657036191732 0.00013470661018752695 0.00013470578556939246
          0.00013286849462115452 0.00013022621291753614 0.00013286917352995677 0.00013022639900273688 0.0001328702518958288 0.00013022603188872777
          0.00012757581566074974 0.00012757548709898858 0.00012757367400227862 0.00013552360131728356 0.0001355237227102124 0.00013552485419826614
          0.00013558682009702456 0.0001355865245732978 0.00013558446031413545 0.00013820651416160683 0.0001382085291230376 0.00013821200332943774
          0.00014093583927407636 0.0001409370833906557 0.00014094156357548462 0.00014373096083049786 0.00014373147553947964 0.00014373199434747903
          0.0001679421910961213 0.00016794053301068807 0.00016793581519015748 0.00016476315283987363 0.00016476191748188905 0.00016475797936673283
          0.00016112671459320895 0.00016112597506805844 0.00016112338560672366 0.00015710946158771686 0.00015710927785696782 0.00015710814735407899
          0.00015285492383203418 0.00015285540724395923 0.00015285684973922363 0.00018484510570662392 0.00018477662284130785 0.00018484533910428303
          0.00018477684948262535 0.0001848460168736875 0.0001847774992815529 0.0001867634352303202 0.00018668507860995074 0.00018676316991770502
          0.0001866847974231225 0.0001867623450653653 0.00018668391815013536 0.00018866085249174516 0.0001885747380447344 0.00018866081666454746
          0.00018857471140037502 0.00018866074026030756 0.00018857468005297533 0.00019055744764129217 0.00019046467779236962 0.00019055732895372588
          0.00019046455681007848 0.00019055696337815393 0.0001904641854496762 0.00019245429241849534 0.00019235901775808604 0.00019245419428100223
          0.00019235891766005483 0.00019245390549746575 0.00019235863800735092 0.00019435137510522135 0.00019426003442115367 0.0001943512748007693
          0.00019425993829202273 0.00019435097322874652 0.00019425964490493494 0.00019624580553700982 0.0001961662087931243 0.00019624571545307984
          0.0001961661229112901 0.00019624544747801333 0.00019616586539968056 0.0001981334904180127 0.00019807468581171394 0.00019813341181295973
          0.00019807460574716026 0.00019813317067549625 0.00019807436944900756 0.00018499575913687627 0.00018499593886562652 0.0001849964580787901
          0.0001869187526303242 0.00018691853244409354 0.00018691784545201988 0.00018883287787777167 0.00018883282798535337 0.0001888327051203523
          0.0001907460437883573 0.0001907459196759773 0.00019074553932083433 0.00019265405459948878 0.00019265394295239264 0.00019265362662391363
          0.00019455514507754417 0.0001945550359358552 0.00019455471410210104 0.00019644407816658463 0.00019644398629647323 0.00019644371061032243
          0.0001983146763290305 0.00019831458955418688 0.0001983143411140732 0.00018518241925139756 0.00018518280249133254 0.00018518404407954453
          0.00018714774726633413 0.00018714767834979274 0.00018714742347324817 0.00018910282272051936 0.00018910265529526927 0.00018910217003778994
          0.00019104174010176834 0.00019104162953510664 0.00019104130434382507 0.00019297106201207766 0.000192970932015079 0.00019297054868872232
          0.0001948843277395616 0.0001948842089035119 0.00019488385726276766 0.0001967735403466245 0.00019677344019531262 0.0001967731434924071
          0.00019863016319281496 0.00019863007403079673 0.00019862981095555962 0.00018549791644046696 0.00018549786205131845 0.0001854977601845529
          0.000187494493293325 0.00018749455339138853 0.00018749474456664726 0.00018948707232047408 0.00018948684062156226 0.0001894861222028469
          0.00019146688532277088 0.00019146676332164168 0.0001914664272286179 0.0001934284828300067 0.0001934283313796717 0.00019342787125234504
          0.00019536098419427363 0.0001953608489599032 0.0001953604503885828 0.00019725442364169446 0.0001972543173667639 0.00019725400089137137
          0.0001990981250627628 0.0001990980317278872 0.00019909775301101733 0.00018595201485947695 0.00018595063385108945 0.00018594653508774596
          0.00018796250300956384 0.00018796260189813297 0.00018796296492564165 0.0001900198568899952 0.00019001980807899587 0.00019001966478961608
          0.00019205886948432603 0.0001920586037551008 0.0001920577855630575 0.00019405942154352077 0.00019405928726953854 0.0001940589075002691
          0.00019601521474924103 0.0001960150487411245 0.0001960145399120207 0.00019791217901902997 0.0001979120648021441 0.00019791172782225336
          0.0001997391264104094 0.00019973902430410966 0.0001997387133337169 0.00018294075188764964 0.0001829375857877568 0.00018292807129687282
          0.0001862889307967703 0.00018628641154368658 0.00018627877568790264 0.00018865543877794887 0.00018865462312614805 0.00018865219537327746
          0.00019076172582300165 0.00019076167879454513 0.0001907615913862404 0.0001928609525253085 0.0001928607257906784 0.00019286001960873471
          0.00019490726957858287 0.0001949070776446457 0.00019490651510506554 0.00019688143509876882 0.00019688125187217377 0.00019688069944405592
          0.00019877283285204856 0.00019877272139753917 0.00019877239945682374 0.00020056963183742398 0.00020056953557514025 0.00020056925205115352
          0.00018206144868951763 0.00018205853742829997 0.00018204980704940375 0.00018643526844937797 0.00018643180531903596 0.0001864213646635432
          0.0001894883797089223 0.0001894861557906821 0.00018947947137579714 0.00019177086235603867 0.00019177043552732247 0.00019176917853715752
          0.0001939352212867778 0.000193935145566168 0.00019393494146488778 0.00019601771530142268 0.00019601745649559457 0.00019601666225982624
          0.0001979956834093132 0.00019799546170454928 0.00019799479761176922 0.00019986196607574622 0.00019986180612039303 0.00019986131995221814
          0.00020159553926833495 0.00020159540449547466 0.00020159499312356647 0.000180747688054726 0.00018074506011532367 0.000180737133651463
          0.00018632775452759553 0.0001863238246392225 0.00018631198256424143 0.00019036610071785672 0.0001903625300633369 0.00019035184144353023
          0.00019310831668967798 0.00019310686520502152 0.00019310253781384512 0.00019532884143279303 0.00019532869194943035 0.00019532833739857206
          0.00019743472696652012 0.00019743454138114138 0.00019743397180243595 0.00019940937091664638 0.00019940905524613468 0.0001994081015125484
          0.00020120540857224787 0.0002012053433582016 0.00020120520585688027 0.00020278770663282206 0.00020278764492911305 0.00020278745838841908
          0.0001790242174648333 0.00017902235031795074 0.0001790170081330034 0.00018610697855255708 0.00018610248122866838 0.00018608890474155899
          0.00019132882873775458 0.00019132320070916722 0.0001913061202232305 0.00019469132470754713 0.0001946888050783166 0.00019468108080039585
          0.00019706580946476674 0.00019706545463021052 0.00019706441138964045 0.00019926340781271007 0.00019926316935256507 0.0001992625171780923
          0.00020124350992178775 0.0002012428902745907 0.00020124095298044883 0.00020287515441921302 0.0002028748990152461 0.00020287411690491868
          0.00020403876717382956 0.0002040387396885619 0.00020403862953307384 0.00019940890079971738 0.0001994635957245145 0.00019940882634409955
          0.0001994635227422566 0.00019940861233127443 0.00019946330603208272 0.00019963136069484647 0.0001996312803273907 0.0001996310500183965
          0.00019992179150516917 0.0001999217042105198 0.00019992145676855973 0.00020034869637235953 0.00020034860413456452 0.00020034833148867257
          0.00020092625109212407 0.000200926151500181 0.00020092585660127005 0.00020166238532836798 0.0002016622720220883 0.0002016619265352545
          0.00020254521187625435 0.00020254511363700968 0.00020254481594948507 0.00020352420196163913 0.00020352406367983485 0.00020352358290565435
          0.00020431873674616038 0.00020431904179664542 0.00020431997820269724 0.00020074178422951943 0.0002007915586393691 0.00020074172067299567
          0.0002007914946760183 0.00020074153124877546 0.00020079130500068982 0.00020094369006688631 0.0002009436232163117 0.00020094343053450212
          0.00020120574984266307 0.00020120568049708062 0.00020120548767074253 0.00020158793956472074 0.00020158787246278353 0.0002015876861748279
          0.000202099289405858 0.0002020992293507167 0.00020209906383603278 0.00020274008473716517 0.00020274004155822607 0.00020273992483524223
          0.00020348802096941982 0.00020348803533415543 0.00020348809154858015 0.00020426025205863915 0.00020426034431360863 0.00020426065139306205
          0.0002047701659853591 0.0002047707033415586 0.00020477239369926789 0.00020207246822671055 0.00020211660067310383 0.0002020724137890012
          0.00020211654673864957 0.0002020722528160591 0.00020211638540918041 0.00020225113479096035 0.00020225108097695203 0.00020225091753055214
          0.00020248188755838872 0.00020248183251521783 0.00020248166773045964 0.00020281614996482672 0.00020281609778108935 0.0002028159382769558
          0.00020325877054259763 0.00020325872664806946 0.0002032585823759242 0.0002038045067614094 0.00020380448446705694 0.0002038043938621999
          0.00020442210374945185 0.000204422117883514 0.0002044221280534451 0.00020501556295720276 0.00020501565683919072 0.00020501589844157617
          0.00020535243017798393 0.0002053526750096292 0.00020535333668750914 0.00020340034313276332 0.00020343821043906845 0.00020340029901925658
          0.00020343816564892474 0.00020340016558866543 0.00020343803326240912 0.00020355336619762572 0.00020355332193040782 0.00020355318980238378
          0.00020375013368489846 0.00020375009116371798 0.0002037499643425957 0.00020403345931060596 0.00020403341871234908 0.00020403330085526627
          0.00020440507260489706 0.00020440504189461924 0.00020440494898038675 0.000204855834362948 0.00020485582425862952 0.00020485578622167816
          0.00020535004683536838 0.00020535007232097533 0.00020535014462268135 0.00020579679710344229 0.00020579688936757788 0.00020579715635427528
          0.00020602216876563435 0.00020602236608676874 0.00020602297248049705 0.0002047251472895357 0.00020475619093246355 0.00020472511036829168
          0.00020475615340273662 0.00020472500187417538 0.00020475604701939373 0.00020485039699502403 0.000204850360446011 0.00020485025674655971
          0.0002050108208010874 0.00020501078452742945 0.0002050106862787719 0.00020524059450831593 0.00020524056046268031 0.00020524047205932314
          0.000205539381213592 0.00020553935908614303 0.0002055392976802646 0.00020589619659796087 0.00020589619233668985 0.0002058961792637985
          0.0002062764501029419 0.00020627647773856724 0.0002062765516583204 0.00020660392163278796 0.0002066039986059053 0.00020660421517684088
          0.0002067545872851201 0.00020675472423998796 0.0002067551051225758 0.00020604696758639391 0.00020607070029514298 0.00020604694016009768
          0.0002060706716240064 0.00020604685917615192 0.00020607059109072057 0.00020614261687820778 0.00020614258966961555 0.0002061425137188643
          0.00020626469975892808 0.00020626467255187818 0.00020626459924243088 0.00020643879250299775 0.00020643877191349534 0.00020643871041243675
          0.00020666352887643076 0.0002066635208090709 0.00020666348398004422 0.00020692835639569076 0.00020692836427424003 0.00020692836938087172
          0.00020720414027834667 0.0002072041762036657 0.00020720424917608805 0.00020743316163893363 0.00020743322499628926 0.00020743338879156552
          0.0002075312632474105 0.00020753135678695878 0.00020753162594277133 0.00020736622399498245 0.00020738226213086873 0.00020736620760464399
          0.00020738224380241848 0.000207366155837638 0.00020738219043538604 0.0002074308255144272 0.00020743080641662506 0.00020743075568445198
          0.0002075130403463317 0.00020751302303465086 0.00020751297463512594 0.00020762991303929982 0.00020762990074816012 0.00020762985987525626
          0.0002077799742376274 0.00020777996765550727 0.00020777994037977565 0.00020795504875641146 0.00020795505461060823 0.00020795505439842295
          0.00020813431453100027 0.0002081343395200627 0.0002081343939741471 0.0002082794688029941 0.00020827950964293223 0.00020827961192417397
          0.00020833843483156173 0.00020833850206082805 0.0002083386720752399 0.00020868360882752527 0.00020869169199728922 0.0002086835992522493
          0.00020869168306505376 0.00020868357224391326 0.0002086916563572999 0.00020871615871239862 0.00020871614921115026 0.00020871612413614154
          0.00020875750662296047 0.00020875749970985163 0.0002087574781488713 0.0002088161803123991 0.00020881617668629804 0.00020881616143656473
          0.00020889131409167766 0.00020889131479014854 0.00020889131544278886 0.000208978486911173 0.00020897849094358252 0.00020897851348299112
          0.00020906681179996676 0.00020906681875413065 0.00020906684081082696 0.00020913731017863614 0.00020913732837702208 0.00020913738472667345
          0.00020916490569727398 0.00020916493887586035 0.00020916502122222163 0.00021000000000000006 0.00021000000000000006 0.00021000000000000006
          0.00021000000000000006 0.00021000000000000006 0.00021000000000000006 0.00021000000000000006 0.00021000000000000006 0.00021000000000000006
          0.00021000000000000006 0.00021000000000000006 0.00021000000000000006 0.00021000000000000006 0.00021000000000000006 0.00021000000000000006
          0.00021000000000000006 0.00021000000000000006 0.00021000000000000006 0.00021000000000000006 0.00021000000000000006 0.00021000000000000006
          0.00021000000000000006 0.00021000000000000006 0.00021000000000000006 0.00021000000000000006 0.00021000000000000006 0.00021000000000000006
          0.00021000000000000006 0.00021000000000000006 0.00021000000000000006
        </DataArray>
        <DataArray type="Float64" Name="disp_y" format="ascii" RangeMin="-0.000041581583159230006" RangeMax="0">
          -0.000019720237165785557 -0.000023202291419370744 -0.000026652668784860928 -0.000025465200192805375 -0.0000197196868675828 -0.00002320206946378672
          -0.00002665326312205066 -0.000025465861836655502 -0.000019717976774053996 -0.000023201189208948622 -0.000026655143569008036 -0.000025467586660370584
          -0.000025620957785077674 -0.000023614709275519615 -0.000021126505788373187 -0.000023831109811641723 -0.00002562217195105454 -0.000023615673092971005
          -0.000021126777605013685 -0.000023831805154715265 -0.000025625988459036965 -0.00002361824679471707 -0.000021127475154073317 -0.000023833566986729902
          -0.000022006220172356525 -0.00002568608492868014 -0.00002200617415349838 -0.000025686527554563756 -0.00002200637397208224 -0.000025688368199446713
          -0.000018608072925155625 -0.000015711289840240593 -0.000018718087683384773 -0.000018608147048280015 -0.000015710910103373666 -0.000018717762091287504
          -0.000018608555761631355 -0.00001570944544210461 -0.00001871716104036036 -0.00003178946420263999 -0.000033607691207059436 -0.00003490729742340583
          -0.000032121562784289365 -0.00003179002628037951 -0.00003360822676436948 -0.00003490793300363101 -0.00003212237425989388 -0.00003179170098789227
          -0.000033609300468226115 -0.00003490974131321572 -0.00003212440428753528 -0.00003350277715820578 -0.00003513910426450973 -0.000034241478298263625
          -0.00003197963168471891 -0.000033503517488881866 -0.00003513957326407732 -0.00003424176395871593 -0.00003198036855274424 -0.000033505697469267845
          -0.00003514096839511524 -0.00003424267534841023 -0.000031982639453997504 -0.00002597805930867159 -0.000024585261398845528 -0.00002169894790430156
          -0.000025980196120017187 -0.00002458836766272161 -0.000021700688538383117 -0.000025986484757738177 -0.000024597908623053552 -0.00002170585502670048
          -0.000016342528868164323 -0.000016341492150388868 -0.000016338457718199987 -0.000020100392050577445 -0.000023095278862119172 -0.000020103326991002794
          -0.000023098926339889312 -0.00002011280178080602 -0.00002311112782710159 -0.000013152007663651813 -0.000012764330364163789 -0.00001315081207368556
          -0.000012763756006862957 -0.00001314744154135807 -0.000012762371667466368 -0.00003946222353086929 -0.00003978975508281582 -0.00003946313711650074
          -0.00003979064439323459 -0.00003946639262176296 -0.000039792430504623 -0.00003519907124331886 -0.00003568786167675585 -0.00003295048431815328
          -0.00003262001057182107 -0.00003519982523558285 -0.000035688716078372916 -0.000032951559859881915 -0.00003262062056646643 -0.00003520221193924085
          -0.000035691378987097775 -0.00003295462131195894 -0.00003262279814422249 -0.000026583570509234763 -0.00002658606988914584 -0.000026593436009762194
          -0.00003997121444888775 -0.000039973132771160086 -0.00003997956803115964 -0.000015867957812805112 -0.000015868556853823728 -0.00001587037075101524
          -0.000026645648321264783 -0.00002767167077622747 -0.000026646286933044618 -0.00002767280139785683 -0.00002664877266641337 -0.00002767598447064622
          -0.000029111761455265082 -0.00002877631198632242 -0.000030821948350583205 -0.000031576078402974174 -0.00002911270174811841 -0.000028779308528326114
          -0.000030825623548397876 -0.00003157844828789431 -0.000029114998806575048 -0.000028787689545781677 -0.00003083780081823909 -0.00003158525788360762
          -0.000028995093766571086 -0.000028960707872083436 -0.000028995731502559453 -0.000028961352697400297 -0.000028997848830630053 -0.000028963467845068574
          -0.000038101544760118715 -0.000038103357017762167 -0.00003810925615451368 -0.00003603364631922145 -0.00003603371283604675 -0.00003603463309362311
          -0.000035649011216318615 -0.000036698544345311515 -0.00003565208363945209 -0.00003670085823436114 -0.00003566236953971965 -0.00003670803494149218
          -0.00003108784640709097 -0.00003199870005699798 -0.000031088575951865706 -0.000031999702481198025 -0.000031091490853407444 -0.00003200274146466842
          -0.00002968526227078721 -0.00002847363813819192 -0.000029688600997209042 -0.000028476960676064882 -0.000029699840849872713 -0.00002848753147752369
          -0.000037816694660328986 -0.00003781794690976093 -0.00003782176218287964 -0.000025917379731734412 -0.000025920828382044234 -0.000025930727888118493
          -0.000037464386743788754 -0.0000374652920283954 -0.00003746841920223254 -0.0000269181177651232 -0.000026921524690664375 -0.00002693204806209183
          -0.00003629444907054587 -0.00003629619290071581 -0.00003629981106142116 -0.00004157872861004167 -0.00004108157169406701 -0.0000415802406534673
          -0.00004108222360268548 -0.000041581583159230006 -0.00004108416242581314 -0.000029423997578848276 -0.000029424720890035747 -0.000029427287600534176
          -0.00003000305797444954 -0.000030100103852375206 -0.00003000383317443438 -0.000030101312552741303 -0.00003000650705596794 -0.000030105069219711655
          -0.0000312188953700402 -0.000032739697615060573 -0.00003122100055818097 -0.000032742966076291304 -0.000031227270368635294 -0.000032752939280294725
          -0.00002937870967433816 -0.000030308098088171935 -0.000029379358880461208 -0.000030309054242578596 -0.000029381871731131875 -0.00003031204033437711
          -0.000034552148316311154 -0.000034553867146567225 -0.000034559406347707116 -0.000040473974655762175 -0.000040474906261082196 -0.00004047980583670746
          -0.00003382478225430789 -0.00003382802555375052 -0.00003383832982307439 -0.000037321713923537615 -0.00003866729217567132 -0.000037322285072277646
          -0.00003866865225819018 -0.00003732478933449851 -0.000038673202733144204 -0.00003973366528792433 -0.00004019928351504346 -0.00003973447661024437
          -0.00004019984232211398 -0.00003973832716766618 -0.00004020257621804249 -0.000037667956111065134 -0.000036724096912488975 -0.00003826265711655197
          -0.00003766822424994449 -0.000036724271582126053 -0.00003826326516391792 -0.000037668928886606846 -0.000036725046612868925 -0.00003826349973809282
          -0.000038781176089413464 -0.00003878137980820591 -0.000038782748105021815 -0.000028014082101512698 -0.000029270602798821922 -0.000028016866516107786
          -0.00002927211591782167 -0.000028024691609104643 -0.000029276501613895093 -0.000028469200634578736 -0.000027649846425357364 -0.00002846955766178653
          -0.00002765019790386252 -0.000028471312417642865 -0.000027650547458113854 -0.000037355997266882095 -0.00003735621936473438 -0.00003735707180600752
          -0.00003914066384161903 -0.00003914191155359418 -0.00003914531996163645 -0.000028386447348257767 -0.000028387438803785545 -0.000028391183931518894
          -0.00003298007475833053 -0.0000344631589166932 -0.00003298057535326253 -0.0000344639202608547 -0.00003298334376076017 -0.000034466443427158495
          -0.00003591895072667348 -0.00003591928442226985 -0.00003592087606562609 -0.00003146427160327154 -0.000031465178764145276 -0.00003146834118803093
          -0.000027371757592375246 -0.000027373109780100758 -0.000027378153129767843 -0.000029903793045350135 -0.00002990419595365324 -0.000029906659232685274
          -0.000028332174681133947 -0.000028331463389841988 -0.000028330477396907845 -0.00002674240111373666 -0.00002674175677649206 -0.000026740252448941476
          -0.000009056555110743809 -0.000009055024446241046 -0.000009050417804477982 -0.000011801410780657422 -0.000011800094994334826 -0.000011796173084316828
          -0.000014836580154802057 -0.000014835300450627144 -0.000014831662677276013 -0.000018145330799302525 -0.000018144344872606785 -0.00001814139537928143
          -0.00002164768909203993 -0.000021646935398164317 -0.00002164526670265932 -3.278635544435234e-7 0 -3.2787023218846396e-7
          0 -3.2788498116857127e-7 0 -3.6341548812591266e-7 0 -3.6341189138683505e-7
          0 -3.6339642342655577e-7 0 -4.143937723999262e-7 0 -4.1438755759914947e-7
          0 -4.1436965153435934e-7 0 -4.843454132021217e-7 0 -4.843407355174121e-7
          0 -4.843232131883028e-7 0 -5.67096876120951e-7 0 -5.67098996689762e-7
          0 -5.671015024941141e-7 0 -6.578127006942823e-7 0 -6.578191745077582e-7
          0 -6.578371081297448e-7 0 -7.525574073175163e-7 0 -7.525682094506056e-7
          0 -7.526000417953279e-7 0 -8.483372731435061e-7 0 -8.48350057115639e-7
          0 -8.483875034891692e-7 0 -6.55022139930439e-7 -6.551906090503149e-7 -6.557120366497716e-7
          -7.205501826458474e-7 -7.204832630836286e-7 -7.202924648763911e-7 -8.283424220039155e-7 -8.283294315631795e-7 -8.28286275537493e-7
          -9.709145349142836e-7 -9.709107360065197e-7 -9.70893698744274e-7 -0.0000011370474612932466 -0.0000011370526880977806 -0.0000011370704586608895
          -0.0000013178985643466385 -0.0000013179127996351359 -0.0000013179569645550944 -0.0000015053201717139027 -0.000001505342600422304 -0.0000015054131409860643
          -0.0000016933674601127662 -0.0000016933942343578469 -0.0000016934759839840723 -9.760181954134485e-7 -9.761719964580294e-7 -9.766922487824104e-7
          -0.000001075069515046194 -0.0000010749188329054486 -0.0000010744230954121066 -0.0000012425642067252452 -0.0000012425618012980866 -0.0000012425771878951975
          -0.0000014590355156346165 -0.0000014590208864571895 -0.0000014589784172709092 -0.0000017098818715964062 -0.000001709891842636627 -0.0000017099239776575326
          -0.000001979336669712659 -0.0000019793607188760058 -0.0000019794352104188558 -0.000002255730929864683 -0.0000022557689382550114 -0.0000022558859735966578
          -0.0000025300416112991138 -0.0000025300846005023623 -0.0000025302166526835367 -0.0000012627181121548292 -0.000001262543308543189 -0.0000012620877738441911
          -0.000001431099782167347 -0.000001431260715521285 -0.0000014317794981578312 -0.000001653771354482972 -0.000001653669984036768 -0.000001653357773167863
          -0.000001949263568382376 -0.000001949267421508312 -0.000001949293261559681 -0.0000022839022301768017 -0.0000022839209855952846 -0.000002283975684980358
          -0.000002638294572835392 -0.0000026383361664760854 -0.000002638462622026409 -0.000002997689141582958 -0.000002997747317171387 -0.000002997932257997527
          -0.0000033495950512812556 -0.0000033496615126501495 -0.0000033498707394026796 -0.000001570150781647893 -0.0000015692065928987603 -0.000001566404288831538
          -0.0000017639837478977414 -0.000001764033994399039 -0.0000017642752211029187 -0.000002066168078818875 -0.000002066126142450847 -0.0000020659936958796466
          -0.0000024392972172317157 -0.0000024393057262306813 -0.0000024393408737242585 -0.000002853082581478881 -0.0000028531203972234893 -0.0000028532379449586304
          -0.0000032852463022834286 -0.000003285306912411908 -0.0000032854914761299197 -0.0000037189198274303123 -0.000003719002365603911 -0.0000037192565626926314
          -0.0000041375590700147426 -0.000004137645849262627 -0.0000041379097321762565 -0.000002847037724715707 -0.0000028445485077544 -0.0000028370160594339685
          -0.0000020197945840471242 -0.000002017673587724567 -0.0000020111905859758094 -0.000002077590728571085 -0.0000020769424562196067 -0.00000207501666957609
          -0.0000024749273124584966 -0.000002475080540070024 -0.000002475602787575589 -0.0000029219184147981723 -0.0000029219046620169065 -0.0000029218403846017382
          -0.000003403544995362102 -0.0000034036077645145714 -0.000003403810793425763 -0.000003900362351908408 -0.000003900454532769525 -0.00000390073519334654
          -0.00000439825301277993 -0.000004398395627224459 -0.000004398838323790916 -0.0000048717025391700845 -0.000004871862271708679 -0.000004872362432456414
          -0.0000042361262109310925 -0.0000042336596838760804 -0.0000042262444304427305 -0.0000027723503583070313 -0.000002769998113551943 -0.0000027630038613679655
          -0.0000024583877338634615 -0.000002457156229494285 -0.0000024534494885623245 -0.0000028650184938036676 -0.000002864951984381925 -0.000002864817885280055
          -0.000003383682996190897 -0.0000033838123028653022 -0.0000033842177058283418 -0.000003905982928045279 -0.000003906065108594433 -0.000003906319127521976
          -0.0000044505871064512016 -0.00000445070295741909 -0.000004451046897986828 -0.00000500359019701434 -0.00000500373656391211 -0.000005004174206645844
          -0.0000055191793262323295 -0.000005519304682344897 -0.000005519671013201003 -0.000006175368028529695 -0.0000061725672092057485 -0.000006164160922475166
          -0.000004002530660685604 -0.000003999309455038485 -0.000003989647956876655 -0.0000030996286427433187 -0.000003097522994311902 -0.0000030911738044263375
          -0.0000032586844495001154 -0.0000032581263502373084 -0.00000325652151642162 -0.00000379649151911374 -0.0000037966316846098624 -0.0000037971025534470173
          -0.0000043189488591907744 -0.000004319004214970412 -0.0000043191612065131 -0.000004882873971508789 -0.0000048830533639658134 -0.000004883598721618975
          -0.000005472591708041322 -0.000005472941483737249 -0.000005474014288085585 -0.000006023127285763727 -0.0000060236057945025394 -0.000006025032608021424
          -0.00000867079776773746 -0.000008666982306324394 -0.000008655578350532551 -0.000005827499763644978 -0.0000058226718501315784 -0.0000058081571789593885
          -0.0000041255853527975325 -0.000004122913598258477 -0.0000041147488196885776 -0.0000037245276665354284 -0.0000037238240791294533 -0.000003721602093748938
          -0.000004132023664795193 -0.000004132056874782042 -0.0000041321450101651064 -0.000004592863211123255 -0.000004592861858030695 -0.000004592872132626367
          -0.000005098215739936495 -0.000005098467074208513 -0.000005099224569828969 -0.0000056584030547079656 -0.0000056590477733803135 -0.000005660983024090361
          -0.000006288786465053571 -0.00000628972661013163 -0.0000062926016695648995 0 -8.803684110426857e-7 0
          -8.803835873736192e-7 0 -8.80428110866566e-7 -0.0000017557620133969962 -0.0000017557922023913284 -0.0000017558861583604138
          -0.0000026195843273142893 -0.0000026196322921377383 -0.000002619780029576387 -0.0000034622288235074538 -0.0000034623023010478528 -0.0000034625311018515764
          -0.000004269637508697527 -0.000004269734577470244 -0.000004270030935094638 -0.000005021664769490687 -0.0000050218320144858 -0.0000050223470016249145
          -0.000005691228288748673 -0.000005691402542120796 -0.000005691917543008333 -0.000006236363137005947 -0.00000623680034749585 -0.000006238127544413102
          -0.0000065766386377502435 -0.000006577432504480885 -0.000006579816263658908 0 -9.069722478112222e-7 0
          -9.069874455563925e-7 0 -9.070338684032923e-7 -0.0000018070867728506954 -0.000001807117147266615 -0.0000018072131197053693
          -0.0000026920652194284582 -0.0000026921142665686466 -0.000002692266116569504 -0.000003551049997882463 -0.0000035511225009201713 -0.0000035513427928649773
          -0.000004369425303997001 -0.0000043695259382106335 -0.000004369830491057112 -0.000005127577639303719 -0.000005127720678270071 -0.000005128148698166372
          -0.000005799785636319737 -0.000005799965461466676 -0.000005800504358800864 -0.000006340323153852949 -0.00000634060545634928 -0.000006341439810810604
          -0.000006712316080232768 -0.0000067126805568911146 -0.0000067137635846292015 0 -9.28351471101801e-7 0
          -9.283669972475869e-7 0 -9.284145509783434e-7 -0.0000018478837118206642 -0.0000018479155250157296 -0.0000018480139042019555
          -0.0000027484898963358784 -0.000002748539957236381 -0.000002748692818747499 -0.000003617720987107479 -0.0000036177922277876845 -0.0000036180092126715598
          -0.000004439781187888702 -0.000004439878140026087 -0.00000444016878846102 -0.000005194555551927811 -0.000005194682710100121 -0.000005195062432921293
          -0.0000058548433345441154 -0.0000058550002583448506 -0.000005855469709777976 -0.000006384398640284783 -0.000006384589124682021 -0.000006385155030628635
          -0.000006779787657603947 -0.000006779989634307182 -0.000006780599909441545 0 -9.449561197950139e-7 0
          -9.449720765239799e-7 0 -9.450197561302302e-7 -0.0000018791578474360416 -0.0000018791897829925646 -0.0000018792878969751739
          -0.000002790619782656395 -0.0000027906683743292494 -0.0000027908185608198864 -0.000003665160082448932 -0.0000036652281200733133 -0.000003665435603966355
          -0.000004485644373850905 -0.0000044857337219218504 -0.000004486002098668004 -0.000005231101834220927 -0.000005231213115329507 -0.0000052315444964245
          -0.00000587615219007389 -0.0000058762818748794295 -0.000005876668968657481 -0.000006398015771153555 -0.0000063981416010521495 -0.0000063985168660970876
          -0.000006812559371160067 -0.000006812675954949073 -0.000006813017919269504 0 -9.573712831192936e-7 0
          -9.57386694406647e-7 0 -9.574339359837086e-7 -0.0000019021701366630467 -0.0000019022014647586342 -0.0000019022983304162924
          -0.000002820642399353599 -0.0000028206896341121394 -0.0000028208355216144946 -0.000003696984538354998 -0.0000036970488963492286 -0.000003697245330129232
          -0.000004512840706299959 -0.000004512922463890332 -0.000004513167921156604 -0.000005247244018281194 -0.000005247340515948669 -0.0000052476299640392145
          -0.000005878849612036682 -0.00000587895287375981 -0.000005879263552967099 -0.000006396668208362877 -0.000006396753439112487 -0.0000063970111835706126
          -0.000006826757640645629 -0.000006826824600255508 -0.000006827022052027274 0 -9.662018283324433e-7 0
          -9.66217375983407e-7 0 -9.662643756821273e-7 -0.0000019182550059078114 -0.0000019182858365057687 -0.000001918381189155412
          -0.000002840884968043308 -0.0000028409310935208768 -0.0000028410733594365326 -0.000003716939539497938 -0.0000037170010110079597 -0.0000037171877529723593
          -0.000004527233260065486 -0.0000045273083319416945 -0.000004527534342415521 -0.000005251548355260951 -0.000005251633344934659 -0.000005251887051653183
          -0.000005872985332848507 -0.000005873069590782705 -0.000005873325658426779 -0.000006389217094067569 -0.000006389279525499285 -0.000006389466443290633
          -0.000006831295249493817 -0.0000068313374542335 -0.000006831457528125402 0 -9.720236319455906e-7 0
          -9.720388367909558e-7 0 -9.720854137419571e-7 -0.00000192866565391408 -0.000001928695532285823 -0.0000019287886019301173
          -0.0000028535003617132625 -0.000002853544346713661 -0.000002853680563226583 -0.000003728419672955271 -0.0000037284776938122735 -0.0000037286519774136877
          -0.000004533794703376539 -0.000004533865376015475 -0.000004534074382501972 -0.000005250391887316831 -0.0000052504685859814366 -0.000005250692661741214
          -0.000005864951666908196 -0.000005865025663359976 -0.000005865242775430006 -0.000006380868345372985 -0.000006380918175968278 -0.000006381058691617224
          -0.000006831454951118734 -0.000006831479264413792 -0.000006831549792144604 0 -9.75309686159129e-7 0
          -9.753249959501293e-7 0 -9.753715141375832e-7 -0.0000019344449759297184 -0.0000019344747420431126 -0.0000019345671237437766
          -0.0000028602851412460747 -0.000002860325756548289 -0.000002860453693786335 -0.000003734200564701406 -0.000003734258151021991 -0.0000037344282230769785
          -0.0000045363391052861065 -0.00000453640766572938 -0.000004536607732525 -0.000005248164418471562 -0.000005248235321878123 -0.000005248446956188875
          -0.00000585878099890766 -0.0000058588477459944595 -0.000005859042516923476 -0.000006374771893893535 -0.000006374805693822967 -0.000006374919436685967
          -0.0000068303138336903456 -0.000006830321235612218 -0.0000068303598495538895 0 -9.763703311652954e-7 0
          -9.763862187786194e-7 0 -9.76432670396711e-7 -0.0000019363021540031175 -0.0000019363286160785526 -0.0000019364180527459506
          -0.0000028624147880091295 -0.0000028624617256167697 -0.0000028625927858511282 -0.0000037359513068038322 -0.000003736015163253897 -0.000003736187679523884
          -0.000004536961234551712 -0.000004537030553165939 -0.000004537223281971644 -0.000005247203232675297 -0.000005247276566929966 -0.000005247488784897269
          -0.0000058564675812924066 -0.000005856527621129808 -0.000005856717432560855 -0.0000063724706660129415 -0.000006372508112438596 -0.000006372610674007255
          -0.000006829699871357846 -0.000006829713337359767 -0.000006829755562019729
        </DataArray>
        <DataArray type="Float64" Name="disp_z" format="ascii" RangeMin="-0.000001032006657604556" RangeMax="0">
          0 0 0 0 -3.564888628606147e-7 -3.6406393215377683e-7
          -3.648807069868837e-7 -3.738781807776774e-7 -7.1296617983136e-7 -7.281719120725023e-7 -7.299110746465272e-7 -7.474056835587658e-7
          0 0 0 0 -3.884875276273921e-7 -4.0188195566129704e-7
          -3.913817156587951e-7 -3.873054725531308e-7 -7.768680322773705e-7 -8.038501079451685e-7 -7.823699440487252e-7 -7.742317123213827e-7
          0 0 -3.797765569832273e-7 -3.7848124890608857e-7 -7.592850080046032e-7 -7.565590570511665e-7
          0 0 0 -3.933443733687269e-7 -3.6900910835068274e-7 -3.7242583938051293e-7
          -7.863864190388965e-7 -7.379395619577082e-7 -7.446481691499626e-7 0 0 0
          0 -3.589996517209411e-7 -3.565937348136375e-7 -3.603042495940159e-7 -3.60514605571802e-7 -7.182809551432229e-7
          -7.130514925926233e-7 -7.211764261325003e-7 -7.214589221301537e-7 0 0 0
          0 -3.5188043912007005e-7 -3.524604674464e-7 -3.559601425812638e-7 -3.573415512327689e-7 -7.03612083385374e-7
          -7.049579159577201e-7 -7.119656207622131e-7 -7.1475019007706e-7 0 0 0
          -4.0795541693521093e-7 -4.364479236764097e-7 -4.138869404848882e-7 -8.167016734457595e-7 -8.738155909166297e-7 -8.284905826873402e-7
          0 -3.3895589799828196e-7 -6.778693474671244e-7 0 0 -4.595973763712553e-7
          -4.910436802684805e-7 -9.195858123268702e-7 -9.819186262064775e-7 0 0 -3.179345630720522e-7
          -3.5533338356773064e-7 -6.35904840626027e-7 -7.105867744513218e-7 0 0 -3.790989016844434e-7
          -3.8468985675265124e-7 -7.579016922584365e-7 -7.705682351608066e-7 0 0 0
          0 -3.7333212634580094e-7 -3.918033045976362e-7 -3.8935343809344023e-7 -3.687610658315033e-7 -7.466984695608073e-7
          -7.834620898220498e-7 -7.788817765155025e-7 -7.379655007114234e-7 0 -5.145580742916017e-7 -0.000001032006657604556
          0 -3.953889157329642e-7 -7.91605417683576e-7 0 -4.0539760306121375e-7 -8.111779528507598e-7
          0 0 -3.7897246920740705e-7 -3.788810274154335e-7 -7.578603237550467e-7 -7.582438122676077e-7
          0 0 0 0 -5.054598437223113e-7 -4.959200632831971e-7
          -4.669762915504092e-7 -4.929907763682624e-7 -0.0000010103481113100749 -9.909666193044046e-7 -9.333864775703307e-7 -9.857391925255397e-7
          0 0 -3.6800510387762655e-7 -3.6817765395653685e-7 -7.360165701521752e-7 -7.361229891791373e-7
          0 -3.971093824601752e-7 -7.954425432607784e-7 0 -3.5636621298772864e-7 -7.129621855626874e-7
          0 0 -4.314112379518346e-7 -4.09810995454055e-7 -8.640994173263693e-7 -8.208052050696281e-7
          0 0 -3.5714979904203e-7 -3.5184969855773174e-7 -7.146328858391569e-7 -7.041499987880302e-7
          0 0 -4.38831956821005e-7 -4.780044842307594e-7 -8.779500863504988e-7 -9.553141420431786e-7
          0 -3.8900435601392414e-7 -7.782117334001176e-7 0 -5.159902268934216e-7 -0.0000010306592598951468
          0 -3.77423178682434e-7 -7.548655868728599e-7 0 -4.5139028922804616e-7 -9.032690800447499e-7
          0 -4.000431254238262e-7 -8.00641530277428e-7 0 0 -3.502164611993067e-7
          -3.5377062253002203e-7 -7.008905438770946e-7 -7.078054974594045e-7 0 -3.6804680531676027e-7 -7.363696340894488e-7
          0 0 -3.6965342578022694e-7 -3.8025838042174225e-7 -7.399352419464544e-7 -7.609584738245124e-7
          0 0 -4.100968243453121e-7 -4.275715837132914e-7 -8.209621804474016e-7 -8.559426574370425e-7
          0 0 -3.6416467870232195e-7 -3.565039150265878e-7 -7.278625411817379e-7 -7.129614855631297e-7
          0 -4.056821828027939e-7 -8.12167415166807e-7 0 -3.6127307928339213e-7 -7.231349322087739e-7
          0 -4.6443305994695474e-7 -9.290016229582486e-7 0 0 -3.6396245556052574e-7
          -3.6880501422516115e-7 -7.279922760872321e-7 -7.379850511701062e-7 0 0 -3.5838938474622566e-7
          -3.530961859307946e-7 -7.169179230144596e-7 -7.071019986315126e-7 0 0 0
          -3.5728116498459895e-7 -3.541453381702833e-7 -3.5743559562124505e-7 -7.148746858736554e-7 -7.088338134851675e-7 -7.146111033196965e-7
          0 -3.549521886009066e-7 -7.088159098646216e-7 0 0 -4.132180590911023e-7
          -3.9761462603066013e-7 -8.27687713733886e-7 -7.958185499277993e-7 0 0 -3.601858180453662e-7
          -3.6180248656460383e-7 -7.204901266351668e-7 -7.238419725784101e-7 0 -3.5233418016377107e-7 -7.046061009796154e-7
          0 -3.63759010592427e-7 -7.27403998828202e-7 0 -3.792839251011373e-7 -7.592399682085106e-7
          0 0 -3.463515398939031e-7 -3.458281273830963e-7 -6.926542583338971e-7 -6.918767647759678e-7
          0 -3.483781241357572e-7 -6.970235858774975e-7 0 -3.495335394190498e-7 -6.993751776427811e-7
          0 -3.9012428502166e-7 -7.809475434973191e-7 0 -3.540034390631361e-7 -7.082007324709949e-7
          0 -3.659402947673363e-7 -7.314593025083967e-7 0 -3.726336880730138e-7 -7.452155755606943e-7
          0 -2.8621210793126755e-7 -5.723093369052632e-7 0 -3.151166559085728e-7 -6.301929888513326e-7
          0 -3.3764529779430403e-7 -6.752498491142591e-7 0 -3.611241819742355e-7 -7.220472907726402e-7
          0 -3.742293266268773e-7 -7.483251687168928e-7 0 0 -6.59731357619463e-8
          -6.644796592170185e-8 -1.318682360656984e-7 -1.3286642374450558e-7 0 0 -6.042973435765251e-8
          -6.02361825588151e-8 -1.2082856604275978e-7 -1.204272209655719e-7 0 0 -5.9231248736225006e-8
          -5.921793200710787e-8 -1.1849517075078247e-7 -1.1847240672813962e-7 0 0 -5.7019753366921565e-8
          -5.6993260340752285e-8 -1.140235478556138e-7 -1.139660439248862e-7 0 0 -5.486306254864938e-8
          -5.488647851342426e-8 -1.097325650002334e-7 -1.0978057595411832e-7 0 0 -5.272426352338104e-8
          -5.2806427631603316e-8 -1.0544663313995354e-7 -1.0560993592532653e-7 0 0 -5.0709852518120724e-8
          -5.08462688239189e-8 -1.0142044669377689e-7 -1.016928749427283e-7 0 0 -4.8927656498879836e-8
          -4.908353169780873e-8 -9.785502709863461e-8 -9.816642337173881e-8 0 -6.530357266186487e-8 -1.305906731705494e-7
          0 -6.063929898406091e-8 -1.21254887306228e-7 0 -5.9443049470328025e-8 -1.1890860301677371e-7
          0 -5.7076807054722144e-8 -1.1414087846961472e-7 0 -5.473239234033016e-8 -1.0946947063768256e-7
          0 -5.244327346656437e-8 -1.0488537377537665e-7 0 -5.027846420332035e-8 -1.0055714935200241e-7
          0 -4.842695091306706e-8 -9.685428901999386e-8 0 -6.007801280868108e-8 -1.2019796562194965e-7
          0 -6.324726538026332e-8 -1.2642705962188288e-7 0 -5.961505575171269e-8 -1.192443380477083e-7
          0 -5.720475986193036e-8 -1.1441255203897773e-7 0 -5.452115145287335e-8 -1.0903912041292827e-7
          0 -5.195408851003496e-8 -1.0391056212407117e-7 0 -4.951068661330324e-8 -9.901938436733692e-8
          0 -4.75245689669865e-8 -9.504923293413558e-8 0 -6.021391286368649e-8 -1.205970963235238e-7
          0 -6.458585623224794e-8 -1.2916832918878333e-7 0 -5.99651172577488e-8 -1.1989462501378829e-7
          0 -5.734466273553757e-8 -1.1470981400005875e-7 0 -5.412494160106594e-8 -1.0823867741539087e-7
          0 -5.114420952100467e-8 -1.0229468935853407e-7 0 -4.8290631697773755e-8 -9.657986713346799e-8
          0 -4.611569750858813e-8 -9.223651984120198e-8 0 -6.822632146541622e-8 -1.3675921065515445e-7
          0 -5.898280936145204e-8 -1.1805975694720663e-7 0 -6.274546601453193e-8 -1.2546961588102457e-7
          0 -5.682189784185254e-8 -1.1362967388887215e-7 0 -5.348032040325863e-8 -1.069760075238058e-7
          0 -4.9885650655527766e-8 -9.976519677834672e-8 0 -4.64572670959718e-8 -9.2909791447788e-8
          0 -4.4024246515114593e-8 -8.804370863167467e-8 0 -1.6361053575803377e-7 -3.2721677873462125e-7
          0 -9.92407063710394e-8 -1.9877038959118665e-7 0 -6.494406286832478e-8 -1.3010834500073588e-7
          0 -6.069568130800358e-8 -1.2140956434280832e-7 0 -5.6909863440422216e-8 -1.1378824702852628e-7
          0 -5.2196155430905975e-8 -1.0439576081844066e-7 0 -4.805344613379401e-8 -9.611481300352975e-8
          0 -4.378484029900227e-8 -8.757376608899424e-8 0 -4.10959523400176e-8 -8.221287469663485e-8
          0 -2.136825787865008e-7 -4.272566295240356e-7 0 -1.461766132222735e-7 -2.9254935967386713e-7
          0 -8.283163408751898e-8 -1.659993522701767e-7 0 -5.8027647502002856e-8 -1.1622233012763307e-7
          0 -5.631188338387798e-8 -1.1263314788811228e-7 0 -5.03944139350447e-8 -1.0076278438783494e-7
          0 -4.543861291850056e-8 -9.08958794156342e-8 0 -3.9700492152142373e-8 -7.936767890118982e-8
          0 -3.6431120191166603e-8 -7.285286274192493e-8 0 -2.6023758249209107e-7 -5.203622707239582e-7
          0 -1.9336769809050727e-7 -3.8673787235518685e-7 0 -1.1482130534822892e-7 -2.2999499918245578e-7
          0 -6.33359776302273e-8 -1.2688462057500068e-7 0 -5.188050410021229e-8 -1.0381276614640262e-7
          0 -4.860661447878194e-8 -9.718593641853041e-8 0 -4.220202948810699e-8 -8.443118419880034e-8
          0 -3.48894673069953e-8 -6.976588663058024e-8 0 -3.150219538750347e-8 -6.303052651109014e-8
          0 -3.269337218583873e-7 -6.536834163204148e-7 0 -2.7665742137465745e-7 -5.533214058994275e-7
          0 -1.641377513805803e-7 -3.28587228865087e-7 0 -7.649795077413039e-8 -1.5343887188885238e-7
          0 -5.023516544609633e-8 -1.0054782156887979e-7 0 -4.8069783902008165e-8 -9.613864096135495e-8
          0 -3.672667535625968e-8 -7.3461875478157e-8 0 -2.140877131148202e-8 -4.279698765757683e-8
          0 -1.0701497952112545e-8 -2.1408515050876502e-8 0 0 -4.797401785062557e-8
          -4.778774926490174e-8 -9.59481565373895e-8 -9.557536887115832e-8 0 -4.720107253765783e-8 -9.440145626170635e-8
          0 -4.6164019319159386e-8 -9.23256195458434e-8 0 -4.457005037135772e-8 -8.913834208375585e-8
          0 -4.2238077341028586e-8 -8.446711721269102e-8 0 -3.8999200762258695e-8 -7.799603284992521e-8
          0 -3.3897499239221016e-8 -6.776958998998561e-8 0 -2.775929072830175e-8 -5.5482782987660115e-8
          0 -1.0095236747122884e-8 -2.012984474485578e-8 0 0 -4.6977836980114985e-8
          -4.678112437291139e-8 -9.395566146515865e-8 -9.356235605440358e-8 0 -4.617300383559699e-8 -9.234673759212935e-8
          0 -4.511244040099125e-8 -9.022630539064908e-8 0 -4.3514312358223e-8 -8.703166422520013e-8
          0 -4.126090420408067e-8 -8.252582301209848e-8 0 -3.8132455570077185e-8 -7.627596995595495e-8
          0 -3.3894397218249325e-8 -6.780076557317069e-8 0 -2.827357431585715e-8 -5.65831572648434e-8
          0 -1.9663384151948958e-8 -3.9364899889889347e-8 0 0 -4.611295304451831e-8
          -4.5909921276362555e-8 -9.222607874571145e-8 -9.181993225413356e-8 0 -4.528824468659108e-8 -9.05763423051433e-8
          0 -4.421484615907682e-8 -8.842931516193901e-8 0 -4.263406220249218e-8 -8.526696997115073e-8
          0 -4.045480485122075e-8 -8.090709941706957e-8 0 -3.758293841316866e-8 -7.516226633081222e-8
          0 -3.3904204132906156e-8 -6.779894153781756e-8 0 -2.94695403047199e-8 -5.892437940323265e-8
          0 -2.430930342238232e-8 -4.8560619038253975e-8 0 0 -4.537981920398326e-8
          -4.517595337003207e-8 -9.075962647341338e-8 -9.035184369209085e-8 0 -4.455252992208088e-8 -8.910502825583892e-8
          0 -4.3490285507820296e-8 -8.698087549630027e-8 0 -4.195325511892075e-8 -8.390676564120601e-8
          0 -3.990072251597576e-8 -7.980233760139057e-8 0 -3.731250442106449e-8 -7.462581693770817e-8
          0 -3.4204789639275674e-8 -6.841342728563951e-8 0 -3.082093365116171e-8 -6.164588085005309e-8
          0 -2.7754144800522555e-8 -5.5521327944184066e-8 0 0 -4.478057493839021e-8
          -4.4576417914443e-8 -8.956096985589533e-8 -8.915268034122538e-8 0 -4.395888447464841e-8 -8.791763632382019e-8
          0 -4.2917336031893697e-8 -8.583441801708416e-8 0 -4.1437836700328446e-8 -8.287555594971886e-8
          0 -3.9522673960804574e-8 -7.904551323113811e-8 0 -3.7205142144459775e-8 -7.441024014388854e-8
          0 -3.459263488754142e-8 -6.918561982653482e-8 0 -3.2021718891306906e-8 -6.404089195315796e-8
          0 -3.012619925409507e-8 -6.024169554193935e-8 0 0 -4.431636906262859e-8
          -4.4112386335080155e-8 -8.863301654008267e-8 -8.822476307541801e-8 0 -4.3503769624798355e-8 -8.700743512559031e-8
          0 -4.248410418994809e-8 -8.496817886523261e-8 0 -4.1063480300691716e-8 -8.212699213982907e-8
          0 -3.9272761491353275e-8 -7.85452786656988e-8 0 -3.718648466456936e-8 -7.437239214596766e-8
          0 -3.496513135903658e-8 -6.993190220810988e-8 0 -3.2964526645535534e-8 -6.592789372719616e-8
          0 -3.175440238974402e-8 -6.350962147775737e-8 0 0 -4.398751833212111e-8
          -4.3784401588226605e-8 -8.797522690550157e-8 -8.756883584675024e-8 0 -4.318327765318243e-8 -8.636647318198387e-8
          0 -4.218598028038825e-8 -8.437222085791731e-8 0 -4.081593146338809e-8 -8.163196872735506e-8
          0 -3.9120584313666144e-8 -7.824139035068018e-8 0 -3.721002014646768e-8 -7.442032936546943e-8
          0 -3.526468885097613e-8 -7.052827838017352e-8 0 -3.363800665795152e-8 -6.727405921738238e-8
          0 -3.283589198159369e-8 -6.566988171537971e-8 0 0 -4.3789992271410494e-8
          -4.3589277824785646e-8 -8.75798103631682e-8 -8.717859043804403e-8 0 -4.29947470035579e-8 -8.598946039759707e-8
          0 -4.2017191080367495e-8 -8.403454780708083e-8 0 -4.067724070929234e-8 -8.135362768052736e-8
          0 -3.9044642976700074e-8 -7.80881277696695e-8 0 -3.7231070492310935e-8 -7.44583481950997e-8
          0 -3.546317373210625e-8 -7.09265569124172e-8 0 -3.4043403346331875e-8 -6.808517965448464e-8
          0 -3.345356493305057e-8 -6.690536495184737e-8 0 0 -4.372539201758755e-8
          -4.3523285934039616e-8 -8.745048672764333e-8 -8.704682082603445e-8 0 -4.293578493220389e-8 -8.587148438240144e-8
          0 -4.197040425731064e-8 -8.394014218626815e-8 0 -4.0670179802635345e-8 -8.133986021479156e-8
          0 -3.9116460071612366e-8 -7.82302257615111e-8 0 -3.743754292361833e-8 -7.48720897801501e-8
          0 -3.554540729502004e-8 -7.108964484313754e-8 0 -3.4243193371987816e-8 -6.848393888441284e-8
          0 -3.369441313222604e-8 -6.738559197610705e-8
        </DataArray>
      </PointData>
      <CellData>
        <DataArray type="Int32" Name="libmesh_elem_id" format="ascii" RangeMin="1398" RangeMax="3643">
          1398 1399 1422 1423 1460 1461
          1470 1471 1482 1483 1494 1495
          1502 1503 1506 1507 1520 1521
          1528 1529 1580 1581 1584 1585
          1612 1613 1636 1637 1652 1653
          1722 1723 1798 1799 1850 1851
          2298 2299 2406 2407 2442 2443
          2450 2451 2472 2473 2558 2559
          2610 2611 2646 2647 2648 2649
          2662 2663 2672 2673 2680 2681
          2748 2749 2756 2757 2776 2777
          2808 2809 2814 2815 2822 2823
          2828 2829 2836 2837 2852 2853
          2876 2877 2898 2899 2910 2911
          2926 2927 2936 2937 2950 2951
          2952 2953 2954 2955 2966 2967
          2980 2981 2982 2983 2990 2991
          3006 3007 3014 3015 3026 3027
          3068 3069 3074 3075 3104 3105
          3110 3111 3124 3125 3126 3127
          3168 3169 3194 3195 3204 3205
          3208 3209 3210 3211 3212 3213
          3220 3221 3222 3223 3224 3225
          3226 3227 3234 3235 3236 3237
          3240 3241 3252 3253 3254 3255
          3264 3265 3296 3297 3302 3303
          3308 3309 3314 3315 3324 3325
          3326 3327 3328 3329 3330 3331
          3332 3333 3334 3335 3336 3337
          3342 3343 3344 3345 3346 3347
          3348 3349 3350 3351 3352 3353
          3354 3355 3360 3361 3362 3363
          3364 3365 3366 3367 3368 3369
          3370 3371 3372 3373 3378 3379
          3380 3381 3382 3383 3384 3385
          3386 3387 3388 3389 3390 3391
          3396 3397 3398 3399 3400 3401
          3402 3403 3404 3405 3406 3407
          3408 3409 3414 3415 3416 3417
          3418 3419 3420 3421 3422 3423
          3424 3425 3426 3427 3430 3431
          3432 3433 3434 3435 3436 3437
          3438 3439 3440 3441 3442 3443
          3444 3445 3448 3449 3450 3451
          3452 3453 3454 3455 3456 3457
          3458 3459 3460 3461 3462 3463
          3466 3467 3468 3469 3470 3471
          3472 3473 3474 3475 3476 3477
          3478 3479 3480 3481 3482 3483
          3484 3485 3486 3487 3488 3489
          3490 3491 3492 3493 3494 3495
          3496 3497 3498 3499 3500 3501
          3502 3503 3504 3505 3506 3507
          3508 3509 3510 3511 3512 3513
          3514 3515 3516 3517 3518 3519
          3520 3521 3522 3523 3524 3525
          3526 3527 3528 3529 3530 3531
          3532 3533 3534 3535 3536 3537
          3538 3539 3540 3541 3542 3543
          3544 3545 3546 3547 3548 3549
          3550 3551 3552 3553 3554 3555
          3556 3557 3558 3559 3560 3561
          3562 3563 3564 3565 3566 3567
          3568 3569 3570 3571 3572 3573
          3574 3575 3576 3577 3578 3579
          3580 3581 3582 3583 3584 3585
          3586 3587 3588 3589 3590 3591
          3592 3593 3594 3595 3596 3597
          3598 3599 3600 3601 3602 3603
          3604 3605 3606 3607 3608 3609
          3610 3611 3612 3613 3614 3615
          3616 3617 3618 3619 3620 3621
          3622 3623 3624 3625 3626 3627
          3628 3629 3630 3631 3632 3633
          3634 3635 3636 3637 3638 3639
          3640 3641 3642 3643
        </DataArray>
        <DataArray type="Int32" Name="subdomain_id" format="ascii" RangeMin="107" RangeMax="110">
          107 107 107 107 107 107
          107 107 107 107 107 107
          107 107 107 107 107 107
          107 107 107 107 107 107
          107 107 107 107 107 107
          107 107 107 107 107 107
          107 107 107 107 107 107
          107 107 107 107 107 107
          107 107 107 107 107 107
          107 107 107 107 107 107
          107 107 107 107 107 107
          107 107 107 107 107 107
          107 107 107 107 107 107
          107 107 107 107 107 107
          107 107 107 107 107 107
          107 107 107 107 107 107
          107 107 107 107 107 107
          107 107 107 107 107 107
          107 107 107 107 107 107
          107 107 107 107 107 107
          107 107 107 107 107 107
          107 107 107 107 107 107
          107 107 107 107 107 107
          107 107 107 107 107 107
          107 107 107 107 107 107
          107 107 108 108 108 108
          108 108 108 108 109 109
          109 109 109 109 109 109
          109 109 109 109 109 109
          109 109 109 109 109 109
          109 109 109 109 109 109
          109 109 109 109 109 109
          109 109 109 109 109 109
          109 109 109 109 109 109
          109 109 109 109 109 109
          109 109 109 109 109 109
          109 109 109 109 109 109
          109 109 109 109 109 109
          109 109 109 109 109 109
          109 109 109 109 109 109
          109 109 109 109 109 109
          109 109 109 109 109 109
          109 109 109 109 109 109
          109 109 109 109 109 109
          109 109 109 109 109 109
          109 109 109 109 109 109
          109 109 109 109 109 109
          109 109 109 109 109 109
          109 109 109 109 110 110
          110 110 110 110 110 110
          110 110 110 110 110 110
          110 110 110 110 110 110
          110 110 110 110 110 110
          110 110 110 110 110 110
          110 110 110 110 110 110
          110 110 110 110 110 110
          110 110 110 110 110 110
          110 110 110 110 110 110
          110 110 110 110 110 110
          110 110 110 110 110 110
          110 110 110 110 110 110
          110 110 110 110 110 110
          110 110 110 110 110 110
          110 110 110 110 110 110
          110 110 110 110 110 110
          110 110 110 110 110 110
          110 110 110 110 110 110
          110 110 110 110 110 110
          110 110 110 110 110 110
          110 110 110 110 110 110
          110 110 110 110 110 110
          110 110 110 110 110 110
          110 110 110 110 110 110
          110 110 110 110 110 110
          110 110 110 110 110 110
          110 110 110 110
        </DataArray>
        <DataArray type="Int32" Name="processor_id" format="ascii" RangeMin="0" RangeMax="0">
          0 0 0 0 0 0
          0 0 0 0 0 0
          0 0 0 0 0 0
          0 0 0 0 0 0
          0 0 0 0 0 0
          0 0 0 0 0 0
          0 0 0 0 0 0
          0 0 0 0 0 0
          0 0 0 0 0 0
          0 0 0 0 0 0
          0 0 0 0 0 0
          0 0 0 0 0 0
          0 0 0 0 0 0
          0 0 0 0 0 0
          0 0 0 0 0 0
          0 0 0 0 0 0
          0 0 0 0 0 0
          0 0 0 0 0 0
          0 0 0 0 0 0
          0 0 0 0 0 0
          0 0 0 0 0 0
          0 0 0 0 0 0
          0 0 0 0 0 0
          0 0 0 0 0 0
          0 0 0 0 0 0
          0 0 0 0 0 0
          0 0 0 0 0 0
          0 0 0 0 0 0
          0 0 0 0 0 0
          0 0 0 0 0 0
          0 0 0 0 0 0
          0 0 0 0 0 0
          0 0 0 0 0 0
          0 0 0 0 0 0
          0 0 0 0 0 0
          0 0 0 0 0 0
          0 0 0 0 0 0
          0 0 0 0 0 0
          0 0 0 0 0 0
          0 0 0 0 0 0
          0 0 0 0 0 0
          0 0 0 0 0 0
          0 0 0 0 0 0
          0 0 0 0 0 0
          0 0 0 0 0 0
          0 0 0 0 0 0
          0 0 0 0 0 0
          0 0 0 0 0 0
          0 0 0 0 0 0
          0 0 0 0 0 0
          0 0 0 0 0 0
          0 0 0 0 0 0
          0 0 0 0 0 0
          0 0 0 0 0 0
          0 0 0 0 0 0
          0 0 0 0 0 0
          0 0 0 0 0 0
          0 0 0 0 0 0
          0 0 0 0 0 0
          0 0 0 0 0 0
          0 0 0 0 0 0
          0 0 0 0 0 0
          0 0 0 0 0 0
          0 0 0 0 0 0
          0 0 0 0 0 0
          0 0 0 0 0 0
          0 0 0 0 0 0
          0 0 0 0 0 0
          0 0 0 0 0 0
          0 0 0 0 0 0
          0 0 0 0 0 0
          0 0 0 0 0 0
          0 0 0 0 0 0
          0 0 0 0 0 0
          0 0 0 0 0 0
          0 0 0 0
        </DataArray>
      </CellData>
      <Points>
        <DataArray type="Float64" Name="Points" NumberOfComponents="3" format="ascii" RangeMin="0.019949534490770096" RangeMax="0.057059767276955435">
          0.025 0.010111111111103 0 0.025 0.011555555555552 0
          0.023969654121399 0.011643457228511 0 0.023712354871128 0.010827306146479 0
          0.025 0.010111111111103 0.00015 0.025 0.011555555555552 0.00015
          0.023969654121399 0.011643457228511 0.00015 0.023712354871128 0.010827306146479 0.00015
          0.025 0.010111111111103 0.0003 0.025 0.011555555555552 0.0003
          0.023969654121399 0.011643457228511 0.0003 0.023712354871128 0.010827306146479 0.0003
          0.021832836898909 0.0086447924127183 0 0.021823224979211 0.0078559681587773 0
          0.022737846371709 0.0079006862580081 0 0.022634898807434 0.0088549234284915 0
          0.021832836898909 0.0086447924127183 0.00015 0.021823224979211 0.0078559681587773 0.00015
          0.022737846371709 0.0079006862580081 0.00015 0.022634898807434 0.0088549234284915 0.00015
          0.021832836898909 0.0086447924127183 0.0003 0.021823224979211 0.0078559681587773 0.0003
          0.022737846371709 0.0079006862580081 0.0003 0.022634898807434 0.0088549234284915 0.0003
          0.023595500831214 0.0092794942281182 0 0.023071107871262 0.010124307969263 0
          0.023595500831214 0.0092794942281182 0.00015 0.023071107871262 0.010124307969263 0.00015
          0.023595500831214 0.0092794942281182 0.0003 0.023071107871262 0.010124307969263 0.0003
          0.022679909737796 0.0068405181074087 0 0.023816654948859 0.0069324696013164 0
          0.023805320189621 0.0081867285281858 0 0.022679909737796 0.0068405181074087 0.00015
          0.023816654948859 0.0069324696013164 0.00015 0.023805320189621 0.0081867285281858 0.00015
          0.022679909737796 0.0068405181074087 0.0003 0.023816654948859 0.0069324696013164 0.0003
          0.023805320189621 0.0081867285281858 0.0003 0.021890570917318 0.011219591567605 0
          0.021490495874743 0.011513015985888 0 0.020878683694742 0.011349585571751 0
          0.021380466308845 0.010767094219468 0 0.021890570917318 0.011219591567605 0.00015
          0.021490495874743 0.011513015985888 0.00015 0.020878683694742 0.011349585571751 0.00015
          0.021380466308845 0.010767094219468 0.00015 0.021890570917318 0.011219591567605 0.0003
          0.021490495874743 0.011513015985888 0.0003 0.020878683694742 0.011349585571751 0.0003
          0.021380466308845 0.010767094219468 0.0003 0.022336312736143 0.012467557709352 0
          0.021763745105177 0.012476629724541 0 0.021622459990569 0.011931223094182 0
          0.02233098651665 0.011816769005978 0 0.022336312736143 0.012467557709352 0.00015
          0.021763745105177 0.012476629724541 0.00015 0.021622459990569 0.011931223094182 0.00015
          0.02233098651665 0.011816769005978 0.00015 0.022336312736143 0.012467557709352 0.0003
          0.021763745105177 0.012476629724541 0.0003 0.021622459990569 0.011931223094182 0.0003
          0.02233098651665 0.011816769005978 0.0003 0.021047379294988 0.0079667793778881 0
          0.020813290684512 0.007243328880283 0 0.021666975794544 0.0069715825078724 0
          0.021047379294988 0.0079667793778881 0.00015 0.020813290684512 0.007243328880283 0.00015
          0.021666975794544 0.0069715825078724 0.00015 0.021047379294988 0.0079667793778881 0.0003
          0.020813290684512 0.007243328880283 0.0003 0.021666975794544 0.0069715825078724 0.0003
          0.025 0.0086666666666559 0 0.025 0.0086666666666559 0.00015
          0.025 0.0086666666666559 0.0003 0.021356284292895 0.0061182113295331 0
          0.020489019208248 0.0065103794253073 0 0.021356284292895 0.0061182113295331 0.00015
          0.020489019208248 0.0065103794253073 0.00015 0.021356284292895 0.0061182113295331 0.0003
          0.020489019208248 0.0065103794253073 0.0003 0.025 0.0072222222222063 0
          0.023829479378086 0.0056593315311521 0 0.025 0.0072222222222063 0.00015
          0.023829479378086 0.0056593315311521 0.00015 0.025 0.0072222222222063 0.0003
          0.023829479378086 0.0056593315311521 0.0003 0.019357361519954 0.01157618305141 0
          0.01884046117173 0.011223113854601 0 0.019357361519954 0.01157618305141 0.00015
          0.01884046117173 0.011223113854601 0.00015 0.019357361519954 0.01157618305141 0.0003
          0.01884046117173 0.011223113854601 0.0003 0.020274347850796 0.01080512315655 0
          0.019692191057164 0.010418143528135 0 0.020104676199583 0.0097475599042502 0
          0.020792052735599 0.010316149813733 0 0.020274347850796 0.01080512315655 0.00015
          0.019692191057164 0.010418143528135 0.00015 0.020104676199583 0.0097475599042502 0.00015
          0.020792052735599 0.010316149813733 0.00015 0.020274347850796 0.01080512315655 0.0003
          0.019692191057164 0.010418143528135 0.0003 0.020104676199583 0.0097475599042502 0.0003
          0.020792052735599 0.010316149813733 0.0003 0.018734278863615 0.0068564365277259 0
          0.018734278863615 0.0068564365277259 0.00015 0.018734278863615 0.0068564365277259 0.0003
          0.018384253973557 0.010894663204421 0 0.018384253973557 0.010894663204421 0.00015
          0.018384253973557 0.010894663204421 0.0003 0.022477642087048 0.0055533155338694 0
          0.022477642087048 0.0055533155338694 0.00015 0.022477642087048 0.0055533155338694 0.0003
          0.022333445868241 0.0096250088550796 0 0.021678233976573 0.0092839168226163 0
          0.022333445868241 0.0096250088550796 0.00015 0.021678233976573 0.0092839168226163 0.00015
          0.022333445868241 0.0096250088550796 0.0003 0.021678233976573 0.0092839168226163 0.0003
          0.018696511924608 0.0075816988835645 0 0.019307778433714 0.0076950261479263 0
          0.019244919669154 0.0083241905034728 0 0.018643245907353 0.0082916041839039 0
          0.018696511924608 0.0075816988835645 0.00015 0.019307778433714 0.0076950261479263 0.00015
          0.019244919669154 0.0083241905034728 0.00015 0.018643245907353 0.0082916041839039 0.00015
          0.018696511924608 0.0075816988835645 0.0003 0.019307778433714 0.0076950261479263 0.0003
          0.019244919669154 0.0083241905034728 0.0003 0.018643245907353 0.0082916041839039 0.0003
          0.02247089481133 0.010746063389313 0 0.022956441030322 0.011313723369763 0
          0.02247089481133 0.010746063389313 0.00015 0.022956441030322 0.011313723369763 0.00015
          0.02247089481133 0.010746063389313 0.0003 0.022956441030322 0.011313723369763 0.0003
          0.018817000838468 0.010560792840001 0 0.018817000838468 0.010560792840001 0.00015
          0.018817000838468 0.010560792840001 0.0003 0.021028725472558 0.011993213484042 0
          0.021028725472558 0.011993213484042 0.00015 0.021028725472558 0.011993213484042 0.0003
          0.018719100515555 0.0096191331103102 0 0.018769006148643 0.010016813571171 0
          0.018719100515555 0.0096191331103102 0.00015 0.018769006148643 0.010016813571171 0.00015
          0.018719100515555 0.0096191331103102 0.0003 0.018769006148643 0.010016813571171 0.0003
          0.022845614094026 0.012068678060928 0 0.022870050818517 0.012481997757377 0
          0.022845614094026 0.012068678060928 0.00015 0.022870050818517 0.012481997757377 0.00015
          0.022845614094026 0.012068678060928 0.0003 0.022870050818517 0.012481997757377 0.0003
          0.01980903614198 0.0082923028866096 0 0.019733887771193 0.007830319872041 0
          0.01980903614198 0.0082923028866096 0.00015 0.019733887771193 0.007830319872041 0.00015
          0.01980903614198 0.0082923028866096 0.0003 0.019733887771193 0.007830319872041 0.0003
          0.019287865107188 0.010870204720027 0 0.019287865107188 0.010870204720027 0.00015
          0.019287865107188 0.010870204720027 0.0003 0.019611341590458 0.0069319215290848 0
          0.019611341590458 0.0069319215290848 0.00015 0.019611341590458 0.0069319215290848 0.0003
          0.019793192887703 0.011218191570876 0 0.019793192887703 0.011218191570876 0.00015
          0.019793192887703 0.011218191570876 0.0003 0.02014052068744 0.0075597001530957 0
          0.02014052068744 0.0075597001530957 0.00015 0.02014052068744 0.0075597001530957 0.0003
          0.019142781766586 0.010156284019367 0 0.019142781766586 0.010156284019367 0.00015
          0.019142781766586 0.010156284019367 0.0003 0.019871794871807 0.013 0
          0.019671681078705 0.012567114388191 0 0.019871794871807 0.013 0.00015
          0.019671681078705 0.012567114388191 0.00015 0.019871794871807 0.013 0.0003
          0.019671681078705 0.012567114388191 0.0003 0.02189605775595 0.01024368797285 0
          0.02189605775595 0.01024368797285 0.00015 0.02189605775595 0.01024368797285 0.0003
          0.021306208963658 0.0098107932917518 0 0.020830530356293 0.0093484326970494 0
          0.021306208963658 0.0098107932917518 0.00015 0.020830530356293 0.0093484326970494 0.00015
          0.021306208963658 0.0098107932917518 0.0003 0.020830530356293 0.0093484326970494 0.0003
          0.019927087042343 0.0089401115508047 0 0.019284140679376 0.0089915496868705 0
          0.019927087042343 0.0089401115508047 0.00015 0.019284140679376 0.0089915496868705 0.00015
          0.019927087042343 0.0089401115508047 0.0003 0.019284140679376 0.0089915496868705 0.0003
          0.023272296973232 0.01187913061167 0 0.023408043049707 0.012441583397961 0
          0.023272296973232 0.01187913061167 0.00015 0.023408043049707 0.012441583397961 0.00015
          0.023272296973232 0.01187913061167 0.0003 0.023408043049707 0.012441583397961 0.0003
          0.019291729405334 0.009640079412969 0 0.019291729405334 0.009640079412969 0.00015
          0.019291729405334 0.009640079412969 0.0003 0.019497075330812 0.012129782091497 0
          0.019497075330812 0.012129782091497 0.00015 0.019497075330812 0.012129782091497 0.0003
          0.018655444813331 0.0089912542068827 0 0.018655444813331 0.0089912542068827 0.00015
          0.018655444813331 0.0089912542068827 0.0003 0.020217772280624 0.01161574996656 0
          0.019866459267603 0.011787315550137 0 0.020217772280624 0.01161574996656 0.00015
          0.019866459267603 0.011787315550137 0.00015 0.020217772280624 0.01161574996656 0.0003
          0.019866459267603 0.011787315550137 0.0003 0.020169909004412 0.012559422291794 0
          0.020384615384626 0.013 0 0.020169909004412 0.012559422291794 0.00015
          0.020384615384626 0.013 0.00015 0.020169909004412 0.012559422291794 0.0003
          0.020384615384626 0.013 0.0003 0.02048968364866 0.012063778985416 0
          0.021216890903006 0.012503701361908 0 0.020684692364028 0.012535095885709 0
          0.02048968364866 0.012063778985416 0.00015 0.021216890903006 0.012503701361908 0.00015
          0.020684692364028 0.012535095885709 0.00015 0.02048968364866 0.012063778985416 0.0003
          0.021216890903006 0.012503701361908 0.0003 0.020684692364028 0.012535095885709 0.0003
          0.020897435897446 0.013 0 0.020897435897446 0.013 0.00015
          0.020897435897446 0.013 0.0003 0.020387511226442 0.0081443073342907 0
          0.02056343795537 0.0087688297792787 0 0.020387511226442 0.0081443073342907 0.00015
          0.02056343795537 0.0087688297792787 0.00015 0.020387511226442 0.0081443073342907 0.0003
          0.02056343795537 0.0087688297792787 0.0003 0.023967653117571 0.012391671962311 0
          0.024322147732379 0.012509260561901 0 0.023967653117571 0.012391671962311 0.00015
          0.024322147732379 0.012509260561901 0.00015 0.023967653117571 0.012391671962311 0.0003
          0.024322147732379 0.012509260561901 0.0003 0.021410256410266 0.013 0
          0.021410256410266 0.013 0.00015 0.021410256410266 0.013 0.0003
          0.019993073529409 0.012116879865089 0 0.019993073529409 0.012116879865089 0.00015
          0.019993073529409 0.012116879865089 0.0003 0.02122910202584 0.0090825003429501 0
          0.02122910202584 0.0090825003429501 0.00015 0.02122910202584 0.0090825003429501 0.0003
          0.022948717948721 0.013 0 0.022435897435903 0.013 0
          0.022948717948721 0.013 0.00015 0.022435897435903 0.013 0.00015
          0.022948717948721 0.013 0.0003 0.022435897435903 0.013 0.0003
          0.021923076923085 0.013 0 0.021923076923085 0.013 0.00015
          0.021923076923085 0.013 0.0003 0.023461538461539 0.013 0
          0.023461538461539 0.013 0.00015 0.023461538461539 0.013 0.0003
          0.021171209164951 0.0086229949315581 0 0.021171209164951 0.0086229949315581 0.00015
          0.021171209164951 0.0086229949315581 0.0003 0.023974358974358 0.013 0
          0.023974358974358 0.013 0.00015 0.023974358974358 0.013 0.0003
          0.024487179487177 0.013 0 0.024487179487177 0.013 0.00015
          0.024487179487177 0.013 0.0003 0.025 0.013 0
          0.025 0.013 0.00015 0.025 0.013 0.0003
          0.026666666666667 0.0072222222222063 0 0.026666666666667 0.0072222222222063 0.00015
          0.026666666666667 0.0072222222222063 0.0003 0.026666666666668 0.0086666666666559 0
          0.026666666666668 0.0086666666666559 0.00015 0.026666666666668 0.0086666666666559 0.0003
          0.026666666666669 0.010111111111103 0 0.026666666666669 0.010111111111103 0.00015
          0.026666666666669 0.010111111111103 0.0003 0.026666666666669 0.011555555555552 0
          0.026666666666669 0.011555555555552 0.00015 0.026666666666669 0.011555555555552 0.0003
          0.02666666666667 0.013 0 0.02666666666667 0.013 0.00015
          0.02666666666667 0.013 0.0003 0.033201501647561 0.0014698753983525 0
          0.033179797338052 0 0 0.033201501647561 0.0014698753983525 0.00015
          0.033179797338052 0 0.00015 0.033201501647561 0.0014698753983525 0.0003
          0.033179797338052 0 0.0003 0.034800103200053 0.0015015548376625 0
          0.034769696007096 0 0 0.034800103200053 0.0015015548376625 0.00015
          0.034769696007096 0 0.00015 0.034800103200053 0.0015015548376625 0.0003
          0.034769696007096 0 0.0003 0.03639613666046 0.0015457026119765 0
          0.036359594676111 0 0 0.03639613666046 0.0015457026119765 0.00015
          0.036359594676111 0 0.00015 0.03639613666046 0.0015457026119765 0.0003
          0.036359594676111 0 0.0003 0.037988764334349 0.001602116400018 0
          0.037949493345121 0 0 0.037988764334349 0.001602116400018 0.00015
          0.037949493345121 0 0.00015 0.037988764334349 0.001602116400018 0.0003
          0.037949493345121 0 0.0003 0.039577164134098 0.001670537667151 0
          0.039539392014149 0 0 0.039577164134098 0.001670537667151 0.00015
          0.039539392014149 0 0.00015 0.039577164134098 0.001670537667151 0.0003
          0.039539392014149 0 0.0003 0.041160533348121 0.0017506528505884 0
          0.041129290683195 0 0 0.041160533348121 0.0017506528505884 0.00015
          0.041129290683195 0 0.00015 0.041160533348121 0.0017506528505884 0.0003
          0.041129290683195 0 0.0003 0.042738092320879 0.0018420947973532 0
          0.042719189352233 0 0 0.042738092320879 0.0018420947973532 0.00015
          0.042719189352233 0 0.00015 0.042738092320879 0.0018420947973532 0.0003
          0.042719189352233 0 0.0003 0.044309088021254 0.0019444444444413 0
          0.044309088021254 0 0 0.044309088021254 0.0019444444444413 0.00015
          0.044309088021254 0 0.00015 0.044309088021254 0.0019444444444413 0.0003
          0.044309088021254 0 0.0003 0.033223205957069 0.0029397507967035 0
          0.033223205957069 0.0029397507967035 0.00015 0.033223205957069 0.0029397507967035 0.0003
          0.03483051039301 0.0030031096753234 0 0.03483051039301 0.0030031096753234 0.00015
          0.03483051039301 0.0030031096753234 0.0003 0.036432678644808 0.0030914052239513 0
          0.036432678644808 0.0030914052239513 0.00015 0.036432678644808 0.0030914052239513 0.0003
          0.038028035323577 0.0032042328000343 0 0.038028035323577 0.0032042328000343 0.00015
          0.038028035323577 0.0032042328000343 0.0003 0.039614936254047 0.0033410753343001 0
          0.039614936254047 0.0033410753343001 0.00015 0.039614936254047 0.0033410753343001 0.0003
          0.041191776013048 0.0035013057011749 0 0.041191776013048 0.0035013057011749 0.00015
          0.041191776013048 0.0035013057011749 0.0003 0.042756995289524 0.0036841895947044 0
          0.042756995289524 0.0036841895947044 0.00015 0.042756995289524 0.0036841895947044 0.0003
          0.044309088021254 0.0038888888888803 0 0.044309088021254 0.0038888888888803 0.00015
          0.044309088021254 0.0038888888888803 0.0003 0.033244910266578 0.0044096261950543 0
          0.033244910266578 0.0044096261950543 0.00015 0.033244910266578 0.0044096261950543 0.0003
          0.034860917585967 0.004504664512984 0 0.034860917585967 0.004504664512984 0.00015
          0.034860917585967 0.004504664512984 0.0003 0.036469220629156 0.0046371078359259 0
          0.036469220629156 0.0046371078359259 0.00015 0.036469220629156 0.0046371078359259 0.0003
          0.038067306312805 0.0048063492000502 0 0.038067306312805 0.0048063492000502 0.00015
          0.038067306312805 0.0048063492000502 0.0003 0.039652708373995 0.0050116130014489 0
          0.039652708373995 0.0050116130014489 0.00015 0.039652708373995 0.0050116130014489 0.0003
          0.041223018677975 0.005251958551761 0 0.041223018677975 0.005251958551761 0.00015
          0.041223018677975 0.005251958551761 0.0003 0.04277589825817 0.0055262843920551 0
          0.04277589825817 0.0055262843920551 0.00015 0.04277589825817 0.0055262843920551 0.0003
          0.044309088021254 0.0058333333333189 0 0.044309088021254 0.0058333333333189 0.00015
          0.044309088021254 0.0058333333333189 0.0003 0.033266614576087 0.0058795015934051 0
          0.033266614576087 0.0058795015934051 0.00015 0.033266614576087 0.0058795015934051 0.0003
          0.034891324778924 0.0060062193506447 0 0.034891324778924 0.0060062193506447 0.00015
          0.034891324778924 0.0060062193506447 0.0003 0.036505762613504 0.0061828104479004 0
          0.036505762613504 0.0061828104479004 0.00015 0.036505762613504 0.0061828104479004 0.0003
          0.038106577302032 0.0064084656000662 0 0.038106577302032 0.0064084656000662 0.00015
          0.038106577302032 0.0064084656000662 0.0003 0.039690480493944 0.0066821506685977 0
          0.039690480493944 0.0066821506685977 0.00015 0.039690480493944 0.0066821506685977 0.0003
          0.041254261342902 0.0070026114023471 0 0.041254261342902 0.0070026114023471 0.00015
          0.041254261342902 0.0070026114023471 0.0003 0.042794801226816 0.0073683791894058 0
          0.042794801226816 0.0073683791894058 0.00015 0.042794801226816 0.0073683791894058 0.0003
          0.044309088021254 0.0077777777777574 0 0.044309088021254 0.0077777777777574 0.00015
          0.044309088021254 0.0077777777777574 0.0003 0.033288318885596 0.0073493769917596 0
          0.033288318885596 0.0073493769917596 0.00015 0.033288318885596 0.0073493769917596 0.0003
          0.034921731971881 0.0075077741883091 0 0.034921731971881 0.0075077741883091 0.00015
          0.034921731971881 0.0075077741883091 0.0003 0.036542304597852 0.0077285130598789 0
          0.036542304597852 0.0077285130598789 0.00015 0.036542304597852 0.0077285130598789 0.0003
          0.03814584829126 0.0080105820000862 0 0.03814584829126 0.0080105820000862 0.00015
          0.03814584829126 0.0080105820000862 0.0003 0.039728252613893 0.0083526883357508 0
          0.039728252613893 0.0083526883357508 0.00015 0.039728252613893 0.0083526883357508 0.0003
          0.041285504007829 0.0087532642529377 0 0.041285504007829 0.0087532642529377 0.00015
          0.041285504007829 0.0087532642529377 0.0003 0.042813704195461 0.0092104739867613 0
          0.042813704195461 0.0092104739867613 0.00015 0.042813704195461 0.0092104739867613 0.0003
          0.044309088021254 0.0097222222222011 0 0.044309088021254 0.0097222222222011 0.00015
          0.044309088021254 0.0097222222222011 0.0003 0.031657595460571 0.0087048568522863 0
          0.031657595460571 0.0087048568522863 0.00015 0.031657595460571 0.0087048568522863 0.0003
          0.033310023195106 0.0088192523901195 0 0.033310023195106 0.0088192523901195 0.00015
          0.033310023195106 0.0088192523901195 0.0003 0.034952139164838 0.009009329025979 0
          0.034952139164838 0.009009329025979 0.00015 0.034952139164838 0.009009329025979 0.0003
          0.0365788465822 0.0092742156718627 0 0.0365788465822 0.0092742156718627 0.00015
          0.0365788465822 0.0092742156718627 0.0003 0.038185119280488 0.0096126984001116 0
          0.038185119280488 0.0096126984001116 0.00015 0.038185119280488 0.0096126984001116 0.0003
          0.039766024733842 0.010023226002909 0 0.039766024733842 0.010023226002909 0.00015
          0.039766024733842 0.010023226002909 0.0003 0.041316746672756 0.010503917103534 0
          0.041316746672756 0.010503917103534 0.00015 0.041316746672756 0.010503917103534 0.0003
          0.042832607164107 0.011052568784123 0 0.042832607164107 0.011052568784123 0.00015
          0.042832607164107 0.011052568784123 0.0003 0.044309088021254 0.011666666666651 0
          0.044309088021254 0.011666666666651 0.00015 0.044309088021254 0.011666666666651 0.0003
          0.031668878259163 0.010155666327672 0 0.031668878259163 0.010155666327672 0.00015
          0.031668878259163 0.010155666327672 0.0003 0.033331727504615 0.010289127788478 0
          0.033331727504615 0.010289127788478 0.00015 0.033331727504615 0.010289127788478 0.0003
          0.034982546357795 0.010510883863647 0 0.034982546357795 0.010510883863647 0.00015
          0.034982546357795 0.010510883863647 0.0003 0.036615388566549 0.010819918283845 0
          0.036615388566549 0.010819918283845 0.00015 0.036615388566549 0.010819918283845 0.0003
          0.038224390269716 0.011214814800136 0 0.038224390269716 0.011214814800136 0.00015
          0.038224390269716 0.011214814800136 0.0003 0.039803796853791 0.011693763670067 0
          0.039803796853791 0.011693763670067 0.00015 0.039803796853791 0.011693763670067 0.0003
          0.041347989337683 0.012254569954129 0 0.041347989337683 0.012254569954129 0.00015
          0.041347989337683 0.012254569954129 0.0003 0.042851510132752 0.012894663581483 0
          0.042851510132752 0.012894663581483 0.00015 0.042851510132752 0.012894663581483 0.0003
          0.044309088021254 0.0136111111111 0 0.044309088021254 0.0136111111111 0.00015
          0.044309088021254 0.0136111111111 0.0003 0.031680161057755 0.011606475803059 0
          0.031680161057755 0.011606475803059 0.00015 0.031680161057755 0.011606475803059 0.0003
          0.033353431814124 0.011759003186837 0 0.033353431814124 0.011759003186837 0.00015
          0.033353431814124 0.011759003186837 0.0003 0.035012953550752 0.012012438701317 0
          0.035012953550752 0.012012438701317 0.00015 0.035012953550752 0.012012438701317 0.0003
          0.036651930550897 0.012365620895829 0 0.036651930550897 0.012365620895829 0.00015
          0.036651930550897 0.012365620895829 0.0003 0.038263661258944 0.012816931200161 0
          0.038263661258944 0.012816931200161 0.00015 0.038263661258944 0.012816931200161 0.0003
          0.03984156897374 0.013364301337225 0 0.03984156897374 0.013364301337225 0.00015
          0.03984156897374 0.013364301337225 0.0003 0.04137923200261 0.014005222804725 0
          0.04137923200261 0.014005222804725 0.00015 0.04137923200261 0.014005222804725 0.0003
          0.042870413101398 0.014736758378844 0 0.042870413101398 0.014736758378844 0.00015
          0.042870413101398 0.014736758378844 0.0003 0.044309088021254 0.015555555555549 0
          0.044309088021254 0.015555555555549 0.00015 0.044309088021254 0.015555555555549 0.0003
          0.031691443856347 0.013057285278446 0 0.031691443856347 0.013057285278446 0.00015
          0.031691443856347 0.013057285278446 0.0003 0.033375136123633 0.013228878585196 0
          0.033375136123633 0.013228878585196 0.00015 0.033375136123633 0.013228878585196 0.0003
          0.035043360743709 0.013513993538986 0 0.035043360743709 0.013513993538986 0.00015
          0.035043360743709 0.013513993538986 0.0003 0.036688472535245 0.013911323507812 0
          0.036688472535245 0.013911323507812 0.00015 0.036688472535245 0.013911323507812 0.0003
          0.038302932248172 0.014419047600187 0 0.038302932248172 0.014419047600187 0.00015
          0.038302932248172 0.014419047600187 0.0003 0.039879341093689 0.015034839004384 0
          0.039879341093689 0.015034839004384 0.00015 0.039879341093689 0.015034839004384 0.0003
          0.041410474667538 0.015755875655322 0 0.041410474667538 0.015755875655322 0.00015
          0.041410474667538 0.015755875655322 0.0003 0.042889316070044 0.016578853176207 0
          0.042889316070044 0.016578853176207 0.00015 0.042889316070044 0.016578853176207 0.0003
          0.044309088021254 0.0175 0 0.044309088021254 0.0175 0.00015
          0.044309088021254 0.0175 0.0003 0.045420199132363 0 0
          0.045420199132363 0.0019444444444413 0 0.045420199132363 0 0.00015
          0.045420199132363 0.0019444444444413 0.00015 0.045420199132363 0 0.0003
          0.045420199132363 0.0019444444444413 0.0003 0.045420199132363 0.0038888888888803 0
          0.045420199132363 0.0038888888888803 0.00015 0.045420199132363 0.0038888888888803 0.0003
          0.045420199132363 0.0058333333333189 0 0.045420199132363 0.0058333333333189 0.00015
          0.045420199132363 0.0058333333333189 0.0003 0.045420199132363 0.0077777777777574 0
          0.045420199132363 0.0077777777777574 0.00015 0.045420199132363 0.0077777777777574 0.0003
          0.045420199132363 0.0097222222222011 0 0.045420199132363 0.0097222222222011 0.00015
          0.045420199132363 0.0097222222222011 0.0003 0.045420199132363 0.011666666666651 0
          0.045420199132363 0.011666666666651 0.00015 0.045420199132363 0.011666666666651 0.0003
          0.045420199132363 0.0136111111111 0 0.045420199132363 0.0136111111111 0.00015
          0.045420199132363 0.0136111111111 0.0003 0.045420199132363 0.015555555555549 0
          0.045420199132363 0.015555555555549 0.00015 0.045420199132363 0.015555555555549 0.0003
          0.045420199132363 0.0175 0 0.045420199132363 0.0175 0.00015
          0.045420199132363 0.0175 0.0003 0.046531310243475 0 0
          0.046531310243475 0.0019444444444413 0 0.046531310243475 0 0.00015
          0.046531310243475 0.0019444444444413 0.00015 0.046531310243475 0 0.0003
          0.046531310243475 0.0019444444444413 0.0003 0.046531310243475 0.0038888888888803 0
          0.046531310243475 0.0038888888888803 0.00015 0.046531310243475 0.0038888888888803 0.0003
          0.046531310243475 0.0058333333333189 0 0.046531310243475 0.0058333333333189 0.00015
          0.046531310243475 0.0058333333333189 0.0003 0.046531310243475 0.0077777777777574 0
          0.046531310243475 0.0077777777777574 0.00015 0.046531310243475 0.0077777777777574 0.0003
          0.046531310243475 0.0097222222222011 0 0.046531310243475 0.0097222222222011 0.00015
          0.046531310243475 0.0097222222222011 0.0003 0.046531310243475 0.011666666666651 0
          0.046531310243475 0.011666666666651 0.00015 0.046531310243475 0.011666666666651 0.0003
          0.046531310243475 0.0136111111111 0 0.046531310243475 0.0136111111111 0.00015
          0.046531310243475 0.0136111111111 0.0003 0.046531310243475 0.015555555555549 0
          0.046531310243475 0.015555555555549 0.00015 0.046531310243475 0.015555555555549 0.0003
          0.046531310243475 0.0175 0 0.046531310243475 0.0175 0.00015
          0.046531310243475 0.0175 0.0003 0.04764242135458 0 0
          0.04764242135458 0.0019444444444413 0 0.04764242135458 0 0.00015
          0.04764242135458 0.0019444444444413 0.00015 0.04764242135458 0 0.0003
          0.04764242135458 0.0019444444444413 0.0003 0.04764242135458 0.0038888888888803 0
          0.04764242135458 0.0038888888888803 0.00015 0.04764242135458 0.0038888888888803 0.0003
          0.04764242135458 0.0058333333333189 0 0.04764242135458 0.0058333333333189 0.00015
          0.04764242135458 0.0058333333333189 0.0003 0.04764242135458 0.0077777777777574 0
          0.04764242135458 0.0077777777777574 0.00015 0.04764242135458 0.0077777777777574 0.0003
          0.04764242135458 0.0097222222222011 0 0.04764242135458 0.0097222222222011 0.00015
          0.04764242135458 0.0097222222222011 0.0003 0.04764242135458 0.011666666666651 0
          0.04764242135458 0.011666666666651 0.00015 0.04764242135458 0.011666666666651 0.0003
          0.04764242135458 0.0136111111111 0 0.04764242135458 0.0136111111111 0.00015
          0.04764242135458 0.0136111111111 0.0003 0.04764242135458 0.015555555555549 0
          0.04764242135458 0.015555555555549 0.00015 0.04764242135458 0.015555555555549 0.0003
          0.04764242135458 0.0175 0 0.04764242135458 0.0175 0.00015
          0.04764242135458 0.0175 0.0003 0.048753532465692 0 0
          0.048753532465692 0.0019444444444413 0 0.048753532465692 0 0.00015
          0.048753532465692 0.0019444444444413 0.00015 0.048753532465692 0 0.0003
          0.048753532465692 0.0019444444444413 0.0003 0.048753532465692 0.0038888888888803 0
          0.048753532465692 0.0038888888888803 0.00015 0.048753532465692 0.0038888888888803 0.0003
          0.048753532465692 0.0058333333333189 0 0.048753532465692 0.0058333333333189 0.00015
          0.048753532465692 0.0058333333333189 0.0003 0.048753532465692 0.0077777777777574 0
          0.048753532465692 0.0077777777777574 0.00015 0.048753532465692 0.0077777777777574 0.0003
          0.048753532465692 0.0097222222222011 0 0.048753532465692 0.0097222222222011 0.00015
          0.048753532465692 0.0097222222222011 0.0003 0.048753532465692 0.011666666666651 0
          0.048753532465692 0.011666666666651 0.00015 0.048753532465692 0.011666666666651 0.0003
          0.048753532465692 0.0136111111111 0 0.048753532465692 0.0136111111111 0.00015
          0.048753532465692 0.0136111111111 0.0003 0.048753532465692 0.015555555555549 0
          0.048753532465692 0.015555555555549 0.00015 0.048753532465692 0.015555555555549 0.0003
          0.048753532465692 0.0175 0 0.048753532465692 0.0175 0.00015
          0.048753532465692 0.0175 0.0003 0.0498646435768 0 0
          0.0498646435768 0.0019444444444413 0 0.0498646435768 0 0.00015
          0.0498646435768 0.0019444444444413 0.00015 0.0498646435768 0 0.0003
          0.0498646435768 0.0019444444444413 0.0003 0.0498646435768 0.0038888888888803 0
          0.0498646435768 0.0038888888888803 0.00015 0.0498646435768 0.0038888888888803 0.0003
          0.0498646435768 0.0058333333333189 0 0.0498646435768 0.0058333333333189 0.00015
          0.0498646435768 0.0058333333333189 0.0003 0.0498646435768 0.0077777777777574 0
          0.0498646435768 0.0077777777777574 0.00015 0.0498646435768 0.0077777777777574 0.0003
          0.0498646435768 0.0097222222222011 0 0.0498646435768 0.0097222222222011 0.00015
          0.0498646435768 0.0097222222222011 0.0003 0.0498646435768 0.011666666666651 0
          0.0498646435768 0.011666666666651 0.00015 0.0498646435768 0.011666666666651 0.0003
          0.0498646435768 0.0136111111111 0 0.0498646435768 0.0136111111111 0.00015
          0.0498646435768 0.0136111111111 0.0003 0.0498646435768 0.015555555555549 0
          0.0498646435768 0.015555555555549 0.00015 0.0498646435768 0.015555555555549 0.0003
          0.0498646435768 0.0175 0 0.0498646435768 0.0175 0.00015
          0.0498646435768 0.0175 0.0003 0.050975754687912 0 0
          0.050975754687912 0.0019444444444413 0 0.050975754687912 0 0.00015
          0.050975754687912 0.0019444444444413 0.00015 0.050975754687912 0 0.0003
          0.050975754687912 0.0019444444444413 0.0003 0.050975754687912 0.0038888888888803 0
          0.050975754687912 0.0038888888888803 0.00015 0.050975754687912 0.0038888888888803 0.0003
          0.050975754687912 0.0058333333333189 0 0.050975754687912 0.0058333333333189 0.00015
          0.050975754687912 0.0058333333333189 0.0003 0.050975754687912 0.0077777777777574 0
          0.050975754687912 0.0077777777777574 0.00015 0.050975754687912 0.0077777777777574 0.0003
          0.050975754687912 0.0097222222222011 0 0.050975754687912 0.0097222222222011 0.00015
          0.050975754687912 0.0097222222222011 0.0003 0.050975754687912 0.011666666666651 0
          0.050975754687912 0.011666666666651 0.00015 0.050975754687912 0.011666666666651 0.0003
          0.050975754687912 0.0136111111111 0 0.050975754687912 0.0136111111111 0.00015
          0.050975754687912 0.0136111111111 0.0003 0.050975754687912 0.015555555555549 0
          0.050975754687912 0.015555555555549 0.00015 0.050975754687912 0.015555555555549 0.0003
          0.050975754687912 0.0175 0 0.050975754687912 0.0175 0.00015
          0.050975754687912 0.0175 0.0003 0.052086865799025 0 0
          0.052086865799025 0.0019444444444413 0 0.052086865799025 0 0.00015
          0.052086865799025 0.0019444444444413 0.00015 0.052086865799025 0 0.0003
          0.052086865799025 0.0019444444444413 0.0003 0.052086865799025 0.0038888888888803 0
          0.052086865799025 0.0038888888888803 0.00015 0.052086865799025 0.0038888888888803 0.0003
          0.052086865799025 0.0058333333333189 0 0.052086865799025 0.0058333333333189 0.00015
          0.052086865799025 0.0058333333333189 0.0003 0.052086865799025 0.0077777777777574 0
          0.052086865799025 0.0077777777777574 0.00015 0.052086865799025 0.0077777777777574 0.0003
          0.052086865799025 0.0097222222222011 0 0.052086865799025 0.0097222222222011 0.00015
          0.052086865799025 0.0097222222222011 0.0003 0.052086865799025 0.011666666666651 0
          0.052086865799025 0.011666666666651 0.00015 0.052086865799025 0.011666666666651 0.0003
          0.052086865799025 0.0136111111111 0 0.052086865799025 0.0136111111111 0.00015
          0.052086865799025 0.0136111111111 0.0003 0.052086865799025 0.015555555555549 0
          0.052086865799025 0.015555555555549 0.00015 0.052086865799025 0.015555555555549 0.0003
          0.052086865799025 0.0175 0 0.052086865799025 0.0175 0.00015
          0.052086865799025 0.0175 0.0003 0.05319797691014 0 0
          0.05319797691014 0.0019444444444413 0 0.05319797691014 0 0.00015
          0.05319797691014 0.0019444444444413 0.00015 0.05319797691014 0 0.0003
          0.05319797691014 0.0019444444444413 0.0003 0.05319797691014 0.0038888888888803 0
          0.05319797691014 0.0038888888888803 0.00015 0.05319797691014 0.0038888888888803 0.0003
          0.05319797691014 0.0058333333333189 0 0.05319797691014 0.0058333333333189 0.00015
          0.05319797691014 0.0058333333333189 0.0003 0.05319797691014 0.0077777777777574 0
          0.05319797691014 0.0077777777777574 0.00015 0.05319797691014 0.0077777777777574 0.0003
          0.05319797691014 0.0097222222222011 0 0.05319797691014 0.0097222222222011 0.00015
          0.05319797691014 0.0097222222222011 0.0003 0.05319797691014 0.011666666666651 0
          0.05319797691014 0.011666666666651 0.00015 0.05319797691014 0.011666666666651 0.0003
          0.05319797691014 0.0136111111111 0 0.05319797691014 0.0136111111111 0.00015
          0.05319797691014 0.0136111111111 0.0003 0.05319797691014 0.015555555555549 0
          0.05319797691014 0.015555555555549 0.00015 0.05319797691014 0.015555555555549 0.0003
          0.05319797691014 0.0175 0 0.05319797691014 0.0175 0.00015
          0.05319797691014 0.0175 0.0003 0.054309088021254 0 0
          0.054309088021254 0.0019444444444413 0 0.054309088021254 0 0.00015
          0.054309088021254 0.0019444444444413 0.00015 0.054309088021254 0 0.0003
          0.054309088021254 0.0019444444444413 0.0003 0.054309088021254 0.0038888888888803 0
          0.054309088021254 0.0038888888888803 0.00015 0.054309088021254 0.0038888888888803 0.0003
          0.054309088021254 0.0058333333333189 0 0.054309088021254 0.0058333333333189 0.00015
          0.054309088021254 0.0058333333333189 0.0003 0.054309088021254 0.0077777777777574 0
          0.054309088021254 0.0077777777777574 0.00015 0.054309088021254 0.0077777777777574 0.0003
          0.054309088021254 0.0097222222222011 0 0.054309088021254 0.0097222222222011 0.00015
          0.054309088021254 0.0097222222222011 0.0003 0.054309088021254 0.011666666666651 0
          0.054309088021254 0.011666666666651 0.00015 0.054309088021254 0.011666666666651 0.0003
          0.054309088021254 0.0136111111111 0 0.054309088021254 0.0136111111111 0.00015
          0.054309088021254 0.0136111111111 0.0003 0.054309088021254 0.015555555555549 0
          0.054309088021254 0.015555555555549 0.00015 0.054309088021254 0.015555555555549 0.0003
          0.054309088021254 0.0175 0 0.054309088021254 0.0175 0.00015
          0.054309088021254 0.0175 0.0003
          <InformationKey name="L2_NORM_RANGE" location="vtkDataArray" length="2">
            <Value index="0">
              0.019949534491
            </Value>
            <Value index="1">
              0.057059767277
            </Value>
          </InformationKey>
        </DataArray>
      </Points>
      <Cells>
        <DataArray type="Int64" Name="connectivity" format="ascii" RangeMin="0" RangeMax="818">
          0 1 2 3 4 5
          6 7 4 5 6 7
          8 9 10 11 12 13
          14 15 16 17 18 19
          16 17 18 19 20 21
          22 23 24 0 3 25
          26 4 7 27 26 4
          7 27 28 8 11 29
          30 31 32 14 33 34
          35 18 33 34 35 18
          36 37 38 22 39 40
          41 42 43 44 45 46
          43 44 45 46 47 48
          49 50 51 52 53 54
          55 56 57 58 55 56
          57 58 59 60 61 62
          13 63 64 65 17 66
          67 68 17 66 67 68
          21 69 70 71 0 24
          32 72 4 26 35 73
          4 26 35 73 8 28
          38 74 24 15 14 32
          26 19 18 35 26 19
          18 35 28 23 22 38
          13 65 30 14 17 68
          33 18 17 68 33 18
          21 71 36 22 93 94
          95 96 97 98 99 100
          97 98 99 100 101 102
          103 104 72 32 31 81
          73 35 34 83 73 35
          34 83 74 38 37 85
          53 40 39 54 57 44
          43 58 57 44 43 58
          61 48 47 62 31 30
          111 82 34 33 112 84
          34 33 112 84 37 36
          113 86 12 15 114 115
          16 19 116 117 16 19
          116 117 20 23 118 119
          120 121 122 123 124 125
          126 127 124 125 126 127
          128 129 130 131 64 76
          75 65 67 78 77 68
          67 78 77 68 70 80
          79 71 132 133 54 39
          134 135 58 43 134 135
          58 43 136 137 62 47
          53 141 41 40 57 142
          45 44 57 142 45 44
          61 143 49 48 111 30
          65 75 112 33 68 77
          112 33 68 77 113 36
          71 79 54 150 151 51
          58 152 153 55 58 152
          153 55 62 154 155 59
          156 122 121 157 158 126
          125 159 158 126 125 159
          160 130 129 161 162 88
          108 138 163 90 109 139
          163 90 109 139 164 92
          110 140 168 87 88 162
          169 89 90 163 169 89
          90 163 170 91 92 164
          121 165 171 157 125 166
          172 159 125 166 172 159
          129 167 173 161 132 39
          42 183 134 43 46 184
          134 43 46 184 136 47
          50 185 186 96 95 187
          188 100 99 189 188 100
          99 189 190 104 103 191
          192 193 122 156 194 195
          126 158 194 195 126 158
          196 197 130 160 183 42
          96 186 184 46 100 188
          184 46 100 188 185 50
          104 190 151 150 198 199
          153 152 200 201 153 152
          200 201 155 154 202 203
          174 145 144 204 175 147
          146 205 175 147 146 205
          176 149 148 206 193 192
          95 204 195 194 99 205
          195 194 99 205 197 196
          103 206 123 122 193 210
          127 126 195 211 127 126
          195 211 131 130 197 212
          93 96 42 41 97 100
          46 45 97 100 46 45
          101 104 50 49 213 214
          87 168 215 216 89 169
          215 216 89 169 217 218
          91 170 178 219 220 177
          180 221 222 179 180 221
          222 179 182 223 224 181
          225 141 226 227 228 142
          229 230 228 142 229 230
          231 143 232 233 120 105
          165 121 124 106 166 125
          124 106 166 125 128 107
          167 129 210 193 204 144
          211 195 205 146 211 195
          205 146 212 197 206 148
          219 227 234 220 221 230
          235 222 221 230 235 222
          223 233 236 224 94 174
          204 95 98 175 205 99
          98 175 205 99 102 176
          206 103 192 156 237 238
          194 158 239 240 194 158
          239 240 196 160 241 242
          243 2 1 244 245 6
          5 246 245 6 5 246
          247 10 9 248 227 226
          249 234 230 229 250 235
          230 229 250 235 233 232
          251 236 238 187 95 192
          240 189 99 194 240 189
          99 194 242 191 103 196
          252 207 87 214 253 208
          89 216 253 208 89 216
          254 209 91 218 187 255
          115 186 189 256 117 188
          189 256 117 188 191 257
          119 190 94 162 138 174
          98 163 139 175 98 163
          139 175 102 164 140 176
          64 63 237 171 67 66
          239 172 67 66 239 172
          70 69 241 173 41 213
          168 93 45 215 169 97
          45 215 169 97 49 217
          170 101 2 198 133 3
          6 200 135 7 6 200
          135 7 10 202 137 11
          25 114 15 24 27 116
          19 26 27 116 19 26
          29 118 23 28 114 183
          186 115 116 184 188 117
          116 184 188 117 118 185
          190 119 51 151 258 259
          55 153 260 261 55 153
          260 261 59 155 262 263
          226 52 264 249 229 56
          265 250 229 56 265 250
          232 60 266 251 198 150
          54 133 200 152 58 135
          200 152 58 135 202 154
          62 137 64 171 165 76
          67 172 166 78 67 172
          166 78 70 173 167 80
          52 51 259 264 56 55
          261 265 56 55 261 265
          60 59 263 266 171 237
          156 157 172 239 158 159
          172 239 158 159 173 241
          160 161 252 214 213 225
          253 216 215 228 253 216
          215 228 254 218 217 231
          151 199 267 258 153 201
          268 260 153 201 268 260
          155 203 269 262 63 13
          12 270 66 17 16 271
          66 17 16 271 69 21
          20 272 270 255 187 238
          271 256 189 240 271 256
          189 240 272 257 191 242
          199 198 2 243 201 200
          6 245 201 200 6 245
          203 202 10 247 225 213
          41 141 228 215 45 142
          228 215 45 142 231 217
          49 143 52 226 141 53
          56 229 142 57 56 229
          142 57 60 232 143 61
          25 132 183 114 27 134
          184 116 27 134 184 116
          29 136 185 118 252 225
          227 219 253 228 230 221
          253 228 230 221 254 231
          233 223 219 178 207 252
          221 180 208 253 221 180
          208 253 223 182 209 254
          25 3 133 132 27 7
          135 134 27 7 135 134
          29 11 137 136 93 168
          162 94 97 169 163 98
          97 169 163 98 101 170
          164 102 270 12 115 255
          271 16 117 256 271 16
          117 256 272 20 119 257
          199 243 273 267 201 245
          274 268 201 245 274 268
          203 247 275 269 63 270
          238 237 66 271 240 239
          66 271 240 239 69 272
          242 241 243 244 276 273
          245 246 277 274 245 246
          277 274 247 248 278 275
          276 244 1 279 277 246
          5 280 277 246 5 280
          278 248 9 281 285 72
          81 282 286 73 83 283
          286 73 83 283 287 74
          85 284 288 0 72 285
          289 4 73 286 289 4
          73 286 290 8 74 287
          291 1 0 288 292 5
          4 289 292 5 4 289
          293 9 8 290 294 279
          1 291 295 280 5 292
          295 280 5 292 296 281
          9 293 303 297 298 304
          305 299 300 306 305 299
          300 306 307 301 302 308
          309 303 304 310 311 305
          306 312 311 305 306 312
          313 307 308 314 315 309
          310 316 317 311 312 318
          317 311 312 318 319 313
          314 320 321 315 316 322
          323 317 318 324 323 317
          318 324 325 319 320 326
          327 321 322 328 329 323
          324 330 329 323 324 330
          331 325 326 332 333 327
          328 334 335 329 330 336
          335 329 330 336 337 331
          332 338 339 333 334 340
          341 335 336 342 341 335
          336 342 343 337 338 344
          348 345 297 303 349 346
          299 305 349 346 299 305
          350 347 301 307 351 348
          303 309 352 349 305 311
          352 349 305 311 353 350
          307 313 354 351 309 315
          355 352 311 317 355 352
          311 317 356 353 313 319
          357 354 315 321 358 355
          317 323 358 355 317 323
          359 356 319 325 360 357
          321 327 361 358 323 329
          361 358 323 329 362 359
          325 331 363 360 327 333
          364 361 329 335 364 361
          329 335 365 362 331 337
          366 363 333 339 367 364
          335 341 367 364 335 341
          368 365 337 343 372 369
          345 348 373 370 346 349
          373 370 346 349 374 371
          347 350 375 372 348 351
          376 373 349 352 376 373
          349 352 377 374 350 353
          378 375 351 354 379 376
          352 355 379 376 352 355
          380 377 353 356 381 378
          354 357 382 379 355 358
          382 379 355 358 383 380
          356 359 384 381 357 360
          385 382 358 361 385 382
          358 361 386 383 359 362
          387 384 360 363 388 385
          361 364 388 385 361 364
          389 386 362 365 390 387
          363 366 391 388 364 367
          391 388 364 367 392 389
          365 368 396 393 369 372
          397 394 370 373 397 394
          370 373 398 395 371 374
          399 396 372 375 400 397
          373 376 400 397 373 376
          401 398 374 377 402 399
          375 378 403 400 376 379
          403 400 376 379 404 401
          377 380 405 402 378 381
          406 403 379 382 406 403
          379 382 407 404 380 383
          408 405 381 384 409 406
          382 385 409 406 382 385
          410 407 383 386 411 408
          384 387 412 409 385 388
          412 409 385 388 413 410
          386 389 414 411 387 390
          415 412 388 391 415 412
          388 391 416 413 389 392
          420 417 393 396 421 418
          394 397 421 418 394 397
          422 419 395 398 423 420
          396 399 424 421 397 400
          424 421 397 400 425 422
          398 401 426 423 399 402
          427 424 400 403 427 424
          400 403 428 425 401 404
          429 426 402 405 430 427
          403 406 430 427 403 406
          431 428 404 407 432 429
          405 408 433 430 406 409
          433 430 406 409 434 431
          407 410 435 432 408 411
          436 433 409 412 436 433
          409 412 437 434 410 413
          438 435 411 414 439 436
          412 415 439 436 412 415
          440 437 413 416 447 444
          417 420 448 445 418 421
          448 445 418 421 449 446
          419 422 450 447 420 423
          451 448 421 424 451 448
          421 424 452 449 422 425
          453 450 423 426 454 451
          424 427 454 451 424 427
          455 452 425 428 456 453
          426 429 457 454 427 430
          457 454 427 430 458 455
          428 431 459 456 429 432
          460 457 430 433 460 457
          430 433 461 458 431 434
          462 459 432 435 463 460
          433 436 463 460 433 436
          464 461 434 437 465 462
          435 438 466 463 436 439
          466 463 436 439 467 464
          437 440 471 468 441 444
          472 469 442 445 472 469
          442 445 473 470 443 446
          474 471 444 447 475 472
          445 448 475 472 445 448
          476 473 446 449 477 474
          447 450 478 475 448 451
          478 475 448 451 479 476
          449 452 480 477 450 453
          481 478 451 454 481 478
          451 454 482 479 452 455
          483 480 453 456 484 481
          454 457 484 481 454 457
          485 482 455 458 486 483
          456 459 487 484 457 460
          487 484 457 460 488 485
          458 461 489 486 459 462
          490 487 460 463 490 487
          460 463 491 488 461 464
          492 489 462 465 493 490
          463 466 493 490 463 466
          494 491 464 467 498 495
          468 471 499 496 469 472
          499 496 469 472 500 497
          470 473 501 498 471 474
          502 499 472 475 502 499
          472 475 503 500 473 476
          504 501 474 477 505 502
          475 478 505 502 475 478
          506 503 476 479 507 504
          477 480 508 505 478 481
          508 505 478 481 509 506
          479 482 510 507 480 483
          511 508 481 484 511 508
          481 484 512 509 482 485
          513 510 483 486 514 511
          484 487 514 511 484 487
          515 512 485 488 516 513
          486 489 517 514 487 490
          517 514 487 490 518 515
          488 491 519 516 489 492
          520 517 490 493 520 517
          490 493 521 518 491 494
          525 522 495 498 526 523
          496 499 526 523 496 499
          527 524 497 500 528 525
          498 501 529 526 499 502
          529 526 499 502 530 527
          500 503 531 528 501 504
          532 529 502 505 532 529
          502 505 533 530 503 506
          534 531 504 507 535 532
          505 508 535 532 505 508
          536 533 506 509 537 534
          507 510 538 535 508 511
          538 535 508 511 539 536
          509 512 540 537 510 513
          541 538 511 514 541 538
          511 514 542 539 512 515
          543 540 513 516 544 541
          514 517 544 541 514 517
          545 542 515 518 546 543
          516 519 547 544 517 520
          547 544 517 520 548 545
          518 521 340 549 550 339
          342 551 552 341 342 551
          552 341 344 553 554 343
          339 550 555 366 341 552
          556 367 341 552 556 367
          343 554 557 368 366 555
          558 390 367 556 559 391
          367 556 559 391 368 557
          560 392 390 558 561 414
          391 559 562 415 391 559
          562 415 392 560 563 416
          414 561 564 438 415 562
          565 439 415 562 565 439
          416 563 566 440 438 564
          567 465 439 565 568 466
          439 565 568 466 440 566
          569 467 465 567 570 492
          466 568 571 493 466 568
          571 493 467 569 572 494
          492 570 573 519 493 571
          574 520 493 571 574 520
          494 572 575 521 519 573
          576 546 520 574 577 547
          520 574 577 547 521 575
          578 548 549 579 580 550
          551 581 582 552 551 581
          582 552 553 583 584 554
          550 580 585 555 552 582
          586 556 552 582 586 556
          554 584 587 557 555 585
          588 558 556 586 589 559
          556 586 589 559 557 587
          590 560 558 588 591 561
          559 589 592 562 559 589
          592 562 560 590 593 563
          561 591 594 564 562 592
          595 565 562 592 595 565
          563 593 596 566 564 594
          597 567 565 595 598 568
          565 595 598 568 566 596
          599 569 567 597 600 570
          568 598 601 571 568 598
          601 571 569 599 602 572
          570 600 603 573 571 601
          604 574 571 601 604 574
          572 602 605 575 573 603
          606 576 574 604 607 577
          574 604 607 577 575 605
          608 578 579 609 610 580
          581 611 612 582 581 611
          612 582 583 613 614 584
          580 610 615 585 582 612
          616 586 582 612 616 586
          584 614 617 587 585 615
          618 588 586 616 619 589
          586 616 619 589 587 617
          620 590 588 618 621 591
          589 619 622 592 589 619
          622 592 590 620 623 593
          591 621 624 594 592 622
          625 595 592 622 625 595
          593 623 626 596 594 624
          627 597 595 625 628 598
          595 625 628 598 596 626
          629 599 597 627 630 600
          598 628 631 601 598 628
          631 601 599 629 632 602
          600 630 633 603 601 631
          634 604 601 631 634 604
          602 632 635 605 603 633
          636 606 604 634 637 607
          604 634 637 607 605 635
          638 608 609 639 640 610
          611 641 642 612 611 641
          642 612 613 643 644 614
          610 640 645 615 612 642
          646 616 612 642 646 616
          614 644 647 617 615 645
          648 618 616 646 649 619
          616 646 649 619 617 647
          650 620 618 648 651 621
          619 649 652 622 619 649
          652 622 620 650 653 623
          621 651 654 624 622 652
          655 625 622 652 655 625
          623 653 656 626 624 654
          657 627 625 655 658 628
          625 655 658 628 626 656
          659 629 627 657 660 630
          628 658 661 631 628 658
          661 631 629 659 662 632
          630 660 663 633 631 661
          664 634 631 661 664 634
          632 662 665 635 633 663
          666 636 634 664 667 637
          634 664 667 637 635 665
          668 638 639 669 670 640
          641 671 672 642 641 671
          672 642 643 673 674 644
          640 670 675 645 642 672
          676 646 642 672 676 646
          644 674 677 647 645 675
          678 648 646 676 679 649
          646 676 679 649 647 677
          680 650 648 678 681 651
          649 679 682 652 649 679
          682 652 650 680 683 653
          651 681 684 654 652 682
          685 655 652 682 685 655
          653 683 686 656 654 684
          687 657 655 685 688 658
          655 685 688 658 656 686
          689 659 657 687 690 660
          658 688 691 661 658 688
          691 661 659 689 692 662
          660 690 693 663 661 691
          694 664 661 691 694 664
          662 692 695 665 663 693
          696 666 664 694 697 667
          664 694 697 667 665 695
          698 668 669 699 700 670
          671 701 702 672 671 701
          702 672 673 703 704 674
          670 700 705 675 672 702
          706 676 672 702 706 676
          674 704 707 677 675 705
          708 678 676 706 709 679
          676 706 709 679 677 707
          710 680 678 708 711 681
          679 709 712 682 679 709
          712 682 680 710 713 683
          681 711 714 684 682 712
          715 685 682 712 715 685
          683 713 716 686 684 714
          717 687 685 715 718 688
          685 715 718 688 686 716
          719 689 687 717 720 690
          688 718 721 691 688 718
          721 691 689 719 722 692
          690 720 723 693 691 721
          724 694 691 721 724 694
          692 722 725 695 693 723
          726 696 694 724 727 697
          694 724 727 697 695 725
          728 698 699 729 730 700
          701 731 732 702 701 731
          732 702 703 733 734 704
          700 730 735 705 702 732
          736 706 702 732 736 706
          704 734 737 707 705 735
          738 708 706 736 739 709
          706 736 739 709 707 737
          740 710 708 738 741 711
          709 739 742 712 709 739
          742 712 710 740 743 713
          711 741 744 714 712 742
          745 715 712 742 745 715
          713 743 746 716 714 744
          747 717 715 745 748 718
          715 745 748 718 716 746
          749 719 717 747 750 720
          718 748 751 721 718 748
          751 721 719 749 752 722
          720 750 753 723 721 751
          754 724 721 751 754 724
          722 752 755 725 723 753
          756 726 724 754 757 727
          724 754 757 727 725 755
          758 728 729 759 760 730
          731 761 762 732 731 761
          762 732 733 763 764 734
          730 760 765 735 732 762
          766 736 732 762 766 736
          734 764 767 737 735 765
          768 738 736 766 769 739
          736 766 769 739 737 767
          770 740 738 768 771 741
          739 769 772 742 739 769
          772 742 740 770 773 743
          741 771 774 744 742 772
          775 745 742 772 775 745
          743 773 776 746 744 774
          777 747 745 775 778 748
          745 775 778 748 746 776
          779 749 747 777 780 750
          748 778 781 751 748 778
          781 751 749 779 782 752
          750 780 783 753 751 781
          784 754 751 781 784 754
          752 782 785 755 753 783
          786 756 754 784 787 757
          754 784 787 757 755 785
          788 758 759 789 790 760
          761 791 792 762 761 791
          792 762 763 793 794 764
          760 790 795 765 762 792
          796 766 762 792 796 766
          764 794 797 767 765 795
          798 768 766 796 799 769
          766 796 799 769 767 797
          800 770 768 798 801 771
          769 799 802 772 769 799
          802 772 770 800 803 773
          771 801 804 774 772 802
          805 775 772 802 805 775
          773 803 806 776 774 804
          807 777 775 805 808 778
          775 805 808 778 776 806
          809 779 777 807 810 780
          778 808 811 781 778 808
          811 781 779 809 812 782
          780 810 813 783 781 811
          814 784 781 811 814 784
          782 812 815 785 783 813
          816 786 784 814 817 787
          784 814 817 787 785 815
          818 788
        </DataArray>
        <DataArray type="Int64" Name="offsets" format="ascii" RangeMin="8" RangeMax="3632">
          8 16 24 32 40 48
          56 64 72 80 88 96
          104 112 120 128 136 144
          152 160 168 176 184 192
          200 208 216 224 232 240
          248 256 264 272 280 288
          296 304 312 320 328 336
          344 352 360 368 376 384
          392 400 408 416 424 432
          440 448 456 464 472 480
          488 496 504 512 520 528
          536 544 552 560 568 576
          584 592 600 608 616 624
          632 640 648 656 664 672
          680 688 696 704 712 720
          728 736 744 752 760 768
          776 784 792 800 808 816
          824 832 840 848 856 864
          872 880 888 896 904 912
          920 928 936 944 952 960
          968 976 984 992 1000 1008
          1016 1024 1032 1040 1048 1056
          1064 1072 1080 1088 1096 1104
          1112 1120 1128 1136 1144 1152
          1160 1168 1176 1184 1192 1200
          1208 1216 1224 1232 1240 1248
          1256 1264 1272 1280 1288 1296
          1304 1312 1320 1328 1336 1344
          1352 1360 1368 1376 1384 1392
          1400 1408 1416 1424 1432 1440
          1448 1456 1464 1472 1480 1488
          1496 1504 1512 1520 1528 1536
          1544 1552 1560 1568 1576 1584
          1592 1600 1608 1616 1624 1632
          1640 1648 1656 1664 1672 1680
          1688 1696 1704 1712 1720 1728
          1736 1744 1752 1760 1768 1776
          1784 1792 1800 1808 1816 1824
          1832 1840 1848 1856 1864 1872
          1880 1888 1896 1904 1912 1920
          1928 1936 1944 1952 1960 1968
          1976 1984 1992 2000 2008 2016
          2024 2032 2040 2048 2056 2064
          2072 2080 2088 2096 2104 2112
          2120 2128 2136 2144 2152 2160
          2168 2176 2184 2192 2200 2208
          2216 2224 2232 2240 2248 2256
          2264 2272 2280 2288 2296 2304
          2312 2320 2328 2336 2344 2352
          2360 2368 2376 2384 2392 2400
          2408 2416 2424 2432 2440 2448
          2456 2464 2472 2480 2488 2496
          2504 2512 2520 2528 2536 2544
          2552 2560 2568 2576 2584 2592
          2600 2608 2616 2624 2632 2640
          2648 2656 2664 2672 2680 2688
          2696 2704 2712 2720 2728 2736
          2744 2752 2760 2768 2776 2784
          2792 2800 2808 2816 2824 2832
          2840 2848 2856 2864 2872 2880
          2888 2896 2904 2912 2920 2928
          2936 2944 2952 2960 2968 2976
          2984 2992 3000 3008 3016 3024
          3032 3040 3048 3056 3064 3072
          3080 3088 3096 3104 3112 3120
          3128 3136 3144 3152 3160 3168
          3176 3184 3192 3200 3208 3216
          3224 3232 3240 3248 3256 3264
          3272 3280 3288 3296 3304 3312
          3320 3328 3336 3344 3352 3360
          3368 3376 3384 3392 3400 3408
          3416 3424 3432 3440 3448 3456
          3464 3472 3480 3488 3496 3504
          3512 3520 3528 3536 3544 3552
          3560 3568 3576 3584 3592 3600
          3608 3616 3624 3632
        </DataArray>
        <DataArray type="UInt8" Name="types" format="ascii" RangeMin="12" RangeMax="12">
          12 12 12 12 12 12
          12 12 12 12 12 12
          12 12 12 12 12 12
          12 12 12 12 12 12
          12 12 12 12 12 12
          12 12 12 12 12 12
          12 12 12 12 12 12
          12 12 12 12 12 12
          12 12 12 12 12 12
          12 12 12 12 12 12
          12 12 12 12 12 12
          12 12 12 12 12 12
          12 12 12 12 12 12
          12 12 12 12 12 12
          12 12 12 12 12 12
          12 12 12 12 12 12
          12 12 12 12 12 12
          12 12 12 12 12 12
          12 12 12 12 12 12
          12 12 12 12 12 12
          12 12 12 12 12 12
          12 12 12 12 12 12
          12 12 12 12 12 12
          12 12 12 12 12 12
          12 12 12 12 12 12
          12 12 12 12 12 12
          12 12 12 12 12 12
          12 12 12 12 12 12
          12 12 12 12 12 12
          12 12 12 12 12 12
          12 12 12 12 12 12
          12 12 12 12 12 12
          12 12 12 12 12 12
          12 12 12 12 12 12
          12 12 12 12 12 12
          12 12 12 12 12 12
          12 12 12 12 12 12
          12 12 12 12 12 12
          12 12 12 12 12 12
          12 12 12 12 12 12
          12 12 12 12 12 12
          12 12 12 12 12 12
          12 12 12 12 12 12
          12 12 12 12 12 12
          12 12 12 12 12 12
          12 12 12 12 12 12
          12 12 12 12 12 12
          12 12 12 12 12 12
          12 12 12 12 12 12
          12 12 12 12 12 12
          12 12 12 12 12 12
          12 12 12 12 12 12
          12 12 12 12 12 12
          12 12 12 12 12 12
          12 12 12 12 12 12
          12 12 12 12 12 12
          12 12 12 12 12 12
          12 12 12 12 12 12
          12 12 12 12 12 12
          12 12 12 12 12 12
          12 12 12 12 12 12
          12 12 12 12 12 12
          12 12 12 12 12 12
          12 12 12 12 12 12
          12 12 12 12 12 12
          12 12 12 12 12 12
          12 12 12 12 12 12
          12 12 12 12 12 12
          12 12 12 12 12 12
          12 12 12 12 12 12
          12 12 12 12 12 12
          12 12 12 12 12 12
          12 12 12 12 12 12
          12 12 12 12 12 12
          12 12 12 12 12 12
          12 12 12 12
        </DataArray>
      </Cells>
    </Piece>
  </UnstructuredGrid>
</VTKFile>
