<?xml version="1.0"?>
<VTKFile type="UnstructuredGrid" version="0.1" byte_order="LittleEndian" header_type="UInt32" compressor="vtkZLibDataCompressor">
  <UnstructuredGrid>
    <Piece NumberOfPoints="783" NumberOfCells="456">
      <PointData>
        <DataArray type="Int32" Name="libmesh_node_id" format="ascii" RangeMin="1863" RangeMax="4982">
          1863 1864 1865 1887 1888 1889
          1890 1891 1892 1899 1900 1901
          1902 1903 1904 1905 1906 1907
          1908 1909 1910 1911 1912 1913
          1914 1915 1916 1917 1918 1919
          1926 1927 1928 1929 1930 1931
          1932 1933 1934 1935 1936 1937
          1938 1939 1940 1941 1942 1943
          1944 1945 1946 1950 1951 1952
          1953 1954 1955 1956 1957 1958
          1959 1960 1961 1962 1963 1964
          1965 1966 1967 1968 1969 1970
          1971 1972 1973 1977 1978 1979
          1980 1981 1982 1983 1984 1985
          1986 1987 1988 1989 1990 1991
          1992 1993 1994 1995 1996 1997
          1998 1999 2000 2004 2005 2006
          2007 2008 2009 2010 2011 2012
          2013 2014 2015 2016 2017 2018
          2019 2020 2021 2022 2023 2024
          2025 2026 2027 2031 2032 2033
          2034 2035 2036 2037 2038 2039
          2040 2041 2042 2043 2044 2045
          2046 2047 2048 2049 2050 2051
          2052 2053 2054 2058 2059 2060
          2061 2062 2063 2064 2065 2066
          2067 2068 2069 2070 2071 2072
          2073 2074 2075 2076 2077 2078
          2079 2080 2081 2082 2083 2084
          2085 2086 2087 2088 2089 2090
          2091 2092 2093 2094 2095 2096
          2097 2098 2099 2100 2101 2102
          2103 2104 2105 2106 2107 2108
          2109 2110 2111 2118 2119 2120
          2121 2122 2123 2136 2137 2138
          2139 2140 2141 2142 2143 2144
          2145 2146 2147 2154 2155 2156
          2157 2158 2159 2160 2161 2162
          2163 2165 2167 2169 2170 2171
          2172 2173 2174 2175 2176 2177
          2178 2179 2180 2181 2182 2183
          2209 2213 2217 2232 2233 2234
          2235 2236 2237 2238 2239 2240
          2241 2242 2243 2245 2247 2249
          2310 2311 2312 2313 2314 2315
          2364 2365 2366 2367 2368 2369
          2370 2371 2372 2373 2374 2375
          2574 2575 2576 2577 2578 2579
          2586 2587 2588 2589 2590 2591
          2634 2635 2636 2637 2638 2639
          2640 2641 2642 2673 2674 2675
          2676 2677 2678 2679 2680 2681
          2682 2683 2684 2727 2728 2729
          2730 2731 2732 2733 2734 2735
          2826 2827 2828 2829 2830 2831
          2832 2833 2834 2835 2836 2837
          2874 2875 2876 2877 2878 2879
          2901 2902 2903 2904 2905 2906
          2907 2908 2909 2910 2911 2912
          3003 3004 3005 3006 3007 3008
          3009 3010 3011 3012 3013 3014
          3015 3016 3017 3024 3025 3026
          3027 3028 3029 3030 3031 3032
          3033 3034 3035 3037 3038 3041
          3042 3045 3046 3048 3049 3050
          3051 3052 3053 3105 3106 3107
          3108 3109 3110 3168 3169 3170
          3171 3172 3173 3174 3175 3176
          3177 3178 3179 3228 3229 3230
          3231 3232 3233 3234 3235 3236
          3237 3238 3239 3246 3247 3248
          3249 3250 3251 3264 3265 3266
          3267 3268 3269 3375 3376 3377
          3393 3394 3395 3396 3397 3398
          3423 3424 3425 3426 3427 3428
          3429 3430 3431 3432 3433 3434
          3441 3442 3443 3444 3445 3446
          3465 3466 3467 3468 3469 3470
          3471 3472 3473 3474 3475 3476
          3477 3478 3479 3480 3481 3482
          3516 3517 3518 3546 3547 3548
          3549 3550 3551 3552 3553 3554
          3573 3574 3575 3576 3577 3578
          3600 3601 3602 3663 3664 3665
          3666 3667 3668 3705 3706 3707
          3723 3724 3725 3726 3727 3728
          3729 3730 3731 3732 3733 3734
          3789 3790 3791 3810 3811 3812
          3813 3814 3815 3819 3820 3821
          3840 3841 3842 3843 3844 3845
          3864 3865 3866 3891 3892 3893
          3894 3895 3896 3897 3898 3899
          3933 3934 3935 3936 3937 3938
          3945 3946 3947 3948 3949 3950
          3996 3997 3998 3999 4000 4001
          4002 4003 4004 4005 4006 4007
          4038 4039 4040 4071 4072 4073
          4074 4075 4076 4083 4084 4085
          4110 4111 4112 4113 4114 4115
          4131 4132 4133 4134 4135 4136
          4137 4138 4139 4140 4141 4142
          4143 4144 4145 4239 4240 4241
          4242 4243 4244 4245 4246 4247
          4248 4249 4250 4329 4330 4331
          4332 4333 4334 4356 4357 4358
          4359 4360 4361 4362 4363 4364
          4392 4393 4394 4419 4420 4421
          4446 4447 4448 4449 4450 4451
          4467 4468 4469 4479 4480 4481
          4503 4504 4505 4512 4513 4514
          4524 4525 4526 4542 4543 4544
          4548 4549 4550 4563 4564 4565
          4575 4576 4577 4596 4597 4598
          4632 4633 4634 4674 4675 4676
          4686 4687 4688 4755 4756 4757
          4758 4759 4760 4776 4777 4778
          4824 4825 4826 4827 4828 4829
          4839 4840 4841 4959 4960 4961
          4980 4981 4982 3036 3039 3040
          3043 3044 3047 3609 3693 3610
          3613 3695 3614 3617 3697 3618
          4021 4024 4027 4020 4023 4026
          4009 4008 4013 4012 4017 4016
          3671 4188 3675 4189 3679 4190
          2402 2409 2405 2410 2408 2411
          2389 4395 2393 4396 2397 4397
          2400 2403 2406 3939 4287 3941
          4288 3943 4289 3694 3696 3698
          4599 4380 4600 4384 4601 4388
          4830 4831 4832 4022 4025 4028
          4656 4657 4658
        </DataArray>
        <DataArray type="Float64" Name="resid_x" format="ascii" RangeMin="-0.03163250479298618" RangeMax="0.010186434276419298">
          -0.004339227383082012 -0.008260468321857672 0.0010961079216462721 -0.0020922017801234816 -0.006642404646335365 -0.0006129258460907394
          0.000060455491077249235 -0.0019364906215368904 0.0012799630317705812 -0.0014482582119743626 -0.0035843274492890487 0.0011966521609227954
          -0.0002985479686365977 -0.0015150247805060246 0.0035601936602027706 -0.0024351390906196535 -0.0018397546205259907 0.004582141384362526
          -0.0028715601219966302 -0.0020516992294394854 0.0047546999059595585 -0.005957043919583516 -0.002983278378697385 0.0039003602082186006
          -0.0002317528328537044 -0.0042256622461245286 -0.0011143260254176113 -0.00005311049714507021 -0.0011148364305979541 0.0002417498054549938
          -0.0005443398397630972 -0.0024735094275563085 0.004032052977311906 0.0006431108506177452 0.000869781355038235 0.006420634083410093
          -0.001477675112612431 -0.00015369099609685577 0.005778680690109006 -0.0018840920596465693 -0.0004450320206847991 0.004713387123816304
          -0.0041870197832478695 -0.002613961641474205 0.0022064274985966748 -0.004375667756440826 -0.0032276729965321493 -0.0011223642155782088
          -0.002747216848015377 -0.0007440009953478821 -0.001121280783744183 -0.0032970857794740738 -0.004224002123118353 0.006650344477422188
          0.00002094603644486881 -0.0002990962685167631 0.007031377077207246 -0.0006072087713846486 -0.00027393208467785257 0.006854001067919668
          -0.0036114190935592205 -0.002495618693695967 0.004623396202508623 -0.003520717894549996 -0.0015949824895553633 0.0030366782020081473
          -0.0038639971636191817 -0.0016566888330569185 0.00037334737955241337 -0.004578511943331698 -0.002772524445917135 -0.002066890209945882
          -0.003285499852887064 -0.0006179103998156243 -0.0030841036301056945 -0.0018753168929919184 -0.003974614626415018 0.008714349211766503
          -0.000045563000290016475 0.0015563106584393083 0.010186434276419298 -0.003398599208650488 -0.001992016112914996 0.006068901031185625
          -0.004165879572349596 -0.002538069319119707 0.003486883966044907 -0.0039041848754042263 -0.00193756624955288 0.0011702206375963087
          -0.0037125106837123667 -0.0014623542369225362 -0.0009756646703182881 -0.004345073195586302 -0.0023504345566749407 -0.0032401018929082426
          -0.00320335436160768 -0.0006679470636372642 -0.0035631077882873896 -0.0022920984617051943 -0.004905231214280548 0.009960861202790383
          -0.000951256441330095 0.0003806079824553166 0.009913239275695318 -0.004821218190273591 -0.0035803762155985908 0.003420619720627016
          -0.004389062231607177 -0.0024530206763664353 0.000786227478270618 -0.004027167499541129 -0.0018245105600867007 -0.0011334312431747762
          -0.003687524772156614 -0.0013009697932320208 -0.002475056045097901 -0.004062129719862639 -0.0022089183212923302 -0.004222644055195346
          -0.0032359616574200167 -0.0007399506313428006 -0.004514992323597866 -0.00400884087943254 -0.008474577073549483 0.007919304465384691
          -0.0022853325776841515 -0.0021637849871831705 0.005892364115535287 -0.0051042247634702775 -0.003805731440394311 -0.0005168014956522526
          -0.004485049910390337 -0.0020700186044377844 -0.0020757294729083497 -0.00414152087566233 -0.0014930209484473878 -0.002893583354373064
          -0.0038033323720796375 -0.001214446712071826 -0.003644328467542479 -0.004218997069716401 -0.0021904553768266055 -0.004925126799331103
          -0.003299441838932715 -0.0005422817015983128 -0.004975355815910021 -0.005956157037255494 -0.011798943006841256 -0.00028894509440746674
          -0.001984415312365595 -0.0013724758343349741 0.0012615082723996807 -0.004690598178801492 -0.0025438380907453206 -0.003332578212668358
          -0.0047013917007436845 -0.002185011340349874 -0.004136559189062972 -0.00410439420344888 -0.0015992235174118186 -0.0038182796896473192
          -0.0038849745595213037 -0.0015445612040094758 -0.004323301335944052 -0.004457510762376771 -0.002619461676764967 -0.005591848273238664
          -0.0035406813596781106 -0.0006506320432544399 -0.005573169512542719 -0.0018507401104521648 -0.001787329981900676 0.00020109314982619253
          -0.0005676070599016647 -0.0013404289667175995 -0.0030213772650222737 -0.0018010144548314955 -0.004048936739368791 -0.004045734341944662
          -0.00578655778941517 -0.0046267340223029585 -0.005822494762082631 -0.001704925294259585 -0.0007169388559178091 -0.0018564860512420012
          -0.0006317368429971104 -0.0017239147145642342 -0.0021384177315396796 -0.005836235145740609 -0.0009305837933881733 -0.003569721527350911
          -0.0054180230076738 -0.00630478690782299 -0.0026121851232008275 -0.005615398275548689 -0.0023400555007850876 -0.005369099040606784
          -0.0018290968288900977 -0.005420174000109856 -0.0051822492148732024 -0.0067017038276007135 -0.006979112095933271 -0.00395220890378889
          -0.0035741672306235373 -0.0053570560548319435 -0.0046170925398705265 -0.0065685021986032766 -0.0019798986882994182 -0.006728680547035459
          -0.0016477783925081865 -0.007162136040778755 -0.003781944125281477 -0.006735357628346428 -0.03163250479298618 -0.011090008336154256
          -0.02101426828637365 -0.00472682029764826 -0.008396721809937002 -0.005385887795598343 -0.004859759029692115 -0.008630619788933203
          -0.008038334482182205 -0.005850429587809014 -0.007504333033285626 -0.005363515962213405 -0.0029375598053933416 -0.0065710618480760985
          -0.00953411607332022 -0.017666998336729023 -0.010752994928849624 -0.007940687860915396 -0.012786520574608495 -0.007518867768313786
          -0.007487233484111844 -0.0044081771449397955 -0.012449541958637678 -0.005945259661461311 -0.0076799866597259125 -0.0050599170921636905
          -0.007144135520869455 -0.007582960366409264 -0.005667034034268603 -0.005925974456382654 -0.007031154380610083 -0.007344313206647968
          -0.007873587253625303 -0.010947083476164465 -0.0006287950392458441 -0.0038508821401626037 -0.00395318464285932 0.000015065738629971293
          0.00046506720786343436 -0.004613478421608086 -0.0037926474712026703 -0.0003490662031540026 0.0008099085868336076 -0.008945299451861732
          -0.0073712394527323255 -0.003927925527479559 -0.004437505240175277 -0.00848015886561626 -0.012987033999845465 -0.005113395234605633
          0.000008822599906199713 -0.006242660931635058 0.0011916272725662758 -0.006309991103537804 -0.00694335959232717 -0.009502095114653386
          -0.00019528585248629327 0.0001209619605568868 -0.00043124741999411853 0.000428897442541043 -0.0019642631564558144 -0.002986228707775762
          -0.0034531816412695093 -0.0013457660586468911 -0.004614203256641858 -0.003588053817635828 -0.0028733060563155277 -0.002728892512212866
          -0.0010854312722043957 -0.0036435786721806807 0.00018376829617139379 -0.004755230544648548 -0.0038567704642984424 -0.006853233480490939
          -0.0022849224428034276 -0.003780824398930349 -0.0009495673882993216 -0.002652327049365688 -0.002146863249513409 -0.004750457060540114
          -0.0020105831455099477 -0.0017828214193134073 -0.004411172501076699 -0.0024027613922101843 -0.001933358046905198 -0.006465345841990988
          -0.006280340319237077 -0.009976805003319988 -0.007578993949109325 -0.0000444367069709628 0.0004254428712107128 0.00028338421452334117
          0.0012617721857690611 -0.0021742055161402263 -0.004356435123340496 -0.002946168512006242 -0.0032158282568639507 -0.009654504586766421
          -0.01099616495389899 -0.012076991873774645 -0.012362817977234819 -0.002982108731436117 -0.00032518403092840487 -0.0005478091051189793
          -0.0031377262653811133 -0.0013843490080280851 -0.005317503905752474 -0.003511829325503535 -0.0050056048527920005 -0.007601338496348475
          -0.0037724062460045005 -0.007651591766851151 -0.003951913692379683 0.0006178241815817387 -0.007490548231770866 -0.01854389573061388
          -0.010242883387202473 -0.0010233664496217543 -0.00991197994559112 -0.013842895524642351 -0.01354218697113696 -0.007695374747012984
          -0.003959676124454248 -0.0014321997002166853 -0.003847329460144877 0.0001334702604838256 -0.004585435291681428 -0.0029808984363679514
          0.00000830268787765931 -0.00152051186702451 -0.001201406735128252 0.0008070289301000955 -0.0015111577074975457 -0.0009276940421392155
          -0.006743880106723665 -0.003763825053345826 -0.008637923815268955 -0.008062156440177048 -0.014257920500172716 -0.011093165398807336
          -0.003597585859224317 -0.003898468183654913 -0.0005352408152941024 -0.0021460358231677468 -0.0034531451483612585 -0.0015249817614977346
          -0.0074597723354958845 -0.00473918652355465 -0.002710337816480113 -0.007158350598407637 -0.005474506447393779 -0.004722446774361622
          -0.002648418061119706 -0.009944801090250088 -0.009624151649662238 -0.00007217944483350891 -0.00037635524349166616 -0.0002405643505465349
          0.001290222311967959 -0.0018174663611434383 -0.0014656161274739787 -0.0038795871960140005 -0.001671734414569137 -0.008341140282364101
          -0.009293505255639545 -0.008747121428910098 -0.009042516827132197 -0.005198343855453924 -0.003434078447860145 -0.010914875927644285
          -0.008471562096671548 -0.009479845444861024 -0.009020448917651525 -0.0005756782629786628 -0.0010792591816684016 -0.0016556963044402906
          -0.0037450898097599605 -0.009027473798112418 -0.008614365682119374 -0.00459201229102435 -0.004278145699992741 -0.0025386865219746424
          -0.002904386690227412 -0.004957296862950322 -0.006064367153069128 0.000018793939252859104 0.000460277879978932 0.0008880379480746825
          0.0008871873574518574 -0.002341994916928769 -0.005068289406919391 -0.0015330851304282689 -0.004034447422087695 -0.009176487231288277
          -0.011015834217158016 -0.009076264144393775 -0.01263006660325594 -0.009138957767426348 -0.006458514270352822 -0.009851256432250821
          -0.006330656614503383 -0.006352546642521162 -0.0017339385522614492 -0.0038590792539281438 -0.005495277821805367 -0.005358684564351179
          -0.00699992308459052 -0.0010893816956842883 -0.0017643868495031967 -0.005715489128925277 -0.005348979146581279 -0.003945372410540493
          -0.0035050921450769934 -0.007233520950576278 -0.007185499704424725 -0.006715694065381861 -0.0056754690730747015 -0.009112601877078852
          -0.0054662145035857534 -0.011576885845796525 -0.007248516103324221 -0.006454979570585273 -0.0026842778630822295 -0.00804065510270302
          -0.012222102108249366 -0.007280327424363797 -0.006098274719258612 -0.002136484908629832 -0.008010571747878004 -0.006690383205018691
          -0.003409756022493937 0.0000164737960712813 0.0006993244825252987 -0.0007770106315794223 -0.003491263129009603 -0.0010755146659722215
          -0.0024724510911102726 -0.002233723993531278 -0.0099211840719855 -0.0081233027597154 -0.009287171218731238 -0.009286786107254308
          -0.0019734185477053856 -0.0025965019807570044 -0.003614761635192032 -0.0026409941671530213 -0.009665221539568947 -0.007541081776658132
          -0.009284775075138363 -0.010320240434922301 -0.008087527169259978 -0.013270633401980092 -0.005589390432210628 -0.01242566358411068
          -0.010118676101320112 -0.009159045032531843 -0.009481992198712597 -0.004664522777800606 -0.00760347067208933 -0.0019300383684681677
          -0.0060721424245833155 -0.0029042173046383013 -0.0010835610399162476 -0.00911768303586058 -0.006628583957095202 -0.003512900788470219
          -0.006511018143781189 -0.0028605709876162733 -0.008029104583930247 -0.0047814968751338505 -0.003378053406010828 -0.003714258400977055
          -0.003385457776786893 -0.003982356874101534 -0.0024398646142840263 -0.0014292639586477307 -0.00308742664414563 -0.0037566378818532087
          -0.00383941073650762 -0.0053079857586713075 -0.00024748723308265497 0.000010054031369222116 -0.005741615951826429 -0.0063796523584978004
          -0.007373039805477877 -0.0035923403499142914 -0.013874835585874656 -0.004667749051369796 -0.0010187125079825776 -0.009403052832361425
          -0.00018916707818728007 -0.002496825731421737 0.0006043112727091016 -0.009434603938687225 -0.01463037740296258 -0.0027186657246272006
          -0.00585537719535445 -0.006515981892363687 -0.002642918239852854 -0.0018847812608298042 -0.01361190199785689 -0.01476080270784541
          -0.005413092057071189 -0.0036817217329763174 -0.010856387773373832 -0.009647083251079991 -0.005974868423288093 -0.006189066381328878
          -0.00899385015266052 -0.01302696943613224 -0.010278740488181448 -0.0010001463338200622 -0.0066047986745809695 0.00039362679947174684
          -0.0063855270971266975 -0.006223188284121051 -0.010521177145555782 -0.006590969570480887 -0.0021619263663481547 -0.005052265349790197
          -0.002914539829946605 -0.003723567137896233 -0.0018109420431482448 -0.0018502796704580327 -0.0008453123380585126 -0.001936322848348937
          -0.009997834244447112 -0.017557253072286727 -0.013719687033794337 -0.008233690685533368 -0.011230520060448335 -0.011691630449337964
          -0.014239373785575715 -0.01275256903554034 -0.02206103430865447 -0.010041441960257025 -0.01019442925790326 -0.01233397207646636
          -0.009125836945348631 -0.00600649929112107 -0.004146117139401717 -0.0021316348343758396 -0.006976086438469586 -0.006481875124454195
          -0.01275471005388118 -0.012970570096750178 -0.006615829901827297 -0.009331409026990034 -0.00906398216687343 -0.009688086223906378
          -0.002822972384564082 -0.004814620739857389 -0.0012503621237636153 -0.005453779822422344 -0.011188545026052488 -0.009459752030349655
          -0.00397744873589323 -0.006019784442766962 -0.0008435153343633317 -0.006244949454086601 -0.006608595574219223 -0.006859535185522958
          -0.009610530715128629 -0.012088221085761797 -0.010815080430423674 -0.008570233923072657 -0.004734691333065921 -0.009866315616703147
          -0.010475464441117133 -0.013880302621447349 -0.0098389606797058 -0.009580258475003767 -0.006742096566828337 -0.006078422545002127
          -0.007546032767032251 0.0006090264333558082 -0.0053297806463668 -0.002899906766233862 -0.0003702393022120276 -0.000124608463544007
          -0.011498901917275539 -0.012500312746103859 -0.006923956310951773 -0.009725983626395873 -0.008954911967466117 -0.010806607297086046
          -0.007982856570049879 -0.006552893639435897 -0.005783603707274099 -0.004538000894640959 -0.006826614720883972 -0.009713713172438077
          -0.0065779836240009715 -0.0031760968927558864 -0.013773638234102492 -0.00893552157520805 -0.0020469804767602184 -0.004377971308553441
          -0.006639903696153415 -0.005907799013789017 -0.008703830033195636 -0.0024847676278830777 -0.007498431388297533 -0.0018535676403912404
          -0.0036420405822670254 -0.006990202235336973 -0.004884767672692192 -0.015399024414694651 -0.01563538248296137 -0.02030994101006467
          -0.021777079824329082 -0.014956932910721754 -0.016607055295441597 -0.004805675945388721 0.00018105462546103013 -0.0014561617160246954
          -0.011773979132829737 -0.015069178812151307 -0.010625875144032015 -0.010703748554737658 -0.015132458566011309 -0.01371802759346874
          -0.012021223207393739 -0.0034878136139364635 -0.006927636790231784 -0.01007366807438137 -0.013050349863572563 -0.004303562746871936
          -0.008376293153258718 -0.005210162886134295 -0.008138267273892108 -0.01144141920297681 -0.005166905275380884 -0.00926525260979627
          -0.004262892793083228 -0.002327170338257467 0.004753882733618653 -0.004832172515245148 -0.0026709091757011194 0.001356816465518218
          -0.007702587667676397 -0.007982817467791392 -0.0050210465470605925 -0.005252808294769373 -0.003499347039285894 -0.0018247081858855374
          -0.009704561461918004 -0.013294374000122566 -0.008675783270107651 -0.006198857242593725 -0.004099236679246943 -0.003311069759086127
          -0.007523005596644872 -0.0027555766604532295 -0.007494923644543405 -0.01125857925752527 -0.0063787222002869015 -0.00910134082186076
          -0.006707808334440735 -0.002242409065420503 -0.00731051159086249 -0.010703681771778939 -0.0022065066431800062 -0.00703653896927392
          -0.011671222884623411 -0.00271791781763131 -0.007094901922502395 -0.010003222424634028 -0.007029412072391494 -0.008412786455243904
          -0.012154615780648914 -0.0034879281924915517 -0.007976382111943181 -0.006754445495277928 -0.006029341789407283 -0.001105975073579124
          -0.0011359943198074873 -0.0014425639911967991 -0.002002807392620376 -0.00796777039673291 -0.0027536002861516806 -0.0014995394246364313
          -0.008137044044181252 -0.008747167628839314 -0.002701875258654951 -0.009690861345574397 -0.005329020717889321 -0.006727795113889101
          -0.009332018664919506 -0.0030238495392151954 -0.003260583269566908 -0.011439603918431906 -0.015385382658964275 -0.01053435087987431
          -0.012171171580123819 -0.005546563413445504 -0.00844065795494675 -0.007634526004755671 -0.006480758957260413 -0.009797854174166787
          -0.00882608355515302 -0.006426438402886703 -0.006493073903989455 -0.007024634451184397 -0.015259590573640569 -0.0006543332920991851
          -0.01456552820722834 -0.021976346975782768 -0.0035195409003192513 -0.01990236028859016 -0.0147413316941587 -0.007636605436020072
          -0.008552058609468283 -0.01427577613416986 -0.00884364930017778 -0.011417095587145987 -0.01371441290801556 -0.010451205501087024
          -0.004941003666729671 -0.009326727359982634 -0.010740546489035552 -0.01949844133927492 -0.008481075112568348 -0.011375701008605077
          -0.0024045029682149277 -0.008485036807187818 -0.007721902455156027 -0.009177866261468992 -0.011742115532102915 -0.009029551147397008
          -0.015301739984199259 -0.014836122175540645 -0.023421533749630186 -0.019048913115550903 -0.016833029265900024 -0.013669248222625718
          -0.002496296687455768 -0.014212016869922905 -0.008467387233647372 -0.018941470896969292 -0.013369006280308682 -0.014488328270514828
          -0.016284323830718428 -0.023098356216355143 -0.01825301313566552 -0.006923746651652074 -0.006069732472514744 -0.010161569581222274
          -0.008163043206414144 -0.002847206779428735 -0.004667030536796624 -0.012022208759449704 -0.016399652064260195 -0.016082848997790222
          -0.010902277270922411 -0.004557278784710128 -0.018422740425744877 -0.009109356711951122 -0.010584755635407284 -0.008140351764868825
          -0.011462482242831307 -0.01425545722429078 -0.01015808754753511 -0.009423084492638623 -0.0124132640800525 -0.008865066969191204
          -0.006560153207709085 -0.008649215709352731 -0.008187084874355932
        </DataArray>
        <DataArray type="Float64" Name="resid_y" format="ascii" RangeMin="-0.005733837790281733" RangeMax="0.017538878170997613">
          0.004891847765884472 0.005736108406040941 0.003246825716538365 0.0011636933035434338 0.004896988161713911 0.005526363547513291
          -0.0005746899687045781 0.0016889173484684328 0.003946910714556162 0.0021677895689450055 0.005847041659860053 0.004011598752372003
          0.0025627310576724627 0.007217339593191374 0.005054585235227171 0.0043832005793924544 0.009993167077973819 0.006687180826751016
          0.005243271246777037 0.011553303053595254 0.007783105176827676 0.004830821983214717 0.008829303577189807 0.00671842750275764
          -0.0004590960179189918 -0.00008516290207183363 0.003176654461280237 -0.00013493348093736313 0.0004077151887114036 0.0033146556789570986
          -0.00024391481487424926 -0.000446667150727241 0.0009594138340922806 0.0002353913713514233 0.0006017580359189978 0.0018639590021268804
          0.0005257274999000972 0.0003734594915184575 0.0021546115420086887 0.0005652714606992904 0.00014539851269357307 0.002246645814160564
          0.0018657983863107908 0.0007785836090806741 0.002196558241314761 0.004476307870999174 0.0035705761492601518 0.004394030230590207
          0.002166874212969641 0.000832408769858824 0.003554589845193426 0.0026375453160836226 0.004571051658176062 0.0033897303039421844
          0.0026530102109090237 0.0028917257591037915 0.0031437312921523963 0.00291119131593065 0.003545471140942502 0.004025454384935068
          0.003593682792129682 0.003043496720779193 0.004317652833513708 0.0038157863642007683 0.0026483486909388843 0.00431018377394099
          0.0034569634544228123 0.0014018890547775054 0.003794917796552666 0.003440628009940966 0.0013580743183604083 0.0038132646416170757
          0.0025110581308237234 0.0007805207175426709 0.004168858531816411 0.0029480898918845255 0.004492677029029668 0.0031722854210058937
          0.0028322011688656223 0.002429183712973515 0.002885219215544965 0.002519378744033185 0.0005725093845740936 0.0027012274731068597
          0.0024507731596550286 -0.0002919336440037057 0.0025958919672484093 0.002982012554208602 0.0001396071067317206 0.00308747841716267
          0.0032072793780685283 0.0004205313063915528 0.003390286259737585 0.0033867029150616568 0.000858033986933765 0.0036607523757088076
          0.0026699225347751876 0.0005303568752774435 0.003367507624827848 0.005456250821307518 0.007482300741871173 0.005234068201518394
          0.002722640882288463 0.0021333406503531993 0.003241173206575909 0.001974225123782314 -0.0007422774751667527 0.0021213030883645567
          0.002519216002026259 -0.00030028919066704685 0.0025109158898012907 0.0031274754277803574 0.0003507949521051601 0.003213801338766281
          0.003344300135622244 0.0005879821440495925 0.0035555873566749593 0.0035656063879039405 0.0012981615392308535 0.004077961082681866
          0.0028322183177881544 0.0012786791553016166 0.003964669601598615 0.004726099420943486 0.0052286671918597705 0.003996851979017446
          0.0015893466393417377 -0.00048687122621660084 0.0018653475511719586 0.0019088063346457407 -0.0010100682740742384 0.002062443314829826
          0.0027824191490542216 0.00022143575256614034 0.0028628147285753164 0.0031403880595199385 0.00039600831699243555 0.0032329325058616104
          0.0033104527228206074 0.0004082838049883214 0.003482002972911979 0.003722303142190138 0.0013075038760085866 0.004165967911809579
          0.003052243555765497 0.0013346462674258437 0.00421634633109089 0.0008595794830159598 -0.0028947646898118684 -0.0008252855474992771
          0.0014361284949546693 -0.0010384815480163345 0.0016218680651606254 0.002368519653710599 -0.00008735811825255624 0.0030634165060516444
          0.0031065843531530996 0.0007226705302945391 0.002891868091642852 0.003050244950277309 0.0003212762354472265 0.002874041399843097
          0.0032027858865855234 0.00036228218294654876 0.003210777188029798 0.0036666033239263207 0.0011749189803917787 0.004082286181761083
          0.0034167643818631896 0.0015114646369523144 0.004723962635190156 0.0018305910370225928 0.0018092595841428735 -0.00011267924914598604
          0.000007950101199099234 0.0009390067981115136 0.0024033156904107768 0.0005485076103325902 0.0005613352116626609 0.00348443002435022
          0.00495498548904633 0.0021186917796911404 0.0015881764687068235 0.0030638807655510025 0.0004538297260949786 0.00003626777018395089
          0.0026444457903369717 0.0021192449689955706 0.00025617132992444835 0.00040625260967108723 0.002789701733542621 0.003611300852597865
          0.0015579655723005348 0.001594502085887961 0.004112417189269607 0.004078445972923658 0.000009333227566979407 0.0037573798700494265
          -0.0010193532189496785 0.004260572735967902 0.0010931616259643798 0.002382739246613197 0.004433384911117139 0.00016266057523785238
          0.004318931127026582 0.001643727882087595 0.005096392639580477 0.004868085092310008 -0.000043813867277156526 0.005958146188891067
          -0.0003013343078718603 0.006907150295470364 0.0014868909705679015 0.0017559106658862067 -0.005733837790281733 0.0006232500217797643
          -0.002118517270722599 0.0019693116673080713 0.0004725550088591629 0.004330136006804056 0.00409716702359895 0.0047160166486237345
          0.00399512874593853 0.0028984709832420227 0.0030972825391518757 0.00484193664105461 0.003966559746047635 0.005885211326688539
          0.0027739758027011674 0.00023019251454514666 -0.00013428981404944862 0.003298736409957495 0.002302171077161519 0.001768124409749272
          0.0037448637201608626 0.002557387714280379 0.003681160305064435 0.002038873902123345 0.0026366839128497133 0.0019458582508733724
          0.003932237786270269 0.0028283252172145133 0.0015518967038943808 0.002676191815050119 0.0005777486729470621 0.002425322562239568
          0.0007385679562583181 0.002834957900219731 0.005590345602917324 0.0017428126312253045 0.0015748251263040663 0.000048295209207523115
          -0.00041090234406052084 0.0026141312532754687 0.002562038613639475 0.0016276335241101683 0.0011387320209447077 0.005398290318895389
          0.004594170562010086 0.004168277843346576 0.004953734728598717 0.0018739870385283686 0.0029201216617966153 0.00405842992502603
          0.0017640143360839466 0.005695037276182542 0.0012009485064975595 0.003871952424747943 0.0060848434495852505 0.00575135515468591
          0.0001143302606357588 0.00004107698371359769 -0.000280626448891208 -0.0006944082671744567 0.0005965804722176671 0.001490904782703667
          0.0004875598417150018 0.0012515330042681405 0.004265455488928815 0.0027692894912623722 0.003385388692345337 0.005508122442747246
          0.003394637530394519 0.0023860256439969148 0.0016066688533906484 0.0015877699238683526 0.003345084233760058 0.003438433209947628
          0.004659242600361491 0.002840859160735079 0.003349138548679742 0.0011623968895080813 0.006188961379080649 0.004640007758173706
          0.0005459379621437221 -0.0009637599016351639 0.002726241278296654 0.001558509664421781 0.0012056230656221772 0.0033270124937431686
          0.004956374719336347 0.0075852510138919305 0.0038543947111541535 0.00004025874988201894 -0.0003239901553447593 -0.0007804517817767004
          -0.0006919101894950208 0.0011951268252261699 0.0014216551944623906 0.00042259785367046443 0.0032382062732687344 0.006092936427680287
          0.0058873685075944565 0.007436870133455925 0.008371986681097135 0.0014465445923563247 -0.00026728353337385213 0.0012493209233142358
          0.002483785388186416 0.00016918017474959468 0.002072937255319804 0.0033527585798328596 0.003436225455143667 0.005083964442439869
          0.005225493399883464 0.005053094568814892 0.005056981452623267 0.0003049285649511929 0.010977267137096375 0.011362625678497135
          0.010289592708449702 -0.00006000393394746395 0.009330101491187688 0.007902050649470763 0.008590553846164875 0.0023499824202322314
          0.002582208034000749 0.0016668553161252493 0.0026781039914861027 -0.00044127844770724955 0.003248945137600545 0.0016934412194901244
          0.000023559690929668767 0.002140050155102227 0.005391893177915068 -0.00029062903910912147 0.0006300135289752287 0.0029031127001319795
          0.007021231468600323 -0.0007555573612880451 0.0043947131664192046 0.006239002137379046 0.009216745509926025 0.00421612407888224
          0.0023287186431736467 0.0019115645667892867 0.0008295795724483235 0.0004540921870106133 0.00009719137361585695 -0.000012501817632282891
          0.004460712961816309 0.0023069704687986164 0.0010373450570029669 0.002292632772203186 0.0005371582333988656 0.0016799434229845395
          0.001426506386418419 0.005794350003173486 0.0066815616175733145 -0.000008010788792569591 0.002779732586296286 -0.000008493077635122331
          -0.0007326983252791755 0.0006723228522882217 0.0035664323058159815 0.0021741682442247903 0.0004103210671566205 0.004410678414819524
          0.007501334636017144 0.006082788798956608 0.005671185911732426 0.00015106780226371679 -0.0003601919800548109 0.001524216623946078
          0.0018894322913131645 0.004497635224662668 0.004787951797080501 0.0017983592175975886 0.0031357142335427385 -0.00003698755999531969
          0.00013002078527396543 0.0039179779932568895 0.003022796962138117 0.00341360316213421 0.0014617654137977637 0.0037914603458928664
          0.0013698225370864237 0.004784338249931963 0.004217449090265155 0.00011606174093593824 -0.000325025844773473 -0.0007938092459148782
          -0.0005609651686176546 0.001113580603225993 0.0007309700829102247 0.0012284458072250454 0.003004497382360038 0.005318845114545362
          0.005457229923382059 0.006887629229664911 0.00814711385133492 0.006869482437562385 0.005629958880474111 0.007610635023488438
          0.0010396942425800748 0.0009951954050673728 0.003739029287382345 0.0015341196002027213 0.0024472317214517536 -0.0011599272104384495
          0.0012349416314533512 0.0016731823915276112 0.0025801735138342163 0.0022176929329096803 0.003016034183725605 0.001865200850226588
          0.003828716402378328 0.003949399959233595 0.005719709085335728 0.004241365866257535 0.00433909214016133 0.0025273771198402184
          0.002871957734269806 0.004689483676564188 0.00414831302489678 0.006062342431329949 0.002762750712741957 0.005025027728691095
          0.004393968442698757 0.004074647090177429 0.0020230937738379795 0.0018445235967474508 0.004642015096836528 0.004160025177067039
          0.0047570628963950895 0.000015259438250397883 -0.000262461687153194 0.0010858606585556728 0.0035908538607366744 -0.0001255604051707826
          0.000401640778606549 0.002445300810898849 0.00618080966520744 0.003822176749920792 0.004906370434233039 0.006705102917362007
          0.006129915175414145 0.003346279764162248 0.004924572174806623 0.0025579649189874584 0.006765323709435471 0.004848067713999767
          0.002913906896271988 0.0017680264732453793 0.006259411480284305 0.0022088483418753954 0.0004537583940596515 0.004857605787088895
          0.0028672697628334895 0.004212369394908204 0.004313090295425433 0.006460739842979665 0.003270037902041025 0.0014401342154320151
          0.003775773516499728 0.0011015461083969807 0.0006187498734497865 0.005121040738179303 0.003933533073996014 0.002323058125047975
          0.0027693652334471602 0.0006822325343952759 0.005131028540642096 0.005128011472839124 0.0038943324219420927 0.004569065996269064
          0.003960730033731472 0.0010534722585175058 0.0037933768058229927 0.00012829957113313917 0.0041518978375138516 0.0022521943530824096
          0.004758954606781593 0.003383077285542907 0.003563053265811973 0.00038845525080397764 0.004854285035317055 0.0029554054155108006
          0.0037313868769320137 0.000916181413596449 0.009269354335617852 0.0008196488267584179 0.001446782595403595 0.001003976017784125
          -0.0004416874639562862 0.0014724714094876967 0.0010395312664635004 0.007670884432303626 0.009907431863926536 0.006207592841048826
          0.004315019370460263 0.0036792377978902974 -0.001589921356289166 0.0028632413897943243 0.009753935389985383 0.008109410293326375
          -0.0030968236511798933 0.006557840238470322 0.006472168901570638 0.004977595005971877 0.0000063537263832944 0.006345923659493075
          0.005133866915580869 0.0027212747470165208 0.003650549410238388 0.0024018140154652215 0.006443028701207595 0.001583562282641858
          0.004040051949396113 0.005419307924897386 0.00583853981052071 0.00654567298432808 0.0025918764829150065 0.0031798076291744554
          0.0025447495050077706 0.0032425467865157542 0.000828769708889121 0.0014290576238663033 0.002629217237415632 0.004013419420513142
          0.00406480755345881 0.008211415865937557 0.006218532776789951 0.003530893670319826 0.002565382557872295 0.0012573650718606562
          0.002061986398863779 0.0005078466328580535 0.002351826485190816 0.003035306711325652 0.0035590431145875387 0.002525698155599273
          0.006317636051254828 0.00307110328856125 0.0038071790235393727 0.0011423214803442036 0.004345198871739439 0.003753193606576749
          0.005789802676876857 0.00616720191755098 0.0029624402989520057 0.0022865207377287047 0.005799157383313616 0.0050296316388166035
          0.0020083086935330924 0.0017166983503335356 0.0009740672226345032 0.0021520062669214413 0.007706829095530304 0.00631026104769989
          0.006241232640714554 0.005587281821226336 0.0028948903012689896 0.0029376754956346313 0.0048077572654130485 0.0028799969479945675
          0.008585128926258553 0.011778137664065165 0.008199147779568212 0.007848298522674891 0.004079518160186077 0.006323471015731989
          0.010889463653564354 0.016735276530817137 0.009502657418807845 0.005531521530017219 0.004829065297606062 0.004855189224787348
          0.004048642690564043 0.0010530931919106468 0.004664059276330776 0.003031033267928085 0.00047250287632298604 0.0032479766933689036
          0.0015099590168078866 0.006962050693746329 -0.0009409731081398906 0.006027792105819971 0.003062662804911593 0.007245931100290433
          0.005937974028319648 0.0020467970636194183 0.008666801820575963 -0.00017420075771693022 0.005840240996591733 0.003115386118035121
          0.004942749086257566 0.0007879283845158083 0.007028991450362123 0.005446234470875999 0.0021564165943316754 0.004189410468462194
          0.003568366059149841 0.0008020160204435106 0.004760762388920342 0.0016023836252489487 0.0013515166883636826 0.0032081233713114857
          0.004581990311858297 0.003640395984791711 0.004863865005453421 0.007126039248515764 0.004839634335050927 0.009549938832320776
          0.006350370077646633 0.007094549240905926 0.006219467861938888 0.003151669521789663 -0.00004938361758019538 0.002612652242276997
          0.004872268267800217 0.002396217096900065 0.002654595008124965 0.007481814755544894 0.008932144830031491 0.007689908935942437
          0.006558030066624268 0.0014132771638132799 0.003456069855513902 0.006752446903361797 0.0076445329123453615 0.005809336066147586
          0.004439151265697681 0.0023190578156358777 0.00415583073660615 0.006038607757521942 0.0005468170988797913 0.005181926169838383
          0.0037541589620829208 0.00418386503124657 0.002952385190181206 0.0022259150091994417 0.0013837904418168012 0.002598856067697608
          0.006284618330919922 0.006572911612930055 0.00409501015468855 0.0026610338595126626 0.0019629257757162177 0.0033940818323436317
          0.0074749604781644 0.009380426769975553 0.0057044204319494085 0.003209988238996264 0.0018119263687179643 0.003274117157517964
          0.005515054371467237 0.00198590016684011 0.003981773326935167 0.007598132087561674 0.004064538052745349 0.005217776963456461
          0.004253714478318134 0.0012201518050263954 0.004407745689473511 0.005758922983697734 0.0031319865230855504 0.005622481697387757
          0.007491392074945688 0.002718544158567107 0.004938310566227025 0.008179530479320143 0.005619686117024972 0.005652144891161899
          0.008915806225154019 0.003301021609329491 0.00523408389344765 0.0021775629264345064 0.0036451099800368994 -0.00007451194673327444
          0.0008720286350604733 0.0014664430583061494 0.0018443431006146538 0.005317011292338858 0.0026166384348919602 0.0028374468991181623
          0.005766511359172083 0.002704373932791715 0.0006858558222639088 0.0006996151019432045 0.0025945439305828308 0.0011208737715329986
          0.006402815906612885 0.0038716597257243933 0.003996711101187048 0.005896693517278395 0.004096993610211865 0.003616288730607803
          0.006898791686387504 0.004876168625378638 0.006996418721992671 0.005107887596905503 0.002340135607611947 0.001909192350664432
          0.0014781911141562853 0.0021296798389676547 0.0025896741973822877 0.005876411427877287 0.00999539461151848 0.0029314366836971084
          0.012532529533148179 0.014940173270982293 0.007118034089915404 0.010861494617428413 0.008459045482244396 0.006094969215501914
          0.007494785780219788 0.014972095402730826 0.008962969368667903 0.008275987337460475 0.012423643590529387 0.009028258997987745
          0.0006626428245142674 -0.000524497172304338 0.001206424490565433 0.00008056547415296808 0.002546178382244857 0.0020061630478737736
          0.00013790841592595682 0.0026573499320174734 0.0019199903711786676 -0.0013895627364705135 0.006312869127727775 0.002393130355156571
          0.00931370798277903 0.009203176360297743 0.017538878170997613 0.011278403062607412 0.01063239575796554 0.006513109781755927
          0.0025274209464959257 0.009151904003256453 0.005521607472915746 0.008366286806339135 0.005760699069956361 0.005971472392390098
          0.009628234209664632 0.011786832405918102 0.00803464166448914 0.009294459209627237 0.00823347826667642 0.013540865500928367
          0.0123731701443337 0.007058778534362653 0.008332073096032233 0.00844581884415993 0.014686078644728096 0.010706498667989436
          0.01026686484632 0.0016008687765729224 0.014673894283815714 0.0048463408959606435 0.008133527238989802 0.0057101735435034495
          0.006886926895736027 0.009005945811359804 0.00573103103223342 -0.00005630531455653315 -0.0009937047303265611 0.0012852230656090896
          0.0064148423351158695 0.007597035167238031 0.005905679490285892
        </DataArray>
        <DataArray type="Float64" Name="resid_z" format="ascii" RangeMin="0" RangeMax="0">
          0 0 0 0 0 0
          0 0 0 0 0 0
          0 0 0 0 0 0
          0 0 0 0 0 0
          0 0 0 0 0 0
          0 0 0 0 0 0
          0 0 0 0 0 0
          0 0 0 0 0 0
          0 0 0 0 0 0
          0 0 0 0 0 0
          0 0 0 0 0 0
          0 0 0 0 0 0
          0 0 0 0 0 0
          0 0 0 0 0 0
          0 0 0 0 0 0
          0 0 0 0 0 0
          0 0 0 0 0 0
          0 0 0 0 0 0
          0 0 0 0 0 0
          0 0 0 0 0 0
          0 0 0 0 0 0
          0 0 0 0 0 0
          0 0 0 0 0 0
          0 0 0 0 0 0
          0 0 0 0 0 0
          0 0 0 0 0 0
          0 0 0 0 0 0
          0 0 0 0 0 0
          0 0 0 0 0 0
          0 0 0 0 0 0
          0 0 0 0 0 0
          0 0 0 0 0 0
          0 0 0 0 0 0
          0 0 0 0 0 0
          0 0 0 0 0 0
          0 0 0 0 0 0
          0 0 0 0 0 0
          0 0 0 0 0 0
          0 0 0 0 0 0
          0 0 0 0 0 0
          0 0 0 0 0 0
          0 0 0 0 0 0
          0 0 0 0 0 0
          0 0 0 0 0 0
          0 0 0 0 0 0
          0 0 0 0 0 0
          0 0 0 0 0 0
          0 0 0 0 0 0
          0 0 0 0 0 0
          0 0 0 0 0 0
          0 0 0 0 0 0
          0 0 0 0 0 0
          0 0 0 0 0 0
          0 0 0 0 0 0
          0 0 0 0 0 0
          0 0 0 0 0 0
          0 0 0 0 0 0
          0 0 0 0 0 0
          0 0 0 0 0 0
          0 0 0 0 0 0
          0 0 0 0 0 0
          0 0 0 0 0 0
          0 0 0 0 0 0
          0 0 0 0 0 0
          0 0 0 0 0 0
          0 0 0 0 0 0
          0 0 0 0 0 0
          0 0 0 0 0 0
          0 0 0 0 0 0
          0 0 0 0 0 0
          0 0 0 0 0 0
          0 0 0 0 0 0
          0 0 0 0 0 0
          0 0 0 0 0 0
          0 0 0 0 0 0
          0 0 0 0 0 0
          0 0 0 0 0 0
          0 0 0 0 0 0
          0 0 0 0 0 0
          0 0 0 0 0 0
          0 0 0 0 0 0
          0 0 0 0 0 0
          0 0 0 0 0 0
          0 0 0 0 0 0
          0 0 0 0 0 0
          0 0 0 0 0 0
          0 0 0 0 0 0
          0 0 0 0 0 0
          0 0 0 0 0 0
          0 0 0 0 0 0
          0 0 0 0 0 0
          0 0 0 0 0 0
          0 0 0 0 0 0
          0 0 0 0 0 0
          0 0 0 0 0 0
          0 0 0 0 0 0
          0 0 0 0 0 0
          0 0 0 0 0 0
          0 0 0 0 0 0
          0 0 0 0 0 0
          0 0 0 0 0 0
          0 0 0 0 0 0
          0 0 0 0 0 0
          0 0 0 0 0 0
          0 0 0 0 0 0
          0 0 0 0 0 0
          0 0 0 0 0 0
          0 0 0 0 0 0
          0 0 0 0 0 0
          0 0 0 0 0 0
          0 0 0 0 0 0
          0 0 0 0 0 0
          0 0 0 0 0 0
          0 0 0 0 0 0
          0 0 0 0 0 0
          0 0 0 0 0 0
          0 0 0 0 0 0
          0 0 0 0 0 0
          0 0 0 0 0 0
          0 0 0 0 0 0
          0 0 0 0 0 0
          0 0 0 0 0 0
          0 0 0 0 0 0
          0 0 0 0 0 0
          0 0 0 0 0 0
          0 0 0 0 0 0
          0 0 0 0 0 0
          0 0 0 0 0 0
          0 0 0 0 0 0
          0 0 0 0 0 0
          0 0 0
        </DataArray>
        <DataArray type="Float64" Name="stress_zz" format="ascii" RangeMin="-8207029.324358628" RangeMax="6529944.945681889">
          -2816230.8681525826 -3229353.91406426 -3642476.9599759374 -2905684.8136869 -2968003.582668512 -3030322.3516501244
          -3847395.374220723 -4190510.7958553974 -4533626.217490072 5223552.618522779 4997924.891644576 4772297.164766371
          3123119.319460822 3014126.1094864598 2905132.8995120986 830115.7684131588 809846.187293104 789576.606173049
          -893981.4068068229 -952531.9564857637 -1011082.5061647044 -2381197.7496576584 -2215672.778096849 -2050147.8065360403
          -3533817.860822554 -3577012.0543498495 -3620206.2478771443 -4112190.397053218 -4378351.837088272 -4644513.2771233255
          3496608.677957641 3292683.842473173 3088759.0069887056 1013204.2577322085 890156.00623901 767107.7547458117
          -1239813.0014886449 -1265239.011069739 -1290665.0206508331 -2545800.880437318 -2572262.6926802397 -2598724.504923162
          -3211659.5135796946 -3066235.2995844786 -2920811.0855892627 -3320957.913255698 -3320938.9750402845 -3320920.03682487
          -3417391.0254398286 -3526980.240744777 -3636569.4560497254 2547991.619265028 2991392.979482025 3434794.3396990215
          687683.6938389741 512985.4664117206 338287.23898446717 -1818571.0804960888 -1930607.6150522083 -2042644.1496083275
          -3365925.684814836 -3368207.5259399824 -3370489.367065129 -3598174.4272753904 -3557815.0416315263 -3517455.6559876623
          -3175444.4184960956 -3058603.4735123124 -2941762.528528529 -2544301.70554315 -2502852.57026972 -2461403.4349962897
          -2355985.3606905984 -2367612.2592131747 -2379239.1577357515 -26463.998082253034 -60203.053343532025 -93942.1086048109
          -3161533.495139479 -3289210.135400815 -3416886.7756621507 -4720893.401648415 -4745398.858031025 -4769904.314413635
          -4418564.7583782505 -4342258.904282275 -4265953.050186299 -3391522.2549323984 -3299487.768151776 -3207453.281371153
          -2401406.7994941436 -2323113.469845826 -2244820.140197508 -1881845.9238474434 -1839305.8824821257 -1796765.841116808
          -1673943.047209495 -1680865.9286487682 -1687788.8100880412 -3349548.3466436383 -4388908.704330919 -5428269.062018199
          -7107217.652420729 -7116801.053455977 -7126384.454491224 -5453247.739325599 -5307247.51912908 -5161247.298932562
          -3449309.979535799 -3346344.59066537 -3243379.201794942 -2177147.950803271 -2107787.496598732 -2038427.0423941931
          -1481646.4096312698 -1455433.5754698582 -1429220.7413084465 -1455153.3354544286 -1445368.8514338 -1435584.3674131718
          -916890.6233360001 -924946.2643067513 -933001.9052775027 -5313731.542677045 -6760380.433517836 -8207029.324358628
          -6153370.326191061 -5703674.093617785 -5253977.861044508 -3220515.1116434904 -2913852.6265329034 -2607190.1414223164
          -1201619.4495172817 -1202367.1894322552 -1203114.929347229 -748607.9522582178 -775379.2846839081 -802150.6171095986
          -909861.0643040993 -912316.5547395471 -914772.045174995 -1036080.7349455318 -1040442.4501962276 -1044804.1654469235
          -543322.0665114757 -580998.8380067487 -618675.6095020217 2699542.349365404 2566364.5058299936 2433186.662294584
          -552882.683664361 -39140.21757374736 474602.24851686636 -1029539.1219739795 -881592.4388737262 -733645.7557734724
          1269896.743085233 1132420.2222958198 994943.7015064065 -81260.10706638655 -181544.5432626586 -281828.97945893067
          -925435.8130235259 -894848.7940259596 -864261.7750283936 -719702.9312447298 -710559.0239585892 -701415.1166724485
          -98132.92823843518 -139222.4971314518 -180312.06602446843 316634.79504316335 -871146.2565020178 -147257.04342240415
          449085.88641051814 267330.0163942068 -834663.8652040308 -178698.24750483624 414065.99636595196 218025.2377452502
          -798181.4739060437 -210139.45158726833 379046.10632138577 -2605893.5212724744 1260034.8985788606 2490802.4679059056
          2664159.6687896154 -2579022.9074809784 1177956.4933370964 2168125.221586979 2529845.0586944865 -2552152.2936894824
          1095878.0880953327 1845447.975268051 2395530.4485993576 -1702558.1047520563 -559869.689592338 -1748380.9493807883
          -510042.3181779616 -1794203.7940095204 -460214.9467635852 910729.9642677531 1777979.604940569 863222.5333952568
          1640820.6618907554 815715.1025227604 1503661.718840942 -918136.731353255 85852.6242058393 -927350.8102478903
          60295.27501255236 -936564.8891425256 34737.92581926548 6207450.645263088 517542.7778434914 6368697.79547249
          124633.53757202346 6529944.945681889 -268275.70269944426 1409747.0676387826 574728.2892680177 1390979.9502217667
          477279.0678202873 1372212.8328047507 379829.8463725568 -265977.5235513138 -309608.6004573529 -353239.6773633921
          1942598.541091069 1773374.5735230835 1604150.6059550976 6379483.7252802905 6151315.189826961 5923146.654373631
          2342231.232551761 -995334.032277093 2050818.6639897523 -917942.7137173528 1759406.0954277439 -840551.3951576126
          777270.1355140144 756890.9123052217 736511.6890964289 -17291.90994108352 -24255.97052885953 -31220.03111663554
          -276298.1737294138 116344.61264616139 508987.3990217365 133845.70263418526 90194.07326010783 184249.66814022505
          72114.01881325054 86717.96278491498 57612.55827146499 176183.42954759093 100900.23743893865 39590.22293564472
          25031.043282822167 168117.19095495678 129686.45606462676 600619.2356148262 794251.6905094461 987884.1454040657
          -483211.0430845688 -61507.02901019892 -454425.98567879264 -46473.44676459137 -425640.92827301647 -31439.864518983806
          -4018037.399025266 -4316026.89269073 -3275716.5659050522 -3568128.941846448 -3967416.800234051 -4390281.179892208
          -3647377.580182509 -3780363.3831652193 -3916796.2014428363 -4464535.467093687 -4019038.594459966 -3992597.8244839916
          98303.34282186974 -782120.6899909971 38533.51509258465 -800408.713845938 -21236.312636700422 -818696.7377008788
          -2119778.246137264 -2809525.1350094685 -2267762.918645708 -2727573.050265676 -2415747.591154152 -2645620.965521884
          -884420.7578195877 -248270.03771929647 -751108.2676515387 -964528.8321913509 -302434.90780676267 -843585.2035181975
          -1044636.9065631141 -356599.7778942289 -936062.1393848564 240171.14501821852 4884.684071690579 -152075.02648136351
          301713.3626352066 228969.85793076624 56076.27403447549 -150441.3679344859 269595.7877931588 217768.570843314
          107267.8639972604 -148807.70938760828 237478.21295111094 -1948808.4876124326 -133225.27225706755 -1226254.8550401193
          -1909963.4599985739 -172078.31806316695 -1110276.8703224817 -1871118.4323847145 -210931.36386926635 -994298.8856048442
          -466047.9035971986 328550.46461574757 -326667.4789272703 -630465.5447420337 -547178.7318801818 404974.65255157003
          -276890.9160130575 -685128.0931180656 -628309.5601631652 481398.84048739256 -227114.35309884496 -739790.6414940975
          -1475193.0098399373 -418877.19053294184 -1481023.8645151714 -440911.4234305252 -1486854.7191904054 -462945.65632810857
          126257.32412079712 146939.9309306379 41442.17004318882 -26349.542200301265 114166.35685754986 132868.32926845492
          30403.224439240166 -41759.44169400588 102075.38959430263 118796.72760627192 19364.27883529151 -57169.341187710495
          -2650.497127846275 -1279257.4508489443 -148576.78709845062 -81123.38651738402 -1064410.459084559 23522.138119296073
          -159596.27590692174 -849563.4673201739 195621.06333704278 167652.70087546663 201163.44808067428 157097.84302892486
          198482.70645469302 146542.9851823831 195801.96482871182 148763.94278986586 204054.80805978965 176348.59047590144
          142253.05249591667 142831.26491922152 194550.444804555 186415.0742523103 155490.72348510413 136898.58704857723
          185046.08154932034 196481.5580287191 168728.39447429153 211168.70917919505 243323.25204591115 198144.3224437024
          251275.59111842507 185119.9357082097 259227.93019093896 -898257.3603157765 -1086749.6561691556 -916392.7053207628
          -1136976.9692720121 -934528.050325749 -1187204.2823748682 -1933973.3555099068 -162639.971928117 -1906129.5015828188
          -198408.15751517372 -1878285.6476557315 -234176.34310223043 394285.6247431051 21928.165630156953 74974.04219479152
          341469.3511925022 417696.3776094097 9054.542242208801 37450.819191841045 351938.5729665054 441107.1304757143
          -3819.0811457393465 -72.40381110942508 362407.79474050854 368464.7586839865 329625.5732095418 290786.38773509697
          -1071559.3691765647 -811327.0824966184 -551094.7958166719 -980430.9318609105 -3254793.3672985453 -1020729.8112365853
          -3300822.9379883157 -1061028.6906122603 -3346852.5086780866 -251343.97484883637 -350105.5662952758 -245072.92258975146
          -354966.8341500289 -238801.87033066663 -359828.10200478183 345297.93608596484 -291451.25422190526 375932.6762696319
          -166127.2728201187 406567.4164532989 -40803.29141833217 -86576.5401113068 -147683.8931507788 -208791.24619025085
          -16797.791723868282 -241459.58041502413 -42140.1876518289 -240022.7342067154 -67482.58357978953 -238585.88799840666
          205638.9921722244 141926.46159608438 279845.934372406 181923.0271426688 200152.96312073534 145219.89161579637
          279607.63846495334 183410.71707164616 194666.93406924617 148513.3216355084 279369.34255750076 184898.40700062347
          311196.6191369295 -320576.4725380816 259636.89812872818 -317232.5108650933 208077.17712052685 -313888.549192105
          941406.1141836789 434676.9259079322 229902.16535902143 892290.567080759 410805.1125354579 231500.3830278456
          843175.0199778391 386933.29916298355 233098.6006966698 79556.59035197648 -22739.653165005493 -483557.80279879755
          56867.29394926566 -81917.91182600566 -472431.44962209865 34177.99754655486 -141096.17048700582 -461305.0964453998
          -82459.46443667643 -64263.46258776549 -46067.46073885454 -2173110.7748506498 -2101490.066235466 -2029869.3576202812
          -1217440.7706131567 -592249.5891682494 -1423707.9211116962 -685103.4995721856 -1629975.0716102356 -777957.4099761217
          -537881.5713851567 -332694.87411103916 -571905.537180711 -329487.20516095805 -605929.5029762654 -326279.53621087695
          -106159.50333925406 -91150.70715205513 -76141.91096485623 -3426488.21043432 -4792995.11831116 -3435219.355138724
          -5216802.4476023875 -3443950.4998431285 -5640609.776893615 2283891.3267287333 2345372.0771978283 2406852.8276669234
          -697245.8337304506 -373336.1443883097 -236900.5060172495 -576049.6307535375 -665734.5694067241 -363804.9491684904
          -213167.65959129165 -538752.5559978666 -634223.3050829975 -354273.75394867104 -189434.81316533376 -501455.4812421956
          51610.9163296713 61639.87711273527 71668.83789579924 186546.1878636808 50828.533723021974 194003.01318014832
          50090.50384230916 201459.83849661582 49352.47396159634 -120946.76485766945 -256376.7130584261 -391806.6612591827
          -3509602.862612296 -1702353.1511987573 -3815314.84295062 -1645526.7703603562 -4121026.8232889455 -1588700.3895219553
          -1468872.374094278 -1491424.1362526834 -1513975.8984110886 42482.26515897322 125077.123315206 15976.017551893998
          49270.239628873256 125679.92678330769 21170.23600512943 56058.214098773286 126282.73025140935 26364.454458364868
          -888563.2745032164 -925362.8573861021 -857104.1946410523 -908437.9980021063 -825645.114778888 -891513.1386181106
          -523379.62828721997 -431541.91210804816 -528859.7717219907 -417058.52088609233 -534339.9151567613 -402575.12966413645
          -121093.61771167754 450323.9446980688 -115227.58717064132 423758.0065482707 -109361.55662960498 397192.06839847256
          -1220712.9088515486 -1359501.9443995294 -1260586.5606361462 -1406661.8657561168 -1300460.212420744 -1453821.7871127042
          -161898.86068937 -163992.70960366228 -166086.5585179546 37060.64761190658 45993.510063752314 54926.37251559808
          112664.67141753255 132264.42878444417 151864.1861513558 889049.9294231888 942854.4291840065 996658.9289448243
          227147.88562551056 233398.89856263407 239649.91149975755 -3130386.979185681 -3127479.7437152406 -3124572.5082448004
          127371.16498670803 175636.6933395745 127661.64661721502 170019.25087676835 127952.12824772201 164401.8084139622
          -1118215.791917936 -984861.1990375549 -1027696.8798311068 -911331.1376086482 -937177.9677442774 -837801.0761797413
          -671801.5276458374 -654035.9450063433 -636270.3623668491 238125.42130982003 241617.2483337744 245109.0753577287
          -1232293.7762823207 -651927.9586672218 -1480626.3626672458 -1104807.6510271123 -506407.7682945129 -1515066.176621179
          -977321.5257719038 -360887.5779218039 -1549505.9905751124 -1325117.5224469951 -566350.624383368 -1343910.6705175273
          -573141.0162359303 -1362703.8185880594 -579931.4080884926 -1557476.8252888813 -1170953.841983631 -784430.8586783812
          4074.6143019132987 1409.6573194683706 -1255.2996629765566 -866748.1073948996 -849674.4472198439 -832600.787044788
          -738541.108869253 -782125.6473538692 -825710.1858384853 -1427935.7718183591 -1372375.3901751998 -1316815.00853204
          758934.2488586081 801998.288075618 845062.3272926278 260820.55006925113 273715.1797148196 286609.8093603881
          -1732384.6427183761 -1351066.7867184093 -969748.9307184429 -2983568.1749597006 -2638102.261576179 -2292636.3481926564
          1449592.4064404673 1909540.170988932 2369487.9355373965 -2724741.5092655458 -2404094.3313379656 -2083447.1534103856
          895503.2489947642 979730.1452210706 1063957.0414473768 -2163468.687248481 -1783294.8041567146 -1403120.9210649482
          -154324.8135336317 -144149.55882645654 -133974.30411928135 574879.5968171794 523562.58824375796 472245.5796703364
          -369692.65156840975 -355422.72583427967 -341152.8001001496 80806.76381949529 82876.4683307095 84946.17284192369
          20689.88888853366 19948.078447893466 19206.26800725327 337501.86971511197 439233.9487121766 540966.0277092411
          -475273.298152909 -491738.5172796485 -508203.736406388 -841482.4388664435 -409258.528045461 -598792.0216700066
          -170688.0913625979 -356101.6044735696 67882.34532026523 -978949.5834223102 -749726.9283330915 -520504.27324387315
          -70367.40995156285 -29169.09393770158 -22941.77252272504 -16619.159395172122 24483.86490611278 -4069.22485264267
          95994.01235926716 101686.16240027524 107378.31244128336 60817.515269623436 49324.03629719021 37830.55732475698
          -281735.0729196245 -269375.9042976397 -257016.73567565484 -30705.437177055108 -309096.5138082828 -9722.834846006488
          -285015.69588269864 11259.767485042139 -260934.87795711466 -1008429.1625639573 -498011.2609253465 -913969.5995497499
          -1073292.2027859972 -457178.5004957041 -930583.1995801752 -1138155.2430080366 -416345.74006606184 -947196.7996106005
          -133289.34056262922 -147275.60877002365 -161261.87697741805 84351.0697449441 86498.98884484963 88646.90794475519
          76464.63892274389 69232.52006497416 69704.23005748246 47865.496072896225 62943.82119222104 26498.472080818286
          451941.73543551133 -242582.92794273855 440880.25908137445 -233534.1589168862 429818.78272723756 -224485.38989103393
          -693853.5337147248 -758300.4822252104 -694103.7481244344 -719711.9064178814 -694353.9625341442 -681123.3306105521
          -704244.2932139466 -590888.6496907212 -735834.662414444 -634868.7968617401 -767425.0316149413 -678848.9440327589
          -1029423.2010080309 -1085641.2701607833 -1141859.3393135355 2037375.0881551178 -951451.1351271421 2086475.587435666
          -959219.3366400178 2135576.086716214 -966987.538152894 -1053925.3016730677 -985846.0375614921 -917766.7734499164
          -3320930.0313738454 -3773577.9819927597 -3422683.186168109 -3853963.9870819794 -3524436.340962373 -3934349.9921712
          -1790712.514315283 -1888189.8764481065 -1985667.2385809296 -270241.8952366547 -305397.6777001195 -340553.4601635843
          -3692229.2861146196 -3703613.224536956 -3714997.162959291
        </DataArray>
        <DataArray type="Float64" Name="peeq" format="ascii" RangeMin="0" RangeMax="0.006911762887730825">
          0.0029259940454010843 0.0029235407306282563 0.0029210874158554275 0.003019115701376839 0.003019196813255221 0.003019277925133603
          0.002248053362273652 0.0022488572316695945 0.0022496611010655375 0.006220107053627795 0.0062158859563416595 0.006211664859055523
          0.00584523263749714 0.005838892725494305 0.005832552813491473 0.005115466726044865 0.005112586455825878 0.0051097061856068896
          0.004172620650455725 0.004174076819734368 0.004175532989013011 0.003179587206925144 0.003183717233900484 0.003187847260875824
          0.002295327744674097 0.0022978048788811806 0.0023002820130882643 0.001623975491032809 0.001626697998493357 0.001629420505953905
          0.00631556464903064 0.006313469055888556 0.006311373462746473 0.005537965779116097 0.005535126860109493 0.005532287941102887
          0.004502964611022249 0.00450383882449721 0.004504713037972169 0.0033980694557763703 0.0034024787986148127 0.0034068881414532556
          0.0023984059195698943 0.002404171222479213 0.002409936525388531 0.0016258923680243444 0.0016296665538350129 0.0016334407396456812
          0.0011176847855679747 0.001121227409367656 0.0011247700331673371 0.006911762887730825 0.006910116420441157 0.006908469953151487
          0.006050437368107652 0.006051265614507688 0.006052093860907723 0.004896421526353119 0.00489839422762186 0.004900366928890601
          0.003656260584247859 0.0036612299366715066 0.0036661992890951547 0.0025376770549375093 0.002544098248506323 0.002550519442075137
          0.001673104602118419 0.0016790480305684556 0.0016849914590184919 0.0010988536995068165 0.0011028089503420338 0.001106764201177251
          0.000744973995037514 0.0007483826134061946 0.000751791231774875 0.006637092835783883 0.00663948006068449 0.006641867285585099
          0.005333638616272822 0.005338601695351689 0.0053435647744305564 0.003931982935022959 0.003939198873601374 0.003946414812179788
          0.0026846002666572237 0.0026922504846797397 0.002699900702702256 0.0017370088061664105 0.001743395503296347 0.0017497822004262844
          0.0011125996854919073 0.0011173907136491296 0.0011221817418063523 0.0007600322551499848 0.0007634222979768549 0.000766812340803725
          0.0006116944484091869 0.0006141358634580999 0.0006165772785070127 0.005731942089780034 0.00574146464623301 0.005750987202685984
          0.004144413632012343 0.004153818230882397 0.004163222829752449 0.0027721506894958638 0.0027825311731801065 0.002792911656864349
          0.0017737711284158888 0.0017810777946708606 0.0017883844609258327 0.0011315925333409958 0.0011361202638801142 0.0011406479944192326
          0.0007645638563390661 0.0007678113468806895 0.0007710588374223128 0.0005926362147107974 0.0005951857537310248 0.0005977352927512521
          0.000563214788269416 0.0005650149568926538 0.0005668151255158918 0.004157282671464951 0.004171497601389974 0.004185712531314997
          0.002671117707971551 0.0026807497699606543 0.0026903818319497595 0.0016766161759130412 0.0016856673689614906 0.0016947185620099397
          0.0010921323152799135 0.0010967507356992676 0.0011013691561186215 0.0007641557753331381 0.0007664900641973836 0.000768824353061629
          0.000594562502061084 0.0005965820025868811 0.0005986015031126785 0.0005387181628775362 0.0005404131515891317 0.0005421081403007271
          0.0005733488900131786 0.0005744753507913315 0.0005756018115694842 0.0023471671774233527 0.0023559936288770154 0.0023648200803306784
          0.001387006900983907 0.0013918891023810798 0.0013967713037782528 0.0007903688178519209 0.0007952574607138163 0.0008001461035757118
          0.0006776602266435888 0.0006797974425995028 0.0006819346585554172 0.0005776369601348445 0.0005786138385202773 0.0005795907169057099
          0.0005311463635360445 0.0005322328258552324 0.0005333192881744205 0.0005487632919498686 0.0005495326641071308 0.0005503020362643929
          0.0006166389058697438 0.0006171527961352842 0.0006176666864008246 0.0004864263368520884 0.0005211840454730931 0.0005381307046236596
          0.0004457146494123189 0.00048666734065341475 0.0005213324105365797 0.0005372906768355524 0.00044532102222562817 0.00048690834445474097
          0.0005214807756000662 0.0005364506490474451 0.00044492739503893745 0.0003662882794063576 0.00008744012395591487 0.00015064442663495172
          0.0005846301412681834 0.00036929077256144617 0.00008833575753916921 0.0001512008654464961 0.0005861475280605048 0.0003722932657165346
          0.00008923139112242354 0.00015175730425804045 0.0005876649148528262 0.0003566798368561243 0.00018054531186403045 0.0003593416529787273
          0.00018218568974906493 0.00036200346910133016 0.00018382606763409946 0.00032311557101768237 0.0004473180216482769 0.0003239293715009281
          0.0004483368171763738 0.0003247431719841737 0.00044935561270447073 0.0005908930875175855 0.0006334005616256417 0.0005907997924092974
          0.0006325629799634816 0.0005907064973010089 0.0006317253983013215 0.0009511917865868804 0.00018177392572949538 0.0009543054072506695
          0.00018197092361449337 0.0009574190279144588 0.00018216792149949136 0.0006506397086526317 0.0004937554043268385 0.0006494276971818433
          0.0004928273847518953 0.0006482156857110549 0.0004918993651769521 0.0006848185058793903 0.0006849073755214593 0.0006849962451635283
          0 0 0 0 0 0
          0.000010460138408771958 0.00010432411484937458 0.00001071758934971378 0.0001055396309172566 0.000010975040290655602 0.0001067551469851386
          0.0002833274370947607 0.0002842179831488402 0.0002851085292029197 0.0007143321300252647 0.0007139615839074701 0.0007135910377896758
          0.0022122506539223193 0.0022205297671367584 0.002228808880351197 0.0006593397740968992 0.0006190040605318146 0.0006996144109619228
          0.0007544528405644428 0.0006601997753814387 0.000620056313795537 0.0007000577381705022 0.0007551624873864792 0.0006610597766659781
          0.0006211085670592593 0.0007005010653790816 0.0007558721342085158 0.002265699033258343 0.0022717466341364463 0.00227779423501455
          0.0008534774356738579 0.0007095001184650051 0.0008542023786990172 0.0007104403217634549 0.0008549273217241763 0.0007113805250619046
          0.0008561960498245728 0.0009126334964598628 0.0012083815748167171 0.0013747333350529662 0.0008588651438032928 0.0009149790495414476
          0.0012126965242023808 0.0013785373812448601 0.0008615342377820126 0.0009173246026230323 0.0012170114735880445 0.001382341427436754
          0.0006510629305714289 0.0006006072402476412 0.0006520631759855196 0.0006025529145411218 0.0006530634213996104 0.0006044985888346024
          0.0014799763968719297 0.0008763565304734496 0.00148285907180406 0.0008799271003834987 0.0014857417467361912 0.0008834976702935477
          0.0010258563108383036 0.0010494490998617658 0.0009151500362494293 0.0010251604983797238 0.0010490143255665072 0.0009149333780886388
          0.0010244646859211442 0.0010485795512712487 0.0009147167199278482 0.001109227185575612 0.0011868219386779017 0.001293748939454403
          0.0012329255548387973 0.0011091587591068738 0.001187340585461193 0.001294120678201202 0.0012326720409383588 0.0011090903326381354
          0.0011878592322444842 0.0012944924169480008 0.0012324185270379206 0.0006779752716928461 0.0006657583035322547 0.0006896945364984337
          0.000680893937589324 0.0006676967196461798 0.0006918059136967865 0.000683812603485802 0.000669635135760105 0.0006939172908951394
          0.0007900866199574821 0.0009015335365613938 0.0009575709200152587 0.0007825254591010687 0.000791767103557717 0.000903504329063647
          0.0009597347935476957 0.0007835235945409563 0.0007934475871579517 0.0009054751215659002 0.0009618986670801331 0.0007845217299808439
          0.0006009023140748724 0.0006177364946063873 0.0006039939795167426 0.0006203525447258635 0.0006070856449586129 0.0006229685948453399
          0.0013711018705294137 0.0012729737767055243 0.0013402586277174808 0.0014257691695984465 0.0013704296728502977 0.0012723049031650461
          0.00133984522903643 0.0014252392076328749 0.0013697574751711818 0.0012716360296245682 0.001339431830355379 0.0014247092456673035
          0.0006494482785354197 0.0006584983828103247 0.0006314704778068136 0.0006507037965366054 0.0006633883479038561 0.0006357332628624052
          0.0006519593145377913 0.0006682783129973875 0.0006399960479179968 0.0012942418815032703 0.0011879280641052961 0.0012937201072184853
          0.001187510962590223 0.0012931983329336997 0.0011870938610751495 0.0015425218661225374 0.0014924191890465397 0.0015156015678169077
          0.001556823105029478 0.00154189035450236 0.001491789601554532 0.0015154021848126666 0.001556475513095565 0.0015412588428821822
          0.0014911600140625249 0.0015152028018084254 0.0015561279211616524 0.00153323415823194 0.0015467683235369368 0.0015333771614345257
          0.0015471318485182927 0.0015335201646371117 0.0015474953734996484 0.0009538534546217681 0.0008208472019790702 0.0009553975031885959
          0.0008217226064568012 0.0009569415517554235 0.0008225980109345322 0.0006699713830178773 0.0006630988795929315 0.0006733659055895335
          0.0006650064257621521 0.0006767604281611897 0.0006669139719313727 0.0008614378859654384 0.0007781851453221689 0.0007097671195261954
          0.0007757609043985101 0.0008619768547173202 0.0007783852474772017 0.0007100754508760919 0.0007764584964893848 0.000862515823469202
          0.0007785853496322346 0.0007103837822259885 0.0007771560885802592 0.0011585317333513894 0.0011579700598771483 0.0011574083864029068
          0.0016628494072058167 0.0016720742231937297 0.0016812990391816426 0.0024342459815047375 0.0024486948117024955 0.002437580174473512
          0.0024523018475189314 0.002440914367442287 0.0024559088833353672 0.0007822474829391689 0.0008532784592857038 0.0007822485342482526
          0.0008532520071514124 0.0007822495855573362 0.0008532255550171207 0.0009964865592427847 0.0008719693059393883 0.0009969320564070649
          0.0008732125785310111 0.0009973775535713448 0.0008744558511226342 0.0007119400526969274 0.0007120569260176548 0.0007121737993383822
          0.0007102267418361536 0.0007826214634944948 0.000710282020792547 0.0007826930685481074 0.0007103372997489404 0.00078276467360172
          0.0013779622907580205 0.0014390224876661985 0.0013440287093313564 0.0012810896558865209 0.0013774472458977101 0.0014384992331594815
          0.0013433417344732705 0.0012806470784679832 0.0013769322010373998 0.0014379759786527647 0.0013426547596151848 0.0012802045010494455
          0.0006866492954421674 0.0007028993148048853 0.0006876070652242128 0.0007040422032588113 0.000688564835006258 0.0007051850917127371
          0.00123682586069783 0.0012146701114033923 0.0013697754043540578 0.0012357970078125148 0.0012137554900865629 0.0013689399865467102
          0.0012347681549271998 0.001212840868769733 0.0013681045687393627 0.0006734762059242958 0.0006705286627836226 0.0006822267515223402
          0.0006744118086458026 0.000670913014989476 0.0006833668418774569 0.0006753474113673094 0.0006712973671953294 0.0006845069322325736
          0.0007920354869637748 0.0007928520361666748 0.0007936685853695746 0.000771281746719558 0.0007732614307213685 0.000775241114723179
          0.00095593873065232 0.0007479279003891127 0.0009598656549043993 0.0007511343613690403 0.0009637925791564786 0.0007543408223489676
          0.0009638285736534105 0.0008739770693286236 0.0009634013885077064 0.000873919063480862 0.0009629742033620023 0.0008738610576331003
          0.0014084738061400219 0.0014087303619910716 0.0014089869178421223 0.0024129244004698087 0.0018686021511408514 0.0024172904803922623
          0.0018708927325435307 0.002421656560314716 0.0018731833139462091 0.0025436896540138388 0.0025474679526204104 0.0025512462512269816
          0.0016479950088583656 0.001640758638992666 0.001545253297817789 0.0014889977054567034 0.0016485792446704049 0.0016412688503577926
          0.0015460289229163328 0.0014899278214146497 0.0016491634804824446 0.001641779061722919 0.0015468045480148767 0.0014908579373725962
          0.0014643522357573311 0.0014638026507087106 0.0014632530656600903 0.0009685160804052471 0.0008705871162688357 0.0009687924718389888
          0.0008708123511853156 0.0009690688632727304 0.0008710375861017955 0.0006586704371256911 0.0006606608862116465 0.000662651335297602
          0.0017638783876975344 0.0012136204834952544 0.0017667119771506248 0.0012178750212756431 0.0017695455666037149 0.001222129559056032
          0.0012997711822596994 0.0013008437071670913 0.001301916232074483 0.001575197391887724 0.0015497061640598463 0.0015684196390738552
          0.001574781565400875 0.001549538725887276 0.0015680345176680743 0.0015743657389140258 0.0015493712877147053 0.001567649396262293
          0.0007391208058753076 0.0008259441350474638 0.0007401077154954144 0.0008266158965890994 0.0007410946251155211 0.0008272876581307351
          0.0013702109207806977 0.001452237888714908 0.001370879354497895 0.0014529475682751585 0.0013715477882150925 0.001453657247835409
          0.0009803208234812916 0.0009156519109121625 0.000980660645859543 0.0009159071863005766 0.0009810004682377941 0.000916162461688991
          0.0009709836013244523 0.0008621860246805347 0.000971916000847934 0.0008628362514374624 0.0009728484003714161 0.0008634864781943899
          0.001533970464742984 0.0015345079804670943 0.0015350454961912045 0.0014667959374656228 0.00146677577934347 0.0014667556212213172
          0.0016008283728710959 0.0016011597354180008 0.0016014910979649062 0.0008792584822883497 0.0008799153255013259 0.0008805721687143021
          0.0014980590706358161 0.0014984167781449803 0.0014987744856541445 0.0016588438614823053 0.0016636245532975025 0.0016684052451126996
          0.001504287075663928 0.0014474450032483006 0.001503646281657608 0.0014467689738540733 0.0015030054876512876 0.001446092944459846
          0.0011133330039353971 0.0011340992350047465 0.001115564900129619 0.0011357823393201162 0.001117796796323841 0.0011374654436354858
          0.0011682074772667432 0.0011692109526373704 0.0011702144280079975 0.001503787901121173 0.0015039567506545796 0.0015041256001879864
          0.0008300330785885387 0.0008425209363481243 0.0006855422629494928 0.0008347462185101627 0.0008468093338175157 0.0006884307869731918
          0.0008394593584317867 0.0008510977312869071 0.0006913193109968908 0.0013769818771466272 0.0014061366346450014 0.0013775699883198215
          0.0014068550747707111 0.0013781580994930158 0.0014075735148964205 0.0011097742632915795 0.0011157531288372106 0.0011217319943828412
          0.0015288589992460766 0.0015282631067986161 0.001527667214351156 0.0014456400047645466 0.0014465012646702618 0.001447362524575977
          0.0006957536985803913 0.0006970685978527866 0.000698383497125182 0.0016451773204534058 0.0016494115069105285 0.0016536456933676509
          0.0009544680011611729 0.0009548235425736777 0.0009551790839861822 0.0010677719040499598 0.001067693697101624 0.0010676154901532885
          0.002225985430706334 0.002232308036474429 0.0022386306422425245 0.001655234024969485 0.0016630731866795474 0.0016709123483896098
          0.0011387604064601329 0.0011439452853969922 0.0011491301643338522 0.0011782509842709124 0.0011859544304628636 0.0011936578766548146
          0.0010026167210622598 0.0010055149307770066 0.001008413140491753 0.0008375147961649167 0.0008442430492274144 0.0008509713022899122
          0.0009782062270756546 0.0009782952311640052 0.0009783842352523557 0.0010385531400000786 0.001038275834055042 0.001037998528110005
          0.001080898863718052 0.0010807408173930536 0.0010805827710680556 0.0010868384145311838 0.001086798728330757 0.00108675904213033
          0.0011951315696661692 0.0011948761260778995 0.0011946206824896299 0.0011017155506027208 0.0011023810919040117 0.0011030466332053023
          0.0012915632956094635 0.0012922059823010051 0.0012928486689925468 0.0009033947504787297 0.000704375539929522 0.0009111351886563427
          0.0007102293699587441 0.0009188756268339556 0.0007160831999879664 0.0012427763346013854 0.0012517272919375876 0.0012606782492737896
          0.0007830345362268541 0.0008305227823111108 0.0007840096079619741 0.0008315465921677236 0.0007849846796970941 0.0008325704020243363
          0.0015235160203029552 0.0015235575352514196 0.001523599050199884 0.0015645921052070489 0.0015639977448610371 0.0015634033845150254
          0.0011598140174767647 0.0011592680565317326 0.0011587220955867003 0.0015472574619873596 0.001575648664862058 0.0015475243393964938
          0.00157606778311939 0.0015477912168056283 0.001576486901376722 0.0016344975107147378 0.001171601352019619 0.0013833727458747334
          0.0016347235326210651 0.0011737956341276376 0.0013843340477047103 0.0016349495545273918 0.0011759899162356563 0.001385295349534687
          0.0016237810654880992 0.0016241762470921622 0.0016245714286962254 0.001708034348286249 0.001708095316771944 0.0017081562852576389
          0.001542213508791505 0.0015439184717406578 0.0015420790905451326 0.0015435802066849885 0.0015419446722987605 0.001543241941629319
          0.0017795354609283138 0.0016458876489426678 0.0017795577188811614 0.0016460150482607815 0.001779579976834009 0.001646142447578895
          0.0016710449779427001 0.0016581963017069247 0.0016715741270381783 0.0016588302826639847 0.0016721032761336566 0.0016594642636210445
          0.0019079325709256856 0.001830491313207605 0.0019077849865626515 0.0018302856202317913 0.001907637402199618 0.001830079927255977
          0.0016782809233139035 0.0016785152089244444 0.0016787494945349852 0.0028238886858115253 0.0021237435305017384 0.0028263476816752626
          0.0021258480397190966 0.0028288066775390003 0.0021279525489364542 0.0010776715868824368 0.0010803616352151216 0.001083051683547806
          0.0012419459938370905 0.0014772467749658686 0.0012448975025259605 0.0014821246568385677 0.0012478490112148302 0.001487002538711267
          0.0009424557387787857 0.0009444592907985311 0.0009464628428182767 0.0017359888105987539 0.0017360059103630632 0.0017360230101273722
          0.001103411418052252 0.001107013124060736 0.0011106148300692202
        </DataArray>
        <DataArray type="Float64" Name="pe11" format="ascii" RangeMin="0" RangeMax="0.006897024662284094">
          0.002911175236872693 0.0029085601533926884 0.002905945069912683 0.0029999870566207705 0.002999990783482188 0.002999994510343607
          0.0022356650314325167 0.002236236569347066 0.002236808107261615 0.006214837066630454 0.006210575546406267 0.006206314026182078
          0.005830349903562423 0.005824073553853782 0.005817797204145141 0.005090026053053734 0.005087226440915053 0.005084426828776372
          0.004143301407648214 0.004144811848585776 0.004146322289523338 0.003154890880782104 0.003158995084960549 0.003163099289138993
          0.00227970575258329 0.0022820503233274263 0.002284394894071563 0.0016158588191805688 0.0016183585720429376 0.0016208583249053064
          0.006300811104976245 0.006298820901377672 0.006296830697779098 0.0055089930387758135 0.005506271724422403 0.005503550410068994
          0.004467119633063793 0.004468034217916295 0.004468948802768797 0.0033666560586908447 0.0033710072172625652 0.003375358375834285
          0.002378160003875208 0.0023838049239297376 0.0023894498439842662 0.0016161500341734811 0.0016197827534201812 0.0016234154726668816
          0.001113766016426467 0.0011171512828488685 0.0011205365492712696 0.006897024662284094 0.006895491844007855 0.006893959025731618
          0.006017051095621326 0.006018041298841024 0.006019031502060722 0.004851974236366319 0.004853997997420209 0.004856021758474097
          0.003616110860236388 0.003620970415752693 0.003625829971268999 0.002511677038230565 0.0025179067605878304 0.002524136482945095
          0.0016607771455196198 0.0016665620324339155 0.0016723469193482105 0.001094464414542255 0.001098319383737374 0.0011021743529324934
          0.0007437896520455114 0.0007471266829769275 0.0007504637139083434 0.006595792873345548 0.006598200575156777 0.006600608276968005
          0.005276080065721599 0.005280955242891027 0.005285830420060455 0.003879544589312162 0.003886526729380074 0.0038935088694479858
          0.0026511081783880865 0.002658452038279196 0.0026657958981703054 0.0017215759373076804 0.0017277339176199548 0.001733891897932229
          0.0011073347383979775 0.0011120124601089261 0.0011166901818198743 0.0007586223640044232 0.0007619637479412433 0.0007653051318780634
          0.0006112995245434712 0.0006137117037388235 0.0006161238829341755 0.0056479374179287615 0.005656770480022456 0.0056656035421161505
          0.004072120705393934 0.004080657968451199 0.0040891952315084655 0.002729051166405811 0.002738844718706338 0.0027486382710068652
          0.001754838702957921 0.0017617869432558428 0.0017687351835537649 0.0011254571910317259 0.0011298338378998192 0.0011342104847679125
          0.0007629921101044922 0.0007661897164206656 0.0007693873227368391 0.0005922576257713371 0.0005947887871374959 0.0005973199485036544
          0.0005630842659267709 0.0005648759109250075 0.000566667555923244 0.004041654867201098 0.004053562595027789 0.004065470322854481
          0.00261477266562839 0.0026228756103019676 0.002630978554975545 0.0016548809950622245 0.0016633468901432113 0.001671812785224198
          0.001085272216047469 0.0010896666030335035 0.0010940609900195381 0.0007625123767861324 0.0007647827852021094 0.0007670531936180863
          0.0005941642536693198 0.0005961653302604837 0.0005981664068516474 0.0005386040010392569 0.0005402918157502593 0.0005419796304612615
          0.000573295553245672 0.0005744200805118011 0.0005755446077779302 0.002265911661941899 0.0022722749610241274 0.0022786382601063557
          0.001363549235666569 0.0013673267027508428 0.0013711041698351166 0.0007852423562829779 0.0007898661969507635 0.0007944900376185488
          0.0006758337623822122 0.0006778840078006483 0.0006799342532190842 0.0005771972691317478 0.0005781468144785805 0.0005790963598254133
          0.0005310106434275024 0.0005320854869388249 0.0005331603304501475 0.0005487129153761262 0.0005494784009532336 0.0005502438865303411
          0.0006166018273635156 0.0006171156184975781 0.0006176294096316409 0.0004862254881728167 0.000521120042535942 0.0005380971050834348
          0.00044564978662634024 0.0004864482671924567 0.0005212585160860277 0.0005372507506473742 0.0004452436945370439 0.0004866710462120967
          0.0005213969896361132 0.0005364043962113134 0.0004448376024477474 0.00036482960693894165 0.00008703603049925942 0.00014903614625835478
          0.0005786469615552527 0.00036768938865129245 0.00008789453927692793 0.00014944912529313734 0.0005797396192283534 0.00037054917036364324
          0.00008875304805459644 0.0001498621043279199 0.0005808322769014541 0.0003559173989833744 0.00018026750872781843 0.0003585157967517116
          0.0001818857136772767 0.0003611141945200488 0.00018350391862673496 0.00032298076347044306 0.00044682593118388595 0.00032378168399104765
          0.00044781394230820513 0.00032458260451165223 0.0004488019534325243 0.0005908611052624474 0.0006333727210489526 0.0005907658264560327
          0.0006325350177243021 0.0005906705476496179 0.0006316973143996514 0.0009247071024052402 0.0001793815917988337 0.0009265384492398796
          0.00017935532015975338 0.0009283697960745192 0.00017932904852067304 0.0006506107442007626 0.0004937264884523253 0.0006493994938634112
          0.0004927925860087483 0.0006481882435260597 0.0004918586835651711 0.0006847707124566431 0.0006848597547530807 0.0006849487970495183
          0 0 0 0 0 0
          0.00001045228878923454 0.00010427985154844638 0.000010709159376999432 0.00010549067296021987 0.000010966029964764324 0.00010670149437199337
          0.0002832741853028292 0.00028415590534427336 0.0002850376253857175 0.0007142830541874133 0.0007139131151653283 0.0007135431761432433
          0.0022021309185730866 0.0022103908530346564 0.002218650787496226 0.0006592958346641965 0.0006189265307166602 0.0006995629880109243
          0.0007544114163297972 0.0006601556998458914 0.0006199760563697118 0.0007000051488372026 0.0007551198939440222 0.0006610155650275862
          0.0006210255820227633 0.0007004473096634811 0.0007558283715582471 0.002255841396547234 0.002261880197417191 0.0022679189982871485
          0.0008534230044114109 0.0007094605551109846 0.0008541461216946295 0.0007104008983412752 0.0008548692389778477 0.0007113412415715658
          0.0008546253943102868 0.0009106677455662694 0.0012041469406596694 0.0013694563807475977 0.0008572488701935962 0.0009129479114458332
          0.0012084155381754018 0.001373213216012957 0.0008598723460769059 0.0009152280773253972 0.0012126841356911342 0.0013769700512783162
          0.0006509638488088098 0.0006004239865015409 0.000651962273524113 0.0006023552776890036 0.0006529606982394165 0.0006042865688764662
          0.0014742436063106745 0.000874889001576763 0.0014770775625539772 0.0008784318522163289 0.0014799115187972807 0.000881974702855895
          0.0010258011104346064 0.0010493831230193238 0.0009150909096584504 0.0010251053484164933 0.001048947584233879 0.0009148728389495516
          0.0010244095863983797 0.0010485120454484344 0.0009146547682406533 0.0011090806921758081 0.0011866418508071964 0.0012936114471414966
          0.0012327855951486822 0.001109010329192634 0.001187153406217712 0.0012939781055546476 0.001232530225431907 0.0011089399662094599
          0.0011876649616282277 0.001294344763967799 0.001232274855715132 0.0006776986749729154 0.0006655963228528977 0.0006893949195832752
          0.0006806078088124153 0.000667536539573754 0.000691488379099678 0.0006835169426519152 0.0006694767562946103 0.0006935818386160806
          0.0007899500106398449 0.0009014258753119198 0.0009574347561363448 0.000782465621653292 0.0007916343676997723 0.0009033953406174904
          0.000959596250890578 0.0007834674930262413 0.0007933187247597 0.0009053648059230611 0.0009617577456448112 0.0007844693643991904
          0.0006006265165332307 0.0006175285247063467 0.000603690007581883 0.0006201323344406618 0.0006067534986305352 0.0006227361441749771
          0.0013710303440855986 0.0012728708331720998 0.0013401527204475634 0.0014257058955898453 0.0013703576927139706 0.0012722012439625133
          0.0013397381266318324 0.0014251753289974305 0.0013696850413423424 0.001271531654752927 0.0013393235328161017 0.001424644762405016
          0.0006492867883562287 0.0006578710422960721 0.0006310621001102968 0.0006505407305477911 0.0006627156504257522 0.000635317040115234
          0.0006517946727393532 0.0006675602585554325 0.000639571980120171 0.0012941664835089644 0.0011878271650128378 0.0012936441926024189
          0.001187409760071674 0.0012931219016958737 0.0011869923551305105 0.0015424962193347066 0.0014923804201018818 0.0015155572641700026
          0.001556791234452229 0.0015418643377923258 0.0014917501425561568 0.0015153567523987 0.0015564433123433118 0.001541232456249945
          0.001491119865010432 0.0015151562406273975 0.0015560953902343947 0.0015331932077667597 0.0015467097163414647 0.0015333328474419641
          0.001547068040192502 0.0015334724871171684 0.0015474263640435399 0.0009537592766712961 0.0008207830779121014 0.0009553024637924596
          0.000821660372520506 0.0009568456509136232 0.0008225376671289106 0.0006697456659130232 0.0006629931868596711 0.0006731407430165887
          0.0006649111164669728 0.0006765358201201543 0.0006668290460742745 0.0008613676819775979 0.0007781366652230881 0.0007097125387090352
          0.000775707599397123 0.0008619077417957693 0.0007783363338730718 0.0007100205076810034 0.0007764070169024481 0.0008624478016139409
          0.0007785360025230556 0.0007103284766529716 0.0007771064344077731 0.0011584138034219482 0.001157851628191836 0.0011572894529617238
          0.0016551664656625012 0.0016643434823922828 0.0016735204991220644 0.0024234732989840252 0.002438260854292884 0.0024268541800209964
          0.0024418029651529253 0.002430235061057968 0.0024453450760129657 0.0007822024749256437 0.0008532319456254331 0.0007822020669979771
          0.0008532043078297168 0.0007822016590703105 0.0008531766700340004 0.0009963973868441613 0.0008718890810900333 0.0009968403355718925
          0.0008731292275509615 0.0009972832842996234 0.0008743693740118899 0.0007118781211199642 0.0007119940932685016 0.0007121100654170389
          0.000710167964723305 0.0007825691691567205 0.0007102225755145576 0.0007826399344716724 0.0007102771863058104 0.0007827106997866243
          0.0013779154061885034 0.001438992975074727 0.0013439941894041129 0.001281038526805196 0.0013773997235858406 0.001438469272211614
          0.0013433069324457416 0.0012805957101718456 0.001376884040983178 0.001437945569348501 0.0013426196754873702 0.0012801528935384955
          0.0006865845668338917 0.0007028427440495437 0.0006875454500076143 0.0007039894135168436 0.0006885063331813369 0.0007051360829841435
          0.0012367736659032015 0.0012146199230597936 0.0013697511081172367 0.0012357454568730655 0.001213706113565363 0.0013689155165762011
          0.001234717247842929 0.0012127923040709326 0.0013680799250351653 0.0006733479013881192 0.0006704104488962619 0.0006818890784148007
          0.0006742813137305421 0.0006707921204182219 0.0006830146682920727 0.0006752147260729653 0.0006711737919401819 0.0006841402581693447
          0.000791966152526542 0.0007927847950280535 0.000793603437529565 0.0007704129845538294 0.0007723493040424165 0.0007742856235310037
          0.0009535137358655812 0.0007469770646565928 0.0009574063638288914 0.0007501654988249812 0.0009612989917922017 0.0007533539329933695
          0.0009637711386722035 0.0008739155954695576 0.0009633440416947224 0.0008738570831446122 0.0009629169447172414 0.0008737985708196669
          0.0014083875747539284 0.0014086408629202176 0.0014088941510865074 0.002402931736172886 0.001860312648322656 0.002407197436392327
          0.0018625241211663868 0.002411463136611768 0.0018647355940101175 0.0025340799614775207 0.002537981797919573 0.0025418836343616266
          0.0016479069039162476 0.0016406926336107561 0.001545183817637659 0.0014889026932643204 0.001648484976728598 0.0016411965992543798
          0.0015459535093463367 0.0014898265296792508 0.0016490630495409483 0.0016417005648980034 0.0015467232010550145 0.0014907503660941811
          0.0014643303375962667 0.0014637805119331352 0.0014632306862700038 0.0009684249627268576 0.0008705196928541966 0.0009687019826788001
          0.0008707447979462665 0.0009689790026307428 0.0008709699030383366 0.0006583210998872928 0.0006603063631239692 0.0006622916263606454
          0.0017562248731966767 0.0012099280123351458 0.001759022940516829 0.0012141729553218842 0.0017618210078369809 0.0012184178983086229
          0.0012995275912772355 0.0013005933514619809 0.0013016591116467263 0.0015751731057149854 0.0015496734311988127 0.0015683946727759065
          0.0015747574021508716 0.0015495044014799543 0.0015680086627956954 0.0015743416985867576 0.001549335371761096 0.0015676226528154842
          0.0007390545182834568 0.0008258762514140373 0.0007400444319802813 0.0008265485861033509 0.0007410343456771059 0.0008272209207926645
          0.0013701001467519693 0.0014521620219313236 0.0013707620160984643 0.0014528665419102104 0.0013714238854449588 0.0014535710618890979
          0.0009802116537218051 0.0009155526150418656 0.000980549308426841 0.0009158097324291148 0.000980886963131877 0.0009160668498163639
          0.0009708964855569865 0.0008621347283396635 0.0009718267024348624 0.0008627849882955297 0.0009727569193127383 0.0008634352482513961
          0.0015339056454042371 0.0015344377079252766 0.0015349697704463163 0.001466738505181438 0.0014667166192685987 0.0014666947333557597
          0.0016007502960147361 0.0016010756034997861 0.0016014009109848362 0.0008791786985221716 0.0008798380097405466 0.0008804973209589215
          0.0014979997084558 0.0014983532148006278 0.0014987067211454555 0.001652156181253502 0.001656987451530792 0.0016618187218080827
          0.0015042606705023566 0.0014474026360158138 0.0015036194137276 0.001446726120354435 0.001502978156952843 0.001446049604693056
          0.0011131282135969003 0.001133915176810252 0.0011153528395087024 0.0011355894776811366 0.001117577465420505 0.0011372637785520214
          0.0011680137087279622 0.0011690084651241287 0.0011700032215202947 0.001503735874571262 0.0015039019301661292 0.0015040679857609963
          0.0008291117583208231 0.0008417420595153136 0.0006854029179281803 0.0008338303059022476 0.0008460520612472347 0.000688298858163471
          0.0008385488534836719 0.0008503620629791562 0.0006911947983987616 0.0013767668286434902 0.001405943268999614 0.0013773435985470497
          0.0014066510569432948 0.0013779203684506096 0.0014073588448869755 0.0011075192658484175 0.001113529630521727 0.0011195399951950363
          0.0015288383006352318 0.001528242098813358 0.0015276458969914846 0.0014455009133511082 0.0014463546490019023 0.0014472083846526962
          0.0006956788236675222 0.0006970015208834428 0.0006983242180993632 0.0016396114701865351 0.0016438872827502934 0.0016481630953140516
          0.0009543712388965704 0.0009547282370762462 0.0009550852352559222 0.001067664649680819 0.0010675867775974146 0.0010675089055140101
          0.0022150315713134 0.0022211913645286893 0.0022273511577439787 0.0016470118058534008 0.001654657742372492 0.0016623036788915829
          0.0011367685399069577 0.0011419752851860908 0.0011471820304652237 0.0011738458038709312 0.0011813863735251051 0.001188926943179279
          0.0010014810782421535 0.0010043899951360262 0.0010072989120298989 0.0008357029556299684 0.0008423283945440171 0.0008489538334580657
          0.0009781231326075693 0.000978212174531154 0.0009783012164547387 0.00103843821062388 0.001038161562286661 0.0010378849139494422
          0.0010808311942803695 0.0010806735508918281 0.0010805159075032867 0.0010867429533299826 0.0010867034102020395 0.0010866638670740964
          0.001195057410387412 0.001194801886095351 0.0011945463618032895 0.0011015391501160738 0.001102197056571358 0.0011028549630266416
          0.0012913901503637203 0.0012920242993146526 0.0012926584482655847 0.0009010138585046894 0.0007034720244838105 0.000908718007815977
          0.0007093057596422133 0.0009164221571272645 0.0007151394948006162 0.0012374667654083348 0.0012463765521269785 0.0012552863388456221
          0.0007829588494711958 0.0008304140475526777 0.0007839328511050507 0.0008314355641515879 0.0007849068527389058 0.0008324570807504981
          0.0015234692820526579 0.0015235091248035904 0.0015235489675545228 0.0015645702918833794 0.0015639758418062345 0.0015633813917290897
          0.0011597652254213223 0.001159220113958694 0.0011586750024960657 0.0015472249152537316 0.0015755935741683777 0.001547487378145887
          0.0015760072866165742 0.0015477498410380421 0.0015764209990647708 0.0016342697516685504 0.0011713848536469358 0.0013831762636182245
          0.0016344896104905145 0.0011735768434022625 0.0013841359854302813 0.0016347094693124787 0.0011757688331575896 0.0013850957072423379
          0.0016237029744572678 0.0016240919942063711 0.0016244810139554745 0.0017079312500635174 0.0017079864393838096 0.001708041628704102
          0.0015421904634499203 0.0015438990290392277 0.0015420527836058876 0.0015435582805887475 0.001541915103761855 0.0015432175321382674
          0.0017794317506455758 0.0016458119891215926 0.0017794481760085145 0.0016459338207685582 0.0017794646013714532 0.001646055652415524
          0.0016708835373181548 0.0016580729548416853 0.0016714063092549453 0.0016587006206037922 0.0016719290811917358 0.0016593282863658992
          0.0019077768549064812 0.001830374983287526 0.0019076232873251032 0.0018301633583065915 0.0019074697197437249 0.0018299517333256572
          0.0016780919242143 0.0016783204677822663 0.0016785490113502325 0.0028152247484659466 0.0021167031995549613 0.0028177719612093614
          0.002118769962981117 0.0028203191739527766 0.0021208367264072734 0.0010775121063917154 0.0010802051808823988 0.0010828982553730824
          0.0012397601116119102 0.001474570958685343 0.0012426826595417434 0.0014794316522431952 0.0012456052074715767 0.0014842923458010474
          0.000942151859063054 0.0009441615604034647 0.0009461712617438757 0.0017358954455099292 0.0017359063151949187 0.0017359171848799083
          0.0011029145933499783 0.0011065204228887366 0.001110126252427495
        </DataArray>
        <DataArray type="Float64" Name="pe22" format="ascii" RangeMin="-0.0036119903145893878" RangeMax="0">
          -0.0015534657532142839 -0.001552022311316569 -0.0015505788694188541 -0.0016194699836125457 -0.0016192748262963382 -0.0016190796689801302
          -0.0011948637457363175 -0.0011931361403311439 -0.0011914085349259702 -0.0031970728081659834 -0.0032038440060062788 -0.003210615203846575
          -0.003089306553702039 -0.003095375785530782 -0.003101445017359525 -0.002750674626969236 -0.0027553870823177505 -0.002760099537666265
          -0.002264953048547941 -0.002267717608422707 -0.0022704821682974726 -0.0017270796394785479 -0.0017282007517885525 -0.001729321864098557
          -0.001231507939309884 -0.0012305228635726326 -0.0012295377878353815 -0.0008598768602639727 -0.000858341306778245 -0.0008568057532925174
          -0.003328452477658595 -0.003336847639225376 -0.003345242800792158 -0.0029842224811349695 -0.0029904089911532115 -0.0029965955011714528
          -0.0024542929846084116 -0.002457847179059198 -0.0024614013735099853 -0.0018575841409312131 -0.0018587541100302737 -0.0018599240791293348
          -0.0013029752893836614 -0.001302835009440897 -0.0013026947294981328 -0.0008678586180325511 -0.0008666152980513636 -0.000865371978070176
          -0.0005869590328651848 -0.0005859130679701828 -0.0005848671030751808 -0.003585906634156438 -0.003598948474372913 -0.0036119903145893878
          -0.0032578880927786164 -0.003267024777341555 -0.0032761614619044948 -0.0026806456784289833 -0.002685744803290256 -0.0026908439281515288
          -0.0020115567765201523 -0.0020131510847235094 -0.002014745392926867 -0.0013893534506473821 -0.0013889669236121203 -0.001388580396576859
          -0.000903085063730201 -0.0009022354685021077 -0.0009013858732740146 -0.0005801364124261371 -0.0005792134737585776 -0.0005782905350910183
          -0.00038591789100928024 -0.00038571963823574287 -0.00038552138546220555 -0.00352592665189421 -0.0035404132446097817 -0.0035548998373253534
          -0.0029170532257318848 -0.002925203007296136 -0.002933352788860387 -0.002174927453947379 -0.0021776748116353003 -0.0021804221693232217
          -0.0014813840019701659 -0.0014809429837186771 -0.001480501965467189 -0.0009451296078515215 -0.0009438525696543426 -0.0009425755314571637
          -0.0005924076727573399 -0.0005915259246363094 -0.000590644176515279 -0.0003953867586300965 -0.00039500934826658927 -0.00039463193790308207
          -0.0003135290960681715 -0.00031349103769715545 -0.00031345297932613937 -0.003091862929296346 -0.003104215810798605 -0.0031165686923008635
          -0.002282260431937154 -0.002286882084697062 -0.00229150373745697 -0.001535962906596136 -0.0015360336997300413 -0.001536104492863947
          -0.0009720688578450907 -0.0009705385911207669 -0.0009690083243964429 -0.0006062308557744695 -0.0006049396212418074 -0.0006036483867091452
          -0.00039981337858247174 -0.00039930694518423626 -0.0003988005117860009 -0.0003042258898123439 -0.0003042332698912713 -0.00030424064997019865
          -0.0002865062018564985 -0.000286660312846972 -0.0002868144238374456 -0.0022650689646724126 -0.002267715158008327 -0.0022703613513442417
          -0.0014653179341465898 -0.0014645639391555132 -0.0014638099441644365 -0.0009199387632060549 -0.0009185577702350991 -0.0009171767772641433
          -0.0005874109581258384 -0.0005860211362728745 -0.0005846313144199109 -0.0004007224947646792 -0.00039992504538041116 -0.00039912759599614316
          -0.00030613026616032403 -0.00030600729529525116 -0.00030588432443017833 -0.00027383352720800833 -0.0002739581254684478 -0.0002740827237288872
          -0.0002898189893592385 -0.0002899296665309034 -0.0002900403437025684 -0.0012863508713989238 -0.0012786572738069592 -0.0012709636762149943
          -0.0007481055961792583 -0.0007440383474436158 -0.0007399710987079731 -0.00042006882933037207 -0.00041931173590195326 -0.0004185546424735345
          -0.00035573323174101955 -0.000355143533787868 -0.00035455383583471645 -0.0002984816431219991 -0.00029819912217987437 -0.0002979166012377496
          -0.00027081260953665915 -0.00027085094147797956 -0.00027088927341929997 -0.00027689259996419637 -0.00027689800818427203 -0.00027690341640434774
          -0.00031007874614183086 -0.00031002383425897666 -0.0003099689223761225 -0.0002493704113173202 -0.0002633496603961891 -0.00027064473063081356
          -0.00022562242896156644 -0.0002492624667967132 -0.0002632732330137337 -0.00027022565540627317 -0.00022540711627920486 -0.00024915452227610606
          -0.0002631968056312782 -0.00026980658018173267 -0.0002251918035968433 -0.00018677084010686168 -0.00004354589256697145 -0.00007408142623401629
          -0.0003034211578669708 -0.00018687219768782478 -0.00004379124625768833 -0.00007358198710134719 -0.0003006775111315641 -0.00018697355526878787
          -0.00004403659994840521 -0.00007308254796867811 -0.0002979338643961573 -0.00018234583429173193 -0.0000918368567066122 -0.00018290720964412514
          -0.00009250259186857814 -0.00018346858499651835 -0.00009316832703054408 -0.00016444553953957232 -0.00023076483333885495 -0.00016478889316162902
          -0.00023079069905783487 -0.00016513224678368576 -0.0002308165647768148 -0.00029625715691034487 -0.0003165977010061434 -0.0002961023542889089
          -0.0003162296623924387 -0.00029594755166747295 -0.00031586162377873403 -0.0005131267808191786 -0.00009026730429889925 -0.000506053208672327
          -0.00008877884636065927 -0.0004989796365254758 -0.0000872903884224193 -0.0003251878149551284 -0.00024834498453548835 -0.00032466486153652843
          -0.00024793868935793365 -0.0003241419081179284 -0.000247532394180379 -0.00034302926669370695 -0.0003428670260914603 -0.0003427047854892136
          0 0 0 0 0 0
          -0.0000052315072863051015 -0.00005290798576289893 -0.000005354589100911609 -0.00005352201681650657 -0.000005477670915518117 -0.000054136047870114216
          -0.00014285514790359416 -0.00014337137305526864 -0.00014388759820694314 -0.0003564476755730618 -0.00035620502661250865 -0.00035596237765195553
          -0.0012062046367147538 -0.001207622602965833 -0.001209040569216912 -0.0003326396337542842 -0.0003139724886871418 -0.00035340216857951667
          -0.0003787986310737781 -0.00033277815971083266 -0.0003141053315664417 -0.00035343616125682137 -0.000378962992328404 -0.0003329166856673812
          -0.0003142381744457416 -0.0003534701539341262 -0.00037912735358302987 -0.0012373012150493487 -0.0012376406725332593 -0.0012379801300171698
          -0.00042644951162705097 -0.0003568373881902925 -0.0004265893824287473 -0.0003569677530151224 -0.0004267292532304437 -0.0003570981178399523
          -0.00044662215011436574 -0.00047699419285748986 -0.0006476129387783208 -0.0007369624958943707 -0.0004465047023603284 -0.0004766577018884154
          -0.0006474334715674234 -0.0007365895636117691 -0.0004463872546062911 -0.0004763212109193409 -0.000647254004356526 -0.0007362166313291675
          -0.00033116737111199855 -0.00030683215716524115 -0.0003313191908270659 -0.0003070947852462629 -0.0003314710105421332 -0.0003073574133272847
          -0.0007940018944746676 -0.00045976832597454786 -0.000793340868127034 -0.000459965542953546 -0.0007926798417794 -0.00046016275993254415
          -0.0005097842801721945 -0.0005228376111954473 -0.0004549565627470765 -0.0005095245096031996 -0.0005225558295393173 -0.00045481221854326944
          -0.000509264739034205 -0.0005222740478831872 -0.00045466787433946234 -0.0005559763826315743 -0.0005950875972778887 -0.0006473179154168713
          -0.0006172543284838406 -0.0005558094934137296 -0.0005950734171062827 -0.0006473585597487651 -0.0006171666427172051 -0.0005556426041958848
          -0.0005950592369346767 -0.000647399204080659 -0.0006170789569505696 -0.0003501077115903452 -0.00034269864379751893 -0.00035520598927232165
          -0.0003503048952421515 -0.0003428079851045554 -0.00035521185254798086 -0.00035050207889395754 -0.0003429173264115919 -0.00035521771582364
          -0.000401666071836107 -0.0004542947790038894 -0.00048071267155960686 -0.00039502718797514673 -0.0004015212696300771 -0.000454405347207643
          -0.0004809528166563333 -0.0003948864495289376 -0.0004013764674240472 -0.00045451591541139676 -0.0004811929617530598 -0.0003947457110827284
          -0.0003082991243374735 -0.00031678339967116764 -0.0003088109244850505 -0.00031729829098626317 -0.00030932272463262745 -0.00031781318230135865
          -0.0006839286104184414 -0.0006356118017723584 -0.0006699961803123388 -0.0007116625988901131 -0.0006838963997274794 -0.0006354842293090628
          -0.0006699628293072101 -0.0007116717713218461 -0.0006838641890365176 -0.0006353566568457671 -0.0006699294783020814 -0.0007116809437535793
          -0.00033171256861069803 -0.00034214732120029824 -0.00032827077943331636 -0.00033172532332634465 -0.00034300086253603065 -0.00032906290964307704
          -0.0003317380780419912 -0.00034385440387176296 -0.00032985503985283766 -0.0006458106228116985 -0.0005931822936302495 -0.0006457552978117642
          -0.0005930876272478094 -0.00064569997281183 -0.0005929929608653693 -0.0007703113401694606 -0.0007453567174389691 -0.0007580991482829862
          -0.0007781292578841482 -0.0007701511937540975 -0.0007452924264481117 -0.0007580962172751089 -0.0007780023321301868 -0.0007699910473387343
          -0.0007452281354572543 -0.0007580932862672314 -0.0007778754063762253 -0.0007671207531520858 -0.0007731661692230324 -0.0007671564873455902
          -0.0007732008290137974 -0.0007671922215390943 -0.0007732354888045622 -0.00047940487799791873 -0.00041237705718540047 -0.00047956526200223365
          -0.00041231695101194056 -0.0004797256460065487 -0.0004122568448384806 -0.00034597792443524116 -0.0003402890390390063 -0.0003464368450769627
          -0.00034049895823888733 -0.0003468957657186843 -0.00034070887743876835 -0.00043270402596205847 -0.0003910621801228132 -0.00035900826175718273
          -0.0003914886313314225 -0.00043269803920754294 -0.000390928022283804 -0.0003588552208380179 -0.0003915341772342166 -0.0004326920524530273
          -0.0003907938644447947 -0.000358702179918853 -0.00039157972313701075 -0.0005792786323338682 -0.0005790744902872185 -0.0005788703482405689
          -0.0009065864383466306 -0.0009077954512192857 -0.0009090044640919408 -0.0013225499764341535 -0.0013195880267493213 -0.0013229712395426735
          -0.0013206583353089863 -0.0013233925026511937 -0.0013217286438686514 -0.0003923590654168943 -0.00042546962934207914 -0.0003922204491708365
          -0.00042536369509556195 -0.0003920818329247788 -0.00042525776084904486 -0.0004973206139275158 -0.00043586582086343925 -0.0004972564886826198
          -0.0004361148560618172 -0.0004971923634377239 -0.0004363638912601953 -0.0003592296527157306 -0.0003590894665492718 -0.00035894928038281306
          -0.0003584628865090641 -0.00039250155909405 -0.00035823914087777743 -0.0003923427708658977 -0.00035801539524649075 -0.0003921839826377454
          -0.0006878721330785265 -0.000718636560133133 -0.0006711689598325944 -0.0006393701391383225 -0.0006878401733220693 -0.0007185772399265362
          -0.0006710079259941518 -0.0006392955763796294 -0.0006878082135656124 -0.0007185179197199396 -0.000670846892155709 -0.0006392210136209361
          -0.0003491215184662679 -0.0003557323882090411 -0.0003491325528788709 -0.00035586579500937986 -0.0003491435872914739 -0.0003559992018097186
          -0.0006181322033973009 -0.0006060483493785104 -0.0006840341580164844 -0.0006176174870596773 -0.0006056736817838819 -0.0006838149028530707
          -0.0006171027707220537 -0.0006052990141892536 -0.0006835956476896568 -0.0003442474730681852 -0.00034147723139802235 -0.0003514253420538521
          -0.00034407823852332603 -0.0003411689410998801 -0.00035100530908748476 -0.0003439090039784669 -0.0003408606508017377 -0.00035058527612111744
          -0.00039868563203021134 -0.00039875724644185354 -0.00039882886085349574 -0.0004003947984123728 -0.00040000585727305966 -0.0003996169161337465
          -0.0005071474596007766 -0.00039137907681636097 -0.0005069038343703543 -0.0003912109474227449 -0.0005066602091399319 -0.00039104281802912884
          -0.0004793410081405941 -0.0004362740791021918 -0.0004791126046631186 -0.0004360835408286642 -0.0004788842011856432 -0.0004358930025551364
          -0.0007049499648173542 -0.0007050581177339276 -0.0007051662706505009 -0.0013065596823062283 -0.0010057030045046988 -0.0013072692481398448
          -0.0010048395572978077 -0.0013079788139734611 -0.0010039761100909168 -0.0013885410900755962 -0.0013887866873503187 -0.0013890322846250413
          -0.0008207238433766933 -0.000817640411144203 -0.00077118385874464 -0.0007439379573572087 -0.0008207678723583195 -0.0008177324615576886
          -0.0007713525323096522 -0.0007440497827148129 -0.0008208119013399456 -0.0008178245119711743 -0.0007715212058746643 -0.0007441616080724172
          -0.0007312768891895241 -0.0007311863044775456 -0.000731095719765567 -0.00048465053677439397 -0.00043563447454339775 -0.0004845992156845449
          -0.0004355167441611905 -0.00048454789459469573 -0.0004353990137789832 -0.0003400404868391786 -0.0003399135848024909 -0.0003397866827658032
          -0.00094831099364679 -0.000651360714180542 -0.0009480035063125796 -0.0006514743693408025 -0.0009476960189783696 -0.0006515880245010628
          -0.0006472361615943644 -0.0006472122287794601 -0.000647188295964556 -0.0007862188947250584 -0.0007752956014716834 -0.0007839090451299476
          -0.000786049502453561 -0.0007752251052454518 -0.000783741674477933 -0.0007858801101820636 -0.0007751546090192203 -0.0007835743038259186
          -0.00037241328144054967 -0.0004140138714156001 -0.00037246195065911353 -0.0004139714427434247 -0.0003725106198776773 -0.00041392901407124943
          -0.0006845461577146704 -0.0007256168109484085 -0.0006845819855390566 -0.0007257721623829223 -0.0006846178133634427 -0.0007259275138174362
          -0.0004913882538086139 -0.0004604786226275715 -0.0004912724925576949 -0.0004603576375112904 -0.0004911567313067756 -0.00046023665239500937
          -0.00048714463283261835 -0.00043197804966860713 -0.00048722997750526504 -0.00043189327503662095 -0.0004873153221779116 -0.00043180850040463466
          -0.0007663446399557143 -0.0007664250667994407 -0.000766505493643167 -0.0007336428346235825 -0.0007337466342626064 -0.0007338504339016303
          -0.0007983792208489219 -0.0007983405201822612 -0.0007983018195156006 -0.0004431560299996632 -0.00044321921127846647 -0.0004432823925572698
          -0.0007501120998832891 -0.0007501686603267644 -0.0007502252207702396 -0.0008899272783436153 -0.0008904528807932167 -0.0008909784832428182
          -0.0007510805125258115 -0.0007223531428801925 -0.0007509711201795056 -0.0007223177580030893 -0.0007508617278331995 -0.0007222823731259863
          -0.0005576597917076692 -0.0005683333257194968 -0.000557997136852435 -0.000568580720752808 -0.0005583344819972007 -0.0005688281157861191
          -0.0005856641194626399 -0.0005857823923317584 -0.0005859006652008771 -0.0007524724843439299 -0.0007525358369199271 -0.0007525991894959242
          -0.00043612358488982945 -0.00044142310994322003 -0.00035197364685466 -0.0004368504452603521 -0.00044177533956081663 -0.00035235240151970985
          -0.0004375773056308748 -0.0004421275691784133 -0.0003527311561847598 -0.0006859543798224904 -0.0007008257255745551 -0.0006858212719193649
          -0.0007007481562473409 -0.0006856881640162394 -0.0007006705869201267 -0.0005900176679807079 -0.0005907251029671831 -0.0005914325379536582
          -0.0007634164847011089 -0.00076327599196474 -0.0007631354992283708 -0.0007222888161689357 -0.0007222789769945645 -0.0007222691378201931
          -0.0003539659534747961 -0.00035398006545062457 -0.0003539941774264531 -0.0008833191977532546 -0.000883568947237359 -0.0008838186967214638
          -0.00047907037894297493 -0.00047904707846867434 -0.0004790237779943736 -0.0005341258380218015 -0.0005340383068735662 -0.0005339507757253308
          -0.0011989180024145666 -0.001199207486344673 -0.0011994969702747793 -0.000890688259771786 -0.0008912920408373966 -0.0008918958219030072
          -0.0006040475320631154 -0.0006045482023714015 -0.0006050488726796877 -0.0006282365369946212 -0.000629047835935483 -0.0006298591348763449
          -0.0005266791808766952 -0.0005263912706460587 -0.0005261033604154223 -0.000441459052307615 -0.0004423630712479441 -0.0004432670901882731
          -0.00048810014992492257 -0.0004879996964057759 -0.0004878992428866293 -0.0005204407142794325 -0.0005202108699459956 -0.0005199810256125588
          -0.0005384674664240073 -0.000538410282802031 -0.0005383530991800549 -0.0005426839373362857 -0.0005426285088066627 -0.0005425730802770394
          -0.0005961989826244844 -0.0005961605152227469 -0.0005961220478210092 -0.0005526668040876085 -0.0005527063947062568 -0.000552745985324905
          -0.0006469607092730951 -0.0006469127683435682 -0.0006468648274140412 -0.0004823391084176242 -0.00037045611116990566 -0.00048358401816363624
          -0.00037147336204168373 -0.00048482892790964823 -0.0003724906129134617 -0.0006734441372561249 -0.0006747507964984925 -0.0006760574557408601
          -0.0003921903058822052 -0.00041475774928964755 -0.00039228892389409217 -0.00041488170924507465 -0.00039238754190597914 -0.00041500566920050163
          -0.0007622825381817072 -0.0007623134859746013 -0.0007623444337674952 -0.0007807508661616418 -0.0007805698665134996 -0.0007803888668653572
          -0.0005775824203831412 -0.0005774491059560326 -0.0005773157915289241 -0.0007744723025347351 -0.0007870943423480344 -0.0007746364596094874
          -0.0007872794780857652 -0.0007748006166842397 -0.0007874646138234959 -0.0008107143838393914 -0.0005851050663445919 -0.0006889371562675807
          -0.0008103150365598652 -0.0005853273518773458 -0.000688707709108421 -0.000809915689280339 -0.0005855496374100997 -0.0006884782619492611
          -0.0008091239846746099 -0.0008091519096037794 -0.0008091798345329488 -0.0008505317541929431 -0.0008503992856865935 -0.0008502668171802438
          -0.0007720780683523212 -0.0007724698530207327 -0.0007720665958975647 -0.0007723672018509309 -0.0007720551234428081 -0.0007722645506811291
          -0.0008879879419060865 -0.0008204237064149394 -0.000887874648639677 -0.0008204089959157224 -0.0008877613553732674 -0.0008203942854165053
          -0.0008298348308567655 -0.000824868860648889 -0.0008297155365478381 -0.0008248205112447304 -0.0008295962422389105 -0.0008247721618405719
          -0.0009459629604564072 -0.0009084513715772195 -0.000945764928098734 -0.0009082842637648462 -0.0009455668957410609 -0.0009081171559524729
          -0.0008334682707909543 -0.0008332094195962697 -0.0008329505684015852 -0.0015232293844544362 -0.001144087999795196 -0.0015238049875425127
          -0.0011436807072171464 -0.0015243805906305892 -0.0011432734146390965 -0.0005441294151906181 -0.0005443712806838666 -0.0005446131461771152
          -0.0006523884014280493 -0.0007771094330695479 -0.0006522276003867446 -0.0007775732646280046 -0.0006520667993454399 -0.0007780370961864611
          -0.0004831901059492486 -0.00048292324147522465 -0.0004826563770012008 -0.0008634700862058261 -0.000863382549964089 -0.000863295013722352
          -0.0005689952925858994 -0.0005691523784219987 -0.0005693094642580979
        </DataArray>
        <DataArray type="Float64" Name="pe33" format="ascii" RangeMin="-0.003311118028127653" RangeMax="0">
          -0.001357709483658409 -0.001356537842076119 -0.0013553662004938286 -0.0013805170730082244 -0.0013807159571858504 -0.0013809148413634759
          -0.0010408012856961987 -0.0010431004290159217 -0.0010453995723356448 -0.0030177642584644695 -0.0030067315403999855 -0.0029956988223355024
          -0.002741043349860383 -0.002728697768322999 -0.0027163521867856148 -0.0023393514260844983 -0.0023318393585973025 -0.0023243272911101067
          -0.0018783483591002727 -0.001877094240163069 -0.0018758401212258654 -0.0014278112413035557 -0.001430794333171996 -0.0014337774250404362
          -0.001048197813273406 -0.0010515274597547935 -0.001054857106236181 -0.000755981958916596 -0.0007600172652646925 -0.000764052571612789
          -0.002972358627317648 -0.0029619732621522935 -0.002951587896986939 -0.002524770557640843 -0.0025158627332691912 -0.0025069549088975397
          -0.002012826648455381 -0.002010187038857097 -0.002007547429258812 -0.0015090719177596316 -0.0015122531072322908 -0.0015154342967049503
          -0.001075184714491547 -0.0010809699144888403 -0.0010867551144861337 -0.0007482914161409302 -0.0007531674553688177 -0.0007580434945967055
          -0.0005268069835612821 -0.0005312382148786853 -0.0005356694461960886 -0.003311118028127653 -0.0032965433696349406 -0.0032819687111422286
          -0.0027591630028427085 -0.002751016521499468 -0.002742870040156226 -0.0021713285579373354 -0.0021682531941299515 -0.0021651778303225675
          -0.001604554083716236 -0.0016078193310291838 -0.001611084578342132 -0.0011223235875831828 -0.0011289398369757095 -0.0011355560863682357
          -0.0007576920817894185 -0.0007643265639318072 -0.000770961046074196 -0.0005143280021161177 -0.0005191059099787964 -0.000523883817841475
          -0.00035787176103623105 -0.0003614070447411844 -0.0003649423284461378 -0.003069866221451337 -0.0030577873305469936 -0.0030457084396426507
          -0.002359026839989714 -0.002355752235594891 -0.0023524776312000683 -0.0017046171353647833 -0.0017088519177447734 -0.0017130867001247639
          -0.0011697241764179207 -0.0011775090545605186 -0.0011852939327031166 -0.0007764463294561584 -0.0007838813479656116 -0.000791316366475065
          -0.0005149270656406375 -0.0005204865354726165 -0.0005260460053045955 -0.00036323560537432657 -0.0003669543996746539 -0.0003706731939749812
          -0.00029777042847529966 -0.00030022066604166786 -0.00030267090360803605 -0.0025560744886324155 -0.002552554669223851 -0.002549034849815287
          -0.0017898602734567797 -0.0017937758837541379 -0.001797691494051496 -0.0011930882598096748 -0.0012028110189762965 -0.0012125337781429182
          -0.0007827698451128302 -0.0007912483521350759 -0.0007997268591573216 -0.0005192263352572562 -0.0005248942166580117 -0.0005305620980587671
          -0.00036317873152202034 -0.00036688277123642923 -0.00037058681095083817 -0.0002880317359589932 -0.00029055551724622443 -0.0002930792985334558
          -0.0002765780640702723 -0.0002782155980780353 -0.00027985313208579835 -0.0017765859025286853 -0.001785847437019462 -0.0017951089715102385
          -0.0011494547314818003 -0.0011583116711464544 -0.0011671686108111084 -0.0007349422318561696 -0.0007447891199081121 -0.0007546360079600546
          -0.0004978612579216305 -0.0005036454667606289 -0.0005094296755996273 -0.0003617898820214531 -0.0003648577398216981 -0.0003679255976219431
          -0.0002880339875089956 -0.00029015803496523237 -0.0002922820824214691 -0.00026477047383124854 -0.0002663336902818114 -0.00026789690673237424
          -0.0002834765638864333 -0.00028449041398089767 -0.00028550426407536185 -0.0009795607905429755 -0.0009936176872171682 -0.0010076745838913611
          -0.0006154436394873107 -0.000623288355307227 -0.0006311330711271435 -0.0003651735269526057 -0.00037055446104881 -0.00037593539514501446
          -0.0003201005306411925 -0.0003227404740127801 -0.00032538041738436785 -0.00027871562600974867 -0.0002799476922987061 -0.00028117975858766355
          -0.00026019803389084326 -0.00026123454546084533 -0.0002622710570308474 -0.00027182031541192985 -0.0002725803927689616 -0.0002733404701259933
          -0.00030652308122168466 -0.00030709178423860147 -0.0003076604872555183 -0.00023685507685549637 -0.00025777038213975283 -0.0002674523744526212
          -0.00022002735766477375 -0.00023718580039574353 -0.0002579852830722939 -0.000267025095241101 -0.00021983657825783897 -0.00023751652393599063
          -0.00025820018400483507 -0.00026659781602958075 -0.00021964579885090413 -0.0001780587668320799 -0.00004349013793228798 -0.0000749547200243385
          -0.00027522580368828187 -0.00018081719096346761 -0.00004410329301923959 -0.00007586713819179012 -0.0002790621080967893 -0.0001835756150948553
          -0.00004471644810619121 -0.00007677955635924175 -0.0002828984125052968 -0.00017357156469164243 -0.0000884306520212062 -0.00017560858710758645
          -0.0000893831218086985 -0.00017764560952353037 -0.00009033559159619081 -0.0001585352239308707 -0.00021606109784503094 -0.00015899279082941858
          -0.0002170232432503702 -0.0001594503577279664 -0.00021798538865570947 -0.0002946039483521026 -0.00031677502004280914 -0.0002946634721671237
          -0.0003163053553318631 -0.0002947229959821449 -0.0003158356906209172 -0.0004115803215860614 -0.00008911428749993446 -0.0004204852405675524
          -0.0000905764737990941 -0.00042939015954904334 -0.00009203866009825373 -0.0003254229292456342 -0.00024538150391683694 -0.0003247346323268827
          -0.0002448538966508145 -0.00032404633540813126 -0.000244326289384792 -0.0003417414457629361 -0.00034199272866162036 -0.0003422440115603046
          0 0 0 0 0 0
          -0.000005220781502929437 -0.00005137186578554746 -0.000005354570276087822 -0.00005196865614371329 -0.000005488359049246207 -0.00005256544650187911
          -0.000140419037399235 -0.00014078453228900467 -0.00014115002717877433 -0.00035783537861435144 -0.00035770808855281963 -0.0003575807984912878
          -0.0009959262818583325 -0.0010027682500688233 -0.001009610218279314 -0.00032665620090991233 -0.00030495404202951845 -0.0003461608194314075
          -0.00037561278525601895 -0.00032737754013505854 -0.00030587072480327005 -0.0003465689875803812 -0.0003761569016156181 -0.00032809887936020485
          -0.0003067874075770217 -0.00034697715572935497 -0.00037670101797521725 -0.0010185401814978854 -0.001024239524883932 -0.0010299388682699783
          -0.0004269734927843598 -0.00035262316692069194 -0.0004275567392658818 -0.00035343314532615264 -0.00042813998574740397 -0.00035424312373161335
          -0.00040800324419592107 -0.0004336735527087795 -0.0005565340018813486 -0.0006324938848532272 -0.0004107441678332679 -0.00043629020955741784
          -0.0005609820666079784 -0.0006366236524011878 -0.00041348509147061467 -0.0004389068664060562 -0.0005654301313346081 -0.0006407534199491484
          -0.00031979647769681116 -0.0002935918293362999 -0.0003206430826970472 -0.0002952604924427407 -0.00032148968769728323 -0.0002969291555491815
          -0.0006802417118360064 -0.00041512067560221523 -0.0006837366944269432 -0.00041846630926278296 -0.0006872316770178803 -0.00042181194292335064
          -0.0005160168302624118 -0.0005265455118238764 -0.00046013434691137355 -0.0005155808388132933 -0.0005263917546945618 -0.00046006062040628216
          -0.0005151448473641749 -0.0005262379975652472 -0.0004599868939011908 -0.0005531043095442338 -0.0005915542535293076 -0.0006462935317246251
          -0.0006155312666648415 -0.0005532008357789043 -0.0005920799891114291 -0.0006466195458058824 -0.0006153635827147019 -0.0005532973620135748
          -0.0005926057246935508 -0.0006469455598871398 -0.0006151958987645621 -0.00032759096338257006 -0.0003228976790553788 -0.0003341889303109535
          -0.00033030291357026375 -0.0003247285544691986 -0.00033627652655169704 -0.00033301486375795754 -0.0003265594298830183 -0.00033836412279244056
          -0.00038828393880373783 -0.0004471310963080303 -0.0004767220845767378 -0.0003874384336781451 -0.00039011309806969514 -0.0004489899934098473
          -0.00047864343423424454 -0.00038858104349730345 -0.0003919422573356526 -0.00045084889051166425 -0.00048056478389175115 -0.00038972365331646177
          -0.00029232739219575715 -0.000300745125035179 -0.0002948790830968325 -0.0003028340434543986 -0.00029743077399790776 -0.0003049229618736182
          -0.000687101733667157 -0.0006372590313997413 -0.0006701565401352244 -0.0007140432966997318 -0.0006864612929864908 -0.0006367170146534504
          -0.0006697752973246222 -0.0007135035576755842 -0.0006858208523058246 -0.0006361749979071598 -0.0006693940545140201 -0.0007129638186514366
          -0.00031757421974553063 -0.0003157237210957737 -0.0003027913206769804 -0.0003188154072214463 -0.00031971478788972153 -0.00030625413047215684
          -0.0003200565946973619 -0.00032370585468366936 -0.00030971694026733326 -0.0006483558606972657 -0.0005946448713825881 -0.0006478888947906547
          -0.0005943221328238645 -0.0006474219288840435 -0.000593999394265141 -0.000772184879165246 -0.0007470237026629126 -0.000757458115887016
          -0.0007786619765680807 -0.0007717131440382282 -0.0007464577161080451 -0.0007572605351235911 -0.0007784409802131249 -0.0007712414089112102
          -0.0007458917295531772 -0.0007570629543601663 -0.0007782199838581691 -0.0007660724546146739 -0.0007735435471184322 -0.0007661763600963736
          -0.0007738672111787046 -0.0007662802655780736 -0.0007741908752389773 -0.0004743543986733773 -0.00040840602072670084 -0.00047573720179022586
          -0.0004093434215085654 -0.00047712000490707446 -0.00041028082229042993 -0.00032376774147778204 -0.0003227041478206649 -0.00032670389793962594
          -0.0003244121582280854 -0.00032964005440146984 -0.00032612016863550606 -0.00042866365601553944 -0.00038707448510027473 -0.00035070427695185237
          -0.00038421896806570055 -0.0004292097025882265 -0.0003874083115892678 -0.0003511652868429854 -0.00038487283966823135 -0.00042975574916091346
          -0.0003877421380782608 -0.0003516262967341185 -0.00038552671127076215 -0.0005791351710880796 -0.0005787771379046172 -0.000578419104721155
          -0.0007485800273158704 -0.0007565480311729968 -0.0007645160350301234 -0.0011009233225498715 -0.0011186728275435623 -0.0011038829404783229
          -0.0011211446298439384 -0.001106842558406774 -0.0011236164321443145 -0.0003898434095087492 -0.00042776231628335377 -0.00038998161782714043
          -0.0004278406127341546 -0.0003901198261455318 -0.0004279189091849555 -0.0004990767729166455 -0.0004360232602265938 -0.0004995838468892726
          -0.00043701437148914424 -0.0005000909208618997 -0.0004380054827516947 -0.00035264846840423353 -0.0003529046267192297 -0.00035316078503422587
          -0.0003517050782142407 -0.00039006761006267043 -0.0003519834346367801 -0.0003902971636057746 -0.0003522617910593196 -0.00039052671714887884
          -0.000690043273109977 -0.0007203564149415938 -0.0006728252295715184 -0.0006416683876668734 -0.0006895595502637713 -0.0007198920322850775
          -0.0006722990064515897 -0.0006413001337922164 -0.0006890758274175656 -0.0007194276496285613 -0.0006717727833316609 -0.0006409318799175591
          -0.0003374630483676239 -0.0003471103558405026 -0.0003384128971287434 -0.00034812361850746366 -0.00033936274588986285 -0.0003491368811744248
          -0.0006186414625059007 -0.0006085715736812832 -0.0006857169501007523 -0.0006181279698133882 -0.0006080324317814812 -0.0006851006137231305
          -0.0006176144771208756 -0.0006074932898816792 -0.0006844842773455085 -0.000329100428319934 -0.0003289332174982394 -0.00033046373636094853
          -0.00033020307520721605 -0.0003296231793183417 -0.0003320093592045879 -0.0003313057220944982 -0.0003303131411384441 -0.0003335549820482273
          -0.00039328052049633064 -0.00039402754858619993 -0.0003947745766760692 -0.0003700181861414565 -0.0003723434467693569 -0.00037466870739725724
          -0.00044636627626480456 -0.0003555979878402319 -0.00045050252945853705 -0.00035895455140223624 -0.00045463878265226954 -0.00036231111496424064
          -0.0004844301305316093 -0.00043764151636736565 -0.00048423143703160373 -0.000437773542315948 -0.0004840327435315982 -0.0004379055682645303
          -0.0007034376099365738 -0.00070358274518629 -0.0007037278804360062 -0.0010963720538666574 -0.0008546096438179569 -0.001099928188252482
          -0.0008576845638685789 -0.0011034843226383068 -0.0008607594839192006 -0.0011455388714019241 -0.0011491951105692545 -0.001152851349736585
          -0.0008271830605395538 -0.0008230522224665529 -0.0007739999588930187 -0.0007449647359071116 -0.0008277171043702784 -0.0008234641376966908
          -0.0007746009770366844 -0.0007457767469644376 -0.0008282511482010027 -0.0008238760529268291 -0.0007752019951803499 -0.0007465887580217639
          -0.0007330534484067425 -0.0007325942074555894 -0.0007321349665044365 -0.00048377442595246353 -0.0004348852183107988 -0.00048410276699425525
          -0.0004352280537850759 -0.0004844311080360469 -0.00043557088925935314 -0.00031828061304811417 -0.00032039277832147814 -0.0003225049435948421
          -0.0008079138795498862 -0.0005585672981546034 -0.0008110194342042489 -0.0005626985859810817 -0.0008141249888586116 -0.00056682987380756
          -0.0006522914296828709 -0.0006533811226825205 -0.0006544708156821702 -0.0007889542109899272 -0.000774377829727129 -0.000784485627645959
          -0.0007887078996973105 -0.0007742792962345023 -0.0007842669883177624 -0.000788461588404694 -0.0007741807627418757 -0.0007840483489895658
          -0.000366641236842907 -0.00041186237999843716 -0.0003675824813211677 -0.00041257714335992605 -0.0003685237257994285 -0.00041329190672141506
          -0.0006855539890372989 -0.0007265452109829149 -0.0006861800305594074 -0.0007270943795272881 -0.0006868060720815161 -0.0007276435480716613
          -0.000488823399913191 -0.00045507399241429404 -0.0004892768158691461 -0.0004554520949178242 -0.000489730231825101 -0.00045583019742135444
          -0.00048375185272436815 -0.0004301566786710563 -0.00048459672492959726 -0.0004308917132589088 -0.0004854415971348264 -0.00043162674784676136
          -0.0007675610054485226 -0.0007680126411258357 -0.0007684642768031486 -0.0007330956705578552 -0.0007329699850059924 -0.0007328442994541298
          -0.0008023710751658141 -0.0008027350833175246 -0.0008030990914692353 -0.00043602266852250856 -0.00043661879846208004 -0.0004372149284016515
          -0.0007478876085725109 -0.0007481845544738631 -0.0007484815003752154 -0.0007622289029098864 -0.0007665345707375754 -0.0007708402385652643
          -0.000753180157976545 -0.0007250494931356214 -0.000752648293548094 -0.0007244083623513455 -0.0007521164291196431 -0.0007237672315670697
          -0.0005554684218892313 -0.0005655818510907553 -0.0005573557026562676 -0.0005670087569283286 -0.000559242983423304 -0.0005684356627659021
          -0.0005823495892653223 -0.00058322607279237 -0.0005841025563194175 -0.0007512633902273322 -0.000751366093246202 -0.0007514687962650718
          -0.00039298817343099356 -0.00040031894957209347 -0.0003334292710735203 -0.0003969798606418953 -0.00040427672168641805 -0.00033594645664376094
          -0.0004009715478527971 -0.00040823449380074275 -0.0003384636422140016 -0.0006908124488209995 -0.0007051175434250589 -0.0006915223266276845
          -0.0007059029006959538 -0.0006922322044343697 -0.0007066882579668486 -0.0005175015978677094 -0.0005228045275545436 -0.0005281074572413779
          -0.0007654218159341231 -0.0007649661068486182 -0.0007645103977631136 -0.0007232120971821726 -0.0007240756720073378 -0.0007249392468325029
          -0.00034171287019272613 -0.000343021455432818 -0.00034433004067291 -0.0007562922724332804 -0.000760318335512934 -0.0007643443985925877
          -0.00047530085995359526 -0.0004756811586075719 -0.0004760614572615484 -0.0005335388116590173 -0.0005335484707238483 -0.0005335581297886792
          -0.001016113568898833 -0.0010219838781840161 -0.001027854187469199 -0.0007563235460816145 -0.000763365701535095 -0.0007704078569885755
          -0.0005327210078438422 -0.0005374270828146892 -0.000542133157785536 -0.00054560926687631 -0.000552338537589622 -0.000559067808302934
          -0.0004748018973654583 -0.00047799872448996735 -0.0004811955516144763 -0.00039424390332235335 -0.000399965323296073 -0.0004056867432697925
          -0.0004900229826826465 -0.0004902124781253779 -0.0004904019735681093 -0.0005179974963444472 -0.0005179506923406654 -0.0005179038883368834
          -0.0005423637278563622 -0.000542263268089797 -0.0005421628083232318 -0.0005440590159936967 -0.0005440749013953768 -0.0005440907867970569
          -0.0005988584277629274 -0.0005986413708726039 -0.0005984243139822805 -0.0005488723460284653 -0.000549490661865101 -0.0005501089777017365
          -0.000644429441090625 -0.0006451115309710842 -0.0006457936208515433 -0.00041867475008706517 -0.0003330159133139048 -0.00042513398965234066
          -0.0003378323976005296 -0.0004315932292176161 -0.0003426488818871544 -0.0005640226281522098 -0.0005716257556284858 -0.0005792288831047618
          -0.00039076854358899055 -0.0004156562982630303 -0.00039164392721095857 -0.0004165538549065134 -0.0003925193108329266 -0.00041745141154999655
          -0.0007611867438709507 -0.000761195638828989 -0.0007612045337870274 -0.0007838194257217378 -0.0007834059752927351 -0.0007829925248637325
          -0.0005821828050381811 -0.0005817710080026613 -0.0005813592109671416 -0.000772752612718996 -0.0007884992318203431 -0.0007728509185363993
          -0.0007887278085308091 -0.0007729492243538026 -0.0007889563852412749 -0.000823555367829159 -0.0005862797873023439 -0.0006942391073506438
          -0.0008241745739306493 -0.0005882494915249167 -0.00069542827632186 -0.0008247937800321395 -0.0005902191957474895 -0.0006966174452930765
          -0.0008145789897826578 -0.0008149400846025915 -0.0008153011794225253 -0.0008573994958705742 -0.0008575871536972159 -0.0008577748115238578
          -0.0007701123950975988 -0.000771429176018495 -0.0007699861877083229 -0.0007711910787378167 -0.0007698599803190469 -0.0007709529814571383
          -0.0008914438087394892 -0.000825388282706653 -0.0008915735273688373 -0.0008255248248528358 -0.0008917032459981856 -0.0008256613669990185
          -0.000841048706461389 -0.0008332040941927962 -0.0008416907727071069 -0.0008338801093590616 -0.0008423328389528249 -0.0008345561245253271
          -0.0009618138944500734 -0.0009219236117103062 -0.0009618583592263686 -0.0009218790945417452 -0.0009619028240026639 -0.0009218345773731842
          -0.0008446236534233457 -0.0008451110481859963 -0.0008455984429486469 -0.00129199536401151 -0.0009726151997597651 -0.0012939669736668487
          -0.0009750892557639709 -0.001295938583322187 -0.0009775633117681767 -0.0005333826912010971 -0.0005358339001985321 -0.000538285109195967
          -0.0005873717101838608 -0.0006974615256157949 -0.0005904550591549988 -0.0007018583876151905 -0.0005935384081261367 -0.0007062552496145861
          -0.0004589617531138053 -0.00046123831892824004 -0.00046351488474267484 -0.0008724253593041028 -0.0008725237652308295 -0.0008726221711575562
          -0.000533919300764079 -0.000537368044466738 -0.0005408167881693969
        </DataArray>
        <DataArray type="Float64" Name="disp_x" format="ascii" RangeMin="0.000012665914907605449" RangeMax="0.0000436227882477785">
          0.00002546697641628337 0.000025455596619102307 0.00002541897000698176 0.00002467432641789205 0.0000246647941442699 0.00002463887437684435
          0.000026377744537048596 0.000026367716562267872 0.00002633608858297377 0.000012685928084810055 0.000012681274917531453 0.000012665914907605449
          0.000016021025712183516 0.000016012276755365355 0.00001598535953030289 0.000019084475656152658 0.00001907304208752061 0.000019038500669691313
          0.00002174133729416312 0.000021729304823093224 0.00002169293928808959 0.000023930805217260033 0.000023920962708653208 0.000023888713478853515
          0.000025673228151702178 0.000025664692294239794 0.000025641300559354474 0.00002706024655852779 0.000027052554040952132 0.00002702785577986838
          0.000014786081310192976 0.000014776281559665056 0.000014745928540763634 0.000018062900347791555 0.00001805059675163065 0.00001801273814398521
          0.000020895195515156198 0.000020881907060704066 0.000020841485703894624 0.00002320773207195942 0.00002319565889168838 0.000023158796345859438
          0.000025017144312564057 0.000025008226292761953 0.000024979543539570746 0.00002641587071196854 0.00002640945699961122 0.000026391139224909523
          0.000027535251746257355 0.00002753023907235022 0.000027513944256227268 0.000013448055357643378 0.000013431442707449068 0.000013388073353480878
          0.00001698848536338749 0.00001697409342250423 0.000016929850659437584 0.00002003511893520616 0.00002002033810154532 0.00001997474630919016
          0.000022493515944820277 0.00002248017156053671 0.00002243900556718844 0.00002438298482195456 0.000024372694051909572 0.00002434068057429674
          0.000025812869346956333 0.00002580600618320382 0.000025784549384364426 0.000026929790931015742 0.00002692564330131179 0.000026913208443328012
          0.00002786578445882869 0.000027863230021004015 0.00002785563331797323 0.000015877604147235075 0.000015858712837214227 0.00001580263504554913
          0.000019170992339676053 0.000019153540303576315 0.00001909966911455894 0.000021791446575724993 0.000021776482709224283 0.000021729841892636417
          0.00002376336252761005 0.0000237522656862384 0.00002371745806472099 0.00002522514223923632 0.000025217769681486747 0.000025194943528507016
          0.00002634927685855046 0.0000263448497549921 0.000026331327861544136 0.000027278511442767107 0.00002727634356396156 0.000027269824054094482
          0.00002811398710989271 0.000028113450967031527 0.0000281122218621209 0.000018393874136987463 0.00001837490370884765 0.000018312796757077585
          0.000021157642943835434 0.000021140271419270984 0.00002108573091131062 0.00002317490817364993 0.000023163017934662874 0.000023125464811862176
          0.000024644649643491305 0.000024637410436343866 0.00002461500891584107 0.000025772415507409485 0.000025768076166267176 0.000025754873895732777
          0.000026706116174772383 0.000026703735686477932 0.000026696727496929157 0.00002754122959489275 0.00002754046131477454 0.00002753825102670527
          0.000028345844806283465 0.000028346321678798896 0.000028347840242690883 0.000020765940943312197 0.000020753971415404736 0.000020699278431224914
          0.00002271526624231018 0.00002270230098465328 0.00002266190572578535 0.00002410538451633599 0.000024098582235981225 0.000024078460998161854
          0.00002519860698335678 0.000025195286259047115 0.00002518496112422899 0.000026126934164303594 0.000026124847576263246 0.000026118637426176268
          0.000026969666475226863 0.000026968695870658666 0.000026965908619911 0.000027771600315802015 0.00002777176850667572 0.000027772160090236594
          0.00002857538220260517 0.00002857627725566923 0.000028579245342951435 0.000022552963002989397 0.00002254750949663732 0.000022525092823983985
          0.000023744050026214218 0.000023737726604523175 0.000023720109610694117 0.000024700161230278708 0.000024697693353767525 0.000024691194901977568
          0.000025561030601841043 0.00002556031037793066 0.000025558853761419724 0.00002639174145857305 0.000026391392521527334 0.000026389765523098946
          0.000027194880835065535 0.000027194944579076443 0.0000271950541381339 0.000027993005914902263 0.000027993746086356373 0.000027995974858435234
          0.00002881557694109011 0.00002881651373423611 0.000028819462524730548 0.0000267865285937053 0.00002750556930697064 0.000027751901754016994
          0.000027092745665647173 0.000026787376087252852 0.000027506574221580042 0.000027753388565698867 0.000027094783718714127 0.000026789366465755088
          0.000027509672389302118 0.000027758224390679436 0.00002710100377337676 0.00002481435006000965 0.000025222632459538056 0.000024488063331210674
          0.00002408966467069093 0.00002481291081054117 0.000025223227107934908 0.00002448802069806519 0.000024087677490875336 0.000024808924039682424
          0.00002522465942172427 0.000024488286106667996 0.00002408029783122295 0.000025472793096238632 0.000025871834227147035 0.000025473467595346474
          0.000025873030895163504 0.000025475356917176945 0.000025877388144606364 0.000026512406291408082 0.000026068075160644376 0.000026514640785857878
          0.00002606890038481875 0.00002652075919924302 0.00002607137087096818 0.000028271098316950458 0.000028394581417163356 0.000028272189757582555
          0.000028396024090153944 0.000028275479947417742 0.000028399868156579707 0.000023216391436884543 0.00002395171070691505 0.000023212830496219542
          0.000023952029896143822 0.000023206227289394572 0.000023952879405389933 0.00002856165439211752 0.00002770795436230079 0.000028563152207427564
          0.000027710299362607986 0.000028567655330434882 0.00002771780082258413 0.000029124125519274575 0.000029125138724669433 0.000029127958600905252
          0.00002492515720395637 0.00002492631134980746 0.000024929975263256002 0.00002532035120594385 0.000025320529488216806 0.000025323707509337783
          0.00002579271383631207 0.000026331558655637473 0.000025793946988029865 0.00002633341439973421 0.000025797866668499496 0.000026339308045064093
          0.000026964948799787616 0.000026967543269771852 0.000026976889097954325 0.00002944394200933846 0.000029444929138963195 0.000029448355368744505
          0.000026981292019926545 0.000026972484709445695 0.000026947465567966345 0.000029384706981421006 0.000029084398670868282 0.00002983466250175168
          0.00003020004378963318 0.000029385975601319282 0.000029085563297067553 0.000029835986110713456 0.000030201654642722617 0.00002938965609179071
          0.000029089157387765173 0.000029840050011271192 0.0000302060730606837 0.000027073868826274424 0.00002706698103318118 0.000027047823813475435
          0.000030736179141820815 0.000029697584235767716 0.00003073820884798386 0.000029698891332317507 0.000030744926181921056 0.000029702481844401985
          0.000029782959645434285 0.000029320287894062933 0.000028652647227204695 0.000028630551538959274 0.000029779969238037114 0.00002931741982304536
          0.000028648957748714366 0.000028626282569165573 0.00002977099689109406 0.000029306404141855652 0.000028637367647043072 0.00002861255375863378
          0.000029482227280418366 0.000028807367073869436 0.00002948345231822418 0.00002880792672176606 0.000029487155689427883 0.000028809880905932863
          0.000028844787049849386 0.000030164184604376668 0.000028839548384441053 0.000030160995566436896 0.000028822948571391678 0.000030151427379462786
          0.00003195281541757942 0.00003188312534141959 0.000031255953574374395 0.000031954599244144966 0.00003188531218636875 0.00003125807044283551
          0.00003195937086145017 0.000031892132651450756 0.000031264703794594066 0.00003496852114924508 0.000035845208802090764 0.000036751059983643596
          0.00003574914566385687 0.00003496976495794085 0.00003584652029970791 0.00003675217600772979 0.00003575006827646546 0.00003497309297725623
          0.000035851357903132694 0.000036755458054551364 0.00003575292422438854 0.000030599655074328376 0.00003093452271150877 0.00003027895721303609
          0.00003059846492155167 0.00003093440037628422 0.00003027794494320387 0.000030594883081724965 0.00003093447830522548 0.000030275968128902567
          0.000032257169276559634 0.00003326827019906703 0.00003390834283866518 0.00003288752500605168 0.000032258659968269814 0.00003327024604082943
          0.00003391064510770507 0.0000328889815856227 0.00003226309202311131 0.000033275831505972904 0.000033918048373659526 0.000032893135414693346
          0.000028628327291109736 0.000029046253631153656 0.000028628108385726332 0.00002904673625939044 0.00002862704380256297 0.000029048970448268105
          0.00003606603443784249 0.000035404925736347004 0.000036548307151676946 0.00003726452295265017 0.000036066834556132815 0.00003540596534729213
          0.000036548991218974585 0.000037264935028431215 0.00003606944539655722 0.000035409171694694363 0.00003655101978110508 0.000037266423973956656
          0.000029652347542006164 0.00002858029094771037 0.000028974361212170984 0.00002965328255741971 0.000028578923928055994 0.000028973917700762934
          0.000029656037566041798 0.000028574767927073183 0.00002897446021520656 0.000034909512218576115 0.00003434592690773466 0.00003491075963348374
          0.00003434729313115997 0.000034914253352529255 0.00003435130682106386 0.00003825002302703291 0.0000378280844086238 0.000039081327292600425
          0.00003965656717813268 0.00003825016613125321 0.0000378284174741334 0.00003908135831663315 0.00003965650537994024 0.000038250833827501973
          0.00003782935399783808 0.000039081643333649144 0.00003965639589693539 0.00004136197107967431 0.00004143233180600054 0.00004136208992028203
          0.00004143287254791195 0.000041362658430929646 0.000041434575433105845 0.00003417271744366023 0.00003334213276551201 0.00003417485787819138
          0.00003334371829266821 0.00003418065691611363 0.00003334910908190358 0.000030939009529649174 0.00003153480271045116 0.00003093847324690769
          0.000031535429792274675 0.00003093699665547425 0.000031537082276876555 0.00003240839008177971 0.00003151599553315192 0.000031105272108899243
          0.00003211249644935047 0.000032409563722232855 0.000031516809337092226 0.00003110589064575813 0.000032113275005326734 0.00003241273574679141
          0.00003151970695417821 0.00003110786823177802 0.000032115819483599936 0.00003472989886683623 0.000034731215551681 0.000034735080219961227
          0.000027639656558986453 0.000027632346405571165 0.000027614574648874858 0.00002731097908813443 0.000027059716647358206 0.000027303643614849756
          0.000027052128898262524 0.000027282162797821997 0.000027031194097282815 0.00003062204405570131 0.00003098068538984981 0.00003062346292943125
          0.000030982510119840835 0.0000306275046559517 0.00003098820611284937 0.000031661065698417966 0.00003076510282253885 0.00003166336343831352
          0.000030766911038726606 0.000031670571560095626 0.000030772197243920764 0.000030216402872132532 0.000030217598867848407 0.000030220789822944147
          0.00003062980366092086 0.000031054840678608336 0.00003063083040445725 0.000031055954713208866 0.00003063344176078832 0.00003105917140725236
          0.00003530570127384849 0.00003560187013802662 0.000034273551184980235 0.00003412138065686647 0.00003530673778870174 0.000035602735705534616
          0.000034274593017412246 0.00003412258111086842 0.00003530979431107841 0.00003560535070894676 0.00003427821473241291 0.00003412645156949117
          0.000031425558829127326 0.000032089982187938746 0.00003142607349095945 0.000032090766939320787 0.00003142746698585563 0.00003209308118157698
          0.00003292627559481778 0.000033035955106275994 0.00003427201599529803 0.000032928301514602714 0.00003303768408056832 0.00003427340052731483
          0.00003293429817211043 0.000033042204250209194 0.00003427693421802724 0.000030683983350387443 0.000030270510295527466 0.000029920093387840787
          0.00003068428911637373 0.00003027119402599439 0.000029919831421367516 0.00003068518889482069 0.00003027300256731042 0.000029919609712864326
          0.000032730148760796724 0.00003273145662027166 0.00003273497207035822 0.000029586079732642137 0.000029584271231257374 0.00002957848702190444
          0.000028876543816393195 0.0000291916884271176 0.000028874164261125008 0.00002919086568646613 0.00002886577270322353 0.000029187974565654407
          0.000031817392951914155 0.00003147894298754729 0.00003181904587469713 0.00003148038932481028 0.0000318239269160102 0.00003148448582428429
          0.0000380469213911916 0.00003804758732309207 0.00003804955660347766 0.000026992060395680683 0.000028125564439810083 0.000026984111600951334
          0.000028119407509821856 0.000026962392703973493 0.000028100785746766665 0.00002734632887478145 0.000027340093728828548 0.00002732064391884824
          0.00003938952132296143 0.00003982647587684487 0.00003935849229952589 0.00003845733248672369 0.000039392131936212144 0.000039828729725320865
          0.00003936044083067774 0.0000384594633366281 0.000039400451837566076 0.000039836011365823074 0.00003936633830214884 0.00003846581457658928
          0.00003567321311800581 0.000035674181700151464 0.00003567685643859116 0.0000328532047781525 0.000031944740625256434 0.00003285458030198553
          0.00003194601119424216 0.00003285881133643327 0.00003194973335884271 0.000029485147924589966 0.000029485615501995332 0.000029486846119743584
          0.00002858295550730873 0.00002971530841939077 0.000028576759669621685 0.000029710216041158065 0.00002855597056644076 0.00002969447454155434
          0.00003541027566530694 0.00003541438015317035 0.00003542714807610913 0.00004006398359318117 0.0000411174649746566 0.000041542887775310774
          0.00004006404565820617 0.00004111745017751187 0.00004154265230975524 0.000040064001989534623 0.00004111726531550231 0.000041541887921683994
          0.00003268109352449055 0.000033277147676765016 0.000032682559441081544 0.00003327871082728703 0.000032686439816838384 0.000033283436026793725
          0.00003762730312863347 0.000038751496253451854 0.0000376289439756564 0.000038752919460679785 0.0000376333272434962 0.00003875679129186564
          0.0000342544640843387 0.000033438681777792514 0.00003425598171068407 0.00003344005115550849 0.0000342601252176094 0.00003344460969162842
          0.00003432759556873883 0.00003363680703712881 0.00003432951696583327 0.00003363851382410017 0.00003433511830077587 0.000033643901198095535
          0.000040117525771243284 0.00004011878070975754 0.000040122320374394046 0.00003857061016537035 0.000038571016230169 0.00003857156855625429
          0.00004162158129675951 0.00004162277591920279 0.000041626191754781735 0.00003295923194287103 0.00003296074526894552 0.000032964752543957886
          0.00003989544416238172 0.0000398962570082129 0.00003989830935590877 0.00002905194529754372 0.000029046278789396272 0.000029027370323210633
          0.000036908738173186123 0.00003658598250275027 0.00003690947123159319 0.000036586841060532876 0.000036911244305654265 0.000036588911637592546
          0.000034855529873993015 0.0000351356577089313 0.000034859204185019024 0.000035138720888112206 0.000034869667404117616 0.00003514766833474941
          0.00003557402818485482 0.000035576287927329764 0.000035583273904720216 0.00003996480682264772 0.000039965175249810684 0.0000399659613139213
          0.000030671132928018 0.00003114322670665287 0.000031486648585795215 0.000030669530413054746 0.000031143345818507744 0.000031487459462039635
          0.00003066455641235408 0.000031144751622173116 0.00003148997505015165 0.000036127035580927766 0.000036815606679997505 0.00003613079867044711
          0.000036818673460739363 0.000036142517267485695 0.00003682743064257078 0.00003021094981159439 0.000030208195564325384 0.000030197919930947505
          0.0000371160635377361 0.00003711679145594536 0.00003711850461486893 0.000037613141644600326 0.000037615608205540495 0.00003762258892837843
          0.00003213944069649874 0.00003214069789441303 0.00003214423344189424 0.000029661381405378417 0.00002965831036035712 0.000029649570251199878
          0.000033272144881986876 0.000033273628122359746 0.00003327817437719199 0.00003378177357945245 0.00003378343697682138 0.000033787955643570815
          0.000026539227517770053 0.00002652836235968807 0.000026491431633813934 0.00002725753814134817 0.000027248444166368132 0.000027218753604703176
          0.000030510516864081175 0.000030509056429745403 0.000030504967117464455 0.000027784056766133268 0.000027777477400807974 0.000027755407039646994
          0.00003131861970158019 0.00003131892444160224 0.000031321656946775713 0.000028186095444796036 0.000028182290496105878 0.000028169442703676355
          0.00003239070174902809 0.000032392207641533895 0.00003239659800943438 0.00003410113554981953 0.000034102740418736576 0.0000341073097857237
          0.00003277062447685844 0.00003277214512052111 0.00003277641692549508 0.000033339390231540977 0.00003334100430059829 0.00003334547604986968
          0.00003382040680492626 0.0000338219675563973 0.00003382618422134591 0.00003524230715072637 0.00003524421554466702 0.00003524926431491975
          0.000036673557849243666 0.00003667574538778392 0.00003668180671568889 0.000028499905477243945 0.000028803703336945754 0.00002849651358353849
          0.000028802458984164067 0.000028487696965566332 0.000028799937206322087 0.000028112485619817743 0.000028107244255369647 0.000028092827388485726
          0.00003004767913655959 0.0000305296449667064 0.000030049008923373765 0.0000305311335366005 0.000030052235360256478 0.000030535051548919625
          0.00004000633089712315 0.00004000667851389744 0.00004000688035545632 0.000038584261836923266 0.000038584732738108336 0.00003858556292568782
          0.00003296238615839547 0.00003296396146185444 0.00003296830333195747 0.000042755449117876996 0.00004281807703424111 0.00004275577189584125
          0.00004281879128944205 0.00004275627824134118 0.000042820703551944195 0.000036367205649556973 0.0000346047856553752 0.000035199848799383806
          0.00003637138502264582 0.00003460887014552993 0.00003520430638081084 0.00003638417526123727 0.00003462078915346982 0.00003521793168389045
          0.00004050930523130769 0.00004051109631176299 0.000040516675878640174 0.000041968198471702305 0.00004196998683079746 0.000041974775115662486
          0.000042892727389106835 0.000043012386603396175 0.00004289239177078763 0.00004301183349408723 0.00004289153109281055 0.0000430100230926384
          0.00004361739093425062 0.00004314447252707055 0.000043618651470002904 0.00004314565318722175 0.0000436227882477785 0.00004314901497839066
          0.000038035969612517254 0.000038742989381360004 0.00003803940130821078 0.0000387462081903332 0.0000380498639055188 0.000038755616004433895
          0.000040127011652523466 0.00004060564901621206 0.00004013011396641398 0.000040608442939101496 0.00004013974576079644 0.000040616680366360166
          0.00003731372477449121 0.00003731755090159629 0.0000373282136812816 0.000026884831991427625 0.000029337432578802027 0.00002687982488579686
          0.000029333559138432852 0.000026866170759849098 0.000029321427882554098 0.000033652339926398196 0.00003365519564821871 0.00003366404429603669
          0.00003125685405871266 0.000031157153680681746 0.000031256212426310266 0.00003115530014080186 0.000031254156088791593 0.00003114866608331775
          0.0000323528081134851 0.00003235430894769687 0.000032357708663366164 0.00004075937566011098 0.00004076174616359908 0.00004076839775393431
          0.00003238927443105247 0.00003239028307446025 0.00003239350723475557
        </DataArray>
        <DataArray type="Float64" Name="disp_y" format="ascii" RangeMin="-0.000026150063277882936" RangeMax="-0.000010223040743209068">
          -0.000016456478665230214 -0.000016465043975745055 -0.000016491924285296898 -0.00001642823028464211 -0.000016436990250624724 -0.000016464183193623828
          -0.00001718444455332897 -0.000017192210980044864 -0.00001721722534858058 -0.00001022542836879494 -0.00001022480042569654 -0.000010223040743209068
          -0.000012162828135655802 -0.000012166875000620493 -0.00001217931453880332 -0.000013869785909966609 -0.000013877216924304436 -0.000013900017271929484
          -0.000015283053790794114 -0.00001529225711088019 -0.000015320744548214778 -0.00001638680744235419 -0.000016396162316917963 -0.000016425363136074487
          -0.000017200440700053522 -0.000017208752541566455 -0.000017234679516213065 -0.000017764288086280784 -0.000017770756204473187 -0.000017791456607552098
          -0.00001180100144643622 -0.000011804598169961708 -0.00001181513732010253 -0.000013647225650551562 -0.000013654923956650649 -0.00001367858224572921
          -0.000015167521118916625 -0.000015177529043127278 -0.000015208522495162536 -0.000016342941557414203 -0.000016353171335074418 -0.000016385169349875238
          -0.000017202290481322087 -0.000017211148967160352 -0.000017239014969883283 -0.00001780378462712518 -0.000017810773464060697 -0.000017831987619764676
          -0.000018212388338001714 -0.000018216871941832884 -0.000018231790547816993 -0.000011387454393243324 -0.000011390620475313589 -0.000011400400414802472
          -0.00001340399525864331 -0.000013412547473529152 -0.000013437809877574189 -0.000015051156159532632 -0.000015062273125989818 -0.000015096734920870954
          -0.000016305388755739118 -0.000016316788651637445 -0.000016352659216146906 -0.00001720671236849121 -0.000017216442044684025 -0.000017247073540191815
          -0.00001783108000445989 -0.000017838331420293665 -0.000017860698151443966 -0.00001826115242660872 -0.000018265998415832003 -0.000018280632748394527
          -0.00001856524225186784 -0.000018567816235622756 -0.00001857550915384064 -0.00001311432261729858 -0.000013124129806972974 -0.000013154711448281123
          -0.00001492921770731712 -0.000014942885324168694 -0.000014983697955749177 -0.000016281491220423637 -0.00001629453113513344 -0.00001633643211672793
          -0.000017224852085783862 -0.000017235706442617915 -0.000017270212110112964 -0.00001786253918671931 -0.00001787029793068077 -0.000017894216319420342
          -0.00001829918593925788 -0.000018304089481361614 -0.000018318679350859462 -0.000018615174150884564 -0.00001861788308260619 -0.00001862564007716759
          -0.000018861514293459705 -0.000018862567192399635 -0.00001886542105119257 -0.000014745597735738353 -0.000014763713278444203 -0.000014818107098448173
          -0.000016243461883272637 -0.000016260095507431072 -0.000016313116333118765 -0.000017252273274950175 -0.00001726499837661765 -0.00001730579908562465
          -0.000017906059892874166 -0.000017914616548989897 -0.00001794075633342278 -0.000018341732513536166 -0.000018346814524901022 -0.00001836164270475423
          -0.000018657493327446915 -0.000018660153887199815 -0.0000186675221594593 -0.000018911555780398407 -0.000018912652865583356 -0.0000189153831307384
          -0.00001914113667349759 -0.000019141241795282657 -0.000019141136859751842 -0.000016096007739343457 -0.00001611836536795628 -0.00001619330297963043
          -0.000017213700990881508 -0.000017229461954799226 -0.00001728000394524597 -0.000017934948780451517 -0.000017944915734521686 -0.000017976078073248833
          -0.00001838685068075079 -0.000018392579112195182 -0.000018408606239851685 -0.000018704675456030303 -0.000018707485281287782 -0.00001871508620153558
          -0.000018958275413401643 -0.000018959427103872783 -0.00001896231320783175 -0.000019186018849711518 -0.000019186105360912905 -0.00001918609408160421
          -0.000019418165742421387 -0.000019417749937393632 -0.00001941616115577901 -0.00001697961011500962 -0.000016998278153100588 -0.00001705776448139051
          -0.000017816736936787086 -0.000017827960898790364 -0.000017862093670166722 -0.000018387064138747958 -0.000018393740581427385 -0.000018412170524885576
          -0.000018735312846166147 -0.000018739034493948904 -0.000018749438722359168 -0.000019008781439551513 -0.00001901054899244116 -0.000019014891295516912
          -0.000019235546270494258 -0.00001923583602806138 -0.00001923661568618884 -0.00001945638541823007 -0.000019455948451556428 -0.000019454123396199404
          -0.000019700156600729655 -0.000019699432027049022 -0.00001969708619039534 -0.000019293291528082368 -0.00001949680644464652 -0.00001971849411523788
          -0.000019530170651132136 -0.00001929432503172969 -0.000019496707400117712 -0.000019718239770630217 -0.000019530952418644667 -0.00001929764462706113
          -0.00001949571441176167 -0.00001971708075571866 -0.000019532743277277243 -0.000018441675884715114 -0.000018599750337463372 -0.000017876776047525313
          -0.00001790574083524875 -0.0000184474003998592 -0.000018604283184529435 -0.000017884158899356597 -0.000017914449155187796 -0.000018463433514970808
          -0.00001861778242478197 -0.00001790656800818083 -0.000017938285626135475 -0.000018825220270907278 -0.00001906231670708902 -0.00001882888821322492
          -0.000019065544724372984 -0.00001883969303948109 -0.000019075208725036417 -0.000019350435555766617 -0.000019071307102388818 -0.000019352516481826424
          -0.000019073801474380903 -0.000019358563969654692 -0.00001908141758571104 -0.000019740930307003302 -0.000019947375055873823 -0.000019740198136162222
          -0.000019946547620584694 -0.00001973762589308256 -0.000019944177693447404 -0.000017083537029634662 -0.00001716269960048284 -0.000017097999581189338
          -0.000017172293819013496 -0.00001713754724267127 -0.00001720183759095848 -0.00002014656912824439 -0.00001987898613090285 -0.00002014570121900565
          -0.000019878869404957584 -0.000020142942374558296 -0.00001987851170080323 -0.000020055781744334068 -0.000020054788175935194 -0.000020051722299213755
          -0.000017667672876715354 -0.000017675221445713728 -0.000017698115388742475 -0.00001838223083743369 -0.000018387853942000992 -0.000018400813052593892
          -0.000018914675149896753 -0.000019313696936280808 -0.00001891857586926153 -0.00001931696789715782 -0.000018928092973560233 -0.000019326371870333166
          -0.000019624811893061913 -0.0000196263651376353 -0.00001963187820812438 -0.00002042668211806738 -0.00002042557200108928 -0.000020422082255036473
          -0.000016588578789891073 -0.000016595047714708896 -0.00001661398693174512 -0.00001969441297074386 -0.000019378987986636584 -0.000019603458286571458
          -0.000019962738130916225 -0.000019693816987180103 -0.000019378526957506432 -0.000019602766671121777 -0.00001996196384551914 -0.00001969195117086883
          -0.000019376891725010963 -0.000019600994679137245 -0.00001995978464366878 -0.000016377485747181884 -0.00001638397796853746 -0.00001640267014924633
          -0.00002041314002165095 -0.000020032346558801497 -0.000020412212009881937 -0.000020031624671429128 -0.000020409721788884626 -0.000020029696964574894
          -0.000017986572443628226 -0.0000179526573682008 -0.000017671992276762463 -0.000017430629830975793 -0.000017988740292661354 -0.00001795524712502068
          -0.000017676122823482065 -0.000017434975185284195 -0.0000179958751050393 -0.00001796442286789842 -0.000017688607875110244 -0.000017447407774488164
          -0.00001926408557116969 -0.000019082757496047263 -0.00001926352372486349 -0.00001908277081510755 -0.000019261614110475306 -0.000019082195255650713
          -0.000017242347719747166 -0.000017949328713402686 -0.000017246606263110326 -0.000017951635358301176 -0.000017260691736084758 -0.000017958751846840177
          -0.000020761880303058614 -0.000020973020939351748 -0.000020471667747672993 -0.00002076063803078796 -0.0000209718951716694 -0.00002047076601494935
          -0.000020756928310863278 -0.000020968846892433914 -0.00002046750774660227 -0.000020867680207971537 -0.000021202970215075653 -0.000021851296342400632
          -0.0000214538433374372 -0.00002086646826654142 -0.000021202049595081735 -0.000021850387118603028 -0.000021452598164048245 -0.00002086253840927637
          -0.000021198856043736977 -0.000021847752695327483 -0.000021449035123254624 -0.0000183373372258762 -0.00001860381150721314 -0.000018415293326379315
          -0.000018338233931997115 -0.000018603801528515703 -0.000018416086680605833 -0.00001833987280750578 -0.00001860342030140201 -0.00001841797365327441
          -0.000018634806533613182 -0.000018999175971517864 -0.000019463601585017634 -0.00001913407773057076 -0.000018635348544115357 -0.000018999624926734766
          -0.000019463551128931612 -0.000019133862027117424 -0.000018636997397186065 -0.00001900104332741472 -0.000019463134707908978 -0.000019133190386874853
          -0.000018878586026897014 -0.00001893258275759064 -0.000018879157397447584 -0.00001893250784767131 -0.0000188801143600292 -0.000018931636379748816
          -0.000022167737352852593 -0.000021604205024633398 -0.00002208147892876131 -0.000022683026708553273 -0.000022166707652360054 -0.000021603026621141895
          -0.000022080473529544794 -0.00002268216632115155 -0.00002216366032021896 -0.000021599470515746815 -0.000022077241939593372 -0.00002267964823447758
          -0.000018978288062997704 -0.000018620762108558256 -0.00001866088075235828 -0.000018977855948930083 -0.00001862208828732084 -0.000018661444087986145
          -0.000018976304246877975 -0.00001862449083490387 -0.00001866217261383409 -0.00002169277401431726 -0.000021181754015535033 -0.00002169160200734154
          -0.000021180410020022834 -0.00002168801885911726 -0.000021176381572761776 -0.000023672463440446287 -0.00002321583911898872 -0.000023794271790106608
          -0.000024310683137474556 -0.000023671741175226425 -0.000023215175727203805 -0.000023793615288784834 -0.000024310079271124078 -0.000023669759899417123
          -0.000023213165686709706 -0.000023791992486854067 -0.000024308244296431715 -0.00002483201120904873 -0.000024672879215526932 -0.00002483179490313339
          -0.000024672935933382228 -0.000024831299562173142 -0.000024673174496331866 -0.000019838722235335945 -0.00001951881767678718 -0.000019838155003632297
          -0.000019518301364438475 -0.000019835987088474637 -0.00001951652071643135 -0.000018375991826337558 -0.000018758600022778878 -0.000018376721315371593
          -0.00001875831173129308 -0.00001837830459466418 -0.000018756950720987953 -0.0000199104913250835 -0.00001958056654579692 -0.000019173712398031812
          -0.000019510020367485182 -0.000019909305596862708 -0.000019579601888665597 -0.000019172943136308325 -0.000019508968873911578 -0.00001990566129817087
          -0.00001957675647707675 -0.00001917074612171585 -0.000019506065783443748 -0.000021052687767334364 -0.00002105144656423799 -0.00002104763881575214
          -0.00001725525208650852 -0.000017260866732818055 -0.000017277539278843665 -0.000015868997108427842 -0.000015921391995271135 -0.000015874310024356485
          -0.000015927136271742732 -0.000015888412969531924 -0.000015943995904110826 -0.00001983593664069168 -0.00002020003894216835 -0.000019835023337174565
          -0.000020199046904193316 -0.000019832425422022604 -0.000020195671118526358 -0.00002122372514012687 -0.000020650401275040377 -0.00002122275110236072
          -0.000020649363007947122 -0.000021219311590687064 -0.000020646000821143136 -0.000019447811503722888 -0.000019447114162736985 -0.00001944485467579707
          -0.000019283691583241123 -0.000019697841537135422 -0.00001928300295734829 -0.000019696883416991638 -0.000019280802745621235 -0.000019693947687211674
          -0.000022129606582320052 -0.00002253196017546179 -0.000021981555154926165 -0.00002164667211229631 -0.000022128610469874422 -0.00002253099132205774
          -0.000021980426573946088 -0.000021645461234705906 -0.00002212553631077637 -0.000022528225064224515 -0.000021977093871713052 -0.000021641799123065675
          -0.00001899053156750996 -0.000019156224454650136 -0.000018989949522839357 -0.000019155445049825666 -0.000018987976173034417 -0.000019153019131748392
          -0.000021718103969681125 -0.00002147766613366305 -0.000022253491003604906 -0.00002171669372697515 -0.000021476508467098455 -0.000022252396405432588
          -0.000021712342538083555 -0.00002147287940018199 -0.000022249167980239873 -0.000018779353850217784 -0.000018906536369805157 -0.0000185471759428468
          -0.00001877914612917078 -0.00001890614807105342 -0.00001854769298468098 -0.000018777733481867044 -0.000018904883303334356 -0.000018548583157473925
          -0.00001959723277654686 -0.000019596264777227443 -0.000019593029751164487 -0.000018208479932387844 -0.000018210489650402222 -0.000018216188567140784
          -0.000017984287868729335 -0.000018320867424621885 -0.000017987437629429225 -0.000018322677014876945 -0.000017998153882560306 -0.00001832739580629257
          -0.000020486133046033243 -0.00002011435697115576 -0.000020484914475116677 -0.000020113229063512772 -0.000020480860635705 -0.00002010958171881069
          -0.000022749951480354895 -0.000022749275320799083 -0.000022747211930350518 -0.00001610008105013692 -0.00001668767636992325 -0.000016106942321929947
          -0.00001669292826391939 -0.000016126215793365217 -0.000016709423072664892 -0.00001565829098429452 -0.00001566413668211078 -0.000015679169212495426
          -0.00002276306410478043 -0.000023139764573726508 -0.000023048586821223718 -0.000022443189227232806 -0.000022763504460448185 -0.00002314026838564159
          -0.000023048789530886545 -0.00002244324840991768 -0.000022765068869622973 -0.00002314174325002655 -0.000023049221027749396 -0.000022443499435554716
          -0.000022831125675558544 -0.00002283028355088141 -0.000022827400038949456 -0.000020341270411659763 -0.000020006037883122066 -0.000020339932184117772
          -0.000020004931217702786 -0.000020335828370489114 -0.000020001476361775252 -0.000018651868656092205 -0.000018652292571854 -0.000018652606744204064
          -0.000016786892514175486 -0.00001744127367154794 -0.00001679190007466756 -0.00001744482086641863 -0.000016806993723308374 -0.00001745603086715417
          -0.00002000501276609419 -0.00002000527347400724 -0.000020006231694858616 -0.000024757137397005432 -0.000024942200162129695 -0.00002544580317303111
          -0.00002475651545227659 -0.000024941868763770705 -0.00002544526661266979 -0.000024754339166591734 -0.000024940781775312057 -0.000025443669811514867
          -0.00001930772874938229 -0.00001971415306213832 -0.000019307032885927203 -0.000019713290989285736 -0.000019305040734655204 -0.000019710273820642022
          -0.00002217084310316175 -0.000022904907051807138 -0.000022170516395024326 -0.00002290478393189296 -0.000022169470649198072 -0.000022903957197088675
          -0.000020301163911383192 -0.000020071511459253213 -0.00002030009114977309 -0.000020070232500699306 -0.000020296844119867646 -0.000020066305026574586
          -0.000020116413972549764 -0.000019780480708918706 -0.000020115668900777605 -0.000019779822188545086 -0.000020113406790461984 -0.00001977731512434159
          -0.000023722342075494484 -0.000023722498106278443 -0.00002372291535461073 -0.000023305363421436277 -0.000023304824344406242 -0.00002330281986066328
          -0.00002457011002272603 -0.000024570631809032738 -0.000024572267929295874 -0.000019954752497135674 -0.000019953669089387045 -0.000019950215916008638
          -0.00002380471577595041 -0.000023804598141990756 -0.00002380398830457929 -0.00001685618405632854 -0.000016861067524327536 -0.00001687678198532853
          -0.000023084774347426767 -0.000022671568465494556 -0.00002308403968018079 -0.000022670795056080272 -0.000023081717000763793 -0.000022668292363010114
          -0.000019922214170438332 -0.00002023740372557909 -0.000019922236574810313 -0.00002023726893447048 -0.000019922570670267836 -0.000020236135160278735
          -0.00002074288789695399 -0.000020742388128865255 -0.00002074075475840963 -0.000024051329481285846 -0.000024051056496272206 -0.000024049838387685545
          -0.000018003301045317154 -0.000018051451017458705 -0.000018478092646515176 -0.00001800521131177128 -0.000018053231601655254 -0.000018478522056190478
          -0.000018009733271858984 -0.000018057968406205104 -0.000018479482626094787 -0.00002056731610291064 -0.000021170060478290943 -0.00002056762206447168
          -0.000021170291150146356 -0.000020568735532725672 -0.000021171068772886435 -0.00001752918027069419 -0.000017532799987579955 -0.000017543227841988004
          -0.000023445849914590803 -0.000023445091238738322 -0.000023442579167609776 -0.000021813408447214933 -0.000021813603521364472 -0.00002181381769164347
          -0.000018913866606826864 -0.000018913624129513896 -0.000018912616732104308 -0.00001697324760037761 -0.000016977959262111957 -0.00001699425899253652
          -0.000020246168347953967 -0.00002024491820552007 -0.000020240798989070102 -0.000020690126214078146 -0.000020688850378536406 -0.000020684547933339242
          -0.00001682242447700033 -0.000016829887681849983 -0.000016852924098575907 -0.000017438979537250213 -0.000017445116329434953 -0.000017463264548476538
          -0.00001754360616609181 -0.000017547380827167866 -0.000017559696118438313 -0.00001791878637987294 -0.00001792349707790288 -0.000017937951260903084
          -0.00001793688959036843 -0.000017939776183229244 -0.000017947426706286654 -0.000018304030698578038 -0.00001830706615662594 -0.00001831532407891419
          -0.00002044103209338609 -0.00002043975687349693 -0.000020435633092720633 -0.000020550012713956476 -0.000020548784842237675 -0.000020544758109106858
          -0.000020847644371351604 -0.000020846365071371052 -0.000020842307447717524 -0.000020794174956251416 -0.00002079288865263197 -0.000020788705853579435
          -0.000021259953590460482 -0.00002125879312095981 -0.000021254983824364163 -0.000020766277360026474 -0.000020765572546186248 -0.000020763400542245267
          -0.00002150237144573975 -0.000021502075769261333 -0.000021500890607613086 -0.000018118083344760958 -0.00001844623123214732 -0.000018121185765250796
          -0.000018447749353143527 -0.000018130670921926408 -0.0000184520224627677 -0.00001772465846784304 -0.00001772937044033365 -0.000017743391922760267
          -0.00002038423503438176 -0.00002080262610220608 -0.00002038325024221373 -0.000020801379240532193 -0.000020379841899549345 -0.000020796723144024956
          -0.00002423046298400105 -0.00002423018842741587 -0.000024228851684102843 -0.000024090009850588378 -0.000024089384883251832 -0.00002408719184169292
          -0.000021173179021855203 -0.00002117209969597025 -0.000021168561158655403 -0.00002559217466508845 -0.00002544244969124212 -0.000025592505606858906
          -0.000025442962665843844 -0.000025593105788568667 -0.000025444350561724193 -0.000020003787989349245 -0.000019486795438889553 -0.00001948952244005564
          -0.000020004589660184524 -0.00001948728108770262 -0.000019490307151725052 -0.00002000707121612461 -0.000019488401079177025 -0.000019492036456225675
          -0.00002372256847250161 -0.00002372307664374435 -0.00002372473657794878 -0.00002450984078033291 -0.000024510832637697916 -0.00002451370667900658
          -0.000025868989429456735 -0.000026150063277882936 -0.000025869000195289872 -0.00002614980509322038 -0.000025868943454475345 -0.00002614909845685713
          -0.00002538854880205195 -0.000025417039343004895 -0.000025389724106055946 -0.00002541791750713265 -0.000025393399455411547 -0.000025420032966034644
          -0.000021529812977628993 -0.000022186947522750765 -0.000021530618414727327 -0.00002218767480657231 -0.00002153334863946331 -0.000022189674986164466
          -0.000022649231348113328 -0.00002323744122046078 -0.000022650289304197245 -0.00002323864937551772 -0.00002265353229906957 -0.00002324161627589999
          -0.000020844069323812525 -0.000020845022773704514 -0.000020847654722452518 -0.000015116467301242746 -0.000016365103822662293 -0.000015122837765767112
          -0.000016370954390903873 -0.000015144605268129126 -0.000016387263086630783 -0.000018887560548128308 -0.000018888433056476563 -0.000018891208738635547
          -0.00001761816537107755 -0.000017264928196058188 -0.000017621695312727424 -0.000017268535595347385 -0.000017633185975925014 -0.00001727878090851245
          -0.00001836583105755767 -0.000018367128075942103 -0.00001837105570918864 -0.000023605549658289687 -0.000023606441377918325 -0.000023609272487292753
          -0.00001806816159483878 -0.00001807018976141098 -0.000018075422183257635
        </DataArray>
        <DataArray type="Float64" Name="disp_z" format="ascii" RangeMin="-0.0000011152947394776866" RangeMax="0">
          0 -2.6266561443301455e-7 -5.256123765709762e-7 0 -2.5621215886439186e-7 -5.115814611934544e-7
          0 -2.1009828172461887e-7 -4.217051835264108e-7 0 -5.165210408747437e-7 -0.000001028649372724846
          0 -4.7256658188357494e-7 -9.405322021898618e-7 0 -4.082951262668698e-7 -8.138355290687955e-7
          0 -3.3455344538411e-7 -6.684402236107269e-7 0 -2.623350335285508e-7 -5.264726861303073e-7
          0 -2.040455176254495e-7 -4.086720960450009e-7 0 -1.6516959314170194e-7 -3.327420638035757e-7
          0 -5.081382458258623e-7 -0.0000010120716726041481 0 -4.372131454335939e-7 -8.708449837010026e-7
          0 -3.550443298462288e-7 -7.090275604984219e-7 0 -2.744340962012556e-7 -5.500623868041367e-7
          0 -2.0619646069583254e-7 -4.1525850908847235e-7 0 -1.5807985710602347e-7 -3.1763111414474584e-7
          0 -1.2959435604842618e-7 -2.616663091640363e-7 0 -5.590923082276086e-7 -0.0000011152947394776866
          0 -4.736475835842296e-7 -9.437805970096231e-7 0 -3.7927140553855747e-7 -7.569850411431663e-7
          0 -2.877886773986334e-7 -5.769568631532588e-7 0 -2.1172175931085209e-7 -4.2631236767798044e-7
          0 -1.575022608602882e-7 -3.179668945134419e-7 0 -1.246502289642239e-7 -2.51372614352169e-7
          0 -1.0668999973148604e-7 -2.1505983372871883e-7 0 -5.235439571895645e-7 -0.0000010428811058748448
          0 -4.0872343164121583e-7 -8.15500617764217e-7 0 -3.0162410408234773e-7 -6.050968872409672e-7
          0 -2.1626420065339666e-7 -4.3602346939035253e-7 0 -1.5830287603832074e-7 -3.1981113062494194e-7
          0 -1.2321315583959487e-7 -2.488919453401713e-7 0 -1.0418506907123783e-7 -2.101138529652586e-7
          0 -9.788420237714897e-8 -1.968919109179258e-7 0 -4.4432943075890246e-7 -8.83460787745738e-7
          0 -3.1393960436860694e-7 -6.303840637928083e-7 0 -2.156042489058459e-7 -4.355747974853063e-7
          0 -1.568052459921527e-7 -3.1727199443750407e-7 0 -1.230591814697028e-7 -2.485326823775563e-7
          0 -1.0429994196251508e-7 -2.1027066373394154e-7 0 -9.613668242731766e-8 -1.9353575472993342e-7
          0 -9.629922985028164e-8 -1.9337719112697855e-7 0 -3.169275019317084e-7 -6.344761244723147e-7
          0 -2.031359157002662e-7 -4.112593815978384e-7 0 -1.460999655716389e-7 -2.9708502739728183e-7
          0 -1.2016053949437275e-7 -2.425288201547751e-7 0 -1.0468553688347723e-7 -2.1057215849199237e-7
          0 -9.667540032500577e-8 -1.9440740769398378e-7 0 -9.453762075360714e-8 -1.8986315638530422e-7
          0 -9.868386946541107e-8 -1.9773112815450233e-7 0 -1.6413108883183448e-7 -3.292767095159444e-7
          0 -1.2444948673949584e-7 -2.5317793668776357e-7 0 -1.0122088028709413e-7 -2.0444467544961582e-7
          0 -9.94194678852899e-8 -2.000801485250919e-7 0 -9.619511674670982e-8 -1.9262410888011145e-7
          0 -9.403879646673216e-8 -1.8873491319432273e-7 0 -9.680349713237023e-8 -1.9394530219072682e-7
          0 -1.0277894657558656e-7 -2.0575558396821872e-7 0 0 0
          0 -9.09508715695004e-8 -9.496781969067974e-8 -9.941147848552814e-8 -8.847695785064526e-8 -1.8212361433471722e-7
          -1.897700588894612e-7 -1.9903564334078725e-7 -1.7628604608712523e-7 0 0 0
          0 -8.232127818666474e-8 -5.839607095409769e-8 -6.309358137861132e-8 -9.380057397280308e-8 -1.6727249535098013e-7
          -1.1622147351134572e-7 -1.2711633680851954e-7 -1.8863471153032776e-7 0 0 -7.987979843750559e-8
          -6.733907539690777e-8 -1.6085383997196752e-7 -1.3474766938654343e-7 0 0 -7.93471783109824e-8
          -8.681158433936952e-8 -1.5930867811079822e-7 -1.738224197604532e-7 0 0 -1.0235365464406712e-7
          -1.0536613560523314e-7 -2.048167364775163e-7 -2.1038136515733066e-7 0 0 -1.0780215176239169e-7
          -6.267159887315816e-8 -2.2387619757108434e-7 -1.246267877638695e-7 0 0 -1.0875958811840718e-7
          -9.662904003568069e-8 -2.171006965716525e-7 -1.930184251542915e-7 0 -1.0874159030001951e-7 -2.1743320784653497e-7
          0 -2.9666746677867116e-8 -5.8356991992593116e-8 0 -4.1010401988460755e-8 -8.378045763194988e-8
          0 0 -4.918094799777063e-8 -5.8041177822010195e-8 -1.003489768070336e-7 -1.1609518857703846e-7
          0 -7.68524610513331e-8 -1.5376626266566136e-7 0 -1.1631325953888442e-7 -2.3259188401469832e-7
          0 -1.9201426801535166e-7 -3.8781925840662997e-7 0 0 0
          0 -1.0633466241848445e-7 -1.0219592567399049e-7 -1.0923418883140411e-7 -1.1284922439214032e-7 -2.129727330014178e-7
          -2.047322716959332e-7 -2.1860420793476698e-7 -2.2575179434068016e-7 0 -2.0059777999244704e-7 -4.029972503028857e-7
          0 0 -1.2040995189954654e-7 -1.0953027706466829e-7 -2.4121392964161564e-7 -2.1962405251290173e-7
          0 0 0 0 -1.1438890468206447e-7 -1.2115798604403974e-7
          -1.3944895431880773e-7 -1.4617751265170377e-7 -2.2979130266762486e-7 -2.4335534469145473e-7 -2.8082621821513626e-7 -2.9365371226963113e-7
          0 0 -1.0477699765670331e-7 -9.906367483016202e-8 -2.096875561687236e-7 -1.9891842472901443e-7
          0 0 -1.52421453024239e-7 -1.1235292625669885e-7 -3.054587152244764e-7 -2.2637380053955297e-7
          0 0 0 -1.3696534835065192e-7 -1.389788387027041e-7 -1.2908646575229823e-7
          -2.734351974601651e-7 -2.7795903055202287e-7 -2.583494547938031e-7 0 0 0
          0 -1.407414616774092e-7 -1.4521217553029e-7 -1.5419512728355717e-7 -1.5045328428484323e-7 -2.8147865416028165e-7
          -2.9086094966831106e-7 -3.0837887303635153e-7 -3.008770620523047e-7 0 0 0
          -1.0305529836412725e-7 -1.0337424829451846e-7 -1.025412921150413e-7 -2.075068480051583e-7 -2.077131823237525e-7 -2.0608568643925383e-7
          0 0 0 0 -1.1326598746905729e-7 -1.2141517162660847e-7
          -1.2579206686181692e-7 -1.1442035286486811e-7 -2.2723379967177343e-7 -2.428971304652698e-7 -2.525810579155161e-7 -2.2929628575974384e-7
          0 0 -9.797845699027567e-8 -9.976683954899201e-8 -1.9729935993416077e-7 -2.0065169909927786e-7
          0 0 0 0 -1.618538372742261e-7 -1.5406867292145814e-7
          -1.5897028694857328e-7 -1.661985298354026e-7 -3.234141295441107e-7 -3.078922249503019e-7 -3.177407584877292e-7 -3.321490371594525e-7
          0 0 0 -1.0395434201841887e-7 -9.869875985105989e-8 -9.856964534136509e-8
          -2.083455267187568e-7 -1.9907082908799988e-7 -1.984235465653735e-7 0 0 -1.561629645364411e-7
          -1.4754040735883453e-7 -3.1213596315097585e-7 -2.9490590270225495e-7 0 0 0
          0 -1.7410854859312875e-7 -1.705477915923881e-7 -1.7158944624788892e-7 -1.7450631775426775e-7 -3.480199685062077e-7
          -3.408496031413523e-7 -3.431030935943093e-7 -3.489803212204239e-7 0 0 -1.7260561872247683e-7
          -1.7332741318432638e-7 -3.4522000954076716e-7 -3.4682947820400397e-7 0 0 -1.2831562415901435e-7
          -1.1840728889465577e-7 -2.5719660159001483e-7 -2.3713879534320138e-7 0 0 -1.0086022820923543e-7
          -1.0346831939233615e-7 -2.0339611020334212e-7 -2.0767257449041847e-7 0 0 0
          0 -1.2114246456265053e-7 -1.1534459286490317e-7 -1.0925185950833532e-7 -1.1386716873589261e-7 -2.4253537541901603e-7
          -2.3090743861808324e-7 -2.1857637251899737e-7 -2.2800640058956842e-7 0 -1.4508188611696642e-7 -2.899119287537101e-7
          0 -1.5742859371912674e-7 -3.1839487435514136e-7 0 0 -2.1777047414342038e-7
          -2.1767394077710608e-7 -4.366703272493082e-7 -4.354954077677943e-7 0 0 -1.1616878938387946e-7
          -1.221117603549544e-7 -2.3247109540010204e-7 -2.441784098602584e-7 0 0 -1.355364040328858e-7
          -1.2024306855908606e-7 -2.714436153557623e-7 -2.404259386726768e-7 0 -1.1045945313697575e-7 -2.2083115567806934e-7
          0 0 -1.0933751925589626e-7 -1.1575434236321219e-7 -2.185958992867168e-7 -2.3165457569585447e-7
          0 0 0 0 -1.6218006654193646e-7 -1.667291210980819e-7
          -1.598293522491078e-7 -1.5472418952723455e-7 -3.241847344086122e-7 -3.332689112084242e-7 -3.1959900525506017e-7 -3.092538827100716e-7
          0 0 -1.064661787594242e-7 -1.08123009784055e-7 -2.1314002995121314e-7 -2.1662475277670464e-7
          0 0 0 -1.5347332487321926e-7 -1.5008164842819183e-7 -1.6275719772642218e-7
          -3.067974921866372e-7 -2.99769533811768e-7 -3.250709374514126e-7 0 0 0
          -1.0504859556458072e-7 -1.0532182518254425e-7 -1.034758602249743e-7 -2.1068841339394007e-7 -2.107899120695671e-7 -2.0779241749418463e-7
          0 -1.1572950220652082e-7 -2.3196194393647592e-7 0 -1.082237699006074e-7 -2.1748424692467734e-7
          0 0 -1.1914862269706727e-7 -1.0491605603530575e-7 -2.394889334970269e-7 -2.1118700624783498e-7
          0 0 -1.3184887679658576e-7 -1.2342517129676008e-7 -2.6362658313247635e-7 -2.469033931035918e-7
          0 -1.627231042973961e-7 -3.254955522578716e-7 0 0 -2.1253900307340992e-7
          -1.8698562129530616e-7 -4.2642985426516217e-7 -3.7702833968843084e-7 0 -2.117167185779646e-7 -4.250353239754683e-7
          0 0 0 0 -1.8153407091707284e-7 -1.8145544759947212e-7
          -1.7304189243196523e-7 -1.6843362453576292e-7 -3.6331985503189175e-7 -3.631066825241254e-7 -3.46261517174211e-7 -3.3716200148352615e-7
          0 -1.6999365922108332e-7 -3.3988084289146896e-7 0 0 -1.300760554559462e-7
          -1.2255101881048285e-7 -2.6031610799938543e-7 -2.4529127408588036e-7 0 -1.0211051144758306e-7 -2.050598082467486e-7
          0 0 -1.746516159000449e-7 -1.3007284781512212e-7 -3.4985970284323397e-7 -2.612071444324687e-7
          0 -1.555469505803586e-7 -3.110867134468681e-7 0 0 0
          -1.787256565626054e-7 -1.7370035123372223e-7 -1.7758108702447947e-7 -3.5739353201928615e-7 -3.4734145695573975e-7 -3.5506117341253747e-7
          0 0 -1.1095212406156513e-7 -1.1846790857552922e-7 -2.2228096337217e-7 -2.3701487866738146e-7
          0 0 -1.5988063387479085e-7 -1.663023029269444e-7 -3.199682726131205e-7 -3.3297446824391553e-7
          0 0 -1.3044003414253086e-7 -1.2538246385332798e-7 -2.6118932725479955e-7 -2.508456662479875e-7
          0 0 -1.302593909619283e-7 -1.2234493344092167e-7 -2.6090897245745407e-7 -2.4510098002211513e-7
          0 -1.722055679634115e-7 -3.4452321777606666e-7 0 -1.6814569847234482e-7 -3.362175773592846e-7
          0 -1.7734711232945195e-7 -3.5493170784901655e-7 0 -1.2151743723250185e-7 -2.4317562763612566e-7
          0 -1.6934946640726478e-7 -3.3883188449130624e-7 0 -1.633034074874815e-7 -3.2877978013866163e-7
          0 0 -1.7135459475873288e-7 -1.674219782546321e-7 -3.4251282104531206e-7 -3.3455432154706866e-7
          0 0 -1.4014551997478163e-7 -1.4042613771788659e-7 -2.81103195606969e-7 -2.814006247106396e-7
          0 -1.4431974374344146e-7 -2.8908761579825966e-7 0 -1.7003706350532937e-7 -3.4011909780602926e-7
          0 0 0 -1.0651953834371783e-7 -1.0907017648366984e-7 -1.0291861328792553e-7
          -2.1547947235792382e-7 -2.1960596526905437e-7 -2.0669518111215514e-7 0 0 -1.6237869672476108e-7
          -1.6239659789088243e-7 -3.25057459786591e-7 -3.2490907687189765e-7 0 -1.2181658968583903e-7 -2.4712990231512493e-7
          0 -1.749819386075584e-7 -3.498435115999232e-7 0 -1.6533623680877525e-7 -3.3097617336680254e-7
          0 -1.0719652607729761e-7 -2.1491539513948498e-7 0 -1.592699003158001e-7 -3.203239788406552e-7
          0 -1.2777663740267398e-7 -2.557989974217678e-7 0 -1.3790187305034118e-7 -2.7577171944230025e-7
          0 -1.927524428490289e-7 -3.8748307372260566e-7 0 -1.5866979268673084e-7 -3.197377448805907e-7
          0 -1.2306338107612857e-7 -2.463778714996433e-7 0 -1.2830399439102774e-7 -2.585479138205041e-7
          0 -1.2315502649839004e-7 -2.486076753169039e-7 0 -1.0734785280420488e-7 -2.1700770170010328e-7
          0 -1.3144900365521168e-7 -2.6300407060214027e-7 0 -1.35922513711379e-7 -2.71757677636046e-7
          0 -1.4031264996317714e-7 -2.805936415829845e-7 0 -1.3980206014041827e-7 -2.7955770661989194e-7
          0 -1.4863040575545494e-7 -2.971588600929792e-7 0 -1.3712440672016533e-7 -2.7385390729258595e-7
          0 -1.5517881472978617e-7 -3.107075790409554e-7 0 0 -1.1121548229562196e-7
          -1.0025569274055857e-7 -2.2589227496362855e-7 -2.0322495026506858e-7 0 -1.3274382860430353e-7 -2.6971494792435636e-7
          0 0 -1.1467847922478246e-7 -1.2483921305810689e-7 -2.298143018982852e-7 -2.505334101423252e-7
          0 -1.717772943381925e-7 -3.436703920913402e-7 0 -1.7775293664910895e-7 -3.55387188853157e-7
          0 -1.4573050034646404e-7 -2.9133043798281233e-7 0 0 -1.7318740944224366e-7
          -1.7554889986092398e-7 -3.4653259364178247e-7 -3.5126700207520395e-7 0 0 0
          -1.836040520770472e-7 -1.4524748058380327e-7 -1.6130716309436986e-7 -3.6734850157813326e-7 -2.9195454873918696e-7 -3.223336202237281e-7
          0 -1.7957120149843683e-7 -3.5929721952785433e-7 0 -1.862215117426638e-7 -3.726567557334947e-7
          0 0 -1.7294733328475541e-7 -1.7489780739333163e-7 -3.458460708231992e-7 -3.497408901941614e-7
          0 0 -1.9098414809194637e-7 -1.8137319174296706e-7 -3.8176946693648516e-7 -3.628400997964811e-7
          0 0 -1.8397529807212422e-7 -1.8244796752791633e-7 -3.682898059970311e-7 -3.6539398388260506e-7
          0 0 -2.0292611390449395e-7 -1.9711753272534513e-7 -4.056263664799294e-7 -3.940805743214808e-7
          0 -1.8641665747951797e-7 -3.7290199023177985e-7 0 0 -2.376390197572895e-7
          -1.9827126129877884e-7 -4.7612984881152744e-7 -3.97859848408745e-7 0 -1.3328807542772144e-7 -2.6782479418247837e-7
          0 0 -1.3821866844817536e-7 -1.5813117705189756e-7 -2.7675242642665383e-7 -3.1822969004017107e-7
          0 -1.240495317195911e-7 -2.4871546925967504e-7 0 -1.8919461526190733e-7 -3.7844265434532907e-7
          0 -1.329960226194133e-7 -2.674077778498097e-7
        </DataArray>
      </PointData>
      <CellData>
        <DataArray type="Int32" Name="libmesh_elem_id" format="ascii" RangeMin="1184" RangeMax="3139">
          1184 1185 1192 1193 1194 1195
          1196 1197 1198 1199 1200 1201
          1202 1203 1210 1211 1212 1213
          1214 1215 1216 1217 1218 1219
          1220 1221 1226 1227 1228 1229
          1230 1231 1232 1233 1234 1235
          1236 1237 1238 1239 1244 1245
          1246 1247 1248 1249 1250 1251
          1252 1253 1254 1255 1256 1257
          1262 1263 1264 1265 1266 1267
          1268 1269 1270 1271 1272 1273
          1274 1275 1280 1281 1282 1283
          1284 1285 1286 1287 1288 1289
          1290 1291 1292 1293 1294 1295
          1296 1297 1298 1299 1302 1303
          1308 1309 1310 1311 1312 1313
          1318 1319 1320 1321 1322 1323
          1324 1325 1332 1333 1334 1335
          1336 1337 1340 1341 1342 1343
          1346 1347 1350 1351 1352 1353
          1354 1355 1362 1363 1364 1365
          1368 1369 1370 1371 1382 1383
          1396 1397 1408 1409 1452 1453
          1456 1457 1468 1469 1476 1477
          1486 1487 1510 1511 1518 1519
          1532 1533 1558 1559 1560 1561
          1564 1565 1566 1567 1570 1571
          1586 1587 1602 1603 1618 1619
          1622 1623 1628 1629 1634 1635
          1680 1681 1686 1687 1696 1697
          1700 1701 1708 1709 1710 1711
          1728 1729 1740 1741 1750 1751
          1754 1755 1764 1765 1766 1767
          1782 1783 1804 1805 1814 1815
          1836 1837 1868 1869 1880 1881
          1884 1885 1890 1891 1900 1901
          1908 1909 1918 1919 1928 1929
          1948 1949 1952 1953 1968 1969
          1970 1971 1972 1973 1986 1987
          2004 2005 2006 2007 2008 2009
          2014 2015 2018 2019 2020 2021
          2030 2031 2040 2041 2044 2045
          2050 2051 2062 2063 2064 2065
          2068 2069 2082 2083 2092 2093
          2120 2121 2128 2129 2130 2131
          2134 2135 2146 2147 2160 2161
          2180 2181 2184 2185 2186 2187
          2208 2209 2214 2215 2216 2217
          2230 2231 2234 2235 2248 2249
          2262 2263 2270 2271 2276 2277
          2286 2287 2292 2293 2294 2295
          2296 2297 2302 2303 2304 2305
          2314 2315 2316 2317 2320 2321
          2330 2331 2332 2333 2344 2345
          2354 2355 2362 2363 2366 2367
          2374 2375 2382 2383 2390 2391
          2400 2401 2404 2405 2408 2409
          2410 2411 2412 2413 2414 2415
          2430 2431 2440 2441 2448 2449
          2456 2457 2460 2461 2474 2475
          2486 2487 2494 2495 2498 2499
          2500 2501 2506 2507 2520 2521
          2522 2523 2564 2565 2572 2573
          2578 2579 2586 2587 2592 2593
          2596 2597 2600 2601 2620 2621
          2624 2625 2658 2659 2660 2661
          2670 2671 2688 2689 2694 2695
          2722 2723 2754 2755 2764 2765
          2778 2779 2780 2781 2796 2797
          2824 2825 2832 2833 2846 2847
          2848 2849 2862 2863 2870 2871
          2878 2879 2880 2881 2886 2887
          2902 2903 2930 2931 2940 2941
          2958 2959 2968 2969 2988 2989
          3062 3063 3064 3065 3090 3091
          3106 3107 3132 3133 3138 3139
        </DataArray>
        <DataArray type="Int32" Name="subdomain_id" format="ascii" RangeMin="105" RangeMax="143">
          105 105 105 105 105 105
          105 105 105 105 105 105
          105 105 105 105 105 105
          105 105 105 105 105 105
          105 105 105 105 105 105
          105 105 105 105 105 105
          105 105 105 105 105 105
          105 105 105 105 105 105
          105 105 105 105 105 105
          105 105 105 105 105 105
          105 105 105 105 105 105
          105 105 105 105 105 105
          105 105 105 105 105 105
          105 105 105 105 106 106
          106 106 106 106 106 106
          106 106 106 106 106 106
          106 106 106 106 106 106
          106 106 106 106 106 106
          106 106 106 106 106 106
          106 106 106 106 106 106
          106 106 143 143 143 143
          143 143 143 143 107 107
          107 107 107 107 107 107
          107 107 107 107 107 107
          107 107 107 107 107 107
          107 107 107 107 107 107
          107 107 107 107 107 107
          107 107 107 107 107 107
          107 107 107 107 107 107
          107 107 107 107 107 107
          107 107 107 107 107 107
          107 107 107 107 107 107
          107 107 107 107 107 107
          107 107 107 107 107 107
          107 107 107 107 107 107
          107 107 107 107 107 107
          107 107 107 107 107 107
          107 107 107 107 107 107
          107 107 107 107 107 107
          107 107 107 107 107 107
          107 107 107 107 107 107
          107 107 107 107 107 107
          107 107 107 107 107 107
          107 107 107 107 107 107
          107 107 107 107 107 107
          107 107 107 107 107 107
          107 107 107 107 107 107
          107 107 107 107 107 107
          107 107 107 107 107 107
          107 107 107 107 107 107
          107 107 107 107 107 107
          107 107 107 107 107 107
          107 107 107 107 107 107
          107 107 107 107 107 107
          107 107 107 107 107 107
          107 107 107 107 107 107
          107 107 107 107 107 107
          107 107 107 107 107 107
          107 107 107 107 107 107
          107 107 107 107 107 107
          107 107 107 107 107 107
          107 107 107 107 107 107
          107 107 107 107 107 107
          107 107 107 107 107 107
          107 107 107 107 107 107
          107 107 107 107 107 107
          107 107 107 107 107 107
          107 107 107 107 107 107
          107 107 107 107 107 107
          107 107 107 107 107 107
          107 107 107 107 107 107
          107 107 107 107 107 107
          107 107 107 107 107 107
          107 107 107 107 107 107
          107 107 107 107 107 107
          107 107 107 107 107 107
        </DataArray>
        <DataArray type="Int32" Name="processor_id" format="ascii" RangeMin="4" RangeMax="4">
          4 4 4 4 4 4
          4 4 4 4 4 4
          4 4 4 4 4 4
          4 4 4 4 4 4
          4 4 4 4 4 4
          4 4 4 4 4 4
          4 4 4 4 4 4
          4 4 4 4 4 4
          4 4 4 4 4 4
          4 4 4 4 4 4
          4 4 4 4 4 4
          4 4 4 4 4 4
          4 4 4 4 4 4
          4 4 4 4 4 4
          4 4 4 4 4 4
          4 4 4 4 4 4
          4 4 4 4 4 4
          4 4 4 4 4 4
          4 4 4 4 4 4
          4 4 4 4 4 4
          4 4 4 4 4 4
          4 4 4 4 4 4
          4 4 4 4 4 4
          4 4 4 4 4 4
          4 4 4 4 4 4
          4 4 4 4 4 4
          4 4 4 4 4 4
          4 4 4 4 4 4
          4 4 4 4 4 4
          4 4 4 4 4 4
          4 4 4 4 4 4
          4 4 4 4 4 4
          4 4 4 4 4 4
          4 4 4 4 4 4
          4 4 4 4 4 4
          4 4 4 4 4 4
          4 4 4 4 4 4
          4 4 4 4 4 4
          4 4 4 4 4 4
          4 4 4 4 4 4
          4 4 4 4 4 4
          4 4 4 4 4 4
          4 4 4 4 4 4
          4 4 4 4 4 4
          4 4 4 4 4 4
          4 4 4 4 4 4
          4 4 4 4 4 4
          4 4 4 4 4 4
          4 4 4 4 4 4
          4 4 4 4 4 4
          4 4 4 4 4 4
          4 4 4 4 4 4
          4 4 4 4 4 4
          4 4 4 4 4 4
          4 4 4 4 4 4
          4 4 4 4 4 4
          4 4 4 4 4 4
          4 4 4 4 4 4
          4 4 4 4 4 4
          4 4 4 4 4 4
          4 4 4 4 4 4
          4 4 4 4 4 4
          4 4 4 4 4 4
          4 4 4 4 4 4
          4 4 4 4 4 4
          4 4 4 4 4 4
          4 4 4 4 4 4
          4 4 4 4 4 4
          4 4 4 4 4 4
          4 4 4 4 4 4
          4 4 4 4 4 4
          4 4 4 4 4 4
          4 4 4 4 4 4
          4 4 4 4 4 4
          4 4 4 4 4 4
          4 4 4 4 4 4
        </DataArray>
      </CellData>
      <Points>
        <DataArray type="Float64" Name="Points" NumberOfComponents="3" format="ascii" RangeMin="0.009206309225653747" RangeMax="0.01648243122598367">
          0.005 0.0086896551724064 0 0.005 0.0086896551724064 0.00015
          0.005 0.0086896551724064 0.0003 0.0045555555555561 0.0091034482758539 0
          0.0045555555555561 0.0091034482758539 0.00015 0.0045555555555561 0.0091034482758539 0.0003
          0.005 0.0091034482758539 0 0.005 0.0091034482758539 0.00015
          0.005 0.0091034482758539 0.0003 0.0023333333333353 0.0095172413793029 0
          0.0023333333333353 0.0095172413793029 0.00015 0.0023333333333353 0.0095172413793029 0.0003
          0.0027777777777802 0.0095172413793029 0 0.0027777777777802 0.0095172413793029 0.00015
          0.0027777777777802 0.0095172413793029 0.0003 0.0032222222222248 0.0095172413793029 0
          0.0032222222222248 0.0095172413793029 0.00015 0.0032222222222248 0.0095172413793029 0.0003
          0.0036666666666675 0.0095172413793029 0 0.0036666666666675 0.0095172413793029 0.00015
          0.0036666666666675 0.0095172413793029 0.0003 0.0041111111111126 0.0095172413793029 0
          0.0041111111111126 0.0095172413793029 0.00015 0.0041111111111126 0.0095172413793029 0.0003
          0.0045555555555561 0.0095172413793029 0 0.0045555555555561 0.0095172413793029 0.00015
          0.0045555555555561 0.0095172413793029 0.0003 0.005 0.0095172413793029 0
          0.005 0.0095172413793029 0.00015 0.005 0.0095172413793029 0.0003
          0.0023333333333355 0.0099310344827529 0 0.0023333333333355 0.0099310344827529 0.00015
          0.0023333333333355 0.0099310344827529 0.0003 0.0027777777777806 0.0099310344827529 0
          0.0027777777777806 0.0099310344827529 0.00015 0.0027777777777806 0.0099310344827529 0.0003
          0.0032222222222251 0.0099310344827529 0 0.0032222222222251 0.0099310344827529 0.00015
          0.0032222222222251 0.0099310344827529 0.0003 0.0036666666666677 0.0099310344827529 0
          0.0036666666666677 0.0099310344827529 0.00015 0.0036666666666677 0.0099310344827529 0.0003
          0.0041111111111127 0.0099310344827529 0 0.0041111111111127 0.0099310344827529 0.00015
          0.0041111111111127 0.0099310344827529 0.0003 0.0045555555555561 0.0099310344827529 0
          0.0045555555555561 0.0099310344827529 0.00015 0.0045555555555561 0.0099310344827529 0.0003
          0.005 0.0099310344827529 0 0.005 0.0099310344827529 0.00015
          0.005 0.0099310344827529 0.0003 0.0018888888888904 0.010344827586203 0
          0.0018888888888904 0.010344827586203 0.00015 0.0018888888888904 0.010344827586203 0.0003
          0.0023333333333357 0.010344827586203 0 0.0023333333333357 0.010344827586203 0.00015
          0.0023333333333357 0.010344827586203 0.0003 0.0027777777777809 0.010344827586203 0
          0.0027777777777809 0.010344827586203 0.00015 0.0027777777777809 0.010344827586203 0.0003
          0.0032222222222255 0.010344827586203 0 0.0032222222222255 0.010344827586203 0.00015
          0.0032222222222255 0.010344827586203 0.0003 0.0036666666666679 0.010344827586203 0
          0.0036666666666679 0.010344827586203 0.00015 0.0036666666666679 0.010344827586203 0.0003
          0.0041111111111129 0.010344827586203 0 0.0041111111111129 0.010344827586203 0.00015
          0.0041111111111129 0.010344827586203 0.0003 0.0045555555555562 0.010344827586203 0
          0.0045555555555562 0.010344827586203 0.00015 0.0045555555555562 0.010344827586203 0.0003
          0.005 0.010344827586203 0 0.005 0.010344827586203 0.00015
          0.005 0.010344827586203 0.0003 0.0018888888888905 0.010758620689653 0
          0.0018888888888905 0.010758620689653 0.00015 0.0018888888888905 0.010758620689653 0.0003
          0.0023333333333359 0.010758620689653 0 0.0023333333333359 0.010758620689653 0.00015
          0.0023333333333359 0.010758620689653 0.0003 0.0027777777777812 0.010758620689653 0
          0.0027777777777812 0.010758620689653 0.00015 0.0027777777777812 0.010758620689653 0.0003
          0.0032222222222258 0.010758620689653 0 0.0032222222222258 0.010758620689653 0.00015
          0.0032222222222258 0.010758620689653 0.0003 0.0036666666666681 0.010758620689653 0
          0.0036666666666681 0.010758620689653 0.00015 0.0036666666666681 0.010758620689653 0.0003
          0.004111111111113 0.010758620689653 0 0.004111111111113 0.010758620689653 0.00015
          0.004111111111113 0.010758620689653 0.0003 0.0045555555555562 0.010758620689653 0
          0.0045555555555562 0.010758620689653 0.00015 0.0045555555555562 0.010758620689653 0.0003
          0.005 0.010758620689653 0 0.005 0.010758620689653 0.00015
          0.005 0.010758620689653 0.0003 0.0018888888888907 0.0111724137931 0
          0.0018888888888907 0.0111724137931 0.00015 0.0018888888888907 0.0111724137931 0.0003
          0.002333333333336 0.0111724137931 0 0.002333333333336 0.0111724137931 0.00015
          0.002333333333336 0.0111724137931 0.0003 0.0027777777777815 0.0111724137931 0
          0.0027777777777815 0.0111724137931 0.00015 0.0027777777777815 0.0111724137931 0.0003
          0.0032222222222261 0.0111724137931 0 0.0032222222222261 0.0111724137931 0.00015
          0.0032222222222261 0.0111724137931 0.0003 0.0036666666666682 0.0111724137931 0
          0.0036666666666682 0.0111724137931 0.00015 0.0036666666666682 0.0111724137931 0.0003
          0.0041111111111132 0.0111724137931 0 0.0041111111111132 0.0111724137931 0.00015
          0.0041111111111132 0.0111724137931 0.0003 0.0045555555555562 0.0111724137931 0
          0.0045555555555562 0.0111724137931 0.00015 0.0045555555555562 0.0111724137931 0.0003
          0.005 0.0111724137931 0 0.005 0.0111724137931 0.00015
          0.005 0.0111724137931 0.0003 0.0018888888888908 0.01158620689655 0
          0.0018888888888908 0.01158620689655 0.00015 0.0018888888888908 0.01158620689655 0.0003
          0.0023333333333362 0.01158620689655 0 0.0023333333333362 0.01158620689655 0.00015
          0.0023333333333362 0.01158620689655 0.0003 0.0027777777777818 0.01158620689655 0
          0.0027777777777818 0.01158620689655 0.00015 0.0027777777777818 0.01158620689655 0.0003
          0.0032222222222264 0.01158620689655 0 0.0032222222222264 0.01158620689655 0.00015
          0.0032222222222264 0.01158620689655 0.0003 0.0036666666666684 0.01158620689655 0
          0.0036666666666684 0.01158620689655 0.00015 0.0036666666666684 0.01158620689655 0.0003
          0.0041111111111133 0.01158620689655 0 0.0041111111111133 0.01158620689655 0.00015
          0.0041111111111133 0.01158620689655 0.0003 0.0045555555555563 0.01158620689655 0
          0.0045555555555563 0.01158620689655 0.00015 0.0045555555555563 0.01158620689655 0.0003
          0.005 0.01158620689655 0 0.005 0.01158620689655 0.00015
          0.005 0.01158620689655 0.0003 0.0018888888888909 0.012 0
          0.0018888888888909 0.012 0.00015 0.0018888888888909 0.012 0.0003
          0.0023333333333364 0.012 0 0.0023333333333364 0.012 0.00015
          0.0023333333333364 0.012 0.0003 0.0027777777777821 0.012 0
          0.0027777777777821 0.012 0.00015 0.0027777777777821 0.012 0.0003
          0.0032222222222267 0.012 0 0.0032222222222267 0.012 0.00015
          0.0032222222222267 0.012 0.0003 0.0036666666666686 0.012 0
          0.0036666666666686 0.012 0.00015 0.0036666666666686 0.012 0.0003
          0.0041111111111135 0.012 0 0.0041111111111135 0.012 0.00015
          0.0041111111111135 0.012 0.0003 0.0045555555555563 0.012 0
          0.0045555555555563 0.012 0.00015 0.0045555555555563 0.012 0.0003
          0.005 0.012 0 0.005 0.012 0.00015
          0.005 0.012 0.0003 0.0037820013226837 0.012336480560236 0
          0.004185794034024 0.012345264070133 0 0.0042342826387353 0.012652901224832 0
          0.0038676442772706 0.012640465852933 0 0.0037820013226837 0.012336480560236 0.00015
          0.004185794034024 0.012345264070133 0.00015 0.0042342826387353 0.012652901224832 0.00015
          0.0038676442772706 0.012640465852933 0.00015 0.0037820013226837 0.012336480560236 0.0003
          0.004185794034024 0.012345264070133 0.0003 0.0042342826387353 0.012652901224832 0.0003
          0.0038676442772706 0.012640465852933 0.0003 0.0025889714655165 0.012382221976315 0
          0.0025681692138844 0.01272809974993 0 0.0020604062010233 0.012679406151259 0
          0.0021948734460593 0.012348192846391 0 0.0025889714655165 0.012382221976315 0.00015
          0.0025681692138844 0.01272809974993 0.00015 0.0020604062010233 0.012679406151259 0.00015
          0.0021948734460593 0.012348192846391 0.00015 0.0025889714655165 0.012382221976315 0.0003
          0.0025681692138844 0.01272809974993 0.0003 0.0020604062010233 0.012679406151259 0.0003
          0.0021948734460593 0.012348192846391 0.0003 0.0029921846324185 0.012381457466683 0
          0.0030781171064664 0.012687491868191 0 0.0029921846324185 0.012381457466683 0.00015
          0.0030781171064664 0.012687491868191 0.00015 0.0029921846324185 0.012381457466683 0.0003
          0.0030781171064664 0.012687491868191 0.0003 0.0035064061826528 0.012674722493539 0
          0.0033673902656471 0.012343623774248 0 0.0035064061826528 0.012674722493539 0.00015
          0.0033673902656471 0.012343623774248 0.00015 0.0035064061826528 0.012674722493539 0.0003
          0.0033673902656471 0.012343623774248 0.0003 0.0045893247731344 0.012399526217393 0
          0.004557077400537 0.01272310643902 0 0.0045893247731344 0.012399526217393 0.00015
          0.004557077400537 0.01272310643902 0.00015 0.0045893247731344 0.012399526217393 0.0003
          0.004557077400537 0.01272310643902 0.0003 0.0017386847932316 0.012348636106575 0
          0.001702980389272 0.012655949584096 0 0.0017386847932316 0.012348636106575 0.00015
          0.001702980389272 0.012655949584096 0.00015 0.0017386847932316 0.012348636106575 0.0003
          0.001702980389272 0.012655949584096 0.0003 0.0045555555555563 0.013 0
          0.0041111111111135 0.013 0 0.0045555555555563 0.013 0.00015
          0.0041111111111135 0.013 0.00015 0.0045555555555563 0.013 0.0003
          0.0041111111111135 0.013 0.0003 0.005 0.012499999999989 0
          0.005 0.012499999999989 0.00015 0.005 0.012499999999989 0.0003
          0.0018888888888909 0.013 0 0.0018888888888909 0.013 0.00015
          0.0018888888888909 0.013 0.0003 0.0023333333333364 0.013 0
          0.0023333333333364 0.013 0.00015 0.0023333333333364 0.013 0.0003
          0.0027777777777821 0.013 0 0.0032222222222267 0.013 0
          0.0027777777777821 0.013 0.00015 0.0032222222222267 0.013 0.00015
          0.0027777777777821 0.013 0.0003 0.0032222222222267 0.013 0.0003
          0.0036666666666686 0.013 0 0.0036666666666686 0.013 0.00015
          0.0036666666666686 0.013 0.0003 0.005 0.013 0
          0.005 0.013 0.00015 0.005 0.013 0.0003
          0.0058653844060618 0.0079194158644502 0 0.0058653844060618 0.0079194158644502 0.00015
          0.0058653844060618 0.0079194158644502 0.0003 0.0054092385319303 0.011645775400863 0
          0.0053833488776842 0.01122289251627 0 0.0057681451700529 0.011227839215398 0
          0.0058121034548515 0.011664867476358 0 0.0054092385319303 0.011645775400863 0.00015
          0.0053833488776842 0.01122289251627 0.00015 0.0057681451700529 0.011227839215398 0.00015
          0.0058121034548515 0.011664867476358 0.00015 0.0054092385319303 0.011645775400863 0.0003
          0.0053833488776842 0.01122289251627 0.0003 0.0057681451700529 0.011227839215398 0.0003
          0.0058121034548515 0.011664867476358 0.0003 0.0061750164335738 0.0074760206739226 0
          0.0061750164335738 0.0074760206739226 0.00015 0.0061750164335738 0.0074760206739226 0.0003
          0.0059117305299751 0.012157336766967 0 0.005424823391927 0.012092657417535 0
          0.0059117305299751 0.012157336766967 0.00015 0.005424823391927 0.012092657417535 0.00015
          0.0059117305299751 0.012157336766967 0.0003 0.005424823391927 0.012092657417535 0.0003
          0.0067343691031854 0.0082749920647978 0 0.0064165220606644 0.0085260954574503 0
          0.0061549788754448 0.0084621147205563 0 0.0063465715243025 0.0080645757596712 0
          0.0067343691031854 0.0082749920647978 0.00015 0.0064165220606644 0.0085260954574503 0.00015
          0.0061549788754448 0.0084621147205563 0.00015 0.0063465715243025 0.0080645757596712 0.00015
          0.0067343691031854 0.0082749920647978 0.0003 0.0064165220606644 0.0085260954574503 0.0003
          0.0061549788754448 0.0084621147205563 0.0003 0.0063465715243025 0.0080645757596712 0.0003
          0.0057156085606184 0.010806935576218 0 0.0053556270258422 0.010821833746382 0
          0.0057156085606184 0.010806935576218 0.00015 0.0053556270258422 0.010821833746382 0.00015
          0.0057156085606184 0.010806935576218 0.0003 0.0053556270258422 0.010821833746382 0.0003
          0.0066683322798844 0.007604545062767 0 0.0070645065688863 0.0079329639302151 0
          0.0066683322798844 0.007604545062767 0.00015 0.0070645065688863 0.0079329639302151 0.00015
          0.0066683322798844 0.007604545062767 0.0003 0.0070645065688863 0.0079329639302151 0.0003
          0.0064939459679252 0.012038015964773 0 0.0063228400853618 0.012437164584428 0
          0.0062168099714575 0.011953445524179 0 0.0064939459679252 0.012038015964773 0.00015
          0.0063228400853618 0.012437164584428 0.00015 0.0062168099714575 0.011953445524179 0.00015
          0.0064939459679252 0.012038015964773 0.0003 0.0063228400853618 0.012437164584428 0.0003
          0.0062168099714575 0.011953445524179 0.0003 0.0085394683783431 0.010062707851298 0
          0.0089610661825476 0.0099263712092025 0 0.0091044702108566 0.010399281799278 0
          0.0086466489465924 0.010543823526793 0 0.0085394683783431 0.010062707851298 0.00015
          0.0089610661825476 0.0099263712092025 0.00015 0.0091044702108566 0.010399281799278 0.00015
          0.0086466489465924 0.010543823526793 0.00015 0.0085394683783431 0.010062707851298 0.0003
          0.0089610661825476 0.0099263712092025 0.0003 0.0091044702108566 0.010399281799278 0.0003
          0.0086466489465924 0.010543823526793 0.0003 0.0070988195317831 0.0084027120924791 0
          0.0071605082668525 0.0086998196459927 0 0.0067922174506807 0.0087792626202703 0
          0.0070988195317831 0.0084027120924791 0.00015 0.0071605082668525 0.0086998196459927 0.00015
          0.0067922174506807 0.0087792626202703 0.00015 0.0070988195317831 0.0084027120924791 0.0003
          0.0071605082668525 0.0086998196459927 0.0003 0.0067922174506807 0.0087792626202703 0.0003
          0.0082212914374119 0.0076937845711927 0 0.0086800066977864 0.007743247126247 0
          0.0088477729813042 0.00814241905886 0 0.0083314775318771 0.0082316914297717 0
          0.0082212914374119 0.0076937845711927 0.00015 0.0086800066977864 0.007743247126247 0.00015
          0.0088477729813042 0.00814241905886 0.00015 0.0083314775318771 0.0082316914297717 0.00015
          0.0082212914374119 0.0076937845711927 0.0003 0.0086800066977864 0.007743247126247 0.0003
          0.0088477729813042 0.00814241905886 0.0003 0.0083314775318771 0.0082316914297717 0.0003
          0.0053430701544214 0.010541301697294 0 0.0055999206723275 0.01043253025418 0
          0.0053430701544214 0.010541301697294 0.00015 0.0055999206723275 0.01043253025418 0.00015
          0.0053430701544214 0.010541301697294 0.0003 0.0055999206723275 0.01043253025418 0.0003
          0.0082934157409751 0.011625007594535 0 0.0082561968973057 0.011128478524087 0
          0.0087259762319724 0.011059252375005 0 0.0087558560903097 0.01158375342748 0
          0.0082934157409751 0.011625007594535 0.00015 0.0082561968973057 0.011128478524087 0.00015
          0.0087259762319724 0.011059252375005 0.00015 0.0087558560903097 0.01158375342748 0.00015
          0.0082934157409751 0.011625007594535 0.0003 0.0082561968973057 0.011128478524087 0.0003
          0.0087259762319724 0.011059252375005 0.0003 0.0087558560903097 0.01158375342748 0.0003
          0.0059886023840467 0.010204624020488 0 0.005451541046517 0.010106162675601 0
          0.0057038380696848 0.0099786893665285 0 0.0059886023840467 0.010204624020488 0.00015
          0.005451541046517 0.010106162675601 0.00015 0.0057038380696848 0.0099786893665285 0.00015
          0.0059886023840467 0.010204624020488 0.0003 0.005451541046517 0.010106162675601 0.0003
          0.0057038380696848 0.0099786893665285 0.0003 0.0078369912454539 0.011665931946432 0
          0.0078144148304188 0.011182309200361 0 0.0078369912454539 0.011665931946432 0.00015
          0.0078144148304188 0.011182309200361 0.00015 0.0078369912454539 0.011665931946432 0.0003
          0.0078144148304188 0.011182309200361 0.0003 0.0086735759699153 0.012550377000034 0
          0.0087327775394086 0.012086203404192 0 0.0091819131238462 0.012082911785298 0
          0.0091730578335362 0.01253941989127 0 0.0086735759699153 0.012550377000034 0.00015
          0.0087327775394086 0.012086203404192 0.00015 0.0091819131238462 0.012082911785298 0.00015
          0.0091730578335362 0.01253941989127 0.00015 0.0086735759699153 0.012550377000034 0.0003
          0.0087327775394086 0.012086203404192 0.0003 0.0091819131238462 0.012082911785298 0.0003
          0.0091730578335362 0.01253941989127 0.0003 0.010056105947498 0.011950542930398 0
          0.010274327777913 0.011549885364188 0 0.010056105947498 0.011950542930398 0.00015
          0.010274327777913 0.011549885364188 0.00015 0.010056105947498 0.011950542930398 0.0003
          0.010274327777913 0.011549885364188 0.0003 0.0087795014641276 0.0086485955844896 0
          0.0083912374962093 0.008661976024637 0 0.0087795014641276 0.0086485955844896 0.00015
          0.0083912374962093 0.008661976024637 0.00015 0.0087795014641276 0.0086485955844896 0.0003
          0.0083912374962093 0.008661976024637 0.0003 0.0073407145553935 0.0082277946262138 0
          0.0075218701602762 0.0085641736532836 0 0.0073407145553935 0.0082277946262138 0.00015
          0.0075218701602762 0.0085641736532836 0.00015 0.0073407145553935 0.0082277946262138 0.0003
          0.0075218701602762 0.0085641736532836 0.0003 0.0073357310625303 0.010250124356937 0
          0.0069197896843151 0.010226005241683 0 0.0068905371289043 0.0097153304797672 0
          0.0074001182371208 0.0096888945892578 0 0.0073357310625303 0.010250124356937 0.00015
          0.0069197896843151 0.010226005241683 0.00015 0.0068905371289043 0.0097153304797672 0.00015
          0.0074001182371208 0.0096888945892578 0.00015 0.0073357310625303 0.010250124356937 0.0003
          0.0069197896843151 0.010226005241683 0.0003 0.0068905371289043 0.0097153304797672 0.0003
          0.0074001182371208 0.0096888945892578 0.0003 0.0081958803856553 0.010639401227375 0
          0.0081958803856553 0.010639401227375 0.00015 0.0081958803856553 0.010639401227375 0.0003
          0.0057785311780113 0.0084598603588589 0 0.0057785311780113 0.0084598603588589 0.00015
          0.0057785311780113 0.0084598603588589 0.0003 0.0068354780286894 0.0065149558629347 0
          0.0065694481807909 0.0068273110654121 0 0.0068354780286894 0.0065149558629347 0.00015
          0.0065694481807909 0.0068273110654121 0.00015 0.0068354780286894 0.0065149558629347 0.0003
          0.0065694481807909 0.0068273110654121 0.0003 0.0061608287914901 0.011213609336371 0
          0.0061928612734976 0.011646193292464 0 0.0061608287914901 0.011213609336371 0.00015
          0.0061928612734976 0.011646193292464 0.00015 0.0061608287914901 0.011213609336371 0.0003
          0.0061928612734976 0.011646193292464 0.0003 0.0060256410256453 0.013 0
          0.0057791181770977 0.012558961975135 0 0.0060256410256453 0.013 0.00015
          0.0057791181770977 0.012558961975135 0.00015 0.0060256410256453 0.013 0.0003
          0.0057791181770977 0.012558961975135 0.0003 0.0061071771839093 0.010748184383761 0
          0.0061071771839093 0.010748184383761 0.00015 0.0061071771839093 0.010748184383761 0.0003
          0.0064845320073614 0.010216336118065 0 0.0065278935143817 0.010725783571784 0
          0.0064845320073614 0.010216336118065 0.00015 0.0065278935143817 0.010725783571784 0.00015
          0.0064845320073614 0.010216336118065 0.0003 0.0065278935143817 0.010725783571784 0.0003
          0.0077968354342878 0.012121840026842 0 0.0077167513193965 0.012573751507337 0
          0.0072251022123942 0.012571145425366 0 0.0073422863282366 0.012132364188728 0
          0.0077968354342878 0.012121840026842 0.00015 0.0077167513193965 0.012573751507337 0.00015
          0.0072251022123942 0.012571145425366 0.00015 0.0073422863282366 0.012132364188728 0.00015
          0.0077968354342878 0.012121840026842 0.0003 0.0077167513193965 0.012573751507337 0.0003
          0.0072251022123942 0.012571145425366 0.0003 0.0073422863282366 0.012132364188728 0.0003
          0.0072550033809581 0.0091349332579085 0 0.0076541519095837 0.0089672912460138 0
          0.0072550033809581 0.0091349332579085 0.00015 0.0076541519095837 0.0089672912460138 0.00015
          0.0072550033809581 0.0091349332579085 0.0003 0.0076541519095837 0.0089672912460138 0.0003
          0.0065384615384679 0.013 0 0.0067552646820212 0.012548340065985 0
          0.007051282051287 0.013 0 0.0065384615384679 0.013 0.00015
          0.0067552646820212 0.012548340065985 0.00015 0.007051282051287 0.013 0.00015
          0.0065384615384679 0.013 0.0003 0.0067552646820212 0.012548340065985 0.0003
          0.007051282051287 0.013 0.0003 0.0068431084681841 0.0092248064360522 0
          0.0064629827835734 0.0097214310503871 0 0.0064401841603361 0.009249995775159 0
          0.0068431084681841 0.0092248064360522 0.00015 0.0064629827835734 0.0097214310503871 0.00015
          0.0064401841603361 0.009249995775159 0.00015 0.0068431084681841 0.0092248064360522 0.0003
          0.0064629827835734 0.0097214310503871 0.0003 0.0064401841603361 0.009249995775159 0.0003
          0.0078142698619037 0.0093821750433109 0 0.0078142698619037 0.0093821750433109 0.00015
          0.0078142698619037 0.0093821750433109 0.0003 0.0064227954769353 0.0088235452462607 0
          0.0064227954769353 0.0088235452462607 0.00015 0.0064227954769353 0.0088235452462607 0.0003
          0.0060749446210727 0.008846093909968 0 0.0060643722245677 0.0092551370126649 0
          0.0060749446210727 0.008846093909968 0.00015 0.0060643722245677 0.0092551370126649 0.00015
          0.0060749446210727 0.008846093909968 0.0003 0.0060643722245677 0.0092551370126649 0.0003
          0.0065702926001918 0.011654169374977 0 0.006566373886869 0.011214840249119 0
          0.0065702926001918 0.011654169374977 0.00015 0.006566373886869 0.011214840249119 0.00015
          0.0065702926001918 0.011654169374977 0.0003 0.006566373886869 0.011214840249119 0.0003
          0.0093206781870799 0.010991873758601 0 0.0093206781870799 0.010991873758601 0.00015
          0.0093206781870799 0.010991873758601 0.0003 0.0063586074578252 0.0071353312088165 0
          0.0066361392369192 0.0072470897144222 0 0.0063586074578252 0.0071353312088165 0.00015
          0.0066361392369192 0.0072470897144222 0.00015 0.0063586074578252 0.0071353312088165 0.0003
          0.0066361392369192 0.0072470897144222 0.0003 0.0070635342364542 0.0061542378287001 0
          0.0070635342364542 0.0061542378287001 0.00015 0.0070635342364542 0.0061542378287001 0.0003
          0.010295501843898 0.0098988447327244 0 0.010331968632679 0.010177975560165 0
          0.0100990439633 0.010345969653311 0 0.0099255608427027 0.010003443747144 0
          0.010295501843898 0.0098988447327244 0.00015 0.010331968632679 0.010177975560165 0.00015
          0.0100990439633 0.010345969653311 0.00015 0.0099255608427027 0.010003443747144 0.00015
          0.010295501843898 0.0098988447327244 0.0003 0.010331968632679 0.010177975560165 0.0003
          0.0100990439633 0.010345969653311 0.0003 0.0099255608427027 0.010003443747144 0.0003
          0.0075641025641077 0.013 0 0.0075641025641077 0.013 0.00015
          0.0075641025641077 0.013 0.0003 0.007358052416256 0.010740056955422 0
          0.0069470918478694 0.010735576046615 0 0.007358052416256 0.010740056955422 0.00015
          0.0069470918478694 0.010735576046615 0.00015 0.007358052416256 0.010740056955422 0.0003
          0.0069470918478694 0.010735576046615 0.0003 0.0060634003212644 0.00969554800092 0
          0.0060634003212644 0.00969554800092 0.00015 0.0060634003212644 0.00969554800092 0.0003
          0.0068797309840753 0.0070620910964483 0 0.0071475509773245 0.0073405239650904 0
          0.0068797309840753 0.0070620910964483 0.00015 0.0071475509773245 0.0073405239650904 0.00015
          0.0068797309840753 0.0070620910964483 0.0003 0.0071475509773245 0.0073405239650904 0.0003
          0.0094632087818517 0.0081862945076399 0 0.0094632087818517 0.0081862945076399 0.00015
          0.0094632087818517 0.0081862945076399 0.0003 0.0091025641025756 0.013 0
          0.0097400134531557 0.012425583162504 0 0.0096153846153981 0.013 0
          0.0091025641025756 0.013 0.00015 0.0097400134531557 0.012425583162504 0.00015
          0.0096153846153981 0.013 0.00015 0.0091025641025756 0.013 0.0003
          0.0097400134531557 0.012425583162504 0.0003 0.0096153846153981 0.013 0.0003
          0.0080231150782377 0.0087799001252051 0 0.0081700325353194 0.0091480386714452 0
          0.0080231150782377 0.0087799001252051 0.00015 0.0081700325353194 0.0091480386714452 0.00015
          0.0080231150782377 0.0087799001252051 0.0003 0.0081700325353194 0.0091480386714452 0.0003
          0.0095329104644106 0.010197774343332 0 0.0097620082938393 0.010606176712681 0
          0.0095329104644106 0.010197774343332 0.00015 0.0097620082938393 0.010606176712681 0.00015
          0.0095329104644106 0.010197774343332 0.0003 0.0097620082938393 0.010606176712681 0.0003
          0.008459458524824 0.0095324383395712 0 0.0079941048127097 0.0097727986382514 0
          0.008459458524824 0.0095324383395712 0.00015 0.0079941048127097 0.0097727986382514 0.00015
          0.008459458524824 0.0095324383395712 0.0003 0.0079941048127097 0.0097727986382514 0.0003
          0.0086852410268287 0.0090671784981495 0 0.0084121010432185 0.0089624922946051 0
          0.0086852410268287 0.0090671784981495 0.00015 0.0084121010432185 0.0089624922946051 0.00015
          0.0086852410268287 0.0090671784981495 0.0003 0.0084121010432185 0.0089624922946051 0.0003
          0.010101546658348 0.010930204106287 0 0.010101546658348 0.010930204106287 0.00015
          0.010101546658348 0.010930204106287 0.0003 0.009219770580739 0.01160836207586 0
          0.009219770580739 0.01160836207586 0.00015 0.009219770580739 0.01160836207586 0.0003
          0.010512959331867 0.011182607317474 0 0.010512959331867 0.011182607317474 0.00015
          0.010512959331867 0.011182607317474 0.0003 0.0077135351973544 0.0099243016659867 0
          0.0077135351973544 0.0099243016659867 0.00015 0.0077135351973544 0.0099243016659867 0.0003
          0.0098399724462143 0.011314297129672 0 0.0098399724462143 0.011314297129672 0.00015
          0.0098399724462143 0.011314297129672 0.0003 0.0071955324717728 0.0067909271139751 0
          0.0071955324717728 0.0067909271139751 0.00015 0.0071955324717728 0.0067909271139751 0.0003
          0.0081933420545987 0.012561933470251 0 0.0082754308174791 0.012106448253662 0
          0.0081933420545987 0.012561933470251 0.00015 0.0082754308174791 0.012106448253662 0.00015
          0.0081933420545987 0.012561933470251 0.0003 0.0082754308174791 0.012106448253662 0.0003
          0.0091885294783446 0.0083400759786555 0 0.009185366627384 0.008676208234384 0
          0.0091885294783446 0.0083400759786555 0.00015 0.009185366627384 0.008676208234384 0.00015
          0.0091885294783446 0.0083400759786555 0.0003 0.009185366627384 0.008676208234384 0.0003
          0.0091484396571168 0.0092413935725907 0 0.0091484396571168 0.0092413935725907 0.00015
          0.0091484396571168 0.0092413935725907 0.0003 0.0096530361744126 0.011754958706862 0
          0.0096530361744126 0.011754958706862 0.00015 0.0096530361744126 0.011754958706862 0.0003
          0.0074385983748104 0.0076487872335333 0 0.0078026145042184 0.0073499712891003 0
          0.0077209126941719 0.0079857422349365 0 0.0074385983748104 0.0076487872335333 0.00015
          0.0078026145042184 0.0073499712891003 0.00015 0.0077209126941719 0.0079857422349365 0.00015
          0.0074385983748104 0.0076487872335333 0.0003 0.0078026145042184 0.0073499712891003 0.0003
          0.0077209126941719 0.0079857422349365 0.0003 0.0096060866574151 0.0086034051599073 0
          0.0096917093907041 0.0090884547689663 0 0.0096060866574151 0.0086034051599073 0.00015
          0.0096917093907041 0.0090884547689663 0.00015 0.0096060866574151 0.0086034051599073 0.0003
          0.0096917093907041 0.0090884547689663 0.0003 0.0074956671905203 0.0070789212715492 0
          0.0074956671905203 0.0070789212715492 0.00015 0.0074956671905203 0.0070789212715492 0.0003
          0.0080769230769304 0.013 0 0.0080769230769304 0.013 0.00015
          0.0080769230769304 0.013 0.0003 0.0097960013481072 0.0095766790072516 0
          0.0097960013481072 0.0095766790072516 0.00015 0.0097960013481072 0.0095766790072516 0.0003
          0.0079025965714766 0.0083828176281282 0 0.0079025965714766 0.0083828176281282 0.00015
          0.0079025965714766 0.0083828176281282 0.0003 0.0075832963246375 0.0064815260672887 0
          0.0075832963246375 0.0064815260672887 0.00015 0.0075832963246375 0.0064815260672887 0.0003
          0.0077301559610225 0.010254379585944 0 0.0077301559610225 0.010254379585944 0.00015
          0.0077301559610225 0.010254379585944 0.0003 0.0077729216102883 0.010708725243031 0
          0.0077729216102883 0.010708725243031 0.00015 0.0077729216102883 0.010708725243031 0.0003
          0.0053754057810206 0.0085370600870078 0 0.0053754057810206 0.0085370600870078 0.00015
          0.0053754057810206 0.0085370600870078 0.0003 0.0053590367872451 0.0089652268696161 0
          0.0053590367872451 0.0089652268696161 0.00015 0.0053590367872451 0.0089652268696161 0.0003
          0.0077314143265107 0.0068791993815975 0 0.0077314143265107 0.0068791993815975 0.00015
          0.0077314143265107 0.0068791993815975 0.0003 0.0053527694027008 0.0093707431616054 0
          0.0053527694027008 0.0093707431616054 0.00015 0.0053527694027008 0.0093707431616054 0.0003
          0.0080272182678723 0.0070086219794164 0 0.0080272182678723 0.0070086219794164 0.00015
          0.0080272182678723 0.0070086219794164 0.0003 0.0053686841699875 0.0097656204902227 0
          0.0053686841699875 0.0097656204902227 0.00015 0.0053686841699875 0.0097656204902227 0.0003
          0.0069753270353201 0.011225035595701 0 0.0069753270353201 0.011225035595701 0.00015
          0.0069753270353201 0.011225035595701 0.0003 0.0081230348422786 0.010180774741819 0
          0.0081230348422786 0.010180774741819 0.00015 0.0081230348422786 0.010180774741819 0.0003
          0.0069714542407681 0.011681487349241 0 0.0069714542407681 0.011681487349241 0.00015
          0.0069714542407681 0.011681487349241 0.0003 0.0073877269320336 0.011214628569732 0
          0.0073877269320336 0.011214628569732 0.00015 0.0073877269320336 0.011214628569732 0.0003
          0.0073992085993983 0.011689991378362 0 0.0073992085993983 0.011689991378362 0.00015
          0.0073992085993983 0.011689991378362 0.0003 0.0088599825232994 0.0095868605102716 0
          0.0088599825232994 0.0095868605102716 0.00015 0.0088599825232994 0.0095868605102716 0.0003
          0.0093698999071837 0.0097470513643601 0 0.0093698999071837 0.0097470513643601 0.00015
          0.0093698999071837 0.0097470513643601 0.0003 0.005708830284701 0.0092938500467527 0
          0.005710003284826 0.0096895337898706 0 0.005708830284701 0.0092938500467527 0.00015
          0.005710003284826 0.0096895337898706 0.00015 0.005708830284701 0.0092938500467527 0.0003
          0.005710003284826 0.0096895337898706 0.0003 0.0057253261942579 0.008884797777202 0
          0.0057253261942579 0.008884797777202 0.00015 0.0057253261942579 0.008884797777202 0.0003
          0.0054465956081518 0.012540682824845 0 0.0055128205128226 0.013 0
          0.0054465956081518 0.012540682824845 0.00015 0.0055128205128226 0.013 0.00015
          0.0054465956081518 0.012540682824845 0.0003 0.0055128205128226 0.013 0.0003
          0.0095150035075373 0.012074113937236 0 0.0095150035075373 0.012074113937236 0.00015
          0.0095150035075373 0.012074113937236 0.0003 0.008589743589753 0.013 0
          0.008589743589753 0.013 0.00015 0.008589743589753 0.013 0.0003
          0.0068932543961937 0.012102712522565 0 0.0068932543961937 0.012102712522565 0.00015
          0.0068932543961937 0.012102712522565 0.0003 0.010475172867508 0.012102844227475 0
          0.010669582432454 0.011743114144408 0 0.010475172867508 0.012102844227475 0.00015
          0.010669582432454 0.011743114144408 0.00015 0.010475172867508 0.012102844227475 0.0003
          0.010669582432454 0.011743114144408 0.0003 0.0098857235699117 0.0079055319030787 0
          0.0092411258002763 0.0078319639415625 0 0.0095144479526816 0.0076594245921199 0
          0.0098857235699117 0.0079055319030787 0.00015 0.0092411258002763 0.0078319639415625 0.00015
          0.0095144479526816 0.0076594245921199 0.00015 0.0098857235699117 0.0079055319030787 0.0003
          0.0092411258002763 0.0078319639415625 0.0003 0.0095144479526816 0.0076594245921199 0.0003
          0.010385522435479 0.010608007769118 0 0.010385522435479 0.010608007769118 0.00015
          0.010385522435479 0.010608007769118 0.0003 0.010783127360108 0.010836567412064 0
          0.010783127360108 0.010836567412064 0.00015 0.010783127360108 0.010836567412064 0.0003
          0.010310686327751 0.012539165738252 0 0.010128205128219 0.013 0
          0.010310686327751 0.012539165738252 0.00015 0.010128205128219 0.013 0.00015
          0.010310686327751 0.012539165738252 0.0003 0.010128205128219 0.013 0.0003
          0.011222013645511 0.011097826594996 0 0.010925822172272 0.011428925131881 0
          0.011222013645511 0.011097826594996 0.00015 0.010925822172272 0.011428925131881 0.00015
          0.011222013645511 0.011097826594996 0.0003 0.010925822172272 0.011428925131881 0.0003
          0.010158980545183 0.0089928081418126 0 0.010234809282542 0.0094751596931164 0
          0.010158980545183 0.0089928081418126 0.00015 0.010234809282542 0.0094751596931164 0.00015
          0.010158980545183 0.0089928081418126 0.0003 0.010234809282542 0.0094751596931164 0.0003
          0.010689703280164 0.0094649590365737 0 0.010691300612525 0.0099168298135774 0
          0.010689703280164 0.0094649590365737 0.00015 0.010691300612525 0.0099168298135774 0.00015
          0.010689703280164 0.0094649590365737 0.0003 0.010691300612525 0.0099168298135774 0.0003
          0.010057653370411 0.0084974472595183 0 0.010057653370411 0.0084974472595183 0.00015
          0.010057653370411 0.0084974472595183 0.0003 0.0071984303565192 0.0057392272964834 0
          0.0077721363879251 0.0058968168784219 0 0.0071984303565192 0.0057392272964834 0.00015
          0.0077721363879251 0.0058968168784219 0.00015 0.0071984303565192 0.0057392272964834 0.0003
          0.0077721363879251 0.0058968168784219 0.0003 0.0089588909882048 0.0073942383853577 0
          0.0089588909882048 0.0073942383853577 0.00015 0.0089588909882048 0.0073942383853577 0.0003
          0.0081402125110085 0.0066115625704341 0 0.0082479601882269 0.0062087007836213 0
          0.0081402125110085 0.0066115625704341 0.00015 0.0082479601882269 0.0062087007836213 0.00015
          0.0081402125110085 0.0066115625704341 0.0003 0.0082479601882269 0.0062087007836213 0.0003
          0.0084364690699339 0.0071912877673881 0 0.0084364690699339 0.0071912877673881 0.00015
          0.0084364690699339 0.0071912877673881 0.0003 0.010601303654319 0.010290632654442 0
          0.010601303654319 0.010290632654442 0.00015 0.010601303654319 0.010290632654442 0.0003
          0.0085681017610313 0.0067725899286886 0 0.0085681017610313 0.0067725899286886 0.00015
          0.0085681017610313 0.0067725899286886 0.0003
          <InformationKey name="L2_NORM_RANGE" location="vtkDataArray" length="2">
            <Value index="0">
              0.0092063092257
            </Value>
            <Value index="1">
              0.016482431226
            </Value>
          </InformationKey>
        </DataArray>
      </Points>
      <Cells>
        <DataArray type="Int64" Name="connectivity" format="ascii" RangeMin="0" RangeMax="782">
          27 24 3 6 28 25
          4 7 28 25 4 7
          29 26 5 8 33 30
          9 12 34 31 10 13
          34 31 10 13 35 32
          11 14 36 33 12 15
          37 34 13 16 37 34
          13 16 38 35 14 17
          39 36 15 18 40 37
          16 19 40 37 16 19
          41 38 17 20 42 39
          18 21 43 40 19 22
          43 40 19 22 44 41
          20 23 45 42 21 24
          46 43 22 25 46 43
          22 25 47 44 23 26
          48 45 24 27 49 46
          25 28 49 46 25 28
          50 47 26 29 57 54
          30 33 58 55 31 34
          58 55 31 34 59 56
          32 35 60 57 33 36
          61 58 34 37 61 58
          34 37 62 59 35 38
          63 60 36 39 64 61
          37 40 64 61 37 40
          65 62 38 41 66 63
          39 42 67 64 40 43
          67 64 40 43 68 65
          41 44 69 66 42 45
          70 67 43 46 70 67
          43 46 71 68 44 47
          72 69 45 48 73 70
          46 49 73 70 46 49
          74 71 47 50 78 75
          51 54 79 76 52 55
          79 76 52 55 80 77
          53 56 81 78 54 57
          82 79 55 58 82 79
          55 58 83 80 56 59
          84 81 57 60 85 82
          58 61 85 82 58 61
          86 83 59 62 87 84
          60 63 88 85 61 64
          88 85 61 64 89 86
          62 65 90 87 63 66
          91 88 64 67 91 88
          64 67 92 89 65 68
          93 90 66 69 94 91
          67 70 94 91 67 70
          95 92 68 71 96 93
          69 72 97 94 70 73
          97 94 70 73 98 95
          71 74 102 99 75 78
          103 100 76 79 103 100
          76 79 104 101 77 80
          105 102 78 81 106 103
          79 82 106 103 79 82
          107 104 80 83 108 105
          81 84 109 106 82 85
          109 106 82 85 110 107
          83 86 111 108 84 87
          112 109 85 88 112 109
          85 88 113 110 86 89
          114 111 87 90 115 112
          88 91 115 112 88 91
          116 113 89 92 117 114
          90 93 118 115 91 94
          118 115 91 94 119 116
          92 95 120 117 93 96
          121 118 94 97 121 118
          94 97 122 119 95 98
          126 123 99 102 127 124
          100 103 127 124 100 103
          128 125 101 104 129 126
          102 105 130 127 103 106
          130 127 103 106 131 128
          104 107 132 129 105 108
          133 130 106 109 133 130
          106 109 134 131 107 110
          135 132 108 111 136 133
          109 112 136 133 109 112
          137 134 110 113 138 135
          111 114 139 136 112 115
          139 136 112 115 140 137
          113 116 141 138 114 117
          142 139 115 118 142 139
          115 118 143 140 116 119
          144 141 117 120 145 142
          118 121 145 142 118 121
          146 143 119 122 150 147
          123 126 151 148 124 127
          151 148 124 127 152 149
          125 128 153 150 126 129
          154 151 127 130 154 151
          127 130 155 152 128 131
          156 153 129 132 157 154
          130 133 157 154 130 133
          158 155 131 134 159 156
          132 135 160 157 133 136
          160 157 133 136 161 158
          134 137 162 159 135 138
          163 160 136 139 163 160
          136 139 164 161 137 140
          165 162 138 141 166 163
          139 142 166 163 139 142
          167 164 140 143 168 165
          141 144 169 166 142 145
          169 166 142 145 170 167
          143 146 171 172 173 174
          175 176 177 178 175 176
          177 178 179 180 181 182
          183 184 185 186 187 188
          189 190 187 188 189 190
          191 192 193 194 183 195
          196 184 187 197 198 188
          187 197 198 188 191 199
          200 192 201 202 171 174
          203 204 175 178 203 204
          175 178 205 206 179 182
          173 172 207 208 177 176
          209 210 177 176 209 210
          181 180 211 212 202 201
          196 195 204 203 198 197
          204 203 198 197 206 205
          200 199 213 186 185 214
          215 190 189 216 215 190
          189 216 217 194 193 218
          162 172 171 159 163 176
          175 160 163 176 175 160
          164 180 179 161 173 208
          219 220 177 210 221 222
          177 210 221 222 181 212
          223 224 159 171 202 156
          160 175 204 157 160 175
          204 157 161 179 206 158
          168 225 207 165 169 226
          209 166 169 226 209 166
          170 227 211 167 185 184
          231 228 189 188 232 229
          189 188 232 229 193 192
          233 230 234 184 196 235
          236 188 198 237 236 188
          198 237 238 192 200 239
          183 186 150 153 187 190
          151 154 187 190 151 154
          191 194 152 155 201 240
          235 196 203 241 237 198
          203 241 237 198 205 242
          239 200 174 220 240 201
          178 222 241 203 178 222
          241 203 182 224 242 205
          165 207 172 162 166 209
          176 163 166 209 176 163
          167 211 180 164 208 207
          225 243 210 209 226 244
          210 209 226 244 212 211
          227 245 195 153 156 202
          197 154 157 204 197 154
          157 204 199 155 158 206
          147 150 186 213 148 151
          190 215 148 151 190 215
          149 152 194 217 183 195
          153 187 197 154 187 197
          154 191 199 155 173 174
          220 177 178 222 177 178
          222 181 182 224 234 184
          231 236 188 232 236 188
          232 238 192 233 243 208
          219 244 210 221 244 210
          221 245 212 223 249 250
          251 252 253 254 255 256
          253 254 255 256 257 258
          259 260 264 265 249 252
          266 267 253 256 266 267
          253 256 268 269 257 260
          270 271 272 273 274 275
          276 277 274 275 276 277
          278 279 280 281 282 251
          250 283 284 255 254 285
          284 255 254 285 286 259
          258 287 273 288 289 270
          277 290 291 274 277 290
          291 274 281 292 293 278
          294 295 264 296 297 298
          266 299 297 298 266 299
          300 301 268 302 303 304
          305 306 307 308 309 310
          307 308 309 310 311 312
          313 314 270 315 316 317
          274 318 319 320 274 318
          319 320 278 321 322 323
          324 325 326 327 328 329
          330 331 328 329 330 331
          332 333 334 335 283 336
          337 282 285 338 339 284
          285 338 339 284 287 340
          341 286 342 343 344 345
          346 347 348 349 346 347
          348 349 350 351 352 353
          354 337 355 356 357 339
          358 359 357 339 358 359
          360 341 361 362 343 342
          363 364 347 346 365 366
          347 346 365 366 351 350
          367 368 369 370 371 372
          373 374 375 376 373 374
          375 376 377 378 379 380
          711 381 382 712 713 383
          384 714 713 383 384 714
          715 385 386 716 327 326
          387 388 331 330 389 390
          331 330 389 390 335 334
          391 392 393 394 316 315
          395 396 319 318 395 396
          319 318 397 398 322 321
          399 400 401 402 403 404
          405 406 403 404 405 406
          407 408 409 410 306 344
          343 411 310 348 347 412
          310 348 347 412 314 352
          351 413 414 246 273 272
          415 247 277 276 415 247
          277 276 416 248 281 280
          423 424 252 251 425 426
          256 255 425 426 256 255
          427 428 260 259 429 430
          264 295 431 432 266 298
          431 432 266 298 433 434
          268 301 282 337 354 435
          284 339 357 436 284 339
          357 436 286 341 360 437
          354 438 439 435 357 440
          441 436 357 440 441 436
          360 442 443 437 444 445
          446 447 448 449 450 451
          448 449 450 451 452 453
          454 455 456 316 394 457
          458 319 396 459 458 319
          396 459 460 322 398 461
          462 463 446 464 465 466
          450 467 465 466 450 467
          468 469 454 470 471 401
          472 473 474 405 475 476
          474 405 475 476 477 409
          478 479 402 456 457 480
          406 458 459 481 406 458
          459 481 410 460 461 482
          471 456 402 401 474 458
          406 405 474 458 406 405
          477 460 410 409 473 483
          317 471 476 484 320 474
          476 484 320 474 479 485
          323 477 486 483 473 487
          488 484 476 489 488 484
          476 489 490 485 479 491
          483 271 270 317 484 275
          274 320 484 275 274 320
          485 279 278 323 492 424
          423 493 494 426 425 495
          494 426 425 495 496 428
          427 497 498 344 306 305
          499 348 310 309 499 348
          310 309 500 352 314 313
          501 502 288 261 503 504
          290 262 503 504 290 262
          505 506 292 263 429 295
          463 462 431 298 466 465
          431 298 466 465 433 301
          469 468 510 511 512 513
          514 515 516 517 514 515
          516 517 518 519 520 521
          464 446 445 522 467 450
          449 523 467 450 449 523
          470 454 453 524 525 526
          400 399 527 528 404 403
          527 528 404 403 529 530
          408 407 487 473 472 531
          489 476 475 532 489 476
          475 532 491 479 478 533
          288 273 246 261 290 277
          247 262 290 277 247 262
          292 281 248 263 435 439
          493 423 436 441 495 425
          436 441 495 425 437 443
          497 427 288 502 534 535
          290 504 536 537 290 504
          536 537 292 506 538 539
          717 540 718 719 720 541
          721 722 720 541 721 722
          723 542 724 725 543 372
          544 545 546 376 547 548
          546 376 547 548 549 380
          550 551 480 457 552 553
          481 459 554 555 481 459
          554 555 482 461 556 557
          558 559 498 305 560 561
          499 309 560 561 499 309
          562 563 500 313 400 526
          439 438 404 528 441 440
          404 528 441 440 408 530
          443 442 564 565 480 553
          566 567 481 555 566 567
          481 555 568 569 482 557
          570 564 553 571 572 566
          555 573 572 566 555 573
          574 568 557 575 726 576
          559 512 727 577 561 516
          727 577 561 516 728 578
          563 520 579 345 344 498
          580 349 348 499 580 349
          348 499 581 353 352 500
          729 582 576 726 730 583
          577 727 730 583 577 727
          731 584 578 728 438 354
          531 472 440 357 532 475
          440 357 532 475 442 360
          533 478 438 472 401 400
          440 475 405 404 440 475
          405 404 442 478 409 408
          565 585 402 480 567 586
          406 481 567 586 406 481
          569 587 410 482 545 544
          732 733 548 547 734 735
          548 547 734 735 551 550
          736 737 534 502 501 418
          536 504 503 420 536 504
          503 420 538 506 505 422
          251 282 435 423 255 284
          436 425 255 284 436 425
          259 286 437 427 576 588
          498 559 577 589 499 561
          577 589 499 561 578 590
          500 563 591 534 418 417
          592 536 420 419 592 536
          420 419 593 538 422 421
          369 594 595 370 373 596
          597 374 373 596 597 374
          377 598 599 378 326 600
          601 387 330 602 603 389
          330 602 603 389 334 604
          605 391 606 570 387 601
          607 572 389 603 607 572
          389 603 608 574 391 605
          317 316 456 471 320 319
          458 474 320 319 458 474
          323 322 460 477 483 486
          272 271 484 488 276 275
          484 488 276 275 485 490
          280 279 582 729 738 739
          583 730 740 741 583 730
          740 741 584 731 742 743
          588 382 381 609 589 384
          383 610 589 384 383 610
          590 386 385 611 612 613
          324 614 615 616 328 617
          615 616 328 617 618 619
          332 620 382 582 739 712
          384 583 741 714 384 583
          741 714 386 584 743 716
          582 382 588 576 583 384
          589 577 583 384 589 577
          584 386 590 578 595 342
          345 370 597 346 349 374
          597 346 349 374 599 350
          353 378 621 622 606 601
          623 624 607 603 623 624
          607 603 625 626 608 605
          609 579 498 588 610 580
          499 589 610 580 499 589
          611 581 500 590 540 621
          601 600 541 623 603 602
          541 623 603 602 542 625
          605 604 591 627 535 534
          592 628 537 536 592 628
          537 536 593 629 539 538
          594 630 522 445 596 631
          523 449 596 631 523 449
          598 632 524 453 744 745
          633 622 746 747 634 624
          746 747 634 624 748 749
          635 626 324 327 636 614
          328 331 637 617 328 331
          637 617 332 335 638 620
          745 750 751 510 747 752
          753 514 747 752 753 514
          749 754 755 518 639 591
          417 507 640 592 419 508
          640 592 419 508 641 593
          421 509 371 370 345 579
          375 374 349 580 375 374
          349 580 379 378 353 581
          642 399 402 585 643 403
          406 586 643 403 406 586
          644 407 410 587 645 525
          399 642 646 527 403 643
          646 527 403 643 647 529
          407 644 326 718 540 600
          330 721 541 602 330 721
          541 602 334 724 542 604
          621 540 717 756 623 541
          720 757 623 541 720 757
          625 542 723 758 639 507
          759 760 640 508 761 762
          640 508 761 762 641 509
          763 764 388 387 570 571
          390 389 572 573 390 389
          572 573 392 391 574 575
          648 651 6 0 649 652
          7 1 649 652 7 1
          650 653 8 2 613 612
          535 627 616 615 537 628
          616 615 537 628 619 618
          539 629 627 591 639 654
          628 592 640 655 628 592
          640 655 629 593 641 656
          612 289 288 535 615 291
          290 537 615 291 290 537
          618 293 292 539 651 657
          27 6 652 658 28 7
          652 658 28 7 653 659
          29 8 756 744 622 621
          757 746 624 623 757 746
          624 623 758 748 626 625
          660 613 627 654 661 616
          628 655 661 616 628 655
          662 619 629 656 657 663
          48 27 658 664 49 28
          658 664 49 28 659 665
          50 29 666 493 439 526
          667 495 441 528 667 495
          441 528 668 497 443 530
          669 565 564 303 670 567
          566 307 670 567 566 307
          671 569 568 311 663 355
          72 48 664 358 73 49
          664 358 73 49 665 361
          74 50 672 492 493 666
          673 494 495 667 673 494
          495 667 674 496 497 668
          144 249 265 168 145 253
          267 169 145 253 267 169
          146 257 269 170 411 669
          303 306 412 670 307 310
          412 670 307 310 413 671
          311 314 765 718 326 325
          766 721 330 329 766 721
          330 329 767 724 334 333
          525 645 364 675 527 646
          366 676 527 646 366 676
          529 647 368 677 768 639
          760 769 770 640 762 771
          770 640 762 771 772 641
          764 773 669 411 645 642
          670 412 646 643 670 412
          646 643 671 413 647 644
          639 768 660 654 640 770
          661 655 640 770 661 655
          641 772 662 656 642 585
          565 669 643 586 567 670
          643 586 567 670 644 587
          569 671 393 315 270 289
          395 318 274 291 395 318
          274 291 397 321 278 293
          675 364 363 678 676 366
          365 679 676 366 365 679
          677 368 367 680 552 636
          327 388 554 637 331 390
          554 637 331 390 556 638
          335 392 675 678 672 666
          676 679 673 667 676 679
          673 667 677 680 674 668
          666 526 525 675 667 528
          527 676 667 528 527 676
          668 530 529 677 250 120
          96 283 254 121 97 285
          254 121 97 285 258 122
          98 287 444 447 678 363
          448 451 679 365 448 451
          679 365 452 455 680 367
          614 636 394 393 617 637
          396 395 617 637 396 395
          620 638 398 397 249 144
          120 250 253 145 121 254
          253 145 121 254 257 146
          122 258 564 681 304 303
          566 682 308 307 566 682
          308 307 568 683 312 311
          364 645 411 343 366 646
          412 347 366 646 412 347
          368 647 413 351 72 355
          337 336 73 358 339 338
          73 358 339 338 74 361
          341 340 304 681 606 684
          308 682 607 685 308 682
          607 685 312 683 608 686
          636 552 457 394 637 554
          459 396 637 554 459 396
          638 556 461 398 72 336
          283 96 73 338 285 97
          73 338 285 97 74 340
          287 98 289 612 614 393
          291 615 617 395 291 615
          617 395 293 618 620 397
          687 487 531 688 689 489
          532 690 689 489 532 690
          691 491 533 692 688 531
          354 356 690 532 357 359
          690 532 357 359 692 533
          360 362 388 571 553 552
          390 573 555 554 390 573
          555 554 392 575 557 556
          693 486 487 687 694 488
          489 689 694 488 489 689
          695 490 491 691 564 570
          606 681 566 572 607 682
          566 572 607 682 568 574
          608 683 414 272 486 693
          415 276 488 694 415 276
          488 694 416 280 490 695
          225 696 697 243 226 698
          699 244 226 698 699 244
          227 700 701 245 774 324
          613 660 775 328 616 661
          775 328 616 661 776 332
          619 662 544 702 609 381
          547 703 610 383 547 703
          610 383 550 704 611 385
          688 356 355 663 690 359
          358 664 690 359 358 664
          692 362 361 665 324 774
          765 325 328 775 766 329
          328 775 766 329 332 776
          767 333 684 558 305 304
          685 560 309 308 685 560
          309 308 686 562 313 312
          544 372 371 702 547 376
          375 703 547 376 375 703
          550 380 379 704 711 732
          544 381 713 734 547 383
          713 734 547 383 715 736
          550 385 513 512 559 558
          517 516 561 560 517 516
          561 560 521 520 563 562
          777 726 512 511 778 727
          516 515 778 727 516 515
          779 728 520 519 777 511
          510 751 778 515 514 753
          778 515 514 753 779 519
          518 755 294 296 424 492
          297 299 426 494 297 299
          426 494 300 302 428 496
          369 705 630 594 373 706
          631 596 373 706 631 596
          377 707 632 598 633 513
          558 684 634 517 560 685
          634 517 560 685 635 521
          562 686 684 606 622 633
          685 607 624 634 685 607
          624 634 686 608 626 635
          708 672 678 447 709 673
          679 451 709 673 679 451
          710 674 680 455 513 633
          745 510 517 634 747 514
          517 634 747 514 521 635
          749 518 774 660 768 780
          775 661 770 781 775 661
          770 781 776 662 772 782
          702 371 579 609 703 375
          580 610 703 375 580 610
          704 379 581 611 687 688
          663 657 689 690 664 658
          689 690 664 658 691 692
          665 659 696 265 264 430
          698 267 266 432 698 267
          266 432 700 269 268 434
          696 430 429 697 698 432
          431 699 698 432 431 699
          700 434 433 701 264 252
          424 296 266 256 426 299
          266 256 426 299 268 260
          428 302 708 294 492 672
          709 297 494 673 709 297
          494 673 710 300 496 674
          447 446 463 708 451 450
          466 709 451 450 466 709
          455 454 469 710 693 687
          657 651 694 689 658 652
          694 689 658 652 695 691
          659 653 595 594 445 444
          597 596 449 448 597 596
          449 448 599 598 453 452
          696 225 168 265 698 226
          169 267 698 226 169 267
          700 227 170 269 705 369
          372 543 706 373 376 546
          706 373 376 546 707 377
          380 549 414 693 651 648
          415 694 652 649 415 694
          652 649 416 695 653 650
          444 363 342 595 448 365
          346 597 448 365 346 597
          452 367 350 599 708 463
          295 294 709 466 298 297
          709 466 298 297 710 469
          301 300
        </DataArray>
        <DataArray type="Int64" Name="offsets" format="ascii" RangeMin="8" RangeMax="3632">
          8 16 24 32 40 48
          56 64 72 80 88 96
          104 112 120 128 136 144
          152 160 168 176 184 192
          200 208 216 224 232 240
          248 256 264 272 280 288
          296 304 312 320 328 336
          344 352 360 368 376 384
          392 400 408 416 424 432
          440 448 456 464 472 480
          488 496 504 512 520 528
          536 544 552 560 568 576
          584 592 600 608 616 624
          632 640 648 656 664 672
          680 688 696 704 712 720
          728 736 744 752 760 768
          776 784 792 800 808 816
          824 832 840 848 856 864
          872 880 888 896 904 912
          920 928 936 944 952 960
          968 976 982 988 994 1000
          1006 1012 1018 1024 1032 1040
          1048 1056 1064 1072 1080 1088
          1096 1104 1112 1120 1128 1136
          1144 1152 1160 1168 1176 1184
          1192 1200 1208 1216 1224 1232
          1240 1248 1256 1264 1272 1280
          1288 1296 1304 1312 1320 1328
          1336 1344 1352 1360 1368 1376
          1384 1392 1400 1408 1416 1424
          1432 1440 1448 1456 1464 1472
          1480 1488 1496 1504 1512 1520
          1528 1536 1544 1552 1560 1568
          1576 1584 1592 1600 1608 1616
          1624 1632 1640 1648 1656 1664
          1672 1680 1688 1696 1704 1712
          1720 1728 1736 1744 1752 1760
          1768 1776 1784 1792 1800 1808
          1816 1824 1832 1840 1848 1856
          1864 1872 1880 1888 1896 1904
          1912 1920 1928 1936 1944 1952
          1960 1968 1976 1984 1992 2000
          2008 2016 2024 2032 2040 2048
          2056 2064 2072 2080 2088 2096
          2104 2112 2120 2128 2136 2144
          2152 2160 2168 2176 2184 2192
          2200 2208 2216 2224 2232 2240
          2248 2256 2264 2272 2280 2288
          2296 2304 2312 2320 2328 2336
          2344 2352 2360 2368 2376 2384
          2392 2400 2408 2416 2424 2432
          2440 2448 2456 2464 2472 2480
          2488 2496 2504 2512 2520 2528
          2536 2544 2552 2560 2568 2576
          2584 2592 2600 2608 2616 2624
          2632 2640 2648 2656 2664 2672
          2680 2688 2696 2704 2712 2720
          2728 2736 2744 2752 2760 2768
          2776 2784 2792 2800 2808 2816
          2824 2832 2840 2848 2856 2864
          2872 2880 2888 2896 2904 2912
          2920 2928 2936 2944 2952 2960
          2968 2976 2984 2992 3000 3008
          3016 3024 3032 3040 3048 3056
          3064 3072 3080 3088 3096 3104
          3112 3120 3128 3136 3144 3152
          3160 3168 3176 3184 3192 3200
          3208 3216 3224 3232 3240 3248
          3256 3264 3272 3280 3288 3296
          3304 3312 3320 3328 3336 3344
          3352 3360 3368 3376 3384 3392
          3400 3408 3416 3424 3432 3440
          3448 3456 3464 3472 3480 3488
          3496 3504 3512 3520 3528 3536
          3544 3552 3560 3568 3576 3584
          3592 3600 3608 3616 3624 3632
        </DataArray>
        <DataArray type="UInt8" Name="types" format="ascii" RangeMin="12" RangeMax="13">
          12 12 12 12 12 12
          12 12 12 12 12 12
          12 12 12 12 12 12
          12 12 12 12 12 12
          12 12 12 12 12 12
          12 12 12 12 12 12
          12 12 12 12 12 12
          12 12 12 12 12 12
          12 12 12 12 12 12
          12 12 12 12 12 12
          12 12 12 12 12 12
          12 12 12 12 12 12
          12 12 12 12 12 12
          12 12 12 12 12 12
          12 12 12 12 12 12
          12 12 12 12 12 12
          12 12 12 12 12 12
          12 12 12 12 12 12
          12 12 12 12 12 12
          12 12 12 12 12 12
          12 12 13 13 13 13
          13 13 13 13 12 12
          12 12 12 12 12 12
          12 12 12 12 12 12
          12 12 12 12 12 12
          12 12 12 12 12 12
          12 12 12 12 12 12
          12 12 12 12 12 12
          12 12 12 12 12 12
          12 12 12 12 12 12
          12 12 12 12 12 12
          12 12 12 12 12 12
          12 12 12 12 12 12
          12 12 12 12 12 12
          12 12 12 12 12 12
          12 12 12 12 12 12
          12 12 12 12 12 12
          12 12 12 12 12 12
          12 12 12 12 12 12
          12 12 12 12 12 12
          12 12 12 12 12 12
          12 12 12 12 12 12
          12 12 12 12 12 12
          12 12 12 12 12 12
          12 12 12 12 12 12
          12 12 12 12 12 12
          12 12 12 12 12 12
          12 12 12 12 12 12
          12 12 12 12 12 12
          12 12 12 12 12 12
          12 12 12 12 12 12
          12 12 12 12 12 12
          12 12 12 12 12 12
          12 12 12 12 12 12
          12 12 12 12 12 12
          12 12 12 12 12 12
          12 12 12 12 12 12
          12 12 12 12 12 12
          12 12 12 12 12 12
          12 12 12 12 12 12
          12 12 12 12 12 12
          12 12 12 12 12 12
          12 12 12 12 12 12
          12 12 12 12 12 12
          12 12 12 12 12 12
          12 12 12 12 12 12
          12 12 12 12 12 12
          12 12 12 12 12 12
          12 12 12 12 12 12
          12 12 12 12 12 12
          12 12 12 12 12 12
          12 12 12 12 12 12
          12 12 12 12 12 12
          12 12 12 12 12 12
          12 12 12 12 12 12
          12 12 12 12 12 12
        </DataArray>
      </Cells>
    </Piece>
  </UnstructuredGrid>
</VTKFile>
