<?xml version="1.0"?>
<VTKFile type="UnstructuredGrid" version="0.1" byte_order="LittleEndian" header_type="UInt32" compressor="vtkZLibDataCompressor">
  <UnstructuredGrid>
    <Piece NumberOfPoints="756" NumberOfCells="468">
      <PointData>
        <DataArray type="Int32" Name="libmesh_node_id" format="ascii" RangeMin="120" RangeMax="2168">
          120 121 122 123 124 125
          126 127 128 129 130 131
          132 133 134 135 136 137
          138 139 140 141 142 143
          144 145 146 147 148 149
          150 151 152 153 154 155
          156 157 158 159 160 161
          162 163 164 165 166 167
          168 169 170 171 172 173
          174 175 176 177 178 179
          240 241 242 243 244 245
          246 247 248 249 250 251
          252 253 254 255 256 257
          258 259 260 261 262 263
          264 265 266 267 268 269
          330 331 332 333 334 335
          336 337 338 339 340 341
          342 343 344 345 346 347
          348 349 350 351 352 353
          354 355 356 357 358 359
          420 421 422 423 424 425
          426 427 428 429 430 431
          432 433 434 435 436 437
          438 439 440 441 442 443
          444 445 446 447 448 449
          510 511 512 513 514 515
          516 517 518 519 520 521
          522 523 524 525 526 527
          528 529 530 531 532 533
          534 535 536 537 538 539
          600 601 602 603 604 605
          606 607 608 609 610 611
          612 613 614 615 616 617
          618 619 620 621 622 623
          624 625 626 627 628 629
          690 691 692 693 694 695
          696 697 698 699 700 701
          702 703 704 705 706 707
          708 709 710 711 712 713
          714 715 716 717 718 719
          780 781 782 783 784 785
          786 787 788 789 790 791
          792 793 794 795 796 797
          798 799 800 801 802 803
          804 805 806 807 808 809
          876 877 878 879 880 881
          882 883 884 885 886 887
          888 889 890 891 892 893
          894 895 896 897 898 899
          900 901 902 903 904 905
          906 907 908 909 910 911
          912 913 914 915 916 917
          918 919 920 921 922 923
          924 925 926 927 928 929
          930 931 932 933 934 935
          936 937 938 939 940 941
          942 943 944 945 946 947
          948 949 950 951 952 953
          954 955 956 957 958 959
          960 961 962 963 964 965
          966 967 968 969 970 971
          972 973 974 975 976 977
          978 979 980 981 982 983
          984 985 986 987 988 989
          990 991 992 993 994 995
          996 997 998 999 1000 1001
          1002 1003 1004 1005 1006 1007
          1008 1009 1010 1011 1012 1013
          1014 1015 1016 1017 1018 1019
          1020 1021 1022 1023 1024 1025
          1026 1027 1028 1029 1030 1031
          1032 1033 1034 1035 1036 1037
          1038 1039 1040 1041 1042 1043
          1044 1045 1046 1047 1048 1049
          1050 1051 1052 1053 1054 1055
          1056 1057 1058 1059 1060 1061
          1062 1063 1064 1065 1066 1067
          1068 1069 1070 1071 1072 1073
          1074 1075 1076 1077 1078 1079
          1080 1081 1082 1083 1084 1085
          1086 1087 1088 1089 1090 1091
          1092 1093 1094 1095 1096 1097
          1098 1099 1100 1101 1102 1103
          1104 1105 1106 1107 1108 1109
          1110 1111 1112 1113 1114 1115
          1116 1117 1118 1119 1120 1121
          1122 1123 1124 1125 1126 1127
          1128 1129 1130 1131 1132 1133
          1134 1135 1136 1137 1138 1139
          1140 1141 1142 1143 1144 1145
          1146 1147 1148 1149 1150 1151
          1152 1153 1154 1155 1156 1157
          1158 1159 1160 1161 1162 1163
          1164 1165 1166 1167 1168 1169
          1170 1171 1172 1173 1174 1175
          1176 1177 1178 1179 1180 1181
          1182 1183 1184 1185 1186 1187
          1188 1189 1190 1191 1192 1193
          1194 1195 1196 1197 1198 1199
          1200 1201 1202 1203 1204 1205
          1206 1207 1208 1209 1210 1211
          1212 1213 1214 1215 1216 1217
          1218 1219 1220 1221 1222 1223
          1224 1225 1226 1227 1228 1229
          1230 1231 1232 1233 1234 1235
          1236 1237 1238 1239 1240 1241
          1242 1243 1244 1245 1246 1247
          1248 1249 1250 1251 1252 1253
          1254 1255 1256 1257 1258 1259
          1260 1261 1262 1263 1264 1265
          1266 1267 1268 1269 1270 1271
          1893 1894 1895 1896 1897 1898
          1920 1921 1922 1923 1924 1925
          1947 1948 1949 1974 1975 1976
          2001 2002 2003 2028 2029 2030
          2055 2056 2057 2112 2113 2114
          2115 2116 2117 2124 2125 2126
          2127 2128 2129 2130 2131 2132
          2133 2134 2135 2148 2149 2150
          2151 2152 2153 2164 2166 2168
          1926 1899 1927 1900 1928 1901
          1950 1951 1952 1953 1954 1955
          1977 1978 1979 2004 2005 2006
          2031 2032 2033 2058 2059 2060
          2142 2144 2146 2163 2143 2096
          2165 2145 2100 2167 2147 2104
        </DataArray>
        <DataArray type="Float64" Name="resid_x" format="ascii" RangeMin="-20.204568544858684" RangeMax="0.3402575377168571">
          -0.000045596927714441904 -8.22984906353689 0.00019964197353417035 -16.518815742330013 -0.000011953346233717355 -8.385168116721466
          0.00024341199433575156 -8.256963722856558 -0.00002240700141253882 -16.660951360589973 -0.00046231902648763423 -8.623585214876329
          -0.0007301819242231389 -8.348676400275236 -0.0006560814310603291 -16.926597146801356 -0.0015501001986573115 -8.976291067546375
          -0.00018103885808873343 -8.537934050213824 -0.000014293649562624466 -17.305574745463566 -0.0017398039138178945 -9.354048721135063
          -0.0007764430920849108 -8.787325173433207 -0.0008253081811337992 -17.724002512928333 -0.0016149099256947963 -9.626034483231436
          -0.00013117815407159839 -9.02997496064415 -0.000250589326554973 -18.116984322644008 -0.0013981632303874392 -9.702862266783347
          0.00018465879660567452 -9.273920025341395 0.0005156097860181674 -18.536719589627836 0.0002011555734400261 -9.566806649400103
          0.000909082002135797 -9.60268449971921 0.0019313675921841522 -19.110595152574362 0.0030562371747846484 -9.249698395502428
          0.0051101084506530725 -10.195661308474737 0.009531146489501374 -20.204568544858684 0.011907933407232285 -8.79403715351867
          0.014890177734624865 -6.330701331801356 0.027745279631240516 -12.491165682005116 0.022557909332935444 -4.8057606681800875
          0.0004486765959841321 0.0013273484721887385 0.00007833595629769263 0.00035396363488260363 0.0003411665066703762 -0.0012820764173726573
          -0.0006470978193453547 -0.0004166336354902711 -0.0029438555684189183 -0.00014709915001631657 0.0006194797994645285 -0.003595334612305656
          -0.0016590686468749283 -0.000868312625570411 -0.004497344282189175 0.0008337625954695227 0.0013471509195603915 -0.0024305917730256255
          0.0012963697599399637 0.002367580515037382 0.0010421536094069594 0.0029891252791109935 0.005214829515265862 0.00704910444847151
          0.00891611885714827 0.01578117317754213 0.02244056495225699 0.018388362287731663 0.03390343617686731 0.03645000607931792
          -0.00039807993504759054 0.000002446047695947584 -0.0012936433363837097 -0.0003499311149246509 0.00005637602743657766 -0.0032187539296639756
          -0.00035965017774142183 -0.00020098731801443392 -0.004944662673160849 -0.00011359882207884198 0.0005225012596552503 -0.006465340223798854
          -0.0010401696151811635 -0.0012425838713916448 -0.007486564859062739 0.0005932272128239546 0.0010925251725373286 -0.0037932105759335144
          0.0011468671912977513 0.002221666857686877 0.0014054023671787874 0.00291212389001938 0.005154581733292751 0.009609073080264707
          0.010552705985305444 0.01881863525923322 0.029837025337804857 0.023892430318356667 0.04320512034838673 0.04740596280167915
          -0.0004119005000839948 0.0001551522483671519 -0.002251049228991775 -0.0007044145857628692 -0.0003501609970522068 -0.00439403893923096
          -0.0000999310584806068 0.0008067909408646656 -0.005920185562368729 0.00004615088273673962 -0.0006532339243370267 -0.008011654852122518
          -0.0008862970142597959 -0.0021423894883483285 -0.008731486426721169 0.0006996257866029865 0.0012834524268132697 -0.004048569188210394
          0.0013980589030353485 0.002676603393293675 0.002386347818620571 0.002945371633634508 0.0053679267375033035 0.012298223758130167
          0.010525075315148236 0.01868049416099371 0.0327058906554738 0.019471005967000243 0.03542751870278282 0.046687203177376624
          -0.00037949443193419086 0.0001680198756490725 -0.003915254509243127 -0.0007820409518490834 -0.0002895006741958639 -0.006226934351112767
          0.00028600571961678867 0.0014726707618133439 -0.007279622385921947 -0.00041547683163223326 -0.0025322260526401408 -0.009042359348042872
          -0.0015039571301933563 -0.00355051531306394 -0.008981757432922954 0.0008649929185367 0.0015328711576545473 -0.0035315119594887534
          0.0014418048475626222 0.002956889087608161 0.0037155131539234887 0.0028996936413507868 0.005209484078676496 0.014619964379499972
          0.009497541340969917 0.016676074624613513 0.03402064240858138 0.010981250347020577 0.020626588029606152 0.04025059119180141
          -0.00033965722580564517 -0.00002450073220128246 -0.006286193975314269 -0.0009812187854718601 -0.00017931174452545662 -0.008561156139800019
          -0.000016336282731455043 0.0010973211140559158 -0.008511007289254913 -0.001523950030303034 -0.005816853411702905 -0.00905065327082255
          -0.0016577347232313855 -0.004586570881318863 -0.008137622453430637 0.0017664354458144516 0.0024213923205724797 -0.0028958219475692104
          0.001566433077509366 0.0030076038749697886 0.004792839518074743 0.0030224199583006595 0.005360915025868884 0.01625315404989669
          0.008476791319324661 0.014838275829865744 0.03450311973880282 0.007901955563048624 0.014303587473791457 0.034355003401886464
          -0.0016324620629033504 -0.0002898883571740285 -0.0074744574986693735 -0.0017205306002656684 0.0008670905831138498 -0.008889697426628373
          -0.001873533787816406 -0.0016220497871310968 -0.008428017852653014 -0.0022030165869146856 -0.006406253186919564 -0.010786933976449031
          -0.0009341839175984745 -0.003274061795959682 -0.007941657182247042 0.0030525046904275044 0.00392721308654842 -0.00241156152515698
          0.00203068647242155 0.003090516893011319 0.005246902334953951 0.003955902534556799 0.006743829378277333 0.016776878127945594
          0.007339146660368279 0.013395682651324403 0.03237143332934611 0.005498565105331532 0.011146651382934913 0.029112571009550114
          0.029824173551857847 -0.0008904751407001754 -0.014423633473681363 0.3402575377168571 0.09908890052441777 -0.015474011594536208
          0.054512310321919166 0.01874099453472411 -0.01289574159832707 0.00010406545298025094 0.002182732754040906 -0.014764358592524118
          0.0017298043302362842 0.0012408331579329968 -0.00992620133839317 0.0038961027862063347 0.004729153653770801 -0.0020414813653357733
          0.002403821261678374 0.004202922538807385 0.004051386616464647 0.005290978788157652 0.010738931722101164 0.017380552669576055
          0.0059831569164101595 0.013261977505045763 0.03106851737624794 -0.000012101590118662742 0.0013061121307726964 0.021840645681864723
          -0.04448945438946161 -0.010611176955567458 -0.00923796335699345 0.0005583781914335617 -0.0011653542101566217 -0.013556095706896976
          0.0004193768246789631 0.005009588680511712 -0.004070225200788258 0.0037921871516637395 0.011457082700538912 0.008324519924096663
          -0.0025753752417330134 -0.004188059578039471 0.013261180971486652 -0.0002972111780943365 -0.0005206391474938954 0.03083978601661297
          -0.0006126358510920582 -0.001830599784668152 0.048352853786796324 -0.00201314392810259 -0.005772751073827687 0.032607939981882605
          -0.0025707842663117257 0.0028842269778451834 0.009987588665754471 -0.000401520085290763 -0.00665044319364147 0.0097254346962527
          0.021151851022692514 -0.007316683795749679 -0.0034872632662122094 -0.0006965127973315166 0.019849115513559 -0.003981665885053082
          -0.00209156955482917 -0.003504375956664556 -0.004377341966489784 -0.0069628555661867125 -0.003292004410036964 -0.0036145129423910335
          -0.0028752788330626694 -0.0018537987108476414 -0.002477367870265007 -0.0059536747577996485 -0.0036091197726505903 -0.0056174788279547624
          -0.0010985018350559983 -0.001236455104891867 -0.003630129112192404 -0.0029162336596995075 0.002184426424594932 -0.01167030075636688
          0.000013142441762731272 -0.004208019447468292 -0.0007840162544949791 -0.016850209256165538 0.0010515690855029403 0.007036316067100867
          0.014285845506991746 0.004120139068913953 0.006997810966534401 -0.007350007080569099 -0.006360668163500782 -0.0009707829099480092
          -0.001327931745521982 0.0015872717173771589 -0.01438502586812107 -0.0016799442963070232 -0.014470439199186585 0.05555874330864119
          0.014112844140045877 0.011416331732802432 -0.08726681922104851 0.0010269959450284194 0.00289973101203711 -0.0005466754304745969
          -0.0030053587892011624 0.0008647920108684204 0.004582562179026972 -0.0001907564084759894 -0.00606271679874304 0.012709528572700135
          0.01340835946451735 0.010697095825160874 0.007545863136015241 -0.0015500952273919122 0.003902272652037242 0.0017411039206300383
          -0.00011519489646627523 -0.006272152953967047 0.005581141380060384 0.005612028604249919 0.0002494861001139381 0.009052854254472442
          0.01589338521081496 0.01873998963589224 0.012924141489629282 -0.002358516220433149 0.0005232711795180034 -0.005331888695257581
          0.0009220728745631401 0.004989723135962354 0.00963488891622255 0.0036538620684435363 -0.0008865239913929956 0.004650913669885681
          -0.004014141329606424 0.008758686693816298 0.008339583414479157 -0.003935095673593753 -0.001284690379986745 0.001558458927250858
          -0.0010501193118342411 -0.009251168941025817 -0.0032432644757899483 0.001728865050907604 -0.0033876793047380727 -0.006015478498477833
          -0.0021121314851131057 -0.0005817367314873145 -0.003938055195688572 -0.00003293385609448585 0.0023840334999873924 -0.0009124300078759973
          -1.7939329180535772 0.0000503060765513208 0.003268482576512577 -0.000302658947649026 -3.424912708284755 -0.0003897480949585086
          0.005293572631336341 0.004494984886505238 -1.2595706695461915 0.005266749871608245 -0.015438072953925297 0.003271511517178416
          -0.024693141223035453 0.009995761396153324 0.008195731442489584 -0.0006527421352914287 0.0044075898239006595 0.07511649234057444
          -0.023357831478832747 -0.008281429278430674 0.002461054713143618 0.1634858486510304 -0.023334885911453718 -0.003637285312731109
          -0.002149418716946294 0.0193329439888143 -0.00023114675855473443 -0.004383478992145751 -0.017973961958302143 0.02376014019486511
          0.020585468891394676 -0.011998894935237203 -0.03374298711530921 0.045929417675462714 0.05393910132478952 -0.008188498710353542
          -0.014497915788693083 0.029848791668821595 0.03836081008908959 0.00012043224925480447 -0.0003701085576648215 -0.001953562737401833
          -0.00045300307967045816 0.0000920197424258834 -0.00011633766507156487 -0.004275352924089343 -0.0010849450042655917 -0.0007371882131996244
          0.0018066746020810182 -0.0018184297246114228 -0.0005563666645194872 0.0003469075716877601 0.002095709928940148 0.001015158784251069
          0.005804440723753412 0.008068288272226054 0.01591739245528745 0.0013293581415733113 0.0015461425106637616 0.015450704619825895
          -0.007858532440934818 -0.0033414301008864444 -0.009960560938047758 -0.00317147442466853 -0.00411308428551771 -0.0018731051113879682
          -0.0013481948012382672 -0.003140482093753949 0.004451886916737702 -0.005731599238220753 -0.008187173278214332 0.004168873811163265
          0.0010058380450224114 -0.00047453598738056435 0.0030880018494602313 0.0049110631419194695 -0.003164820235760951 0.004467740934937181
          0.006491259337066499 0.012863258037501185 -0.007179285246393621 -0.011454559000172226 0.009939808051765253 0.019907603136633978
          0.015476815311306458 0.009315303323733648 0.03485640331652012 -1.2131002709106538 0.0011720897016088139 -1.5446111843152304
          -2.4659956390271276 0.0032111629879163495 -2.9465935346903103 -0.9792871145298361 0.005535474974218857 -1.1482391344053382
          -0.0007208699257133001 -0.0021984818868256983 -0.0029957038042662102 -0.003895161256257329 0.010711517955044682 0.01109122067637447
          -0.0006105316213806944 -0.009377012854855926 0.0013766419996946722 -0.018865186350569108 0.004767752127231184 -0.0034666032557524318
          0.0015183906663097935 -0.0034875609623356285 -0.0006225452276239357 -0.007841781222978406 0.007986387842347509 0.009069963756108648
          -1.3637391791072693 0.0003741417778473366 0.0018770727645848473 -1.6443866781051226 -2.65910553458714 -0.0015378722879344497
          0.004728044316554179 -3.1879944665911406 -1.276340623240256 0.005242585055972304 0.007102640926874543 -1.4071062705553568
          -0.000524590522598567 0.0037168470245210194 0.004782335319361786 -0.0004000787305445952 0.008543379490233871 0.00198174576763388
          0.013067302545831105 0.017587436586897542 0.01078348805513285 0.0028396847282850246 0.00009592729222163143 0.0072585455669368915
          0.0006305869210306847 0.0033625128046217423 0.0005535744703928369 0.003984429299163539 0.0015082187594008811 0.005953702985032727
          0.0018351971319787719 0.022237538023060277 0.01671090402073605 0.0052704745273278045 -0.005686418073317934 0.009244490420320777
          -0.009997450781368739 0.028642906891146572 0.012814855835289074 -0.000584561835751285 0.0014278328735256585 -0.0016263319751554928
          0.0010113831380922367 0.008660718658476618 0.00871920123769332 0.000008320594588134833 -0.002500292439804014 -0.00039630740958122856
          -0.00021656936107356667 -0.0047524730242224965 -0.0008467012521464895 -0.00005048319877420937 -0.00206851355153918 -0.00036900287699073026
          0.0002503299058957964 -0.002603946763467882 -0.0019760212228736584 -0.0004913249057005853 -0.007930536355956808 -0.005456130920092006
          0.007369154673499967 -0.003133873953749422 0.004276063143633935 -0.002970584718769903 -0.003510291213512151 -1.3249270649127975
          -0.004893899864762685 -0.005087708154423498 -2.583718428259833 0.0004257590367160169 0.0011385284592986267 -1.0711873124718772
          -1.2617878694126587 -2.5162425214565642 -1.190006981887731 -0.000024927391671054205 -0.0007753554747308988 -0.0032237368023798063
          -0.0019367727924742345 -0.0001981415454782691 -0.00172318458817107 -0.006511382243726882 -0.003966010068985764 -0.0001044096421650674
          -0.0007852825371215885 -0.0032588194711324348 -0.0020543010073902843 -0.00598475383558672 0.0016745380986631364 -0.009784552742961639
          -0.0024195001959650964 0.00346118846242649 0.01170393186421595 -0.0026150642573890062 -0.0009198887495132577 -0.005133834197990052
          -0.0018221277503770728 -0.002479230670882092 -0.000867959214462373 0.007823636801474465 -0.0000928040847425482 0.01705408253073487
          0.0009318243566924928 0.012999136870625205 0.02007774710541063 0.03277341338085327 -0.044769304492663586 0.0582732123483134
          -0.05105235348785797 0.035520134139391146 0.004835484264578138 -0.0030742027820250123 -0.005964400716020321 -0.002933006710488753
          -0.002544589582519796 -0.005149763968254617 0.007092207944485063 -0.02899477340667711 0.022638533211811973 -0.051783245227255414
          0.04130238632846117 0.02779134750833756 0.03125527699902675 -0.002491990227895924 -0.005243232854633684 0.0020305040452512912
          -0.011138101379811971 -0.024637180382110102 0.002715603690773588 -0.000600650643300088 -0.0011790910689797388 -0.00022944958166457724
          -0.0027278214267583145 -0.008375985388951013 -0.005487123763159074 0.004291038167991701 -0.0010842770327879059 -0.014377277683703227
          -0.000974280418182049 0.0002536921167928252 -0.006391566052134007 0.024351527061354572 0.032705289859829234 0.022740857572555617
          -1.301447060495593 -2.473968371356003 -1.0876258892091717 -1.6869463365706203 -3.250646501301783 -1.168020357899157
          -0.00701295929740961 -0.013630265498753999 -0.006688787411934238 -0.0005118564093183082 -0.0012555581508314761 -0.0007554357285271748
          -0.002999569999968088 -0.0020862147329223646 0.0008560716560532811 -0.012678596738677328 -0.013327801679853923 0.011732095253488062
          0.0024633537753224743 0.005389351122787822 0.008908317783452802 -0.011626431900388035 0.00213078351504592 0.02646358587940778
          -0.002344856716943511 -0.001111326696933368 0.014751765875672618 -0.0005578839080548903 -0.0006178824619400558 0.018790219760253635
          0.0012260019015331025 0.005728210285893098 0.0290103788327869 -0.0020819049170599513 0.0029327680450608185 0.03470027024132705
          -0.014505398832664218 -0.0259347038138098 0.009580804791774256 -0.004922638612191221 -0.004572838628900788 -0.009611915791762238
          -0.010036638169278411 0.0002346110296591597 0.0005905401754329742 -0.0015624128095973883 -0.0496761815468183 -0.035804930977108684
          0.0013273352909624059 -0.0022937685037797903 -0.10831831696844807 -0.07565993340636301 -0.0008237060179530076 -0.002544535794392816
          -0.05996550195860584 -0.0034444273122113955 -0.0014979512337163214 0.016864268308166563 0.032695036253899634 0.06483197504754634
          -0.0047797347036573345 -0.008334186539561639 -0.002743366121912505 -0.04385973304509544 -0.09303589536870327 -0.04625829732327097
          0.0015297971491659013 0.0033327987121083424 -0.0006456402114132231 0.0008362229508609431 0.0037128397209809094 0.001483815923394971
          -0.005879903186392532 -0.005624257997386195 0.011662875081574597 0.0035725064177496435 0.0034260687160152514 0.009885468337061276
          0.0033506643893446153 0.0036546211176791132 0.015427366525059938 0.003902436986521707 0.007190359156361126 0.018795971256498234
          -0.004492487822289171 -0.01070472648316212 0.010889637745827407 -0.010780257991227948 -0.022885003963521555 -0.0031116176637802084
          -0.007747149684753651 -0.012873117619927044 -0.005556377486545472 -0.012632316477490857 -0.00946573930414818 -0.0022781522137771404
          0.02086636765995209 -0.015588065530882211 0.016379921214968896 0.03235993266381021 -0.007478547079951436 0.016159602893018654
        </DataArray>
        <DataArray type="Float64" Name="resid_y" format="ascii" RangeMin="-0.09972154181079684" RangeMax="0.07074058891312009">
          -0.0011684685234648745 -0.0005609673606412138 -0.002387213674502661 -0.0021372893534244916 -0.0012681409753636016 -0.0016617413604225533
          0.0007793889326813547 -0.0004149387212667513 0.0013070159517065538 -0.00219557446346072 0.00045400832356957965 -0.001904640366317406
          -0.00032161306778038384 -0.0011869632164130117 0.00045536050288286917 -0.0031776881071282487 0.0000727436349244881 -0.002410721898603946
          -0.000695437765473067 -0.0013517875544158398 -0.00042461965882611974 -0.0033054583600348464 -0.0008851336565803836 -0.0025284139573268916
          -0.0007640001903334304 -0.001335382211224978 -0.0007471580594691773 -0.0029545504686559476 -0.002464657440108764 -0.002897872292177417
          0.00028146762796754654 -0.000979948437199507 0.0012604104393261761 -0.00201988567195166 -0.002626783857089643 -0.0028823472901833846
          0.00035312179446927994 -0.00028359270578326434 0.0017073300206833508 -0.0006486372103127747 -0.003245595884909136 -0.0027326441272867985
          0.00023675574482229234 -0.00029505789730654985 0.0016789218265684247 -0.0004439185649102728 -0.003952770173142328 -0.002913500182389006
          0.0001229835892206932 -0.00008693343117815999 0.002318273988705599 0.00042839193742816306 -0.005027612089545885 -0.0036089334907127846
          0.001611277452136406 0.000021334750285206816 0.0052387266411410005 0.0010506357809745293 -0.006727828360299837 -0.002455353526379933
          -0.0024773092370320438 -0.0037484763096653773 -0.0019899425246735145 -0.0018737539635562545 -0.002422133422029203 -0.0014933649872742108
          -0.0020542863446593174 -0.0030411308301988293 -0.0017651911594276787 -0.0025685659813714026 -0.0038487262375061157 -0.0026032364947439213
          -0.001338703618887993 -0.0017774488065409044 -0.002782780215383085 -0.0006435873699686123 -0.00010114880505662782 -0.0030578314950366337
          -0.0005326999601623639 0.0000390455978820925 -0.0038628872896477318 -0.00043887020238042584 0.000614867001140218 -0.004256223453428243
          -0.00007002180435189409 0.0019576012602260384 -0.0034466463715072115 0.0040199703124487104 0.009148075134936401 -0.004864239087893796
          -0.0013125428223151048 -0.00169464436083748 -0.0012143336917097847 -0.0010237340958135221 -0.0004975314731503339 -0.0006533608317087561
          -0.001163643120802943 -0.000686020704540144 -0.0007873073530492158 -0.00040684107195574845 0.0000634287454480513 -0.0010158583122056308
          -0.0006672344764405147 0.0006339281006493697 -0.0012308627263172556 -0.00008731758136715229 0.0011966304280211504 -0.0017739832577751136
          0.0007506839188149983 0.0022901502032749987 -0.0025653204847714828 0.0006754641118903448 0.0028348805312331526 -0.002623979738101523
          0.0006768100687837841 0.003255332524593646 -0.0023278598741546253 0.0001486760941080134 0.003165535510297024 -0.006857921383166488
          -0.0011667819696075943 -0.0013695917106701233 -0.0011089402026205064 -0.0008198251865796369 -0.00032988650331769453 -0.0005628981541749845
          -0.0008573904912929364 -0.0004598033306541932 -0.0008919609649190585 -0.000049403976727521726 0.0011260228226520133 -0.0007080407543593181
          -0.000771545016283029 -0.000002549790139916297 -0.0011198379015647242 -0.00007057162343604428 0.001190163047567555 -0.0010455995259954498
          0.0009631592444473425 0.002619425935506514 -0.0018765661431293101 0.0010943371195000773 0.003542834659650662 -0.0017432214914571975
          0.0012058266737966228 0.004209187144981585 -0.0017140238968838817 0.0049771767170649905 0.010097407731209262 -0.002416620807090819
          -0.0013479558475373854 -0.0015822548733117336 -0.0011941796189099962 -0.0005546025090841511 -0.0003301697552183791 -0.0003481787319610033
          -0.0011021459305418924 -0.0008581269622540133 -0.0010453065333442084 0.00018634095970761905 0.0008820694609141186 -0.00042818574580587646
          -0.0010752833821688623 -0.0005689251648448856 -0.000602738238124706 -0.000032531200640534275 0.0014004349806192723 -0.00031193384588765194
          0.0013134951533648187 0.003123539676810977 -0.0011353942207789347 0.0014297713647401789 0.003895918848901142 -0.0013001191121141398
          0.002082021812464363 0.005676436709600052 -0.0010929448656256113 0.002754077226592988 0.006038986793130419 -0.0015319679149450316
          -0.0021183320717750864 -0.002893938448882971 -0.0015558537677283768 -0.0015441831758903346 -0.0021463515934842248 -0.0005474586133571158
          -0.0025287117202150086 -0.002400854679592529 -0.0005432469700084874 -0.0014200878875567534 -0.0005316055298326683 -0.00022594947293794188
          -0.0019909461507030754 -0.001168235516564007 -0.00011951664293870234 0.00045815693549561276 0.0020062501117759923 0.0002497099127183964
          0.001534603813769575 0.00339806208367488 -0.0006710041611748402 0.001986881372206817 0.004599484107686333 -0.0009767165773728326
          0.0019531550028942246 0.005105093915136909 -0.001358973203530539 0.0005615817817744562 0.001740099593687261 -0.0006273688377163023
          -0.00358236521711891 -0.005240003853919095 -0.002142387298641024 -0.00314511208814202 -0.0038580126423022956 -0.000309694807542886
          -0.00585107659293709 -0.006392808594762454 -0.0006039998069514718 -0.00355727838614058 -0.004935145595549428 -0.0010276126146213649
          0.0013566617688190868 0.0007289278744556848 -0.0007136985504334337 0.0014977998284721322 0.0028017506916201834 0.0002527029848620327
          0.0012982151543801113 0.00325807560881209 -0.000700224361980379 0.002606119784698789 0.005572738412700066 -0.0010493173422594648
          0.0028449354638494656 0.006232479606439575 -0.0015050378458443953 0.0016592975320634529 0.0030755567365367553 -0.00001544934400588005
          -0.03823455548350291 -0.03634104750995992 -0.009877428226180929 -0.06589869394180126 -0.04711149069915832 -0.005841773285944596
          0.005994580319554799 -0.006368035942759809 -0.0038292606885299563 0.0016908348063605916 -0.0008567851809946833 -0.0020195602042080985
          0.003465786591729388 0.006464332212420959 0.001950632282298831 0.0011907132967005594 0.002766973038827055 0.00028172040531657117
          0.001172807792370223 0.0029107201476901434 -0.0015358549680987155 0.0034518740480717694 0.007484858446951667 -0.0013472213445440001
          0.003293233134081641 0.007170478519386243 -0.0022202803442300106 0.0009837783325765126 0.001816346304763572 -0.001041119695081666
          0.019285334498054696 0.014024474729313452 -0.0023746826188728587 0.0027144387810205117 0.006237085946072085 -0.0001600962412862117
          -0.0030142783377876126 -0.00412034749746637 -0.0028386027079490284 0.0011186310069982996 0.004227724196358085 -0.001013055605218749
          0.0017399830884146927 0.00427432191482352 -0.002522974512294107 0.0012391299901138852 0.004440204745433718 0.0014021046676215843
          0.0018711148879794193 0.005303671065600146 0.005568524845874334 0.0023012294066031558 0.004480938141673052 0.006712770306510352
          0.00040227784961338175 -0.0014712419250286837 -0.005322954720453271 0.017097830153164573 0.001024159284968594 -0.002844382008194646
          -0.006778082173784172 0.035004130675739265 0.0005892373474015861 -0.004991895996730986 0.005041756628715671 0.014087450239236396
          -0.0011636797482799388 -0.0006984990896991511 -0.0026408519738612413 -0.0012953767783957931 -0.0017747015072477612 -0.00032339997003501264
          -0.0008008180979081642 -0.00031210228560777514 -0.0006073901452557373 -0.001505087211430535 -0.0009703054055688332 -0.001526446086720007
          0.0017871538196370662 -0.0007267826696200769 -0.0009903575585375468 0.001270415981001527 -0.0015449244399341477 0.012480041080232568
          -0.002111493519354579 0.0037645848570075913 0.0013046712412621564 0.022855470984845 -0.003123200314137653 -0.0013420570177617996
          -0.0023679737090867015 0.006099803315713553 -0.004533795939594604 0.0013400637405764915 -0.00306920093584534 0.00013029642512681072
          0.00017365013742148827 -0.009826193954449725 -0.01271525004182339 0.00328632892347111 -0.0023248777133901277 -0.0371436358455588
          -0.00984467023938057 0.00927385947169257 -0.04040424268765447 -0.0058283919303744325 0.000764970703385881 0.0023577277987287815
          -0.0005737326820435817 -0.011481983636325965 0.0031940468416753465 0.004411970450267644 -0.001332358590489191 -0.009854225169642322
          0.0006923263745725605 0.0005714384235774306 -0.0047368971749354935 -0.00023448068070786032 0.0016328491240567011 0.004487345987789548
          -0.004854285758956189 -0.0036296467754499684 0.001707398631980661 0.007665520823484817 -0.008676115247558125 -0.0016538902653501775
          -0.0005242987797466903 0.0036697336611696066 -0.001323619373893803 -0.00010862735556060876 -0.0026618672945514232 -0.00021372163636579344
          -0.005612073475473406 0.00020450241193630675 -0.003239621001490056 -0.0027341484109699166 -0.0007490229135547477 -0.003755387519358444
          -0.002619100504535621 -0.00282049707708458 -0.0027246212172920836 -0.0032334089317462506 -0.002506710518123803 0.0017633563652158374
          0.0027904772245618825 -0.0053856060239179104 -0.0052284921243733185 0.0009030258888969162 0.005326694362252249 -0.001248153385099704
          -0.002713223634789985 -0.002070518156572082 -0.006163042813233766 -0.0025818653398164857 -0.005854237730961276 -0.002997511346127652
          -0.0023557183919830083 -0.004958227896580563 -0.009910227501597313 -0.004990163341023071 -0.0037250746623388453 -0.005127420418402829
          -0.0076619719387485685 -0.005944279495656998 -0.004142924135331096 -0.0032433491717475116 -0.024140408803103364 -0.0013910972206083727
          -0.02667638440308928 0.00030214540651840593 -0.008788422919984606 0.0008227259950111532 0.006482659619933009 -0.006693050159845393
          -0.010646886976663092 0.0050633139562406 0.011187329229417734 -0.02157041586880787 -0.01598494583036289 0.005331075186991718
          0.006886154274143075 -0.011200780577071634 -0.005756366050950423 -0.030575437939733607 -0.03576167872174896 -0.003932847446130094
          0.025964849300165998 -0.06045812886009516 -0.0660235011115411 -0.006406083409939006 0.05199723542825835 -0.03474637078779752
          -0.030812095614623614 0.002533857550205826 0.03370062876062836 -0.00005276240423622569 -0.0004780977160237787 -0.00029541412382199164
          0.00006404315283510542 -0.0002682124993947377 -0.0005798467756726357 0.00015980230870084322 -0.0004568805079726568 -0.0002315007189730156
          0.0007344685633872972 0.0013657735258249502 -0.0013020451432160605 0.00008850944046329134 0.0019696516758195004 0.00105568040904791
          0.004022268195407325 0.0005940103301587119 0.0024919412246364042 -0.003099641445490686 -0.004238216669331829 -0.008843070490509197
          -0.003947116962662478 -0.0007687840479000951 -0.0035497699169461105 -0.0025148672561619567 -0.0005725968269880144 0.00027185693555081825
          -0.0006825408847185854 -0.004421866102187477 -0.001044013928528674 -0.006388467921502328 -0.012462235837171931 -0.0021585214933158847
          0.0017771053001061354 -0.0050864854842656015 0.0007053500475298069 0.00416153987988481 0.0023444655156160676 0.012866528482791795
          -0.0017434499935925357 0.013365342877844077 0.013595014170480035 0.022483214171136856 0.002297933927892945 0.007486090046259275
          0.014699366223722976 0.029511154494286318 0.007978500985483375 0.0001585587006026623 -0.0013106244797261857 -0.0007499147602705106
          0.0004642298127057187 -0.0020554228382806405 -0.000954345954079755 -0.0012738373262954766 -0.004596078120618213 -0.002390354163579439
          -0.001521318712178213 0.00009998106245290295 -0.004024698061060303 0.0005137204136627105 0.00010349361919292921 -0.0003575845021031032
          -0.002936979232823933 0.00166298856519842 -0.00522711386391439 -0.0038067336992761436 0.0024264013603448875 -0.0029033714161299518
          0.0009268287271337883 -0.00476843581265618 -0.0009561653557406125 -0.012898694094776009 -0.0018925834929885976 -0.0016135668777706447
          -0.000840430309763017 0.0018023376336068764 0.00012065699453256418 -0.0019049236627392621 0.001049001760144594 0.005296162044768238
          0.002237587878599734 -0.0014646163424224673 0.00047457859116652873 -0.0003623726760397239 -0.00151157593603235 -0.0000996963281706259
          0.000521674365631497 0.004562163402592245 -0.001722965681627553 0.0007306491486466504 0.007394234604973238 -0.004446838538393796
          0.00005817614950900246 0.0033555747437514216 -0.0033010237092011147 -0.0058648149995783605 -0.008150339946843221 -0.015088327526477457
          -0.016270060766622074 -0.005491713151585698 -0.0072962623534182924 -0.0007478772270597678 -0.0003258756868937396 -0.003071953305175401
          -0.002129856051348855 -0.006244400786555193 -0.005361709442878115 0.003239875618346544 -0.0006883185499130251 0.005822618204969987
          0.003561243407741374 0.005683200881798495 -0.0006950717448833688 -0.0038288973527373232 -0.00037325440758806394 -0.008002664775439705
          -0.0044976318586879005 -0.0003595064804566561 -0.001498696122635479 -0.00032684773438546207 -0.000051933070097218495 -0.0002381692770348446
          -0.0008251479672896217 -0.0003213545714501678 -0.0005164045797710626 -0.00043285677518923454 -0.00042896094319370276 -0.00019924651509426947
          0.0006970633415316341 -0.001085123119329623 -0.0037930213148115177 0.0011509109832519293 -0.004291073383104305 -0.010259924234548246
          0.004117482219419655 -0.0038142387878543627 -0.0037680095608125797 0.0022250274422928318 0.004889566246038243 -0.00043960952325634156
          0.003745944001065926 0.007793228696613835 -0.00043867508457654664 -0.0016971578820523942 -0.0015453840039718197 -0.0013693814960733259
          -0.0008489523575045121 -0.0008160487765667482 -0.0015576985683846516 0.00003091606182435008 -0.0002372555489652678 -0.000006286791525023788
          -0.000580415258325132 -0.0000728394741161785 -0.0005188973311002834 -0.00004706097419883426 -0.0013899342995193093 -0.00016678982448805474
          -0.00019981242756914042 0.00010958455860471394 -0.0008271853581858779 0.0013775496118300229 0.00872242019518088 0.0030506721259994513
          0.01629714156228368 -0.0010814385012109864 0.0015839357372580132 0.00001833920877682832 0.00007656923979129475 -0.00017170768905672845
          -0.00010379081449412436 -0.0001581744261605622 -0.00017615264012075388 0.00034042528741495826 -0.006610862173607179 0.0000888806384685692
          -0.013821915872002322 -0.005026609456402598 -0.007406242595478618 -0.02732925414966436 0.01849236281128741 -0.039102367276996564
          0.03930021892437274 -0.01351332047625381 0.022571020867425018 -0.002308825609998514 -0.004542342353129453 -0.002091977280768053
          0.0013251116880119707 0.00268011163329529 0.004481966810032878 -0.023992427600210364 -0.007516395557552014 -0.022486679881021265
          0.006792001546732818 0.006861794983141767 0.05052458041996366 -0.0006238707311864433 -0.0025486901297568365 -0.0025344428595699964
          -0.006774975783366027 -0.00920177977706471 -0.00036741972806747514 -0.00021891143860459103 -0.0006601227828335792 -0.0004871210956441628
          -0.006419947721323871 -0.019000184497615202 -0.011451564176415685 0.00936597065046138 0.027174831982258653 0.008087919007487732
          -0.003635833297066182 -0.01589209237143363 -0.00502160983801947 0.0015956666680581044 -0.008661635636663223 -0.018809335675800953
          -0.02974512106329021 -0.05366617030956698 -0.02466093673461943 -0.0035877447328196005 -0.006868980618328552 -0.003867760217714719
          -0.0017241476231191905 -0.003752479163514788 -0.00205982495739623 0.0002607000486417512 0.000365378125016194 -0.000575665521742371
          -0.0005588721016026588 -0.0012215367689463186 -0.005291181694364044 -0.003876655174848087 -0.00492093198564128 -0.00544595168129311
          -0.009213666928121006 -0.014568450857714438 -0.00775344396886532 -0.005101144533919633 -0.009409130774061913 -0.00007603889224394589
          -0.0017991415444371661 -0.0004298361971342146 -0.004863649387738089 0.00028780055696042695 0.0018048557772886165 -0.002316251326672125
          0.0018412749998691913 0.007237422654273518 0.0055414669700741825 0.0013175713667328282 0.006164383750122626 0.006093469754766545
          -0.0006156735262370372 0.0007576587334412466 -0.0016685776790922313 -0.0013741824940597391 -0.0013723623513464123 -0.0026132986235781197
          -0.0036876458837622472 -0.00037413229605659515 -0.0013573365993523323 -0.001318684478202714 -0.030951699565450908 -0.047097779978243104
          -0.0024006674569323483 -0.003698215535923588 -0.06826593437608869 -0.09972154181079684 -0.005676958446720448 -0.0020592355270674934
          -0.04099658421064595 -0.019855413825455748 -0.002850003409330948 0.029935964727899556 0.07074058891312009 0.017845754844978134
          0.0013420264824435257 0.003952865025063368 0.00010240583830048444 0.028152137454442158 0.06565252599118547 0.0382245087216522
          -0.0043973440237799755 -0.00369029727756498 -0.011753653528415564 -0.006281684669509735 -0.005027931407835751 -0.004972563593185875
          0.001347309185253609 0.0024203068261954286 -0.0018060300134883356 -0.0031857808510883934 -0.004826833922667029 -0.0052771507411255025
          -0.0003080079297158034 -0.0021688405918056652 -0.0023169288821129064 -0.0017751997013258358 -0.0016132122398986315 -0.0011946022149587066
          0.0011342314859730251 0.001914800742779832 -0.0005730568835322636 0.0013241293585655178 0.0017188870484239338 -0.004788085777266637
          -0.0010671446390908557 -0.0025948467756315985 -0.0032111686550282403 -0.00044580718238196315 -0.003720992140459005 0.0017814095508241756
          0.025543735299245807 -0.005513215514725445 -0.039308457954450926 0.02824716772988689 -0.0030120511725660742 -0.03664096481481738
        </DataArray>
        <DataArray type="Float64" Name="resid_z" format="ascii" RangeMin="0" RangeMax="0">
          0 0 0 0 0 0
          0 0 0 0 0 0
          0 0 0 0 0 0
          0 0 0 0 0 0
          0 0 0 0 0 0
          0 0 0 0 0 0
          0 0 0 0 0 0
          0 0 0 0 0 0
          0 0 0 0 0 0
          0 0 0 0 0 0
          0 0 0 0 0 0
          0 0 0 0 0 0
          0 0 0 0 0 0
          0 0 0 0 0 0
          0 0 0 0 0 0
          0 0 0 0 0 0
          0 0 0 0 0 0
          0 0 0 0 0 0
          0 0 0 0 0 0
          0 0 0 0 0 0
          0 0 0 0 0 0
          0 0 0 0 0 0
          0 0 0 0 0 0
          0 0 0 0 0 0
          0 0 0 0 0 0
          0 0 0 0 0 0
          0 0 0 0 0 0
          0 0 0 0 0 0
          0 0 0 0 0 0
          0 0 0 0 0 0
          0 0 0 0 0 0
          0 0 0 0 0 0
          0 0 0 0 0 0
          0 0 0 0 0 0
          0 0 0 0 0 0
          0 0 0 0 0 0
          0 0 0 0 0 0
          0 0 0 0 0 0
          0 0 0 0 0 0
          0 0 0 0 0 0
          0 0 0 0 0 0
          0 0 0 0 0 0
          0 0 0 0 0 0
          0 0 0 0 0 0
          0 0 0 0 0 0
          0 0 0 0 0 0
          0 0 0 0 0 0
          0 0 0 0 0 0
          0 0 0 0 0 0
          0 0 0 0 0 0
          0 0 0 0 0 0
          0 0 0 0 0 0
          0 0 0 0 0 0
          0 0 0 0 0 0
          0 0 0 0 0 0
          0 0 0 0 0 0
          0 0 0 0 0 0
          0 0 0 0 0 0
          0 0 0 0 0 0
          0 0 0 0 0 0
          0 0 0 0 0 0
          0 0 0 0 0 0
          0 0 0 0 0 0
          0 0 0 0 0 0
          0 0 0 0 0 0
          0 0 0 0 0 0
          0 0 0 0 0 0
          0 0 0 0 0 0
          0 0 0 0 0 0
          0 0 0 0 0 0
          0 0 0 0 0 0
          0 0 0 0 0 0
          0 0 0 0 0 0
          0 0 0 0 0 0
          0 0 0 0 0 0
          0 0 0 0 0 0
          0 0 0 0 0 0
          0 0 0 0 0 0
          0 0 0 0 0 0
          0 0 0 0 0 0
          0 0 0 0 0 0
          0 0 0 0 0 0
          0 0 0 0 0 0
          0 0 0 0 0 0
          0 0 0 0 0 0
          0 0 0 0 0 0
          0 0 0 0 0 0
          0 0 0 0 0 0
          0 0 0 0 0 0
          0 0 0 0 0 0
          0 0 0 0 0 0
          0 0 0 0 0 0
          0 0 0 0 0 0
          0 0 0 0 0 0
          0 0 0 0 0 0
          0 0 0 0 0 0
          0 0 0 0 0 0
          0 0 0 0 0 0
          0 0 0 0 0 0
          0 0 0 0 0 0
          0 0 0 0 0 0
          0 0 0 0 0 0
          0 0 0 0 0 0
          0 0 0 0 0 0
          0 0 0 0 0 0
          0 0 0 0 0 0
          0 0 0 0 0 0
          0 0 0 0 0 0
          0 0 0 0 0 0
          0 0 0 0 0 0
          0 0 0 0 0 0
          0 0 0 0 0 0
          0 0 0 0 0 0
          0 0 0 0 0 0
          0 0 0 0 0 0
          0 0 0 0 0 0
          0 0 0 0 0 0
          0 0 0 0 0 0
          0 0 0 0 0 0
          0 0 0 0 0 0
          0 0 0 0 0 0
          0 0 0 0 0 0
          0 0 0 0 0 0
          0 0 0 0 0 0
          0 0 0 0 0 0
          0 0 0 0 0 0
        </DataArray>
        <DataArray type="Float64" Name="stress_zz" format="ascii" RangeMin="-111920217.62546794" RangeMax="192925777.5304218">
          1086542.74626242 1207240.6171655527 391001.19607192907 493836.1400328401 -304540.3541185618 -219568.33709987244
          213673.84429287032 451735.4711356438 -343211.8146151906 -168646.70204666257 -900097.4735232515 -789028.8752289689
          -1670294.41563471 -1569019.071896491 -1739622.1108675043 -1693173.5300302198 -1808949.806100298 -1817327.988163948
          -3123721.584033623 -3261999.964345554 -2629181.556043842 -2768588.9137434084 -2134641.5280540613 -2275177.863141262
          -3018609.5770683507 -3222817.57785773 -2222201.5473696548 -2397837.953972599 -1425793.517670958 -1572858.3300874673
          -1794419.379846023 -2063145.325294067 -1065133.8868581012 -1284356.471653933 -335848.39387017925 -505567.6180137989
          577345.764229381 172784.71411485563 778902.0679060004 352855.58663947566 980458.3715826198 532926.4591640958
          4145298.3710765527 2810397.7975406 3280037.0037924554 1609766.139259683 2414775.636508359 409134.480978766
          7993919.053469161 7337112.950442336 5845331.1034489395 5211138.636576576 3696743.1534287175 3085164.322710816
          39315432.705850914 13776415.319579499 32650395.93814646 9695402.481394162 25985359.170442015 5614389.643208827
          623778.9421573189 19604.118217746087 -584570.7057218268 -493174.09622902476 -847643.001089977 -1202111.905950929
          -1941512.776295301 -1855132.3051156932 -1768751.8339360857 -2785261.580757905 -2278917.9593166565 -1772574.337875408
          -2485615.5017237165 -1769022.9053464923 -1052430.3089692679 -972148.5299605245 -371538.09017819236 229072.34960413983
          1926931.8304611973 2193053.0013371017 2459174.1722130063 5811861.5374125205 5612844.711987857 5413827.886563192
          8383744.487799316 6570402.803129402 4757061.118459486 -997129.6465126621 -3523371.3293596646 -6049613.012206669
          -456686.0805058776 -776175.5832296133 -1095665.0859533492 -1673937.8985573933 -1624990.7227811033 -1576043.5470048133
          -2384414.8923041224 -2011582.9503736515 -1638751.00844318 -2440508.560162085 -1868124.2574170344 -1295739.9546719834
          -1765276.1909380446 -1150472.1436669119 -535668.096395779 423946.9570154157 842604.7298871059 1261262.502758796
          3820120.9008408966 4151949.462635209 4483778.024429521 6076534.050104576 6539961.552937266 7003389.055769958
          3240216.7870396636 2260995.193361336 1281773.5996830082 -2116845.3822879912 -3214392.10670574 -4311938.831123489
          -2527433.7613099995 -2164685.549461331 -1801937.3376126634 -3370074.7499136375 -2624410.5458222693 -1878746.3417309015
          -3048383.54291458 -2221789.555752824 -1395195.568591068 -2210934.10774153 -1502234.1263724999 -793534.1450034699
          -877381.228816954 -373663.30763554084 130054.61354587227 2061837.326103847 2262968.300604986 2464099.2751061246
          5599033.817566395 5916858.829722699 6234683.841879003 5674093.184596523 6641128.943502942 7608164.70240936
          -1543126.081986376 -2148175.744370308 -2753225.4067542395 -4757337.350350599 -6854904.51033181 -8952471.670313023
          -5740924.644802363 -4145053.2325257706 -2549181.8202491794 -5474653.314125988 -3752734.039765177 -2030814.7654043657
          -3871118.2498251786 -2495561.5475320537 -1120004.8452389282 -2028419.435918335 -1170901.0410910437 -313382.6462637527
          131034.8586193835 497034.2414884813 863033.6243575789 3526692.278192672 3486735.341210547 3446778.404228422
          6886443.897076609 7021596.555620478 7156749.214164347 5685621.744097466 6571211.696896088 7456801.649694709
          -2334262.121968682 -3267877.555590182 -4201492.989211681 -20743461.507178128 -23740044.471999235 -26736627.43682035
          -9496971.185038721 -6367974.065087146 -3238976.9451355706 -7430338.31895128 -4786401.689090829 -2142465.059230379
          -4605447.174858714 -2791752.3957673903 -978057.6166760651 -1846920.29956033 -882831.8952706486 81256.50901903259
          1105085.358071159 1312951.4781484527 1520817.5982257468 4612258.013465951 4279353.164095452 3946448.3147249534
          7785861.38170499 7474143.723018389 7162426.064331789 6319336.1259445865 6371715.718527266 6424095.311109943
          -2605275.238623542 -4312285.084866624 -6019294.931109706 -7974487.134732598 -12923454.648149233 -17872422.161565866
          -11909755.018323198 -8254534.7434754865 -4599314.468627774 -7968646.479855553 -5587841.471976695 -3207036.4640978365
          -4733035.667641948 -3164056.1184917027 -1595076.5693414574 -1646908.2322551375 -796292.4216821633 54323.38889081133
          1975820.3910326161 1928337.882420014 1880855.3738074116 5333289.184116641 4650659.435939513 3968029.6877623843
          8256148.448986797 7331528.224718869 6406908.000450938 8024922.5142831 6877137.551336766 5729352.588390432
          1457510.5486089943 -1041017.7955401201 -3539546.139689234 -2496030.059152742 -5670301.977333024 -8844573.895513305
          -9793669.085471313 -10184415.169107411 -10575161.252743509 -6563741.990469969 -7701431.041004779 -8839120.091539588
          -2729309.007618063 -4473446.721236528 -6217584.434854992 832421.1061401742 -1154900.3246262535 -3142221.7553926813
          3880358.7276443085 2041673.7374353749 202988.74722644108 6250424.103670366 5025263.312295092 3800102.5209198175
          7239138.719295977 7187152.302977031 7135165.886658084 7743973.194892235 9112088.792175112 10480204.389457991
          5163894.83753739 8025180.49357421 10886466.149611032 -5137502.287000463 577508.2257848354 6292518.738570133
          -5879.374898677575 -3809750.9933087276 -7613622.611718778 2742479.3862931835 -693490.6217459727 -4129460.629785129
          4710170.655783283 2215532.2406944656 -279106.17439435155 5946845.610418551 4873340.198549486 3799834.786680421
          5495920.019176742 6458939.274717347 7421958.530257951 4688308.274047916 7795817.667681494 10903327.06131507
          9373159.837931855 15327897.350923292 21282634.86391473 5090783.406866634 11838763.04559137 18586742.684316106
          -6284317.772428544 -42456674.28414654 -30456760.790520046 -8170181.293932859 -10030672.901076924 -39530303.00353861
          -24409922.499220055 -9697394.586589636 -13777028.029725304 -36603931.72293071 -18363084.207920074 -11224607.879246414
          24614965.38148226 19939540.29802741 15124032.37594467 14145616.991989901 5633099.37040708 8351693.685952395
          25080811.8051833 49833006.828373484 62302725.4295142 16411077.187827107 32930111.07842791 47284262.388247155
          7741342.570470917 16027215.32848234 32265799.346980125 26058045.554796495 13191402.601627227 83637849.02924496
          26362355.380075835 22006166.538000636 10486665.19991531 73923748.29237586 21761453.73604619 17954287.52120477
          7781927.798203396 64209647.55550678 17160552.092016548 -19453049.77761694 -41161071.67043158 -52176537.33277139
          -51147213.85656112 -11129430.376881618 -28912725.36703653 -30148727.662564434 -27404328.129631076 -2805810.976146288
          -16664379.06364147 -8120917.992357481 -3661442.4027010314 10069637.135837696 3836535.134156294 47862140.56881932
          12077619.395812389 11035456.605655124 2256130.8452678174 44112335.39854301 11444980.70699561 12001276.075472552
          675726.5563793425 40362530.2282667 10812342.018178834 -24562785.536723215 27573576.416563425 -9570840.705777988
          -21682354.921601117 -19877337.52243838 33931953.1955069 -5515136.034946402 -16815267.06603113 -15191889.508153537
          40290329.97445038 -1459431.364114812 -11948179.210461142 33849.401964146644 -1514814.4685409307 7279143.086069778
          -3140646.765092387 14524436.770175409 -4766479.061643841 37298071.398275666 5467534.799001161 35794551.41008254
          -251518.33938946482 34291031.42188942 -5970571.4777800925 -16034344.125188883 24063285.070267785 35798996.128177054
          -75164667.78595728 -9166223.501452556 15342322.142310299 8846215.4405697 -56390977.838608064 -2298102.877716232
          6621359.214352812 -18106565.247037653 -37617287.89125886 43782500.70642658 59850220.96622359 23149174.62600164
          6208442.097349741 32526545.95783432 52163267.4854763 19070872.379901353 495710.1992528651 21270591.209242046
          44476314.004729025 14992570.133801064 -5217021.698844013 -91901398.05481152 -54866860.52646871 -85714106.1765637
          -53129285.49389155 -79526814.29831587 -51391710.461314395 -22112140.54156747 -8895752.985871755 -758160.5615615083
          -2507990.125273933 -19703666.791496582 -6333717.597703276 -600380.4649555454 -3933326.48205608 -17295193.04142569
          -3771682.2095347955 -442600.3683495824 -5358662.838838229 100314162.5559283 192925777.5304218 40202433.30683128
          35941904.51220743 75261996.6364322 167065915.73178792 37801618.96948276 27713950.100278594 50209830.716936074
          141206053.93315408 35400804.63213424 19485995.68834973 90530500.79762065 76336457.45979135 71308227.96130146
          95295994.93110406 48196744.77031252 36297504.01731012 46283456.38006501 62753677.08459439 5862988.743004379
          -3741449.4251710917 21258684.798828565 30211359.238084722 30451890.8299899 -13831028.26998886 39885986.79273086
          -6872992.600550603 49320082.75547182 85043.06888765283 6397885.138568049 5804524.490623608 5211163.842679165
          -41297459.912486374 -58406408.36386972 -27422677.768596046 -51158856.31612966 -13547895.624705715 -43911304.268389605
          -58352572.12257688 -67320611.37429836 -56201477.266581036 -39866755.1793303 -53428203.56347836 -50691737.58942372
          -21380938.236083716 -39535795.75265835 -45181997.912266396 -14346760.36728822 -4101151.9499131534 52321751.80781369
          34476801.97574238 -38508939.02518128 -35471660.213312894 48873533.09382351 27318665.21458735 -62671117.68307435
          -66842168.476712644 45425314.37983332 20160528.453432333 17534143.83495982 3154278.9203452663 16851969.740238607
          13982784.684519788 -1359575.5029399348 11242605.79774264 10431425.534079758 -5873429.926225136 5633241.855246675
          8006989.888096504 -12285188.048761342 14429728.015219193 -16403442.79600428 20852466.14234189 -20521697.54324722
          -72405544.34963124 -30522141.011795204 -42503936.34629613 -17662572.537940387 -12602328.342961036 -4803004.064085576
          -47191702.352292635 -43938272.80836054 -24813326.392247807 -35654858.338045664 -2434950.43220297 -27371443.867730796
          66020730.70002556 83374166.48045352 72317918.40166561 57227299.76506621 64669843.798261285 79529847.20969309
          67424243.5591597 54070191.485300116 63318956.896497026 75685527.93893267 62530568.716653764 50913083.20553402
          -8393937.146541549 22968585.621125385 12802540.059976654 -5937619.961190548 16272964.342845855 6598419.232821364
          -3481302.775839546 9577343.064566325 394298.40566607006 -29316797.334703088 -30417873.88780885 -24588333.7223232
          -20122653.45250439 -19859870.10994332 -9827433.017199928 2712094.796453251 4122284.8742889734 4845976.731446926
          4870125.477954015 6979858.666440594 5617966.0816190615 -29233217.91801818 -34200764.45223798 -26234007.371735767
          -52682472.52633086 -23234796.825453345 -71164180.60042374 -22413420.58027557 -18961874.57285478 -20906304.030893967
          -9458613.168878496 -19399187.481512364 44648.235097788274 61860710.196558714 39359467.254181564 48045305.27468191
          39622134.62498189 25732878.409910932 31240692.064814463 17383559.05340506 12106289.565640297 14436078.85494701
          -8690185.442411765 -8552139.110187666 11306103.432845578 -5889671.372506353 -2730099.618734315 26022801.28229437
          -3089157.3026009398 3091939.8727190355 40739499.13174316 -8183327.857017179 -8385424.156869961 -45260966.1030327
          -6582328.5933099305 -1006636.5473263612 -38238530.19443256 -4981329.329602679 6372151.062217243 -31216094.285832424
          -2011253.1132334992 4970847.776673496 11952948.666580487 26260481.417321913 21881645.37038807 14434010.71262028
          14994970.867694404 15882610.889165808 13687869.223625537 8181543.883764476 6868652.973809501 5504740.361009703
          5494093.076863004 1929077.0549086707 -1257664.920075403 43276702.146598175 -17226038.68356532 42749417.23985322
          -17148855.325490575 42222132.33310826 -17071671.967415817 30799341.697913468 37068183.499041684 20036277.919316243
          23321292.613929033 9273214.140719026 9574401.728816383 60895938.1260278 -53247998.12734941 53624373.52869984
          -45578158.65103949 46352808.931371875 -37908319.17472957 103819850.24275692 -93478949.05456658 96868298.69565454
          -84718215.03710441 89916747.14855218 -75957481.01964223 14538387.155034985 10042619.951002758 5546852.746970533
          -7705812.682005437 -4456135.573048117 -1206458.4640907957 45109464.97424202 98699707.64440612 56911546.87364144
          105159335.5615469 68713628.77304086 111618963.47868769 -6021759.852495506 8742062.98021507 23505885.812925648
          -80126341.71368968 -51161376.02085989 -22196410.328030113 80081109.53503159 55441650.08548927 30802190.635946944
          -26379641.502321444 -19199217.500350162 -12018793.498378875 7301945.262147659 3509683.9247567146 -282577.4126342319
          -111920217.62546794 -89275609.30567355 -66631000.98587918 70704987.17321493 70754990.6638378 70804994.15446068
          123220408.46323118 107374000.35650389 91527592.24977659 -13277945.144793034 -21011293.451173704 -28744641.757554375
          10626465.104700297 5086279.610291242 -453905.88411781425 80038482.96401303 37506930.35996671 -5024622.24407961
          2675342.2201781464 2699754.3805950857 2724166.5410120245 4650166.822318984 5793653.274250264 6937139.726181544
          3817615.999974061 3905183.7609600406 3992751.52194602 4157456.179406417 5038256.64440684 5919057.109407265
          4239782.0664365925 4388561.416133971 4537340.765831349 3225613.3278206894 3482335.355138913 3739057.3824571357
          2036492.0478991924 1561815.82381378 1087139.5997283678 3997321.7027757857 3423791.8671918362 2850262.0316078877
          6429635.025419014 5798260.490224762 5166885.955030508 -3641530.6993064857 -9098240.659510866 -7154275.253798391
          -11862815.186178027 -10667019.808290295 -14627389.71284519 -176905.85612537176 3276518.849702116 2243088.2252585916
          -3994324.939677919 -1078146.6924619735 2034462.582631245 2855014.309455775 -4362489.264434498 -1979387.528798575
          792406.3155603723 3466940.393652958 -4730653.589191077 3477144.6383005553 2036652.1671178362 596159.695935117
          5739944.923322529 5466328.070613734 5192711.217904942 6282252.193765054 5054179.709914546 3826107.2260640366
          3632712.926645571 5573080.152977947 3532802.782629125 5454418.433658427 3432892.6386126787 5335756.714338906
          2677828.2696271194 3122790.668232455 3567753.0668377904 448268.7882779854 361428.8821052648 274588.97593254456
          -333199.41988402116 -506519.187765855 -679838.9556476886 -4423156.719493095 -5997822.254073499 -7572487.788653902
          -7642238.652830182 -9947847.263482885 -12253455.874135587 3267923.3244734816 2928703.393959675 2589483.4634458683
          9922568.420783287 9983853.405594485 10045138.390405683 1543376.7923777993 6720092.310700724 817488.1976388057
          1988530.98039055 5499244.738974929 756377.265327266 2433685.1684033 4278397.167249136 695266.3330157257
        </DataArray>
        <DataArray type="Float64" Name="peeq" format="ascii" RangeMin="0" RangeMax="0.10697613328898245">
          0.0002950614563053697 0.0002807211915899088 0.0003186090111854027 0.0003014268339497093 0.00034215656606543566 0.0003221324763095098
          0.00031913089825078163 0.0002834743463331192 0.0003635314538521277 0.0003249955892563532 0.00040793200945347366 0.00036651683217958723
          0.000544462607056613 0.0004776344760791814 0.0006179979234649012 0.0005489964851964843 0.0006915332398731894 0.0006203584943137871
          0.001230200764599764 0.0011289070047529061 0.0013371618213704715 0.001235609043636774 0.0014441228781411795 0.0013423110825206421
          0.0027501416127023665 0.0026238616542507693 0.002877034839458453 0.0027537597421417037 0.003003928066214539 0.0028836578300326376
          0.005540397991875732 0.0054141154997392246 0.005642451866177956 0.005521417482027954 0.00574450574048018 0.005628719464316683
          0.010027978615351818 0.009940570011871172 0.010033100328685447 0.009948322016109078 0.010038222042019075 0.009956074020346983
          0.016734998021042887 0.016745758862510684 0.01655232568947177 0.016557027285837585 0.01636965335790066 0.016368295709164482
          0.027478308840248225 0.02787796817700134 0.026973710661439578 0.0273421412892738 0.026469112482630924 0.02680631440154626
          0.04174667026467679 0.04094610076301374 0.040774163683391915 0.04003892507912881 0.039801657102107035 0.03913174939524387
          0.00034268736162413227 0.0003749921729251947 0.0004072969842262572 0.0004314901582430226 0.00048466016137873664 0.0005378301645144507
          0.0007491469037770863 0.000828979123318799 0.0009088113428605115 0.0015352567095106295 0.0016422168875594664 0.0017491770656083037
          0.003125697288302833 0.003243135023298459 0.0033605727582940847 0.005911791709992349 0.005998741823560521 0.006085691937128693
          0.01028333203912736 0.01028059681551249 0.010277861591897622 0.01668994536461648 0.01652514577486605 0.016360346185115622
          0.026340391544391193 0.025919805248192016 0.025499218951992836 0.03718272348590628 0.036454641808190025 0.03572656013047377
          0.0004381976438211294 0.00048533526133356025 0.0005324728788459912 0.0006366889983266588 0.0007039700191202311 0.0007712510399138034
          0.0011038099417148932 0.0011923262453279676 0.0012808425489410423 0.002046639840149924 0.002150613462371921 0.002254587084593918
          0.0037394921687919584 0.0038397434518127596 0.0039399947348335625 0.006505351552917 0.0065687301469535084 0.006632108740990014
          0.010675971156587867 0.010661280157428487 0.01064658915826911 0.016581142568603525 0.01644323201784088 0.01630532146707823
          0.024605212322856604 0.024308838919847826 0.024012465516839054 0.032962640806396305 0.03257869316280056 0.0321947455192048
          0.0006080931782104343 0.0006741723889830283 0.000740251599755622 0.0009618591428853091 0.001044629056500012 0.0011273989701147148
          0.0016265678620036124 0.0017205904809581936 0.0018146130999127754 0.002763937748468894 0.0028569160689786216 0.0029498943894883493
          0.0045691993891599225 0.00464276806347367 0.004716336737787419 0.007278633961847102 0.007311690892826074 0.007344747823805051
          0.011147028548052444 0.0111193337077583 0.011091638867464155 0.016353857049024256 0.016248354534256732 0.016142852019489208
          0.02253180817598303 0.022375530058639393 0.022219251941295756 0.026715703700577687 0.02663306846940943 0.026550433238241182
          0.0008933554270213129 0.0009738198548230485 0.0010542842826247842 0.0014451259915679122 0.0015332057730560933 0.001621285554544274
          0.002338473738513698 0.002423314717673644 0.0025081556968335893 0.0036793260735990983 0.003745966052385429 0.003812606031171761
          0.005577137450694738 0.005612747860747794 0.00564835827080085 0.008168719835984474 0.008167426590567146 0.008166133345149816
          0.011615892128368274 0.011578266754558812 0.011540641380749346 0.0159480363758806 0.015881971265425315 0.015815906154970027
          0.020325398562904436 0.020301050130390644 0.020276701697876848 0.022330965359135643 0.022482357272688325 0.02263374918624101
          0.001348453758956127 0.0014186181023306565 0.0014887824457051862 0.002129852998939567 0.0021924888375496995 0.002255124676159832
          0.003257113648098684 0.003301799638971654 0.0033464856298446245 0.004774659923922753 0.004791025265426487 0.004807390606930223
          0.006709612281601801 0.006694871187522089 0.006680130093442378 0.009096876811568011 0.009061559129573413 0.009026241447578819
          0.01199298918769318 0.011955193491275166 0.011917397794857152 0.0153127601914225 0.015300983565258663 0.015289206939094824
          0.01801356527351112 0.018121378129829946 0.018229190986148773 0.01851513373519429 0.018860699996514695 0.019206266257835097
          0.002024577144697044 0.0020377487820421834 0.002050920419387323 0.0030443037147023086 0.0030359792209631396 0.0030276547272239706
          0.004382171294718275 0.004346650226477934 0.004311129158237596 0.006016630147360143 0.005955203283800302 0.005893776420240462
          0.007899249316509437 0.007824450138891773 0.007749650961274111 0.009976347860980481 0.009913794767835346 0.009851241674690207
          0.012196039558121952 0.012177734403412226 0.012159429248702499 0.014399849290737001 0.014468631444542388 0.014537413598347771
          0.015633522397844754 0.015882335883286483 0.016131149368728212 0.015021578102743027 0.015512100667024357 0.016002623231305683
          0.002914980699461903 0.0028679972689125617 0.00282101383836322 0.00415625641660553 0.004086294670193378 0.004016332923781226
          0.005660113445873635 0.005559984122732428 0.00545985479959122 0.007331884027725388 0.007213201194216626 0.007094518360707864
          0.009055484584734572 0.008945354274110362 0.008835223963486153 0.010717030077124833 0.010647787594417885 0.010578545111710932
          0.01217308831985242 0.01218282927717356 0.0121925702344947 0.01321942830226139 0.013354539786311844 0.013489651270362295
          0.013248243597468418 0.013566724087393837 0.013885204577319253 0.012027546852884988 0.012509150102605854 0.012990753352326717
          0.0068508581892446265 0.006758356545009619 0.006665854900774612 0.008426823100006128 0.008325632101772085 0.008224441103538043
          0.009898611002862004 0.00981085834284876 0.009723105682835515 0.011110555779051238 0.011060030963691016 0.011009506148330796
          0.011870266459165038 0.011884466105332187 0.01189866575149934 0.011939191265667054 0.012049582477135055 0.012159973688603054
          0.01100257592206878 0.011228202558757368 0.011453829195445957 0.009554470196955512 0.009872119581253858 0.010189768965552204
          0.0000163919577437011 0.0002905076021644047 0.00031283066205908545 0.000008839780133432187 0.0005330530904401564 0.0017737732373267277
          0.0004906145618294004 0.000011082704965768915 0.0010497142231366116 0.0032570388724890505 0.000668398461599715 0.000013325629798105642
          0 0 0.00012114051787522787 0 0.00024228103575045574 0
          0 0 0 0.0002813299278347428 0.00003733473050451098 0.00012099967038415829
          0.0005626598556694856 0.00007466946100902196 0.00024199934076831657 0.05512706646610021 0.05068438704744791 0.0638773589595133
          0.06417294652497671 0.05372053997924525 0.049757507584572445 0.06222925271445756 0.06227156026975898 0.0523140134923903
          0.04883062812169699 0.060581146469401825 0.06037017401454126 0.01956828851218192 0.012184982738135322 0.008902934572242059
          0.012247495018809855 0.02300651326636898 0.01466804775143073 0.011475418164933191 0.015241134262265404 0.02644473802055604
          0.017151112764726147 0.014047901757624326 0.01823477350572095 0.03303105404315569 0.0330962494864085 0.03950414777245335
          0.03831358022058319 0.032896616388334673 0.03317078245524987 0.03915164724923542 0.03786676999995357 0.03276217873351366
          0.03324531542409123 0.03879914672601749 0.037419959779323955 0.016515448749262543 0.017791177351304782 0.012800612614350929
          0.011005174836138106 0.01741579271472764 0.018483765745609452 0.01355560140082287 0.011902736251716738 0.01831613668019274
          0.01917635413991412 0.014310590187294811 0.012800297667295377 0.010338409481326513 0.013021833441515232 0.01087264743329778
          0.013658006054249598 0.011406885385269051 0.014294178666983966 0.04478386630718434 0.04145311691320758 0.044046706389358946
          0.0411195090372597 0.043309546471533567 0.04078590116131181 0.000007264178620147327 0 0
          0.00037645182890379313 0.000713613896942383 0.00047844781729246906 0.0005565711305669099 0.0022342517792269326 0.0014199636152646185
          0.0009568956345849381 0.0011131422611338198 0.004092051729550072 0.05088957208918949 0.049965498973159245 0.05939775690813067
          0.056639258089675265 0.04961409560964922 0.04863251523437953 0.0575317455067819 0.05502907025660594 0.048338619130108965
          0.04729953149559982 0.05566573410543313 0.053418882423536596 0.05282949872375701 0.06947181565420305 0.051787451922955315
          0.06752173553322884 0.05074540512215362 0.06557165541225465 0.0005683811702082882 0.0009762263595338912 0.0002414614531653357
          0.00008600629649470535 0.0007186648057849802 0.0011109895889694207 0.00026333564612359366 0.00009720251236339079 0.0008689484413616721
          0.0012457528184049503 0.00028520983908185166 0.00010839872823207625 0.09459856333269129 0.10697613328898245 0.10028078113068918
          0.08495746949236226 0.09249660147930228 0.10380965932105596 0.09705774185621593 0.08291590359704275 0.09039463962591326
          0.10064318535312947 0.0938347025817427 0.08087433770172323 0 0 0
          0 0.0007713887970630779 0.0007973612367663793 0.0005517357550557048 0.000511488572265624 0.0015427775941261558
          0.0015947224735327586 0.0011034715101114097 0.001022977144531248 0.02133990943044228 0.02170402114186496 0.02194399585337824
          0.022471669852876172 0.022548082276314215 0.023239318563887383 0.04541305175685738 0.044456459143813035 0.04349986653076867
          0.00022150605245094577 0.0008533173487880483 0.002607706082226873 0.004771930553087126 0.0049939061120028 0.008690543757386206
          0.004492202552129867 0.004909535915833979 0.001497805716959919 0.008400056407131064 0.007678296133970358 0.00360738474400722
          0.012307910262132264 0.010447056352106736 0.005716963771054522 0.02968784056690943 0.027954458179635492 0.04829803949364504
          0.042245956240737896 0.03089451789436822 0.030262951897427042 0.049345904114529084 0.042150217871330914 0.032101195221827014
          0.03257144561521859 0.050393768735413125 0.04205447950192392 0.06385777003554782 0.06706284087311981 0.07130522222475875
          0.06165916469162706 0.06476818323811684 0.06860725911803166 0.05946055934770629 0.062473525603113846 0.06590929601130453
          0.009348523998358824 0.016396661398530504 0.009929179595961249 0.01698360175626069 0.010509835193563674 0.017570542113990874
          0.007345392747870463 0.009135783006179817 0.008820394445503421 0.011075477046039832 0.01029539614313638 0.013015171085899849
          0.010782296654089571 0.00569432680249192 0.012219201749469893 0.006712573375018265 0.013656106844850219 0.007730819947544608
          0.0888239183062953 0.08601696979705237 0.09409785179919297 0.09589204456349404 0.08483526724985314 0.08241723662473677
          0.09038060604195979 0.09185886777295992 0.08084661619341099 0.0788175034524212 0.0866633602847266 0.0878256909824258
          0.02695652556186956 0.02790380562603669 0.034481313974047106 0.02740281865346167 0.02870527949070157 0.03479875519296771
          0.02784911174505378 0.02950675335536645 0.03511619641188832 0.0018098225001068084 0.0011042236583299204 0.0022864012473863818
          0.0015753177867149565 0.0027629799946659542 0.002046411915099993 0.025994769591397848 0.020542805782029116 0.026225267184440522
          0.020964474274921232 0.026455764777483192 0.02138614276781335 0.01771506940422021 0.021598467530217484 0.018899911490993727
          0.02337359903404498 0.020084753577767248 0.025148730537872477 0.010656709141390754 0.006114551802128795 0.011765102226134328
          0.0068274659246466115 0.012873495310877904 0.007540380047164428 0 0 0
          0.000005681076951731729 0 0 0.000011362153903463459 0 0
          0.005961924471912351 0.003400407779678005 0.00693631024095815 0.006328918585587164 0.003700531745908743 0.007511059144094791
          0.006695912699261978 0.004000655712139482 0.008085808047231434 0.07354630274926711 0.07991005210018712 0.0801078811471568
          0.07079110172163794 0.07666361007896252 0.0767317165408964 0.06803590069400875 0.07341716805773793 0.073355551934636
          0.08347444541069876 0.0798671576223322 0.07625986983396563 0 0 0
          0 0 0 0 0 0
          0 0 0 0.07319521037105699 0.08060344975575917 0.07069311084289018
          0.07766087203655272 0.06819101131472341 0.07471829431734629 0 0 0
          0 0 0 0.10266164183921422 0.08739445693000816 0.09915720788308983
          0.08435057189771075 0.09565277392696542 0.08130668686541336 0.06165090624004077 0.07245057575826866 0.06053268140846821
          0.07217521006081802 0.05941445657689565 0.07189984436336738 0 0 0
          0.00798099211093605 0.008349397871343122 0.008717803631750195 0.03827428328377239 0.023362231467590467 0.04165016122798483
          0.027158638501657045 0.04502603917219727 0.03095504553572363 0.009379492510205367 0.010130938108996368 0.010882383707787371
          0.002996952434597748 0.005668616267562579 0.008340280100527408 0 0.000005681076951731729 0.000011362153903463459
          0.0026101116465642228 0.003021628074357485 0.003433144502150748 0.0000016753867268291623 0.0000026040391311422877 0.000003532691535455413
          0.003517789213899357 0.00573255191017228 0.007947314606445204 0.06462067988039483 0.06594350616994725 0.06726633245949966
          0.10574207777905456 0.10210726487465958 0.09847245197026461 0.05013961013301113 0.048989686372169564 0.04783976261132798
          0 0 0 0 0.0005198004495949076 0.0010396008991898152
          0.009075268164534047 0.009032922878335306 0.008990577592136569 0.009365045668365404 0.009360056369813425 0.00935506707126145
          0.010209043004024225 0.010172870960661102 0.010136698917297977 0.010057886377638142 0.010054079013823361 0.01005027165000858
          0.010980227668752902 0.010959565761950918 0.010938903855148934 0.011177320392589354 0.011182950914558674 0.011188581436527992
          0.01055359122581427 0.010597959244764227 0.01064232726371418 0.008848279358126106 0.008933388650986746 0.009018497943847386
          0.0061148338204889754 0.006235315004057212 0.0063557961876254485 0.005978730057421922 0.003983371867819205 0.006212153363526519
          0.004163089922554494 0.006445576669631116 0.004342807977289784 0.00152292369424428 0.0006178335529526348 0.0006056809660921348
          0.002022342177119649 0.001544204808704881 0.0006201148123532641 0.000632472941651447 0.0021129393275535 0.0015654859231654817
          0.0006223960717538934 0.0006592649172107591 0.002203536477987351 0.00004332949933149099 0.000045058731693035284 0.000046787964054579566
          0.002911718220469905 0.0029643250987855677 0.003016931977101231 0.0001726769419657535 0.00017102397920915212 0.00016937101645255072
          0.009457939421685048 0.009275164813662579 0.009457805487576597 0.009273285689170544 0.009457671553468144 0.009271406564678508
          0.010327173674918984 0.010326133413214438 0.010325093151509892 0.009180676449763604 0.009182976612387234 0.009185276775010862
          0.009971799481872573 0.009976355248333374 0.009980911014794175 0.008780412415238182 0.008795147904162063 0.008809883393085945
          0.00662409397969517 0.006646549391910303 0.006669004804125438 0.003997945468543964 0.004014084787331536 0.004030224106119109
          0.0018420662486662743 0.0018497232400925875 0.0018573802315189005 0.00012232191847883167 0.000595656503712242 0.0004986929209890332
          0.00012636195323459786 0.000595917502566457 0.0005044372192033138 0.00013040198799036407 0.0005961785014206719 0.0005101815174175942
        </DataArray>
        <DataArray type="Float64" Name="pe11" format="ascii" RangeMin="-0.000879166879754553" RangeMax="0.10367604255792717">
          0.0002948572305746267 0.00028056156696654286 0.00031845146151511386 0.0003013069624644484 0.000342045692455601 0.0003220523579623539
          0.00031876463679172864 0.0002833453103737107 0.00036296241899377656 0.0003246793005831053 0.0004071602011958245 0.0003660132907925
          0.0005420929142180338 0.00047628740386321467 0.0006137500992384338 0.0005458449219127165 0.0006854072842588339 0.0006154024399622183
          0.001215109649634353 0.0011162562215707088 0.0013144741350747254 0.0012153334940670326 0.0014138386205150982 0.0013144107665633564
          0.0026868768055084737 0.0025635154590891024 0.002796192181182463 0.0026753774095443295 0.0029055075568564515 0.0027872393599995566
          0.005351966083116767 0.005225543218574925 0.0054286983043597735 0.005306703482742474 0.0055054305256027804 0.005387863746910023
          0.009591373248623204 0.00949424092710862 0.009572711566127276 0.009477573745346298 0.00955404988363135 0.009460906563583976
          0.015871556133956657 0.015848195655522104 0.015674215516134796 0.01564364488177692 0.015476874898312936 0.015439094108031733
          0.025759351623548442 0.02603970760928854 0.02524065359509793 0.025489167242160056 0.02472195556664742 0.024938626875031573
          0.03897531080853163 0.037983029938525065 0.037947395371292325 0.03700669625758044 0.036919479934053034 0.03603036257663581
          0.00034229476635222846 0.0003746547820681873 0.00040701479778414607 0.00043013064530606014 0.0004830313269948543 0.0005359320086836483
          0.0007431158643066496 0.0008208960730538504 0.0008986762818010511 0.0015123710856886098 0.001611890257748364 0.001711409429808118
          0.0030535258623807814 0.003154668818529584 0.0032558117746783874 0.0057234851482034395 0.005787321290599296 0.005851157432995153
          0.009874902444211187 0.00985012331255627 0.009825344180901347 0.01591973601725363 0.015742393964522428 0.01556505191179123
          0.024907097990524468 0.024479099769454355 0.024051101548384243 0.03492383125110003 0.03420862151917237 0.033493411787244715
          0.00043724500162372194 0.0004843950784720573 0.0005315451553203926 0.0006327460178192064 0.0006995784463018331 0.0007664108747844599
          0.0010901729343730812 0.0011764105417718916 0.001262648149170702 0.0020097929796718894 0.0021066905997644703 0.002203588219857051
          0.0036523573907633645 0.0037381788746893396 0.003824000358615316 0.006316594907406732 0.006359854256018186 0.006403113604629637
          0.010310473085589647 0.010276040906787237 0.010241608727984831 0.015942574824972945 0.015793860327728493 0.015645145830484045
          0.023508058477393907 0.02321504809801185 0.0229220377186298 0.03119061048873663 0.03085033440906692 0.030510058329397204
          0.0006056330485687673 0.0006715197605859428 0.0007374064726031182 0.0009524240054822206 0.001034365303136693 0.0011163066007911654
          0.0016000848225825428 0.0016915311885077502 0.0017829775544329581 0.002706847894905252 0.002793286801257768 0.0028797257076102847
          0.004462018479969507 0.004523284924071547 0.00458455136817359 0.007089144716911504 0.007105242834206559 0.007121340951501615
          0.010832853895144592 0.010787706066475852 0.01074255823780711 0.01586286333309842 0.015748135753814396 0.015633408174530367
          0.021769982215760847 0.021623695244338187 0.02147740827291553 0.025581153946245865 0.025544646119271437 0.025508138292297013
          0.0008870929016074989 0.0009669715338610182 0.0010468501661145377 0.0014252546842458509 0.0015120993945917669 0.0015989441049376824
          0.0022925808510742733 0.0023747826812420257 0.0024569845114097775 0.0035962612349774168 0.0036572752451650924 0.0037182892553527694
          0.005447045333341918 0.005472668711991472 0.005498292090641026 0.007979801863612138 0.007964517327918983 0.00794923279222583
          0.011356168738133101 0.011303244678257156 0.011250320618381209 0.015600534884054301 0.015526554887135344 0.015452574890216387
          0.019849799529789325 0.019837769256404656 0.019825738983019984 0.021606003588311676 0.021793149091115068 0.021980294593918464
          0.001332964195274708 0.0014026259715312999 0.001472287747787892 0.0020912643796521867 0.0021532458097829306 0.002215227239913675
          0.0031836070905416026 0.0032268363493967167 0.003270065608251831 0.004660816985303042 0.004673537882990558 0.004686258780678073
          0.006556885141181044 0.006534948730555852 0.00651301231993066 0.008912313535343417 0.008865767740946167 0.00881922194654892
          0.011788412698332223 0.011737275750286822 0.011686138802241421 0.0150904861945407 0.015071222432841695 0.01505195867114269
          0.01773605877886731 0.017854236420090343 0.017972414061313377 0.018031493322012787 0.018402322072950845 0.018773150823888904
          0.0019889942217632102 0.0020035152836849228 0.002018036345606635 0.0029746175784821356 0.0029682772318115978 0.0029619368851410604
          0.004271471091301377 0.00423760891018527 0.004203746729069164 0.005868670223113253 0.005806958830294457 0.0057452474374756635
          0.007727755174019125 0.007649071353598754 0.007570387533178383 0.009803018396056132 0.009731794563433354 0.009660570730810574
          0.012045669713735514 0.01201529813238596 0.011984926551036407 0.014275490244311087 0.014335833811811114 0.014396177379311138
          0.015472625601759122 0.015726130598193493 0.015979635594627863 0.014663583425255415 0.015165860853532546 0.01566813828180968
          0.00284755745507334 0.0027995756861239757 0.002751593917174611 0.004045478625885597 0.003974617006355891 0.003903755386826186
          0.00550720762848133 0.005406474250364182 0.005305740872247036 0.007151936250111933 0.007032180993421033 0.00691242573673013
          0.008874110653386216 0.008760896991536104 0.008647683329685994 0.010564667676023999 0.01048853713257328 0.01041240658912256
          0.012073764876729882 0.012072314432164027 0.012070863987598174 0.01315951896817114 0.013282563489248026 0.01340560801032491
          0.01310577256238927 0.013420809739549731 0.01373584691671019 0.011598150543445297 0.012082959266469358 0.01256776798949342
          0.00670543853353687 0.006610389243633144 0.0065153399537294186 0.008275087383384054 0.008171833287600377 0.0080685791918167
          0.00976656050565668 0.009676526060419514 0.009586491615182345 0.011020778367432827 0.010966819233693087 0.010912860099953342
          0.01182500167691158 0.011834057856712881 0.011843114036514182 0.01189214187520101 0.011996548518819542 0.012100955162438077
          0.010806309189093654 0.011030186854754797 0.011254064520415939 0.009012980097030806 0.009332071555930225 0.009651163014829645
          0.000014159727634755293 0.00026588339377263566 0.00028890084859460206 0.00000824378522345504 0.00004141886954993244 0.00009230863758930699
          0.00038267798817708497 0.00000962927601853089 0.00006867801146510959 -0.00008126611859402168 0.00047645512775956777 0.000011014766813606739
          0 0 -0.00002167857820556849 0 -0.00004335715641113698 0
          0 0 0 0.00009421849019520978 -0.000009258667915316437 0.000013235059151277194
          0.00018843698039041956 -0.000018517335830632874 0.000026470118302554387 0.05260112937526425 0.047646345823960726 0.06108227147980754
          0.06186534799779383 0.05107770683038427 0.046795494613920886 0.05935004251391825 0.05979537663015594 0.04955428428550429
          0.04594464340388106 0.05761781354802893 0.05772540526251805 0.013487174046640718 0.008089452991606827 0.0027870039945582527
          0.006674810040170909 0.015156730249652108 0.008799451046682576 0.0037246941348460967 0.008260515235772151 0.0168262864526635
          0.009509449101758327 0.004662384275133941 0.009846220431373391 0.03133381706797048 0.03120872572410111 0.0370190814430212
          0.03605067034287837 0.03127758507403745 0.03140415035704582 0.036818043412331976 0.035691236968813427 0.03122135308010443
          0.03159957498999054 0.03661700538164275 0.03533180359474848 0.015132810381884628 0.016792629276410356 0.011759167167252563
          0.009621149260666153 0.0160190017619482 0.017492760738620373 0.012483961686998678 0.010454471463700158 0.01690519314201177
          0.01819289220083039 0.013208756206744799 0.011287793666734162 0.009636479109245906 0.01244870110607194 0.010161343364442695
          0.013089294451653782 0.010686207619639482 0.013729887797235624 0.042050954407084395 0.038509037514074584 0.041458440682227676
          0.03845447206979182 0.04086592695737096 0.03839990662550906 0.0000020959065816086077 0 0
          0.000025724879533946908 0.00007605188412951566 0.00022544721259001426 0.00012192391904185873 -0.000426721000110303 0.00015000786167742268
          0.0004508944251800285 0.00024384783808371747 -0.000879166879754553 0.04796966380254519 0.04721785589509597 0.05734402195807585
          0.05434464134463413 0.04653744771400525 0.04578981525501357 0.05527319911488815 0.05250897870318407 0.045105231625465314
          0.044361774614931154 0.05320237627170042 0.05067331606173401 0.04863650344932624 0.06573067516471995 0.04785685028502049
          0.06398431366288553 0.04707719712071475 0.06223795216105114 0.0005153108120498697 0.000909489514785666 0.0002247261148717482
          0.00008012335290478976 0.0006113187734921625 0.0010082192515163447 0.00024053048548056268 0.0000876331070263346 0.0007073267349344552
          0.001106948988247023 0.0002563348560893771 0.00009514286114787948 0.08061835150707447 0.1015157452724709 0.09630765835978866
          0.07618067492729712 0.07936163385992162 0.09838220793659105 0.09300618489655049 0.07479286129079174 0.07810491621276877
          0.09524867060071121 0.08970471143331232 0.07340504765428638 0 0 0
          0 -0.00021252863438098903 -0.000017692084737481496 0.00003199489173314703 -0.00016698817794166 -0.00042505726876197807
          -0.00003538416947496299 0.00006398978346629407 -0.00033397635588332 0.020348116957632476 0.020349587689022248 0.020996767363819193
          0.021150981350351292 0.02164541777000591 0.02195237501168034 0.042783788020525855 0.04185512132460325 0.04092645462868065
          0.00009447630903230347 0.0005404226007902326 0.0001404814229395397 0.00009721270961534644 0.00018648653684677589 -0.00034599718155953966
          0.0010304427737936534 0.00285293214621276 0.0012053355460813434 0.0010068372615402075 0.0028059689376454104 0.0010780515780274193
          0.0009832317492867618 0.00275900572907806 0.0009507676099734953 0.026441274556390337 0.02266523202683682 0.03810200404523049
          0.037541114066891874 0.027765801938683457 0.024238515380813896 0.03928920775888794 0.03799125111979776 0.029090329320976573
          0.02581179873479097 0.040476411472545396 0.03844138817270364 0.06227655206052832 0.06535308977408798 0.06997568785894025
          0.05981450356000753 0.06277849750493524 0.06697147875206551 0.057352455059486745 0.06020390523578249 0.06396726964519076
          0.008549670871945084 0.015684905857824248 0.0090954985687737 0.016290421247314984 0.009641326265602318 0.016895936636805726
          0.0008160474270727486 0.0033051953391365786 0.002404036871391585 0.004728105341781471 0.003992026315710422 0.0061510153444263626
          0.008561812333777764 0.0046377943185326 0.009616718035414504 0.005385111713489103 0.010671623737051245 0.006132429108445604
          0.08753374819113094 0.08462444508075004 0.09241712820397327 0.09424069804839158 0.08328164902709395 0.08081342677736224
          0.08836900154434406 0.08991821208183154 0.07902954986305696 0.07700240847397441 0.08432087488471485 0.08559572611527148
          0.0254150829062192 0.025640865173805413 0.032049778138802464 0.02598884009232404 0.026607734071826216 0.03259656283098654
          0.026562597278428874 0.027574602969847012 0.033143347523170615 0.0015523996402158529 0.0009711823201543787 0.001876082296338735
          0.001248061011841661 0.0021997649524616173 0.0015249397035289435 0.024800873079715485 0.019661844607835943 0.025113935538158837
          0.02012206922103703 0.025426997996602196 0.02058229383423811 0.015567637142178002 0.01804960685669534 0.016636888030288215
          0.01937555245008916 0.017706138918398433 0.02070149804348298 0.008916557615896116 0.005169047896991744 0.009877806349293807
          0.005754833243845973 0.010839055082691498 0.006340618590700203 0 0 0
          0.0000024836808075742883 0 0 0.000004967361615148577 0 0
          0.0052220984231315555 0.002931428072083 0.006063648963860593 0.0055477396831545974 0.00316965552576809 0.006554985544289838
          0.005873380943177639 0.0034078829794531793 0.007046322124719085 0.07226206237277291 0.07889684735381067 0.07925585280478958
          0.06920198335845115 0.07535258765521949 0.07552506899001166 0.06614190434412939 0.07180832795662831 0.07179428517523373
          0.08244278683542147 0.07848480598233383 0.07452682512924619 0 0 0
          0 0 0 0 0 0
          0 0 0 0.07136760452788657 0.07844573748261288 0.06872284246235913
          0.07549530277724424 0.06607808039683169 0.07254486807187562 0 0 0
          0 0 0 0.1007375963135972 0.08460921383903637 0.09676030343651691
          0.08159398681703078 0.0927830105594366 0.0785787597950252 0.05471651365206822 0.0563445966900196 0.054408008974583255
          0.0567690086301804 0.05409950429709829 0.05719342057034118 0 0 0
          0.007185041423416637 0.0075404256168705545 0.007895809810324474 0.02408843047281568 0.012450444521278586 0.02619600979820758
          0.014500194428235936 0.028303589123599475 0.016549944335193283 0.008343591394555115 0.00901886188661903 0.009694132378682942
          0.000044169105980613164 0.0003356073937983542 0.0006270456816160951 0 0.0000024836808075742883 0.000004967361615148577
          0.0021983111467454813 0.0025015062839188434 0.002804701421092205 0.000001619885385075953 0.000002488294189434859 0.0000033567029937937653
          -0.000052353405343696425 -0.0000753789392504885 -0.00009840447315728057 0.04394207270124454 0.04517336448745205 0.046404656273659556
          0.10367604255792717 0.09964587759881216 0.09561571263969715 0.047063949882738876 0.04574815082699635 0.04443235177125382
          0 0 0 0 -0.00009108091287865807 -0.00018216182575731614
          0.009009809360071256 0.008967226740067988 0.008924644120064721 0.009352347964285329 0.009347135950375982 0.009341923936466632
          0.010164504389023856 0.010127983507658252 0.010091462626292649 0.010048438239130932 0.01004452146317743 0.010040604687223925
          0.0109563270972567 0.010935336440806324 0.010914345784355945 0.011150132409878265 0.011155944265067053 0.011161756120255838
          0.010464201729969227 0.010509882688508295 0.01055556364704736 0.00860694467787473 0.008693196094067383 0.008779447510260031
          0.005744294152558987 0.005861041456783013 0.005977788761007041 0.005430294393820714 0.003620812245598935 0.005652059207804609
          0.0037808394206627375 0.005873824021788504 0.0039408665957265405 0.0014522992757786757 0.0006028422777394329 0.0005773858617133064
          0.0018679577942099827 0.0014679082590787506 0.0006036828894210062 0.0005983233261245362 0.001941846944217956 0.001483517242378825
          0.0006045235011025793 0.000619260790535766 0.0020157360942259298 0.000042897447469401314 0.000044466103242175846 0.000046034759014950385
          0.0027394555483005577 0.0027838204717901935 0.0028281853952798293 0.00016911707744089667 0.0001673406293570558 0.0001655641812732149
          0.00943545127652437 0.009266629737625032 0.009435319741793582 0.009264615926316973 0.009435188207062796 0.00926260211500891
          0.010305717966153255 0.01030461675020073 0.010303515534248204 0.009129628273498789 0.009131913780013948 0.009134199286529105
          0.009910831127566721 0.009915148648257918 0.009919466168949113 0.00864843936215464 0.008662145557450037 0.008675851752745437
          0.00642211461691842 0.006441511507930775 0.006460908398943132 0.003836616093885375 0.0038493245396853436 0.0038620329854853123
          0.0017783011144820678 0.001783516433856891 0.0017887317532317144 0.00011907148388646104 0.0005858510604344517 0.0004922617259386902
          0.0001228775625926257 0.0005854786525226178 0.0004975614522727156 0.00012668364129879032 0.000585106244610784 0.000502861178606741
        </DataArray>
        <DataArray type="Float64" Name="pe22" format="ascii" RangeMin="-0.04503396766986065" RangeMax="0.0006052698770051073">
          -0.0001548920624160014 -0.00014784222081358126 -0.00016395676989411633 -0.00015592792239156099 -0.00017302147737223127 -0.0001640136239695407
          -0.00016027863027944607 -0.00014361740023965738 -0.0001752238793856612 -0.00015805934908875473 -0.00019016912849187642 -0.00017250129793785205
          -0.0002445330903827928 -0.00021634825414393276 -0.0002602787315195333 -0.00023259587181400637 -0.0002760243726562737 -0.00024884348948408
          -0.0004666962804041721 -0.0004280560198359044 -0.00046959271896184374 -0.0004320162243882918 -0.00047248915751951526 -0.00043597642894067923
          -0.0008692985362935792 -0.0008216899692158352 -0.0008446441898907135 -0.0007974613153859075 -0.0008199898434878476 -0.0007732326615559799
          -0.0014766117420858698 -0.0014196604307776793 -0.00142184319415541 -0.0013642486165569958 -0.0013670746462249503 -0.0013088368023363125
          -0.002309870899097519 -0.002237861148966332 -0.002231532510598848 -0.0021579052031385285 -0.002153194122100177 -0.0020779492573107256
          -0.0034002617572260344 -0.0032894341756034354 -0.0032929501471569635 -0.0031747883027751188 -0.003185638537087894 -0.003060142429946802
          -0.004701503171779751 -0.004489829321664435 -0.004531833045158665 -0.00430305848238118 -0.004362162918537577 -0.004116287643097925
          -0.0068978618770094815 -0.005919780319971134 -0.006499769422582319 -0.005551069540406113 -0.006101676968155159 -0.005182358760841092
          -0.00017786965881913273 -0.0001897487582609596 -0.00020162785770278652 -0.00021147458033318647 -0.00022766299741297665 -0.00024385141449276683
          -0.0003289438728109486 -0.00034321509581906206 -0.00035748631882717545 -0.0005819831875477708 -0.0005820489532073786 -0.0005821147188669866
          -0.0010110669713373744 -0.0009854101225287607 -0.0009597532737201471 -0.001645223660660956 -0.001592590293356406 -0.001539956926051856
          -0.0025243263176333353 -0.0024510544802037538 -0.0023777826427741717 -0.003707698796919478 -0.003618531244774526 -0.0035293636926295737
          -0.005176919467186302 -0.005055692974128485 -0.004934466481070665 -0.007011723415160842 -0.006795266125855636 -0.006578808836550433
          -0.00022222830591153516 -0.0002381188347761055 -0.00025400936364067587 -0.00030064404096987314 -0.00031791497544770246 -0.00033518590992553184
          -0.000469739897761804 -0.00048135392260329775 -0.0004929679474447916 -0.0007721499749242012 -0.0007682775694787054 -0.0007644051640332096
          -0.001243298614794978 -0.0012168215595566496 -0.001190344504318321 -0.0019188440355585585 -0.0018702543531458977 -0.0018216646707332365
          -0.0028655688452955685 -0.0028007862910355724 -0.0027360037367755766 -0.004148573600778909 -0.004083114728917821 -0.004017655857056731
          -0.005660239728355955 -0.005609319042067211 -0.005558398355778468 -0.007502617153712659 -0.007509531377219031 -0.007516445600725402
          -0.0002962198065469175 -0.0003155884687601432 -0.0003349571309733689 -0.0004324589665230646 -0.00044908355275298886 -0.00046570813898291313
          -0.0006666936067238251 -0.0006740715893759467 -0.0006814495720280681 -0.001032748346555844 -0.0010246557946935332 -0.0010165632428312224
          -0.0015587515999958184 -0.0015325544945344782 -0.001506357389073138 -0.0022850102519395396 -0.002242536341127639 -0.0022000624303157384
          -0.0032954954123613186 -0.003242349036587736 -0.003189202660814155 -0.004638347916315737 -0.004599596968185562 -0.004560846020055387
          -0.006106098049555711 -0.006120887665445633 -0.006135677281335555 -0.007313461914894009 -0.0074279331624942735 -0.007542404410094537
          -0.0004085726722377394 -0.0004280582673342904 -0.00044754386243084127 -0.0006104900489805295 -0.0006230614052272775 -0.0006356327614740255
          -0.0009171564312490027 -0.0009187963208653321 -0.0009204362104816617 -0.0013553774261973012 -0.0013438885995090632 -0.0013323997728208253
          -0.0019454337097730024 -0.0019212663580547617 -0.001897099006336521 -0.0027230566485982708 -0.0026886284045876765 -0.0026542001605770822
          -0.003766419351209957 -0.0037277093756178303 -0.003688999400025705 -0.00509592720353436 -0.005082695498927068 -0.005069463794319778
          -0.006466783174054949 -0.006523096263138177 -0.006579409352221406 -0.007392005526522943 -0.007542673497202432 -0.00769334146788192
          -0.0005647849111468509 -0.0005784372190362306 -0.0005920895269256102 -0.0008339412206183595 -0.000838793434029855 -0.0008436456474413506
          -0.001214596750503183 -0.00121021966283057 -0.0012058425751579568 -0.0017278954881175595 -0.0017150663499298337 -0.0017022372117421081
          -0.002385142162616957 -0.0023652429722343187 -0.0023453437818516804 -0.0032046272796653215 -0.0031800434801398255 -0.0031554596806143307
          -0.004234287206475418 -0.00421155609402454 -0.0041888249815736625 -0.005461973435380866 -0.00546945469431742 -0.0054769359532539745
          -0.006612808415138488 -0.0066911807127680335 -0.00676955301039758 -0.00727333812967685 -0.007432343151309863 -0.007591348172942878
          -0.0007638129875506662 -0.0007658325025822941 -0.0007678520176139219 -0.0010965798441483078 -0.001092675525687226 -0.001088771207226144
          -0.0015491150482104033 -0.0015405384130064703 -0.001531961777802537 -0.0021350608800329977 -0.0021234639486979938 -0.0021118670173629894
          -0.0028533087833790016 -0.0028400868744965528 -0.0028268649656141053 -0.0036972402760889925 -0.0036843176233046725 -0.003671394970520353
          -0.004662992941014626 -0.004656763621526175 -0.004650534302037724 -0.005700095817412166 -0.005723607988042205 -0.0057471201586722425
          -0.006560052429706664 -0.00664537144124443 -0.0067306904527821955 -0.0068694528960792246 -0.007025940032423942 -0.007182427168768659
          -0.0010008864592009094 -0.0009881937723600868 -0.0009755010855192643 -0.0013934629908502701 -0.0013802752011193872 -0.0013670874113885041
          -0.001913634441317665 -0.0018997776682412157 -0.0018859208951647664 -0.0025623145694276556 -0.0025499143438755473 -0.00253751411832344
          -0.003322984223255737 -0.003315122729022202 -0.003307261234788668 -0.00416646618874622 -0.004165108194299656 -0.004163750199853093
          -0.005029375619930527 -0.00504104698267982 -0.005052718345429113 -0.005804140982411459 -0.005845062378563099 -0.005885983774714739
          -0.006315046109897837 -0.0064032160753032365 -0.006491386040708634 -0.00628773928663389 -0.00642787584230479 -0.006568012397975689
          -0.0024598380384966397 -0.0024467990689886693 -0.0024337600994806985 -0.003158741709409151 -0.0031505939923535987 -0.0031424462752980466
          -0.003928435765724506 -0.003927922745363207 -0.003927409725001909 -0.0047080968968216345 -0.004717106615761581 -0.004726116334701528
          -0.0053836695716547615 -0.005408236611968117 -0.005432803652281472 -0.0057850431520882995 -0.005833134891251577 -0.005881226630414855
          -0.005778219613796204 -0.005850757752315088 -0.005923295890833972 -0.005455373658425054 -0.0055457993911189425 -0.0056362251238128306
          -0.000007017257702815587 -0.0001501340124335767 -0.00015480306749249273 -0.000004055260057049026 -0.0001164104123200377 -0.00016625520000988195
          -0.0001434449253831177 -0.0000037180092942752606 -0.00022580356693725979 -0.00018237638758618717 -0.00013208678327374272 -0.0000033807585315014955
          0 0 0.000012982119064453442 0 0.000025964238128906883 0
          0 0 0 -0.00009173893129661126 0.00000963977604609453 -0.00001464552024159017
          -0.00018347786259322252 0.00001927955209218906 -0.00002929104048318034 -0.014059384104162773 -0.012604990797080115 -0.01918683911306357
          -0.01915069936158478 -0.013109700534149733 -0.012184331347939241 -0.017861024603541005 -0.017603982134907506 -0.012160016964136692
          -0.011763671898798367 -0.016535210094018437 -0.016057264908230232 -0.0029888400691490445 -0.0027783117992631104 -0.0009144143492656306
          -0.0011814795819667042 -0.003904609512142064 -0.0027195138757030884 -0.0009407067269553279 -0.0016929736425123488 -0.004820378955135082
          -0.002660715952143066 -0.0009669991046450249 -0.0022044677030579937 -0.008678922174688013 -0.0089711270726711 -0.00909360393732909
          -0.008590865535258996 -0.008870202961969838 -0.00928715116550165 -0.009223834150135618 -0.008633456634816813 -0.009061483749251663
          -0.009603175258332196 -0.009354064362942147 -0.008676047734374628 -0.0074028604441337634 -0.007555921336183222 -0.006200854986819232
          -0.005222564673454505 -0.007763713583914094 -0.007897427356314964 -0.0064023574895805515 -0.005414029643786332 -0.008124566723694427
          -0.008238933376446704 -0.00660385999234187 -0.005605494614118161 -0.005685936304956116 -0.006571304735289709 -0.005830884410727165
          -0.006750299142342759 -0.0059758325164982135 -0.006929293549395809 -0.010091395066405507 -0.01001173969478417 -0.00997474581350292
          -0.010215876834896456 -0.009858096560600332 -0.010420013975008744 -7.940535273486264e-7 0 0
          0.00002926802609100187 -0.00010667962550609797 -0.0002328600940080814 -0.00010645713683058229 0.000045851967296282405 -0.0002125651974848473
          -0.00046572018801616273 -0.00021291427366116459 0.00006243590850156295 -0.009669805329917378 -0.010223357626101074 -0.01625178782832016
          -0.013803671377163526 -0.008909447869528247 -0.009500987911507153 -0.014844491236601337 -0.012612597126838404 -0.008149090409139116
          -0.008778618196913232 -0.013437194644882517 -0.011421522876513277 -0.013949554188803136 -0.02420067462750322 -0.01351228636739056
          -0.022711965675189478 -0.013075018545977984 -0.021223256722875724 -0.0002902389920070234 -0.0005271805658539481 -0.0001303277411648881
          -0.000046500968398437366 -0.00028896200992587103 -0.0005275355098816501 -0.0001297580049176087 -0.00004595259679311925 -0.0002876850278447187
          -0.0005278904539093522 -0.0001291882686703293 -0.00004540422518780113 -0.03409807188949658 -0.04503396766986065 -0.042429380638543665
          -0.031986986631965204 -0.0327873499659854 -0.041973140803078984 -0.0393482771144651 -0.030774442629137377 -0.031476628042474225
          -0.03891231393629731 -0.03626717359038653 -0.029561898626309546 0 0 0
          0 0.00030263493850255364 0.00003887337472369742 -0.00004453709776735393 0.00020382127345766908 0.0006052698770051073
          0.00007774674944739483 -0.00008907419553470786 0.00040764254691533816 -0.008153031656712745 -0.00874822946470753 -0.008582931445203293
          -0.009220243254997672 -0.009012831233693843 -0.009692257045287811 -0.009714747127819718 -0.009349050487685395 -0.008983353847551074
          -0.00006646397737708927 -0.00031780529432846427 -0.0005315472219781659 -0.00044202147029373203 -0.0009966304665792428 -0.000566237646259
          -0.0005531048858066255 -0.0012742542774490774 -0.0005835506542755715 -0.0005806257260549511 -0.0007475634936186133 -0.0003240843973035862
          -0.0006081465663032768 -0.00022087270978814942 -0.00006461814033160087 -0.008125333505254718 -0.006267597386807787 -0.01147704028075974
          -0.009735306096754506 -0.008838925435956095 -0.007079127691258392 -0.012648785889559458 -0.010280937655762901 -0.009552517366657475
          -0.007890657995708997 -0.013820531498359176 -0.010826569214771292 -0.01931519520092224 -0.021215171450576623 -0.024521690282856532
          -0.017545599925781002 -0.019210617740419628 -0.022073745636992742 -0.01577600465063976 -0.017206064030262633 -0.019625800991128955
          -0.005006057755936015 -0.007205468681470025 -0.005125043715583486 -0.007409216667324371 -0.005244029675230957 -0.007612964653178717
          -0.00009200035428826986 -0.0005490699371426478 -0.0011087269480589352 -0.0011466824741565068 -0.0021254535418296 -0.0017442950111703655
          -0.003532958904708979 -0.002292492027680814 -0.003958864667840564 -0.0024107669396132036 -0.004384770430972151 -0.0025290418515455933
          -0.0354356121350788 -0.033655069694947394 -0.03734485060454147 -0.03680557887071644 -0.03163016141472689 -0.030280668037394806
          -0.03360217148445632 -0.03275241328928834 -0.02782471069437498 -0.02690626637984221 -0.029859492364371167 -0.028699247707860226
          -0.008872798824120735 -0.008641076120649663 -0.008834503408707093 -0.009315197901149189 -0.009326134980070462 -0.009405276885406906
          -0.009757596978177643 -0.010011193839491261 -0.009976050362106718 -0.0008389134827575051 -0.0004962537477870465 -0.0008485184373222173
          -0.00048445573647681064 -0.0008581233918869294 -0.00047265772516657465 -0.008218072073820634 -0.007561529506853279 -0.008519987870073636
          -0.007822112320281308 -0.008821903666326639 -0.008082695133709336 -0.006619347241759426 -0.006435249388918557 -0.007111696276867651
          -0.0069408836765954334 -0.007604045311975879 -0.007446517964272311 -0.0043903411101937385 -0.00312158321309422 -0.004599032339622001
          -0.003195859211564727 -0.004807723569050264 -0.0032701352100352344 0 0 0
          -0.000002165097242252348 0 0 -0.000004330194484504696 0 0
          -0.0033413200148351184 -0.0018526778212984863 -0.00372569299760779 -0.003387850828204497 -0.0018722207630202995 -0.003809935475574287
          -0.0034343816415738763 -0.0018917637047421135 -0.0038941779535407836 -0.026253092581748926 -0.031028408695553438 -0.03188931366981748
          -0.023743826112052998 -0.027966862278018777 -0.028574575497835618 -0.021234559642357077 -0.024905315860484112 -0.02525983732585376
          -0.03354578207741774 -0.02997435556181851 -0.02640292904621927 0 0 0
          0 0 0 0 0 0
          0 0 0 -0.025587699474373567 -0.030713176804452152 -0.023440801057485104
          -0.028057872151218355 -0.02129390264059664 -0.02540256749798456 0 0 0
          0 0 0 -0.042385639893001155 -0.035876963450408604 -0.038582291850805944
          -0.03314187167142446 -0.03477894380861073 -0.03040677989244031 -0.01865572962692025 -0.021950678474717506 -0.018668955019683065
          -0.022490433938869656 -0.01868218041244588 -0.023030189403021806 0 0 0
          -0.004617841734894502 -0.004695368787919578 -0.004772895840944653 -0.005746501584928307 -0.0007734927565117366 -0.0076427421031002585
          -0.0022654794173137417 -0.009538982621272212 -0.003757466078115747 -0.004919001713733517 -0.005068043787427934 -0.00521708586112235
          0.00010635829298904532 -0.0006355795858752867 -0.0013775174647396187 0 -0.000002165097242252348 -0.000004330194484504696
          -0.001310321263262447 -0.0013281976811513377 -0.0013460740990402285 -8.497599893212175e-7 -0.0000011940206415070353 -0.000001538281293692853
          0.0004562313018401225 -0.00015457555848658055 -0.0007653824188132836 -0.014998681524795563 -0.016266357070032902 -0.01753403261527024
          -0.04306876401865758 -0.039141562225389476 -0.035214360432121374 -0.008845134858122935 -0.008126691317558148 -0.00740824777699336
          0 0 0 0 0.0001976273300897691 0.0003952546601795382
          -0.003969855946818802 -0.003975124679817859 -0.003980393412816916 -0.004608273020479894 -0.004619564100280876 -0.004630855180081859
          -0.004667294134486579 -0.0046780207371059845 -0.004688747339725391 -0.005109304372578577 -0.005123975620745785 -0.005138646868912991
          -0.005259986260832646 -0.005276801799106017 -0.005293617337379389 -0.005600456023958886 -0.005626562915447989 -0.005652669806937091
          -0.0055038120905615 -0.005539027635404727 -0.005574243180247954 -0.004841056773097713 -0.0048729312961809535 -0.004904805819264193
          -0.0035406230722583518 -0.0035516370727055836 -0.003562651073152817 -0.0035489725936770668 -0.0022939268677061335 -0.0035690858617939865
          -0.002296804697802644 -0.0035891991299109058 -0.002299682527899155 -0.0008404971619165683 -0.0003338761256319933 -0.0003361188472640315
          -0.001147206976874264 -0.0008273723708906831 -0.0003262588488812813 -0.0003313215902719965 -0.001140640140737575 -0.0008142475798647978
          -0.0003186415721305694 -0.0003265243332799616 -0.0011340733046008864 -0.000022487298914778156 -0.000022690988926178348 -0.000022894678937578546
          -0.001648583268826448 -0.0016306096699201986 -0.0016126360710139493 -0.00009367861196191054 -0.00009166553645136031 -0.00008965246094081006
          -0.005032773119317841 -0.004813856500231988 -0.005044936792408392 -0.004823677271196121 -0.005057100465498943 -0.004833498042160255
          -0.00540188855662213 -0.005419672672856671 -0.005437456789091213 -0.004991012066828782 -0.005004744518963579 -0.005018476971098377
          -0.005341128979444193 -0.005362037065958318 -0.005382945152472443 -0.0047778986463645045 -0.00479742400989931 -0.004816949373434116
          -0.003654972025346043 -0.0036598439629875815 -0.0036647159006291197 -0.0022356942591449797 -0.0022226286663261986 -0.0022095630735074175
          -0.0010125298574262045 -0.000998807273420211 -0.0009850846894142173 -0.000053004060959308994 -0.00030620920382754604 -0.00024632747440079774
          -0.000054529756325118696 -0.00030134668861613533 -0.0002467868512020206 -0.0000560554516909284 -0.0002964841734047247 -0.0002472462280032434
        </DataArray>
        <DataArray type="Float64" Name="pe33" format="ascii" RangeMin="-0.06060727853926945" RangeMax="0.0009122348278228677">
          -0.00013996516815862532 -0.0001327193461529616 -0.0001544946916209975 -0.00014537904007288734 -0.0001690242150833697 -0.00015803873399281308
          -0.00015848600651228258 -0.00013972791013405327 -0.00018773853960811534 -0.00016661995149435055 -0.0002169910727039481 -0.00019351199285464783
          -0.00029755982383524094 -0.00025993914971928183 -0.0003534713677189006 -0.00031324905009871005 -0.0004093829116025602 -0.0003665589504781382
          -0.0007484133692301807 -0.000688200201734804 -0.0008448814161128818 -0.0007833172696787404 -0.0009413494629955829 -0.000878434337622677
          -0.0018175782692148937 -0.0017418254898732667 -0.0019515479912917486 -0.0018779160941584214 -0.0020855177133686036 -0.0020140066984435765
          -0.0038753543410308964 -0.0038058827877972433 -0.004006855110204363 -0.003942454866185476 -0.004138355879377829 -0.0040790269445737095
          -0.007281502349525682 -0.0072563797781422835 -0.007341179055528428 -0.007319668542207766 -0.007400855761531173 -0.007382957306273251
          -0.01247129437673062 -0.012558761479918667 -0.01238126536897783 -0.012468856579001798 -0.012291236361225043 -0.01237895167808493
          -0.021057848451768685 -0.0215498782876241 -0.020708820549939267 -0.02118610875977887 -0.020359792648109845 -0.02082233923193364
          -0.03207744893152212 -0.03206324961855393 -0.031447625948709985 -0.03145562671717433 -0.03081780296589785 -0.030848003815794722
          -0.00016442510753309576 -0.00018490602380722768 -0.0002053869400813596 -0.00021865606497287372 -0.0002553683295818776 -0.00029208059419088146
          -0.00041417199149570093 -0.00047768097723478834 -0.0005411899629738756 -0.0009303878981408388 -0.0010298413045409852 -0.0011292947109411316
          -0.002042458891043406 -0.002169258696000823 -0.0022960585009582394 -0.004078261487542483 -0.00419473099724289 -0.004311200506943296
          -0.00735057612657785 -0.007399068832352513 -0.007447561538127177 -0.012212037220334144 -0.0121238627197479 -0.012035688219161657
          -0.019730178523338155 -0.019423406795325865 -0.01911663506731357 -0.0279121078359391 -0.027413355393316626 -0.026914602950694155
          -0.0002150166957121868 -0.00024627624369595174 -0.00027753579167971666 -0.0003321019768493332 -0.0003816634708541306 -0.0004312249648589279
          -0.000620433036611277 -0.0006950566191685938 -0.0007696802017259103 -0.001237643004747688 -0.0013384130302857647 -0.0014391830558238411
          -0.002409058775968386 -0.00252135731513269 -0.002633655854296994 -0.004397750871848173 -0.004489599902872286 -0.0045814489338964
          -0.007444904240294075 -0.0074752546157516656 -0.007505604991209255 -0.01179400122419403 -0.011710745598810673 -0.011627489973427312
          -0.01784781874903793 -0.017605729055944618 -0.017363639362851308 -0.0236879933350238 -0.02334080303184765 -0.02299361272867149
          -0.00030941324202184996 -0.0003559312918257996 -0.0004024493416297492 -0.000519965038959156 -0.0005852817503837042 -0.0006505984618082522
          -0.0009333912158587176 -0.0010174595991318035 -0.0011015279824048894 -0.0016740995483494074 -0.0017686310065642347 -0.0018631624647790618
          -0.0029032668799736884 -0.00299073042953707 -0.003078193979100451 -0.0048041344649719635 -0.004862706493078919 -0.004921278521185875
          -0.007537358482783271 -0.007545357029888112 -0.007553355576992955 -0.011224515416782679 -0.011148538785628825 -0.011072562154474976
          -0.015663884166205098 -0.015502807578892514 -0.01534173099157993 -0.018267692031351698 -0.01811671295677696 -0.017965733882202222
          -0.0004785202293697594 -0.0005389132665267278 -0.0005993063036836962 -0.0008147646352653216 -0.0008890379893644894 -0.000963311343463657
          -0.001375424419825271 -0.0014559863603766932 -0.0015365483009281153 -0.002240883808780115 -0.0023133866456560293 -0.002385889482531943
          -0.003501611623568915 -0.00355140235393671 -0.003601193084304506 -0.005256745215013866 -0.005275888923331306 -0.005295032631648745
          -0.00758974938692314 -0.007575535302639322 -0.007561321218355503 -0.010504607680519928 -0.010443859388208264 -0.0103831110958966
          -0.013383016355734335 -0.013314672993266432 -0.013246329630798533 -0.014213998061788625 -0.014250475593912503 -0.014286953126036384
          -0.0007681792841278568 -0.0008241887524950693 -0.0008801982208622817 -0.001257323159033827 -0.0013144523757530758 -0.0013715815924723244
          -0.0019690103400384204 -0.0020166166865661474 -0.002064223033093874 -0.0029329214971854835 -0.002958471533060724 -0.002984021568935964
          -0.004171742978564086 -0.004169705758321532 -0.004167668538078979 -0.005707686255678093 -0.0056857242608063414 -0.005663762265934589
          -0.0075541254918568 -0.007525719656262277 -0.007497313820667755 -0.009628512759159819 -0.00960176773852426 -0.009575022717888704
          -0.011123250363728788 -0.011163055707322274 -0.01120286105091576 -0.010758155192335885 -0.010969978921640915 -0.011181802650945942
          -0.0012251812342125436 -0.0012376827811026283 -0.001250184327992713 -0.0018780377343338274 -0.0018756017061243718 -0.0018731656779149162
          -0.002722356043090974 -0.0026970704971788005 -0.002671784951266627 -0.0037336093430802558 -0.0036834948815964645 -0.0036333804201126737
          -0.004874446390640122 -0.004808984479102199 -0.004743522567564277 -0.006105778119967139 -0.0060474769401286784 -0.005989175760290219
          -0.007382676772720885 -0.007358534510859781 -0.007334392248998676 -0.008575394426898907 -0.008612225823768893 -0.008649057220638879
          -0.008912573172052433 -0.009080759156949036 -0.00924894514184564 -0.007794130529176161 -0.008139920821108568 -0.00848571111304098
          -0.00184667099587243 -0.0018113819137638887 -0.0017760928316553465 -0.002652015635035326 -0.0025943418052365042 -0.0025366679754376814
          -0.0035935731871636653 -0.003506696582122967 -0.0034198199770822694 -0.0045896216806842775 -0.004482266649545484 -0.004374911618406688
          -0.005551126430130478 -0.005445774262513901 -0.005340422094897324 -0.006398201487277778 -0.006323428938273621 -0.006248656389269464
          -0.007044389256799351 -0.007031267449484202 -0.007018145642169055 -0.007355377985759669 -0.0074375011106849135 -0.007519624235610158
          -0.006790726452491415 -0.0070175936642464755 -0.007244460876001536 -0.005310411256811394 -0.005655083424164552 -0.005999755591517712
          -0.0042456004950402314 -0.004163590174644475 -0.0040815798542487205 -0.005116345673974904 -0.005021239295246779 -0.004926132916518654
          -0.005838124739932174 -0.005748603315056305 -0.005659081890180436 -0.006312681470611191 -0.006249712617931502 -0.006186743765251814
          -0.006441332105256815 -0.006425821244744762 -0.006410310384232706 -0.006107098723112702 -0.006163413627567958 -0.0062197285320232144
          -0.005028089575297439 -0.005179429102439698 -0.005330768629581957 -0.003557606438605747 -0.0037862721648112777 -0.004014937891016808
          -0.000007142469931939705 -0.00011574938133905898 -0.0001340977811021093 -0.000004188525166406014 0.00007499154276886811 0.00007394656241131348
          -0.00023923306279396712 -0.000005911266724255628 0.0001571255554696759 0.00026364250616168594 -0.00034436834448582496 -0.000007634008282105242
          0 0 0.000008696459141115054 0 0.000017392918282230107 0
          0 0 0 -0.000002479558898600009 -3.8110813077807906e-7 0.0000014104610903128615
          -0.000004959117797200018 -7.622162615561581e-7 0.0000028209221806257227 -0.038541745271101324 -0.03504135502688016 -0.04189543236674376
          -0.042714648636208996 -0.03796800629623431 -0.03461116326598067 -0.04148901791037677 -0.04219139449524839 -0.03739426732136732
          -0.03418097150508118 -0.04108260345400978 -0.04166814035428779 -0.010498333977488705 -0.005311141192343301 -0.00187258964529076
          -0.005493330458202942 -0.011252120737497736 -0.0060799371709671386 -0.0027839874078698173 -0.006567541593250148 -0.012005907497506768
          -0.006848733149590974 -0.0036953851704488744 -0.007641752728297353 -0.022654894893282134 -0.022237598651429415 -0.027925477505691503
          -0.027459804807619018 -0.022407382112067133 -0.022116999191543252 -0.02759420926219542 -0.02705778033399611 -0.022159869330852133
          -0.021996399731657096 -0.027262941018699333 -0.026655755860373196 -0.007729949937750767 -0.00923670794022704 -0.0055583121804333065
          -0.004398584587211632 -0.008255288178033943 -0.00959533338230527 -0.006081604197418096 -0.005040441819913802 -0.008780626418317119
          -0.009953958824383498 -0.006604896214402883 -0.005682299052615973 -0.00395054280428978 -0.005877396370782207 -0.004330458953715517
          -0.006338995309310992 -0.0047103751031412535 -0.006800594247839778 -0.03195955934067844 -0.028497297819289377 -0.03148369486872404
          -0.02823859523489373 -0.03100783039676963 -0.027979892650498085 -0.0000013018530542599768 0 0
          -0.000054992905624947726 0.00003062774137670653 0.000007412881418065318 -0.000015466782211276363 0.0003808690328144062 0.00006255733580767304
          0.000014825762836130636 -0.00003093356442255272 0.00081673097125376 -0.038299858472627804 -0.036994498268994855 -0.04109223412975567
          -0.0405409699674706 -0.037627999844477 -0.036288827343506365 -0.040428707878286806 -0.03989638157634568 -0.0369561412163262
          -0.035583156418017875 -0.03976518162681795 -0.039251793185220755 -0.03468694926052209 -0.041530000537216234 -0.03434456391762725
          -0.041272347987694726 -0.0340021785747324 -0.04101469543817321 -0.00022507182004284637 -0.0003823089489317179 -0.0000943983737068601
          -0.00003362238450635239 -0.0003223567635662913 -0.0004806837416346943 -0.00011077248056295394 -0.00004168051023321535 -0.00041964170708973627
          -0.0005790585343376706 -0.0001271465874190478 -0.00004973863596007831 -0.04652027961757574 -0.05648177760260996 -0.05387827772124479
          -0.04419368829533085 -0.046574283893936586 -0.05640906713353941 -0.05365790778209986 -0.044018418661653694 -0.04662828817029744
          -0.056336356664468866 -0.05343753784295493 -0.04384314902797655 0 0 0
          0 -0.00009010630412156629 -0.000021181289986216815 0.000012542206034206375 -0.0000368330955160102 -0.00018021260824313258
          -0.00004236257997243363 0.00002508441206841275 -0.0000736661910320204 -0.012195085300919594 -0.011601358224314538 -0.012413835918615676
          -0.011930738095353315 -0.012632586536311758 -0.012260117966392092 -0.03306904089270588 -0.0325060708369175 -0.03194310078112912
          -0.000028012331655214944 -0.00022261730646176898 0.0003910657990348298 0.0003448087606805494 0.0008101439297248745 0.0009122348278228677
          -0.00047733788798621265 -0.0015786778687642868 -0.0006217848918057718 -0.000426211535462136 -0.0020584054440054384 -0.0007539671807189639
          -0.0003750851829380594 -0.002538133019246591 -0.000886149469632156 -0.018315941051134488 -0.01639763464002654 -0.026624963764468372
          -0.02780580797013604 -0.018926876502725076 -0.017159387689549582 -0.026640421869313202 -0.027710313464031643 -0.019537811954315663
          -0.01792114073907262 -0.026655879974158025 -0.027614818957927247 -0.042961356859606066 -0.044137918323511334 -0.045453997576083705
          -0.04226890363422656 -0.043567879764515635 -0.0448977331150728 -0.04157645040884704 -0.04299784120551995 -0.04434146865406189
          -0.003543613116009061 -0.008479437176354175 -0.0039704548531902025 -0.00888120457999055 -0.004397296590371344 -0.009282971983626924
          -0.000724047072782482 -0.0027561254019938257 -0.0012953099233249002 -0.0035814228676227587 -0.0018665727738673187 -0.004406720333251691
          -0.005028853429068762 -0.0023453022908517824 -0.005657853367573883 -0.002974344773875892 -0.006286853306079002 -0.003603387256900001
          -0.052098136056052145 -0.050969375385802644 -0.055072277599431806 -0.05743511917767519 -0.05165148761237045 -0.05053275873996956
          -0.05476683005989676 -0.05716579879255879 -0.051204839168688746 -0.05009614209413649 -0.0544613825203617 -0.05689647840744241
          -0.016542284082098138 -0.0169997890531552 -0.023215274730094236 -0.016673642191174315 -0.01728159909175476 -0.023191285945577924
          -0.01680500030025049 -0.017563409130354327 -0.023167297161061605 -0.0007134861574583477 -0.0004749285723673321 -0.0010275638590165174
          -0.0007636052753648504 -0.0013416415605746876 -0.0010522819783623685 -0.016582801005894626 -0.01210031510098254 -0.01659394766808488
          -0.012299956900755547 -0.016605094330275138 -0.01249959870052856 -0.008948289900418403 -0.011614357467776375 -0.00952519175342024
          -0.012434668773492712 -0.01010209360642208 -0.013254980079209049 -0.004526216505702362 -0.002047464683897521 -0.005278774009671781
          -0.002558974032281243 -0.0060313315136412 -0.0030704833806649645 0 0 0
          -3.1858356532193864e-7 0 0 -6.371671306438773e-7 0 0
          -0.0018807784082964369 -0.0010787502507845132 -0.002337955966252799 -0.002159888854950099 -0.001297434762747789 -0.002745050068715547
          -0.002438999301603761 -0.0015161192747110651 -0.0031521441711782954 -0.04600896979102398 -0.04786843865825722 -0.047366539134972116
          -0.0454581572463982 -0.047385725377200885 -0.046950493492176115 -0.044907344701772406 -0.046903012096144545 -0.0465344478493801
          -0.04889700475800374 -0.04851045042051556 -0.04812389608302738 0 0 0
          0 0 0 0 0 0
          0 0 0 -0.04577990505351299 -0.04773256067816071 -0.04528204140487413
          -0.04743743062602651 -0.044784177756235284 -0.04714230057389231 0 0 0
          0 0 0 -0.05835195642059595 -0.04873225038862769 -0.05817801158573155
          -0.04845211514560722 -0.058004066750867146 -0.048171979902586745 -0.03606078402514725 -0.034393918215299885 -0.03573905395489694
          -0.03427857469128681 -0.03541732388464663 -0.034163231167273746 0 0 0
          -0.0025671996885221343 -0.002845056828950975 -0.0031229139693798153 -0.01834192888788466 -0.011676951764766026 -0.018553267695086254
          -0.012234715010915607 -0.018764606502287846 -0.012792478257065185 -0.003424589680821591 -0.003950818099191083 -0.004477046517560575
          -0.00015052739896845893 0.0002999721920786054 0.0007504717831256695 0 -3.1858356532193864e-7 -6.371671306438773e-7
          -0.0008879898834830343 -0.0011733086027675053 -0.0014586273220519761 -7.701253957547357e-7 -0.0000012942735479278237 -0.0000018184217001009119
          -0.0004038778964962674 0.00022995449773746947 0.0008637868919712064 -0.028943391176446464 -0.028907007417390232 -0.028870623658334
          -0.06060727853926945 -0.06050431537345189 -0.06040135220763434 -0.03821881502461594 -0.0376214595094382 -0.03702410399426047
          0 0 0 0 -0.00010654641721111218 -0.00021309283442222436
          -0.0050399534132524555 -0.0049921020602501295 -0.0049442507072478045 -0.004744074943805433 -0.004727571850095102 -0.004711068756384771
          -0.005497210254537275 -0.005449962770552265 -0.005402715286567256 -0.004939133866552351 -0.004920545842431642 -0.004901957818310932
          -0.005696340836424048 -0.005658534641700302 -0.005620728446976555 -0.005549676385919376 -0.005529381349619061 -0.005509086313318745
          -0.004960389639407726 -0.004970855053103565 -0.004981320466799404 -0.0037658879047770145 -0.0038202647978864256 -0.0038746416909958377
          -0.002203671080300634 -0.002309404384077429 -0.0024151376878542236 -0.0018813218001436482 -0.001326885377892802 -0.0020829733460106226
          -0.0014840347228600934 -0.0022846248918775972 -0.0016411840678273852 -0.0006118021138621074 -0.00026896615210743975 -0.00024126701444927484
          -0.0007207508173357183 -0.0006405358881880675 -0.0002774240405397248 -0.0002670017358525397 -0.0008012068034803808 -0.0006692696625140275
          -0.00028588192897201 -0.00029273645725580455 -0.0008816627896250432 -0.00002041014855462314 -0.00002177511431599749 -0.000023140080077371832
          -0.0010908722794741095 -0.0011532108018699949 -0.00121554932426588 -0.00007543846547898613 -0.00007567509290569548 -0.00007591172033240485
          -0.004402678157206526 -0.004452773237393042 -0.0043903829493851885 -0.0044409386551208475 -0.004378087741563851 -0.004429104072848654
          -0.004903829409531122 -0.004884944077344055 -0.004866058745156989 -0.004138616206670005 -0.004127169261050366 -0.004115722315430727
          -0.0045697021481225265 -0.004553111582299597 -0.004536521016476667 -0.003870540715790135 -0.003864721547550728 -0.003858902379311322
          -0.0027671425915723764 -0.0027816675449431937 -0.00279619249831401 -0.0016009218347403948 -0.0016266958733591446 -0.0016524699119778942
          -0.000765771257055863 -0.0007847091604366799 -0.000803647063817497 -0.00006606742292715203 -0.00027964185660690554 -0.0002459342515378922
          -0.00006834780626750698 -0.00028413196390648243 -0.0002507746010706949 -0.00007062818960786192 -0.00028862207120605927 -0.0002556149506034975
        </DataArray>
        <DataArray type="Float64" Name="disp_x" format="ascii" RangeMin="0" RangeMax="0.00003717747257961895">
          1.7151211286135404e-7 0 1.7387452917577149e-7 0 1.8060193791571586e-7 0
          1.6715050460385335e-7 0 1.7195166064806897e-7 0 1.864611911120238e-7 0
          1.809165600493879e-7 0 1.8899473136446717e-7 0 2.1429086906028447e-7 0
          2.415158962634422e-7 0 2.525611364269902e-7 0 2.8897091241291374e-7 0
          3.903536100175428e-7 0 4.038289153330054e-7 0 4.4637690829247493e-7 0
          6.785819622032995e-7 0 6.892561929225262e-7 0 7.228348742762548e-7 0
          0.0000011515761957355486 0 0.0000011516826181977828 0 0.0000011541762398522653 0
          0.0000018561194275239042 0 0.000001834385823719757 0 0.0000017764421354302342 0
          0.000002883590304896576 0 0.0000028311969640179136 0 0.000002664706268899886 0
          0.000004838509826618095 0 0.000004723893456949565 0 0.0000043375389113715025 0
          3.452768537065833e-7 3.507080867016911e-7 3.6638751760895055e-7 3.411940872913023e-7 3.515310507471039e-7 3.830008834420985e-7
          3.760110688815008e-7 3.92499128112782e-7 4.447261217711414e-7 5.049642583794879e-7 5.275709075408883e-7 6.007805775567299e-7
          8.09741933916741e-7 8.36024998571557e-7 9.190121010883164e-7 0.0000013878360837120845 0.0000014079906097640259 0.0000014715785875371514
          0.000002327968912873146 0.0000023270732594561495 0.0000023291683498549145 0.0000037197391783261002 0.000003678731308530265 0.000003566187552598148
          0.000005746396894757715 0.0000056435215875531285 0.0000053299185947976025 0.000009440782554633146 0.000009223116072967484 0.000008508731130745021
          5.245090695937656e-7 5.345034882445099e-7 5.637821145428698e-7 5.303574721407129e-7 5.477019434608657e-7 6.008117574089923e-7
          6.001781874343896e-7 6.260719438044511e-7 7.08293067952451e-7 8.130246482911646e-7 8.475731306945492e-7 9.576575725857044e-7
          0.0000012865060058646205 0.0000013242657671171413 0.0000014430145105857696 0.000002156494362303431 0.000002183772533576873 0.0000022703293257861542
          0.0000035513500468319048 0.0000035478474786015457 0.0000035448039846783586 0.000005599336892765076 0.000005541514121828076 0.0000053795374357743815
          0.00000854419307911382 0.000008399381119469409 0.00000797053148308583 0.000013598940278824729 0.000013307250969447413 0.000012367549327938339
          7.147495974233627e-7 7.316457385118633e-7 7.813906528265694e-7 7.454189200984744e-7 7.718476360953222e-7 8.527345117222336e-7
          8.701927211398677e-7 9.069819302004626e-7 0.0000010226427417516478 0.0000011892888442880322 0.0000012354671836079017 0.0000013802417178474268
          0.0000018474653949898488 0.000001894351789595663 0.0000020411072319278127 0.0000030094177456157483 0.000003040459448345093 0.000003140028503688722
          0.0000048389896210259795 0.000004831027670702544 0.000004816931898492568 0.0000074920104811115956 0.000007419692514938919 0.000007215167481445278
          0.000011236912000752906 0.000011063823219843787 0.000010555740835452117 0.000017144480712686756 0.00001681912378182216 0.000015788380057112706
          9.255416905551339e-7 9.520190980017934e-7 0.0000010299675035526789 0.0000010013877781898753 0.0000010387437228853289 0.0000011527242802540984
          0.0000012061094969360063 0.000001254396223779636 0.000001404351184419881 0.0000016577019145737617 0.0000017133984316202722 0.0000018867410134336587
          0.0000025164967257264174 0.0000025685979109233672 0.0000027320184152522314 0.000003966104046154618 0.000003996902072899475 0.0000040974394005557025
          0.000006197579256081457 0.000006183231490749119 0.000006152246081028653 0.000009384932887275316 0.000009302341231934378 0.000009063852438148583
          0.000013772789859102155 0.000013583036877164156 0.000013033668069385276 0.000020133537846167582 0.00001981152079181591 0.000018797601287069746
          0.000001172886082544755 0.000001209942773299034 0.0000013208898103115845 0.0000013198744500018242 0.0000013667811791166815 0.0000015131738601073453
          0.000001632027670472085 0.0000016888529322010939 0.0000018671121841327422 0.000002241481495263651 0.0000023015647737746884 0.0000024913475494140197
          0.0000033127540667372036 0.0000033643777730920167 0.0000035293741029611112 0.000005037560752374911 0.000005063827418233436 0.00000515251672948053
          0.000007623349183435479 0.0000076020232475948945 0.0000075501382300656915 0.000011250962818333517 0.00001116302072391309 0.000010901870718476801
          0.00001611054094532501 0.000015920050605669608 0.00001536600102452378 0.000022589110763254437 0.00002229775308293209 0.000021381800276110863
          0.0000014817522411226288 0.0000015243865607322432 0.0000016622869539868975 0.0000017294591191689667 0.00000177674696888715 0.0000019422485765170105
          0.000002174843404918067 0.0000022313649396044265 0.000002420106348238536 0.0000029617087859848934 0.000003017296060791264 0.0000032027848625207957
          0.000004248440821738333 0.000004292386481767621 0.000004440236655943644 0.000006224922822156795 0.000006242973428477934 0.00000630798245393165
          0.000009100554587240212 0.000009074254731390795 0.000009001867073944559 0.000013054464887506624 0.000012968925527581426 0.000012702180474179563
          0.000018203368238059282 0.000018032686936338656 0.000017513720940203003 0.000024553592726073786 0.000024321953902282037 0.00002356653315939353
          0.0000018837109127361348 0.0000019187301028803955 0.000002056946333114535 0.000002257965140424898 0.000002291082798660309 0.000002448404118336234
          0.000002859667569461433 0.000002902813220655074 0.0000030681077717751794 0.000003834396298801895 0.000003874221435794394 0.000004025203755229008
          0.000005326775745438294 0.000005356039974206953 0.000005465292613694097 0.000007518172809089111 0.000007526288201522767 0.000007559020497522567
          0.000010604745838839122 0.000010578617989086328 0.000010493790325125034 0.000014750209676821747 0.000014680179021974218 0.000014435939349889246
          0.000020012519852263095 0.00001988319789267334 0.000019449677638535284 0.000026108848191376745 0.00002595406005085319 0.00002540424042396173
          0.000003693986907753194 0.000003727378494887361 0.000003837089917217664 0.000004855573902270597 0.000004885055386482674 0.000004978590666834615
          0.0000065345689956074585 0.000006553751676567965 0.000006612917752841202 0.000008894550537560879 0.00000889587809471825 0.000008897290372520536
          0.000012109583713136763 0.000012083536908304723 0.000012000121492702068 0.000016313815401950985 0.000016253524435832633 0.000016058595461135438
          0.000021522942889078177 0.000021420511936217222 0.000021105767930859617 0.00002732526234396296 0.000027211898814502997 0.000026857579134626723
          0.000035150482949826236 0.00003446326668277465 0.00003445633019431071 0.00003514557257393387 0.00003515635002377877 0.00003445344541287742
          0.00003445949677007314 0.00003514629416129613 0.00003512274654106614 0.000034539998767219776 0.00003445796565700042 0.000035146033374251874
          0.000035798293096369154 0.00003583998693769525 0.00003579180727630814 0.00003583922391055306 0.00003581995920299804 0.000035848764807778774
          0.00003575408783207002 0.00003625569797699637 0.00003627083256770009 0.000035736935634838294 0.00003624903627068524 0.00003625498698102225
          0.0000357726157560292 0.000036267154157673264 0.00003629535784477349 0.000009359486408054235 0.000014076734557104455 0.00001122837079054325
          0.000008079206336435148 0.000009004147761401488 0.000013608534517298688 0.000010797746932953058 0.000007741086394772078 0.000007956856276442263
          0.000012123562946205645 0.000009451723400164266 0.000006762574504444351 0.00003092613731662278 0.00003165651314276431 0.00003306543584201652
          0.000032513402033291646 0.000030694578777062173 0.0000314706441902142 0.00003313577653550329 0.000032463028737551554 0.000029579064083562
          0.00003052793426441783 0.00003327884039081807 0.00003222696598898339 0.000017840091399588393 0.000019621028833824282 0.000016422989489912894
          0.000014650514603190527 0.00001745831427542934 0.000019158071701774467 0.000015965366372309647 0.000014297641464421239 0.00001621942840970913
          0.000017715934458802068 0.00001454849918589667 0.000013145835696708954 0.00002770126969125794 0.000025858487201462085 0.000028027210991319415
          0.000029747542018136786 0.00002740955227929328 0.00002553289801018194 0.00002780293184237916 0.000029564997861338233 0.000026414954435956536
          0.00002452370284970705 0.00002707457217633407 0.000028844515955713894 0.00002793057954084732 0.00002662415583278251 0.000027783771935595965
          0.000026420459503544106 0.000027292337241600845 0.000025733007700096324 0.000013893797287932708 0.000017882748982946684 0.00001346887688452246
          0.000017385096501953547 0.000012136226130920465 0.000015793894493200714 0.00003542141767825737 0.00003593468207132409 0.000036052846578373924
          0.00003537411958521599 0.000035417745709090855 0.0000359221850667162 0.00003603268329502229 0.00003536841649544928 0.000035340608342315566
          0.00003586952152814038 0.000035960198025360786 0.00003530310378705922 0.000002715960153514116 0.0000059845240257327575 0.000004524364913186257
          0 0.0000026597736338974288 0.000005823959991988432 0.000004349593771131996 0 0.0000024025915531127755
          0.000005249241921799741 0.000003828395820679149 0 0.000016569151517593767 0.000014538272398740932 0.000016029602362141552
          0.0000140365699129814 0.00001423400189379785 0.000012241847788224968 0.00003428269181381181 0.00003390466506881929 0.000034889432791527494
          0.000035173750701389855 0.000034286108316380676 0.0000339003397953433 0.00003489015554518585 0.00003517366739146147 0.0000342578942329189
          0.00003386931279225695 0.000034883837839526115 0.00003517189003160908 0.000020973832548962026 0.00001118375308728516 0.000010797390213464763
          0.000018229530870152316 0.000020750398411921797 0.000011017548378667623 0.000010563199598141226 0.000017781193841474808 0.0000187226772385007
          0.000009636534462398586 0.000009018227492321824 0.00001534516294381209 0.00003674314697360201 0.00003641089093447917 0.00003633375205054839
          0.000036714904579837414 0.000036695496336609935 0.000036374006271392484 0.00003630489221944113 0.00003669445867720723 0.00003681619916011249
          0.00003640852617892165 0.000036381292704004056 0.000036642821887632116 0.00002447382086167406 0.000025390923757139784 0.000024111559356228975
          0.000025021590471738585 0.000022940196083521538 0.000023786361274577947 0.00001074215511706769 0.000010425196505651575 0.00000942024355432668
          0.00003481730794391957 0.000034170680524724564 0.000034817678322699966 0.00003418326187808268 0.00003470641404196894 0.00003448780943837196
          0.00003364845378031739 0.00003299479133478066 0.00003371912359520707 0.00003370011176326577 0.00003283572445354766 0.000033678158604352245
          0.00003415526683185819 0.00003236450523252114 0.00003348480703956795 0.000025623771038225402 0.00002787290954531048 0.000025384700369929508
          0.000021214706698196165 0.000025062019154060785 0.000027338940624283604 0.000024752479294605418 0.000020561918237276524 0.000023348973431692604
          0.00002568140975104219 0.00002258787388066706 0.00001849721245254169 0 0.000004353614483294906 0
          0 0.0000041647618699042636 0 0 0.0000036414806746909622 0
          0.00002938130987667686 0.00002529045334248978 0.000029239215948587357 0.00002500249133347251 0.000028756683824361476 0.000024122267183627765
          0.000033807651280659574 0.000033940090398240634 0.00003382685458443055 0.000033782569046490216 0.00003373934048914305 0.00003324831631673711
          0.00003097955949103841 0.00003237927272260608 0.00003076351134437587 0.00003225345639689738 0.000029865356753059958 0.00003178628972795658
          0 0.000004404534783343765 0.000005362093738908123 0 0 0.00000421992740986958
          0.000005187098133716225 0 0 0.0000035534087584965395 0.000004288235829650485 0
          0.000022881710866850275 0.00002452760827449777 0.000021255673336141928 0.000022448545475040963 0.000024077633743581647 0.00002074919887215225
          0.000021065199405736 0.000022567184231468456 0.00001914636635301868 0.00003351232631412033 0.00003386981169574348 0.00003349256096647792
          0.00003385908002213839 0.00003335211362844138 0.0000337531300637969 0.000021309669175924317 0.000023315135060008038 0.000020925616475694905
          0.00002297816267839749 0.00001969706358854332 0.00002191977074156095 0.00002861524033243205 0.000028937808034454893 0.00002828895534614145
          0.000028509251610394697 0.000027103655974406722 0.0000271107383686227 0.000030371791317409464 0.00003180984254201716 0.00003015940596059966
          0.000031709159212945126 0.000029350937744921027 0.00003132555942716146 0.00003666538616809345 0.00003629107358265959 0.000036644129169113275
          0.000036649723722493726 0.00003628592371839618 0.00003663402666499822 0.00003665052586829228 0.00003630271752262498 0.000036641570631742694
          0.00003122835449223238 0.000032829754852688975 0.000031034720119260414 0.00003115346144088558 0.000032798520995613025 0.00003092464891815956
          0.00003091433627147337 0.000032691278358664266 0.00003052994939730978 0.000003909708814095886 0.0000031600708608629586 0
          0.0000037468190637123434 0.0000030259573525772684 0 0.000003194817402634959 0.000002555919146863553 0
          0 0 0 0.00003661707479978033 0.00003626350588635649 0.00003613472980724028
          0.0000366085518821404 0.00003661297570558009 0.0000362621437163698 0.000036134450971133216 0.000036606185228722166 0.000036622359239493956
          0.00003627426268194085 0.00003614546340876964 0.00003661644531468981 0.000007347668412878619 0.000008510214077462691 0.000007046281076631692
          0.000008185014010523838 0.0000060482346973563204 0.000007047322145465332 0.00003629430223480901 0.0000366278181132712 0.000036291610668092654
          0.00003662137497264548 0.00003630472870203833 0.000036630980121114294 0.000005832718132459061 0.00001148078389025587 0.000005705285712306352
          0.000011106200250488441 0.0000048278434971005795 0.00000931165888365298 0.000020280147203609273 0.000023951986069096396 0.000019659907008029686
          0.000023537377899692955 0.00001727550446789044 0.000021263737891442582 0.00003583231180670146 0.000035832256467391824 0.000035841685736408166
          0.00002934364553060619 0.000029222031445470606 0.000028891382146788428 0.00003017418488594986 0.000032210756234829395 0.000029903405704057393
          0.00003212545143157521 0.000028122807314983564 0.00003153163713999835 0.000029981342058309723 0.000029844687690007577 0.00002928478110120971
          0.00003437234156318738 0.00003437679841033247 0.000034451097049365146 0.000036690477330817555 0.000036670185543885967 0.00003665028639532378
          0.000033052293794392746 0.00003301901097500164 0.000032858726329102795 0.00003577805969107251 0.00003578001105531064 0.000035787224643425736
          0.00003451421292171133 0.00003467405167395049 0.000034839925038294997 0.00002940737110086698 0.00002922910066992178 0.000027112234661104896
          0 0 0 0 0 0
          0.000036604308420425 0.00003660381692652356 0.000036615135539281405 0.000036757444152297745 0.00003668832681158779 0.000036862600412845005
          0.000009372265436797577 0.000009372791860589474 0.00000935006960395247 0.000014115832919669057 0.00001410262426865695 0.000014076554615183834
          0.000011676909043077676 0.000011669881551321861 0.000011629044244821357 0.000016865685825991455 0.000016847231580718953 0.00001680265045939259
          0.00001451932240017534 0.000014503538275032189 0.000014444970288267026 0.00001796600298133417 0.000017939792287428415 0.000017863776136020367
          0.000022023502484094053 0.000021986337484466028 0.000021895405461311095 0.000026510870052272184 0.000026466816366634937 0.000026374092225409152
          0.00003100102528522506 0.000030980685599604525 0.00003092642268769634 0.00003107343818805836 0.000032359184324622554 0.00003102028872973255
          0.0000323469769486754 0.000030882236423085204 0.000032268331158801895 0.00003423868581205669 0.00003520490313367957 0.000034799781563123346
          0.000033647577911829135 0.0000342365119546475 0.00003520656426651544 0.00003480050198702127 0.0000336398224601935 0.00003422745306988539
          0.000035212973302059046 0.000034805516158241565 0.0000336175251932784 0.00003573129854543073 0.000035733268323057924 0.00003574510527503068
          0.00003305993354506438 0.00003305566383272446 0.0000330230819844703 0.000036787776521462256 0.00003678974431027342 0.000036797911882163583
          0.000021889683401201687 0.00001892980078911002 0.000021875074577749287 0.000018921212392166016 0.000021831724789800576 0.000018895369780829496
          0.000019973092046431543 0.000019950341146917522 0.000019889187070626922 0.00002499773706698106 0.000024978009097057553 0.000024918911564930504
          0.00002339660078215418 0.000023372469976752742 0.000023299181311520243 0.0000270079383194424 0.00002698435804964116 0.000026906365248157453
          0.00003054336876040554 0.00003052945032632284 0.000030460778003510584 0.00003335483558492786 0.00003334982423606723 0.00003332310137599713
          0.00003449682043869787 0.00003449199799228987 0.00003448415645202308 0.00003717118013817111 0.00003569523205763268 0.000036380349359379066
          0.00003717390528191183 0.00003569490354009472 0.00003638134235028117 0.00003717747257961895 0.000035692385409519616 0.00003638434608064785
        </DataArray>
        <DataArray type="Float64" Name="disp_y" format="ascii" RangeMin="-0.000026599656906540774" RangeMax="-0.000003429787357206738">
          -0.000003434998840607171 -0.00000343384472511457 -0.0000034329146667779564 -0.0000034320585125270773 -0.000003429787357206738 -0.000003429789936310056
          -0.000003666194284748601 -0.0000036620781705194225 -0.0000036614472114350086 -0.000003657633284084548 -0.0000036513527980284433 -0.0000036487274219662903
          -0.000003891112044791872 -0.000003880266611111456 -0.00000388105371807765 -0.000003870455825303871 -0.000003854250814413826 -0.000003844959635333347
          -0.000004141986125928737 -0.000004119317384403565 -0.000004122112345780779 -0.000004099493939239683 -0.000004061330303035049 -0.000004039657062843239
          -0.000004477168644883119 -0.000004436956318804486 -0.000004440731865827828 -0.000004400293500487168 -0.000004322673661848455 -0.000004281911876710479
          -0.000004979646856362348 -0.000004916591650207298 -0.000004919457066030683 -0.000004855722858700048 -0.000004721061489944816 -0.000004655065027477281
          -0.000005746360807679439 -0.0000056552016799719105 -0.0000056569831205634065 -0.000005565095792894294 -0.000005363008158770474 -0.0000052668080489695026
          -0.00000688524203723735 -0.000006757782514087905 -0.000006761820199580799 -0.000006632797468621714 -0.000006356769277755581 -0.00000622169842734553
          -0.000008509950243510368 -0.000008323334022074956 -0.000008342803781218393 -0.000008145828424309524 -0.000007773386830262817 -0.000007551525119116184
          -0.000010663670691518195 -0.000010339082192456038 -0.00001043641702095045 -0.000010098859775907435 -0.000009570892686915179 -0.000009153066661874299
          -0.0000034391449459360317 -0.0000034362478802746274 -0.000003430618352159923 -0.00000367998347014025 -0.0000036744154189556418 -0.0000036609505847009914
          -0.0000039255939639579015 -0.000003915077973586713 -0.00000388482183897101 -0.000004212367540994811 -0.000004192362290977982 -0.000004129336315016214
          -0.000004600166963765028 -0.000004564476698302141 -0.000004447620908911542 -0.000005170316685190431 -0.0000051120433547768 -0.000004920210906967941
          -0.00000602047458270075 -0.000005933917568396364 -0.000005652679851030868 -0.00000726774340587096 -0.000007149275424261167 -0.00000676481260444594
          -0.000009063527068354694 -0.000008915915273147068 -0.00000840533251828564 -0.000011581180119851132 -0.000011378532055251175 -0.000010666057795409506
          -0.0000034485192711913225 -0.000003444436741851084 -0.0000034346699282711646 -0.0000037071960066223523 -0.0000037005638038429027 -0.0000036818508395623582
          -0.000003989412565396478 -0.000003978196832139172 -0.000003942487915852312 -0.000004336843405590861 -0.000004316866240163316 -0.000004250708532215364
          -0.00000481211679478355 -0.000004777444273559975 -0.000004662706595531844 -0.000005492025977818061 -0.000005436948598398161 -0.000005255919197215309
          -0.000006475898948088888 -0.0000063942197077477346 -0.0000061343190593209955 -0.000007903769109129428 -0.00000779482824349349 -0.000007444149317426414
          -0.000009925402948652705 -0.000009801759785720702 -0.000009368909858207083 -0.000012578136164301721 -0.000012444329059112866 -0.000011978373615889265
          -0.0000034671376623789823 -0.000003461734206789576 -0.000003446415136706969 -0.000003754545675384853 -0.0000037468074195516537 -0.0000037212172733479526
          -0.000004091022118253733 -0.000004078860635218072 -0.000004036536051812554 -0.000004524824943902564 -0.000004504773786678832 -0.0000044350355492772805
          -0.000005120237701662696 -0.0000050871397056880714 -0.000004975907997321031 -0.000005948702826801415 -0.000005897841932039047 -0.000005731942152764674
          -0.000007110480319747066 -0.00000703636897772996 -0.0000068053019947166645 -0.000008755536977625737 -0.000008658465831083074 -0.000008353461271784933
          -0.000011015045450298199 -0.000010921510407845091 -0.000010584357702555304 -0.00001384480932533347 -0.00001377802090953706 -0.00001355185160877748
          -0.0000035010643814489026 -0.0000034944046677340117 -0.0000034722227043308995 -0.000003830696185384856 -0.0000038216344776489835 -0.0000037881707445189917
          -0.000004240676729722681 -0.000004227529452742237 -0.000004178240196281625 -0.000004785516663380814 -0.0000047654940661086004 -0.0000046930881466519706
          -0.000005530327317030375 -0.000005499041086257569 -0.000005393828122001139 -0.000006540989232055702 -0.000006495103835841536 -0.00000634824696955221
          -0.000007911981842066928 -0.00000784722040569789 -0.000007650548668993188 -0.000009779015529054118 -0.000009698541522521384 -0.000009451149930632044
          -0.000012241210330047174 -0.000012178048072487422 -0.00001194325428341691 -0.00001526330584257004 -0.000015228335270365245 -0.000015156037451866778
          -0.000003558407986678553 -0.0000035501750533949807 -0.000003520014454942199 -0.0000039459208212010744 -0.000003935257487479454 -0.000003893472978281892
          -0.000004449491389095395 -0.0000044347677693500065 -0.000004378757182499479 -0.0000051277299048265315 -0.0000051072206253744374 -0.000005033460429271225
          -0.000006045140148158256 -0.000006015683061880598 -0.00000591884730026851 -0.0000072624843724578425 -0.000007221922100436354 -0.000007097024398394943
          -0.000008856468777445584 -0.000008802638057673015 -0.000008644880138800868 -0.000010930439368821836 -0.000010869142960863588 -0.000010685188421164505
          -0.000013540483285230368 -0.000013500374306150356 -0.000013357665350203104 -0.00001655403885900556 -0.000016562568838638016 -0.00001661600053237503
          -0.000003648908628788132 -0.0000036383907920431316 -0.0000035990894317622253 -0.000004111944208873297 -0.000004098359333247869 -0.000004047468671609041
          -0.0000047273046930341325 -0.000004709777916164683 -0.000004647525987630197 -0.000005556258338659264 -0.000005534570168908531 -0.000005460825583372501
          -0.000006661077041469732 -0.0000066332660349588895 -0.000006546632031626284 -0.000008096212390879979 -0.000008061496264300939 -0.000007960430924148415
          -0.00000991265921060822 -0.000009871021467892387 -0.000009754590564400884 -0.000012159167300635112 -0.000012117918946814525 -0.000011997715250130669
          -0.000014841803475669968 -0.00001482517851836114 -0.000014766270332246862 -0.000017788607819310044 -0.00001781483792201799 -0.000017933967837545512
          -0.000003784823711709841 -0.0000037693278404563215 -0.0000037192943904229827 -0.000004340707936456918 -0.0000043207661406903545 -0.000004259727764341203
          -0.00000507908540899182 -0.000005059123012208013 -0.000004990524344221533 -0.000006071042423658955 -0.000006047496100560929 -0.0000059741855319710424
          -0.000007366348467190296 -0.000007341109785887367 -0.000007265453079094537 -0.000009012759086755834 -0.000008986491497160813 -0.000008910687551534626
          -0.000011036263593942583 -0.00001101119808463628 -0.0000109380328046286 -0.000013419090328979817 -0.000013402542411740353 -0.000013346219319515452
          -0.00001609803234041824 -0.000016101968302874762 -0.000016112150771859066 -0.00001898359481371129 -0.000019011862239551278 -0.00001916646522611783
          -0.000005510356196225797 -0.0000054868961346767815 -0.000005413795085061896 -0.000006663910462111426 -0.000006639111505086674 -0.000006569230696630911
          -0.000008141463037953695 -0.000008117676548812888 -0.000008057072930233361 -0.000009978411434701313 -0.000009956988120478023 -0.000009911512931173606
          -0.000012177670989635547 -0.00001216145278367455 -0.000012137255538529038 -0.000014678277178564122 -0.000014674692837922564 -0.000014688143448342772
          -0.000017320905713752 -0.000017333010783931414 -0.00001741142367356945 -0.00001990679128800474 -0.000019953541374165055 -0.000020088789228404318
          -0.000020124143297132816 -0.000020134148301733206 -0.000020687035229315064 -0.000020836321067493726 -0.0000201922075903103 -0.000020204535596743875
          -0.0000207463340433432 -0.000020889940577192635 -0.000020360678035723218 -0.000020415745286463776 -0.000020934480678039987 -0.000021010769237546186
          -0.000020363716366565166 -0.000020919012363272313 -0.00002042698760207993 -0.00002096422627752032 -0.000020536442455796374 -0.000021068833355127532
          -0.000019767610083383547 -0.00002038320159076367 -0.00001991351809577699 -0.00001983779049305332 -0.000020443157892385527 -0.000019985990349723997
          -0.00002008627220678045 -0.000020554073461345812 -0.00002016769403890986 -0.000012784432560221084 -0.000013780866486196792 -0.000014042701770479302
          -0.000013607123215868161 -0.000012464678858832054 -0.000013540265636157885 -0.000013683278417807454 -0.000013196050515686412 -0.00001125782733406931
          -0.000012516098954378988 -0.000012240149695041588 -0.000011658229631522375 -0.000017541847400665406 -0.000018332012999288613 -0.000018297933449105126
          -0.00001757976895474569 -0.00001761221764256729 -0.000018628254980187445 -0.000018509194524238726 -0.00001766611550482627 -0.00001804562167449062
          -0.000019243615995749382 -0.000018803922862226287 -0.00001833142035640692 -0.000013982996636264801 -0.000014712448336905714 -0.000013725883092960784
          -0.000013153747192032457 -0.000013904943512769954 -0.000014664564765944616 -0.00001360978747979838 -0.000013011988816907588 -0.00001360575244764899
          -0.00001439939107780825 -0.000013118647107781251 -0.000012470311998777138 -0.000018325528009232028 -0.00001773641621425059 -0.00001900793804181763
          -0.000019378983968449474 -0.000018394752849722752 -0.00001777005575791824 -0.0000190527975884964 -0.00001945260193334666 -0.000018672765673027676
          -0.00001796294713435199 -0.00001929524592994288 -0.000019768679676470817 -0.000019837773742882238 -0.000018728108323948167 -0.000019883010327623453
          -0.00001876121045844437 -0.000020096950060219524 -0.000018947571586257448 -0.000013237189569059381 -0.000014190952860842141 -0.000013036024159837678
          -0.00001408825740971151 -0.000012249159054826383 -0.000013644589685789658 -0.00001918564417893213 -0.00001922332884296016 -0.000018617259581449765
          -0.000018363394666567165 -0.000019295472544724254 -0.000019309338210899578 -0.000018723732420217334 -0.000018466090812833408 -0.000019502406920556533
          -0.000019576852135653605 -0.000019063696471819524 -0.000019058921768369233 -0.000010934202151692369 -0.000011435045655278882 -0.000012070566535009773
          -0.000011333972016857638 -0.000010680445343907123 -0.000011169088650563596 -0.00001175062209309438 -0.000011033799924967554 -0.000009659570631342339
          -0.000010145454206240524 -0.000010472758166436402 -0.000009832429715383368 -0.000014793016864007865 -0.000015247254346145662 -0.000014564755111888924
          -0.00001486267929981334 -0.000013569064786768811 -0.000013311586721871224 -0.000021278399050057137 -0.000022067102362327904 -0.00002218367265037457
          -0.000021570425415581663 -0.00002132939593977964 -0.000022105430133726786 -0.000022217546392166617 -0.00002160939702831741 -0.00002148916207613147
          -0.000022221094513561697 -0.000022301187787453426 -0.000021707550200782277 -0.000021740432024399726 -0.00002335291083769932 -0.000021038996578021973
          -0.000018836125063437146 -0.000021037068571291307 -0.0000224266383671376 -0.000020193792477941316 -0.000018312146579667993 -0.00001858999969581267
          -0.000018318161802911387 -0.000016741534356238255 -0.000016459829859389386 -0.000019161338277198565 -0.0000191071527589245 -0.000019441489195066558
          -0.000019614026147375666 -0.00001924789931488949 -0.00001919496088500689 -0.00001951120227966478 -0.0000196874483015615 -0.000019495517618287393
          -0.000019545361061330384 -0.000019829509708186265 -0.000019942252612062056 -0.00001674578083203574 -0.00001700494554347716 -0.00001676761477125717
          -0.00001705524175700545 -0.000016884794050322785 -0.000017248772902806025 -0.000012248197773774373 -0.000012001977631047227 -0.000011132982096895071
          -0.000019387330703490792 -0.00001957127518085244 -0.000019500560547740538 -0.000019640114851489276 -0.000019741384134319415 -0.000019729876678885276
          -0.000019046195848331456 -0.0000192163072734636 -0.00001993133972771051 -0.000018982313874479957 -0.00001929436415644939 -0.000019976123813484313
          -0.00001915761486727052 -0.000019873361463637838 -0.000020356457033124965 -0.00001647998517820382 -0.0000169580790216559 -0.000015770754326154464
          -0.000015139052975969484 -0.000016614056963497826 -0.000017051463080682707 -0.000015780560495124907 -0.000015086530989489341 -0.00001682013570340112
          -0.000017360268431119993 -0.000016096938725154676 -0.000014837965026739172 -0.000012399694531013714 -0.000013340069701623089 -0.000013552252272396336
          -0.000012013243860339863 -0.00001290023998404852 -0.000013067631468281182 -0.000010535719471465494 -0.000011273576848235818 -0.000011277802722507431
          -0.000020202048751477577 -0.000017798475489968242 -0.00002025586127081218 -0.000017831420497955794 -0.000020510973761836026 -0.000017992649092027445
          -0.00001818749844522056 -0.000017400503758639454 -0.00001836079048558536 -0.000017432772480930925 -0.000018862455890537133 -0.000018483843713461972
          -0.000018772359193761044 -0.0000198343099881981 -0.000018891174083331984 -0.000019882363922795094 -0.000019380580245132796 -0.000020295727013088977
          -0.000019370290413495355 -0.000017618611177984985 -0.000019614641648128563 -0.000021436864081921926 -0.000018404099080310774 -0.000016837793189400546
          -0.000018736755406597157 -0.000020334760593581056 -0.00001473639562131635 -0.000013982291598406582 -0.000015258784947097001 -0.00001591112738472126
          -0.00001604677398615986 -0.00001636817823033463 -0.000015233330462492526 -0.000016057125620206117 -0.00001643775096983077 -0.000015196487236187951
          -0.000016038040143656202 -0.000016522205081165736 -0.000014941281917652166 -0.000020764437329158157 -0.00002048144119379781 -0.000020825686718925324
          -0.000020540204773483082 -0.000021070312018147193 -0.000020800741876683377 -0.000015424661885102557 -0.000016607107752745998 -0.0000153956155168346
          -0.000016598077505835757 -0.000015323135355837397 -0.00001666306252630065 -0.00001819626469854082 -0.000017672386926237442 -0.000018300356597661943
          -0.000017830121641331197 -0.000018666210665143062 -0.000018229187758172448 -0.00001917198280348266 -0.00002042512500251972 -0.00001924637254941372
          -0.000020488336311122252 -0.00001962400145262022 -0.000020782092279764673 -0.000020465752071280396 -0.000020788381555105787 -0.000020863612394364768
          -0.000020520685963467676 -0.000020835501860865615 -0.00002090722806324335 -0.00002062477078803712 -0.000020930448492940544 -0.000020998387392422724
          -0.000021375407888627948 -0.000021873437048431197 -0.000020621040765707993 -0.000021423879129295902 -0.00002191866938149058 -0.00002068099295017249
          -0.000021601540096855184 -0.00002208335137087097 -0.000020951031778781033 -0.00001435671816137362 -0.000015901624459841494 -0.00001541652208120738
          -0.000013809364494015717 -0.000015236300763677755 -0.000014772844888521108 -0.000011867808726002902 -0.000012831591822189543 -0.000012411967485404415
          -0.000017344502513967726 -0.000016538457843568674 -0.000013561429873497709 -0.00002160525829921713 -0.000021468978407689687 -0.000021803404518257176
          -0.00002195516169025121 -0.0000216369928484778 -0.000021504016959178242 -0.000021834703647650598 -0.000021982592208477587 -0.000021712225695206063
          -0.000021584581151047684 -0.000021908750968406185 -0.000022048727448858146 -0.000015020017504564277 -0.00001654508939706499 -0.000014468150236143351
          -0.000015917513776092288 -0.000012521555139366308 -0.000013670204103931325 -0.000021151104090693382 -0.000021241928668020686 -0.00002119047848910264
          -0.000021278673318402913 -0.00002127911223545313 -0.000021361601747067086 -0.00002104090795886738 -0.000018302392180679294 -0.000020091230305450595
          -0.000017605276582503125 -0.000016188022459438435 -0.000015018944671930363 -0.000016085347995145198 -0.00001756515963414481 -0.00001581369059173075
          -0.000017293964772989954 -0.000014757831048553971 -0.000016850652527604866 -0.00002144145374843613 -0.000021479117648036718 -0.000021564149257528062
          -0.000020704913244611004 -0.00002076404793273556 -0.000020916478758263012 -0.000016389284385219456 -0.000016481493209207467 -0.000016535333416140956
          -0.000016617284259170107 -0.00001755796610437282 -0.00001847417521673278 -0.000019822515671548896 -0.000019873527919665412 -0.00002014274814761905
          -0.000018623634829706755 -0.000018725349369653953 -0.00001935988468177612 -0.000020048913188765337 -0.000020115780436842972 -0.00002026546642362347
          -0.00002116583795023446 -0.00002122667119961035 -0.000021446149401808536 -0.000022257229537914023 -0.000022285176992621013 -0.000022349783799263654
          -0.000017864346535105936 -0.00001811145634332589 -0.0000189573688929979 -0.00001884920172990819 -0.000018583177945427292 -0.00001868862705619078
          -0.00002342364945462132 -0.00002221954869089174 -0.000017021825089913576 -0.000010705769751685386 -0.00001044423804278339 -0.000009408548267513135
          -0.000022290377058798387 -0.00002231457942490636 -0.000022371852342840374 -0.000018708371062441208 -0.00001880853597504788 -0.000019076049330813436
          -0.000009279608738380233 -0.000009265419991321283 -0.000009222091927916716 -0.000012167336105611022 -0.000012159810056551437 -0.000012137386131614099
          -0.000011268410547760028 -0.00001125969968478915 -0.000011232162964848022 -0.000014410491614369472 -0.000014408065633758523 -0.000014401127582340134
          -0.000013564541953863915 -0.000013563214272320882 -0.000013557253085603221 -0.00001609202920574237 -0.000016100421666803682 -0.000016122457535632427
          -0.000018692365564083446 -0.000018716788521039016 -0.000018779685033166203 -0.0000211351717465489 -0.00002116899335928631 -0.00002128920532013192
          -0.000023186222307904562 -0.00002322230739136458 -0.00002336023229759921 -0.000022105081558866668 -0.000022691760870664725 -0.000022147082177325816
          -0.00002272380051679651 -0.000022297337616040617 -0.000022865110753815985 -0.000024062281367392013 -0.000024248139503578705 -0.00002313439175944082
          -0.000022999244293659108 -0.00002408746249306257 -0.00002426651076902801 -0.00002316044830442358 -0.0000230318558312492 -0.00002415391723805878
          -0.000024318978095632996 -0.00002323173162660217 -0.000023142168908380097 -0.000023216620290173574 -0.000023237946913858852 -0.000023291643370252613
          -0.000023815552258808777 -0.00002384807176315632 -0.00002393736328219151 -0.00002462808157028783 -0.000024642021561589085 -0.000024679454558636417
          -0.000017374109174661444 -0.000015093587278547124 -0.000017378477241597378 -0.000015092636405396337 -0.00001739076120294944 -0.000015089579826923361
          -0.00001684614666004029 -0.000016850570282902335 -0.000016864725886020654 -0.000019709065734415416 -0.00001971977570675883 -0.00001975091005701538
          -0.00001935388528559693 -0.00001936674832030143 -0.000019407525653307115 -0.000021742670639867414 -0.00002176758940054607 -0.00002184083047753004
          -0.000023761814181550973 -0.00002379345944712405 -0.000023900382443277457 -0.000025135965374451906 -0.00002516310821680707 -0.000025251423030406802
          -0.000025288569030709416 -0.000025310470133459947 -0.0000253685755920709 -0.000026174129707889605 -0.000025401294757271853 -0.000026548493734043745
          -0.000026187087872237022 -0.00002541572132383757 -0.000026561319242348416 -0.00002622654180414198 -0.00002546077035995611 -0.000026599656906540774
        </DataArray>
        <DataArray type="Float64" Name="disp_z" format="ascii" RangeMin="-0.000019836188581471817" RangeMax="4.6515873189529103e-7">
          0 0 -7.377155778447181e-8 -7.283596564952399e-8 -1.537234459875745e-7 -1.5112609060993568e-7
          0 0 -7.496390788608695e-8 -7.215480878088296e-8 -1.618602406148592e-7 -1.5541032471524362e-7
          0 0 -9.312643729814255e-8 -8.73520553428244e-8 -2.0700055529989028e-7 -1.9496509928000158e-7
          0 0 -1.548646189703805e-7 -1.457160557434693e-7 -3.43425712243231e-7 -3.243823035758462e-7
          0 0 -3.0602385010975946e-7 -2.939542844161198e-7 -6.590762851985459e-7 -6.358846197425602e-7
          0 0 -6.060475747514157e-7 -5.945354146769222e-7 -0.0000012591689212314947 -0.0000012380544584417972
          0 0 -0.0000011083770913050357 -0.0000011024321639849485 -0.0000022411138192361366 -0.000002230821260588913
          0 0 -0.000001858441171343735 -0.0000018685783346288349 -0.0000036968688200461083 -0.0000037163728643338707
          0 0 -0.0000029757309520329955 -0.000003013131263051514 -0.000005865697679651536 -0.000005943711027982279
          0 0 -0.000005153239891057209 -0.000005387602014061079 -0.00001010028184335574 -0.000010542777203786756
          0 -7.702794081837821e-8 -1.6249322754534112e-7 0 -8.403717592444608e-8 -1.8243214225046273e-7
          0 -1.109679837927807e-7 -2.447623812940366e-7 0 -1.8265520606676215e-7 -4.003743897204928e-7
          0 -3.4180683769283206e-7 -7.278790699085999e-7 0 -6.400602254816886e-7 -0.0000013214495618764824
          0 -0.0000011237568774457302 -0.0000022673040813747076 0 -0.0000018333201116679205 -0.000003648029680254526
          0 -0.000002843961420416705 -0.00000560253635567821 0 -0.000004600082337551358 -0.00000903843550616929
          0 -8.419538128926413e-8 -1.8073838277986638e-7 0 -1.0126213603602492e-7 -2.209774942637578e-7
          0 -1.4230203740521707e-7 -3.10999445963985e-7 0 -2.3011572822832283e-7 -4.95872075004413e-7
          0 -4.004146091588217e-7 -8.397851657981926e-7 0 -6.935634628079832e-7 -0.000001419183351221174
          0 -0.0000011465487375989398 -0.0000023061154582961737 0 -0.0000017844135660047204 -0.000003549262924473071
          0 -0.0000026670612823003988 -0.000005263687307492236 0 -0.000003876192497183096 -0.000007636238252411141
          0 -9.830299548902384e-8 -2.1422770259221307e-7 0 -1.2987646985551873e-7 -2.832862649377811e-7
          0 -1.89963114037687e-7 -4.099001932812876e-7 0 -2.98399132168197e-7 -6.299434877377922e-7
          0 -4.797174292919057e-7 -9.89499040487353e-7 0 -7.619136793084137e-7 -0.0000015437000175795517
          0 -0.0000011704225687220037 -0.000002345440949354169 0 -0.000001718301616003708 -0.0000034183939073838827
          0 -0.0000024293545880105854 -0.000004797286550390902 0 -0.0000030924108711875237 -0.000006139169778681283
          0 -1.2431346456051712e-7 -2.712060384641022e-7 0 -1.7510036687307842e-7 -3.7706007324812455e-7
          0 -2.5790221752161347e-7 -5.450575099486583e-7 0 -3.8731581225181305e-7 -8.002654916910188e-7
          0 -5.758692465206432e-7 -0.0000011686669525961646 0 -8.384342360819254e-7 -0.0000016829274917106686
          0 -0.0000011886675111168003 -0.0000023733795975898543 0 -0.0000016326864829065977 -0.000003249266593100521
          0 -0.0000021438669031052513 -0.0000042453714436437085 0 -0.0000023694271604899768 -0.000004764939532814665
          0 -1.6945262115653577e-7 -3.6105204183773333e-7 0 -2.438272751827485e-7 -5.089239527080655e-7
          0 -3.499225069147057e-7 -7.189975166797472e-7 0 -4.961441605294408e-7 -0.0000010024501327621281
          0 -6.834179494646152e-7 -0.0000013664791946832395 0 -9.151798846309003e-7 -0.000001822357584322678
          0 -0.000001194456631486267 -0.0000023790429053901808 0 -0.0000015175295038298956 -0.0000030250705026477185
          0 -0.0000018393960631839522 -0.000003669504267585561 0 -0.0000017400996633425372 -0.0000035524723184359078
          0 -2.4212881851017325e-7 -4.91342524637172e-7 0 -3.4084457374231923e-7 -6.818551761047758e-7
          0 -4.6836256844517266e-7 -9.310977398501465e-7 0 -6.225825927193855e-7 -0.0000012299376697417493
          0 -7.962542219618399e-7 -0.0000015710568368238185 0 -9.8384484563495e-7 -0.0000019473040176263915
          0 -0.0000011789011768856488 -0.000002348603625172928 0 -0.0000013707333310183194 -0.0000027477532910629183
          0 -0.00000150712469309422 -0.000003049513548647277 0 -0.0000012146913711553288 -0.0000025652852636023898
          0 -3.452742547674031e-7 -6.659558298790302e-7 0 -4.6210065111998684e-7 -8.988775070819478e-7
          0 -6.105193129940445e-7 -0.0000011784999049024682 0 -7.612052180461131e-7 -0.0000014761489703552993
          0 -9.076143598249099e-7 -0.0000017724033826446757 0 -0.0000010366189086826382 -0.0000020447623762808306
          0 -0.000001134893501201898 -0.0000022684645781215403 0 -0.0000011881826331449258 -0.0000024124775348797642
          0 -0.0000011485147944749165 -0.00000238967761473809 0 -7.744716662020125e-7 -0.0000017106216172663118
          0 -7.506594887859161e-7 -0.000001481978323928248 0 -8.902034552456516e-7 -0.0000017558864124171659
          0 -0.0000010004753412767555 -0.0000019759538886408052 0 -0.0000010638385289434114 -0.00000210852589257045
          0 -0.0000010630203111436446 -0.00000211780464872289 0 -9.876307942376529e-7 -0.000001980963952116166
          0 -8.06704797543024e-7 -0.0000016451329780531078 0 -4.673818485238355e-7 -9.8409690591788e-7
          0 0 0 0 -2.461108077707725e-8 -7.714235013888241e-8
          -7.7129650861435e-8 -3.205029298367617e-8 -7.600595602422971e-8 -1.566116610992522e-7 -1.7281010355898433e-7 -7.366874487329714e-8
          0 0 6.440446609527534e-9 7.108508265582814e-10 5.362050689397903e-9 -1.1729418367655382e-8
          0 0 0 1.2118157945114684e-8 3.243748812563597e-8 4.642833583359337e-8
          1.8253261363234894e-8 4.7245549721155656e-8 5.086400809073093e-8 0 0 0
          0 -0.0000057957648371724295 -0.000005203747522333241 -0.000006343685800148209 -0.000006463943740577868 -0.000011418658161591323
          -0.000010312607566525809 -0.000012650613834184451 -0.000012820265433578516 0 0 0
          0 -0.0000013680115884901953 -8.159106510448695e-7 9.872392040211697e-8 -9.78135150881004e-7 -0.0000029479508686101713
          -0.000001625382920296779 -5.26205058496296e-7 -0.0000022073608044470495 0 0 0
          0 -0.0000033837080901030795 -0.0000033161241484661885 -0.000004239096032222868 -0.000004237019440459584 -0.000006675778010421625
          -0.000006604523261758671 -0.000008398546788063395 -0.000008374159956598824 0 0 0
          0 -0.0000011235882047037454 -0.0000013556501185460551 -8.523436334414459e-7 -6.743516746893135e-7 -0.000002339523054410657
          -0.0000027789953874834863 -0.0000019333794592827325 -0.0000016209113968573327 0 0 -5.918092196343328e-7
          -9.279969637305042e-7 -0.0000012500275734829361 -0.000002033395847434382 0 0 -0.000004689006939796207
          -0.000004413942259827347 -0.000009173309333522249 -0.000008797545721050193 0 0 0
          0 -1.2615162948312445e-8 2.8676196339385695e-8 2.5696303487610793e-8 1.810584550751279e-10 -1.1171808563718403e-7
          6.974358724492894e-8 5.547675034493094e-8 -1.0334276106858446e-7 0 0 0
          0 -0.000005767420018114409 -0.000005516383523116371 -0.000006186693113806549 -0.0000062018378792703665 -0.000011364808716066563
          -0.000010781029328432006 -0.000012192691493290677 -0.000012260622810077548 0 0 -0.000005139877375595643
          -0.000006324780998963158 -0.000010099388815117096 -0.000012748522055140725 0 0 0
          0 -8.11824912526157e-8 -9.277591948029023e-8 -5.5977213643831666e-8 -3.760078263048326e-8 -1.8714840479559111e-7
          -2.0165565499065578e-7 -1.246010443835242e-7 -8.521395526114032e-8 0 0 0
          0 -0.0000075739470508496814 -0.000008799752909375233 -0.000007788068680540983 -0.000006627775652584003 -0.000015521432864608675
          -0.00001777934898039928 -0.000015261085176166892 -0.000013295945812979542 0 0 0
          0 9.091065957205416e-8 4.6282995416023825e-8 5.901725719209193e-8 9.163619423498583e-8 -3.919135966002666e-8
          3.776046161696979e-8 1.0501135631725478e-7 1.6911436337842984e-7 0 0 -0.0000018643695365872174
          -0.0000018333933678946943 -0.0000037770935523884562 -0.000003815561566010591 0 -0.000004980460564117343 -0.000009842277669684332
          0 0 -4.538354562674393e-8 -6.65582364376538e-8 -1.683840785312537e-7 4.6515873189529103e-7
          0 0 0 -5.9596796762302126e-8 -3.170148446393718e-7 -1.2923937291572233e-7
          3.685343088729783e-8 -9.924518878037846e-7 -4.145556261681647e-7 0 0 0
          0 -0.0000028814041478785874 -0.0000025383981384756 -0.000004021668892005378 -0.000004137847980490747 -0.000005952378901133965
          -0.000005716064449081391 -0.0000080187128092227 -0.000008238412459306162 0 0 0
          -0.000006379042879985538 -0.000006676104153239121 -0.000006780041362079084 -0.000012476553293804826 -0.000013279896245949867 -0.000013402088172382806
          0 0 -4.938131789645669e-7 -0.0000013161207176078722 -0.0000011360421362311781 -0.000002773396201495711
          0 0 -1.011945762246701e-7 -3.311113847098954e-7 -5.628262182330322e-7 -0.0000011157353440057944
          0 0 -7.297062038469531e-7 -3.3605070069263233e-7 -0.0000015082296987345884 -8.842193622445776e-7
          0 0 0 0 -0.00000762168390703417 -0.000007442037348859228
          -0.00000823443714133042 -0.000008626393805365283 -0.000015119941485578984 -0.000014776158595288517 -0.000016422019295004203 -0.00001720997967724809
          0 0 0 -0.0000025470517538823707 -0.00000259708888854075 -0.000003433455146587308
          -0.000005146936649489361 -0.000005234348737452579 -0.000006908430982075386 0 0 -1.2819057933519285e-7
          -1.1397261984433448e-7 -3.631166990691901e-7 -3.2284305057742066e-7 0 0 -0.000002513538996018125
          -0.0000018245567534273357 -0.0000050378598070133154 -0.0000037014474038370544 0 0 -0.0000012915975176464755
          -0.0000017509275176418128 -0.0000027721559179176822 -0.000003908798469495639 0 0 -6.941753807634589e-7
          -3.015037076800379e-7 -0.000001781256488963016 -7.317587354699626e-7 0 0 0
          6.212023331390272e-8 2.613828040537703e-8 4.724544483811088e-8 8.366709413087866e-8 3.4528770962918156e-8 6.59756404817257e-8
          0 0 0 -2.88996433558363e-7 -1.5621868691341172e-7 -3.105474916610044e-7
          -6.892426215313063e-7 -3.7262114884564804e-7 -7.183459838388539e-7 0 0 0
          -0.000006838888479369791 -0.000007122923452073376 -0.000007014273835502336 -0.000013501434975785634 -0.000014126071185684399 -0.000013951885288019705
          0 -0.000007174328331507225 -0.00001423198859834071 0 0 0
          0 2.6748027388989347e-8 1.026327901185108e-8 -1.8049330296693407e-9 1.8006767512739896e-8 3.680128585646244e-8
          9.839982605162386e-9 -1.2765430248411958e-8 2.3938563879169155e-8 0 0 -0.00000673597556447261
          -0.000007203479179722628 -0.00001321413201315271 -0.000014376926409470894 0 0 1.882084265028877e-8
          3.613512682182428e-8 2.2942409892945818e-8 5.054542031861659e-8 0 0 -0.000008630158246543767
          -0.000007312674018133789 -0.000017541791825530593 -0.000014547881866355986 0 0 -0.000005286853816244957
          -0.000005533389672038645 -0.000010438097740561505 -0.000011150643519680406 0 -8.608676360171868e-9 -2.5040791181537023e-8
          0 -4.1029446105020146e-7 -8.963099105592267e-7 0 0 -0.0000024770386871518
          -0.0000015260172146723786 -0.0000048987715967303435 -0.000003315313275142236 0 -5.184219773368527e-7 -0.0000010881969691611888
          0 -1.189050890854571e-7 2.56073520773623e-7 0 8.196409795430011e-8 1.2094974825972698e-7
          0 -1.5712085100957368e-7 -4.345360221381559e-7 0 -2.283939514853233e-8 -5.5301086885606226e-8
          0 -1.3187725894867719e-7 2.1141490612173422e-7 0 -0.000004476264846483457 -0.000009095722294646193
          0 -0.00000991546675011492 -0.000019836188581471817 0 -0.000005818114193693544 -0.000011543498638328925
          0 1.0156956729465094e-8 7.743928636828106e-9 0 8.197912024655225e-8 2.534312397362839e-8
          0 -8.151616737862907e-7 -0.000001612096505110773 0 -7.708396778501485e-7 -0.0000015411415285663589
          0 -8.83098394934373e-7 -0.0000017491821272066288 0 -8.006810083616597e-7 -0.0000015991384120544114
          0 -9.13988829283673e-7 -0.0000018150321031096244 0 -8.962280728673773e-7 -0.0000017866169683689285
          0 -8.158835662718105e-7 -0.0000016338689057794458 0 -6.483792626536927e-7 -0.0000013219277559264203
          0 -3.0869212036540764e-7 -6.498423370386634e-7 0 0 -3.2344899199798454e-7
          -2.3072397411398028e-7 -7.689639144974845e-7 -5.129120659252786e-7 0 0 0
          0 -1.331939352984213e-7 -8.581833949306303e-8 -7.074857072244874e-8 -1.313493107963557e-7 -2.8337185902801693e-7
          -1.6929207061634574e-7 -1.5681314816224323e-7 -2.846900477060895e-7 0 -3.841295606552047e-8 -7.105270974282171e-8
          0 -1.7063787996684423e-7 -3.399558027042749e-7 0 -2.582287216495564e-8 -5.6140299596573263e-8
          0 0 -7.222566337058183e-7 -7.30637099741203e-7 -0.0000014401060013404514 -0.000001457098632292436
          0 -7.974857715151976e-7 -0.0000015907965606482988 0 -6.812428450115028e-7 -0.0000013583055996203757
          0 -7.496370369629051e-7 -0.0000014932089455702763 0 -6.45585667318323e-7 -0.0000012824558947794072
          0 -4.737302993265164e-7 -9.473967685455523e-7 0 -2.3877250579709426e-7 -4.809999738525579e-7
          0 -1.546403024645952e-7 -3.21343265450764e-7 0 0 0
          -3.2766429805907974e-8 -9.322288807632424e-8 -8.551080621349538e-8 -6.26339350592445e-8 -1.8728803741152112e-7 -1.7334929840119127e-7
        </DataArray>
      </PointData>
      <CellData>
        <DataArray type="Int32" Name="libmesh_elem_id" format="ascii" RangeMin="40" RangeMax="1373">
          40 41 42 43 44 45
          46 47 48 49 50 51
          52 53 54 55 56 57
          98 99 100 101 102 103
          104 105 106 107 108 109
          110 111 112 113 114 115
          156 157 158 159 160 161
          162 163 164 165 166 167
          168 169 170 171 172 173
          214 215 216 217 218 219
          220 221 222 223 224 225
          226 227 228 229 230 231
          272 273 274 275 276 277
          278 279 280 281 282 283
          284 285 286 287 288 289
          330 331 332 333 334 335
          336 337 338 339 340 341
          342 343 344 345 346 347
          388 389 390 391 392 393
          394 395 396 397 398 399
          400 401 402 403 404 405
          446 447 448 449 450 451
          452 453 454 455 456 457
          458 459 460 461 462 463
          508 509 510 511 512 513
          514 515 516 517 518 519
          520 521 522 523 524 525
          526 527 528 529 530 531
          532 533 534 535 536 537
          538 539 540 541 542 543
          544 545 546 547 548 549
          550 551 552 553 554 555
          556 557 558 559 560 561
          562 563 564 565 566 567
          568 569 570 571 572 573
          574 575 576 577 578 579
          580 581 582 583 584 585
          586 587 588 589 590 591
          592 593 594 595 596 597
          598 599 600 601 602 603
          604 605 606 607 608 609
          610 611 612 613 614 615
          616 617 618 619 620 621
          622 623 624 625 626 627
          628 629 630 631 632 633
          634 635 636 637 638 639
          640 641 642 643 644 645
          646 647 648 649 650 651
          652 653 654 655 656 657
          658 659 660 661 662 663
          664 665 666 667 668 669
          670 671 672 673 674 675
          676 677 678 679 680 681
          682 683 684 685 686 687
          688 689 690 691 692 693
          694 695 696 697 698 699
          700 701 702 703 704 705
          706 707 708 709 710 711
          712 713 714 715 716 717
          718 719 720 721 722 723
          724 725 726 727 728 729
          730 731 732 733 734 735
          736 737 738 739 740 741
          742 743 744 745 746 747
          748 749 750 751 752 753
          754 755 756 757 758 759
          760 761 762 763 764 765
          766 767 768 769 770 771
          1186 1187 1188 1189 1190 1191
          1204 1205 1206 1207 1208 1209
          1222 1223 1224 1225 1240 1241
          1242 1243 1258 1259 1260 1261
          1276 1277 1278 1279 1300 1301
          1304 1305 1306 1307 1314 1315
          1316 1317 1326 1327 1328 1329
          1330 1331 1338 1339 1344 1345
          1348 1349 1356 1357 1358 1359
          1360 1361 1366 1367 1372 1373
        </DataArray>
        <DataArray type="Int32" Name="subdomain_id" format="ascii" RangeMin="103" RangeMax="143">
          103 103 103 103 103 103
          103 103 103 103 103 103
          103 103 103 103 103 103
          103 103 103 103 103 103
          103 103 103 103 103 103
          103 103 103 103 103 103
          103 103 103 103 103 103
          103 103 103 103 103 103
          103 103 103 103 103 103
          103 103 103 103 103 103
          103 103 103 103 103 103
          103 103 103 103 103 103
          103 103 103 103 103 103
          103 103 103 103 103 103
          103 103 103 103 103 103
          103 103 103 103 103 103
          103 103 103 103 103 103
          103 103 103 103 103 103
          103 103 103 103 103 103
          103 103 103 103 103 103
          103 103 103 103 103 103
          103 103 103 103 103 103
          103 103 103 103 103 103
          103 103 103 103 103 103
          103 103 103 103 103 103
          103 103 103 103 103 103
          103 103 104 104 104 104
          104 104 104 104 104 104
          104 104 104 104 104 104
          104 104 104 104 104 104
          104 104 104 104 104 104
          104 104 104 104 104 104
          104 104 104 104 104 104
          104 104 104 104 104 104
          104 104 104 104 104 104
          104 104 104 104 104 104
          104 104 104 104 104 104
          104 104 104 104 104 104
          104 104 104 104 104 104
          104 104 104 104 104 104
          104 104 104 104 104 104
          104 104 104 104 104 104
          104 104 104 104 104 104
          104 104 104 104 104 104
          104 104 104 104 104 104
          104 104 104 104 104 104
          104 104 104 104 104 104
          104 104 104 104 104 104
          104 104 104 104 104 104
          104 104 104 104 104 104
          104 104 104 104 104 104
          104 104 104 104 104 104
          104 104 104 104 104 104
          104 104 104 104 104 104
          104 104 104 104 104 104
          104 104 104 104 104 104
          104 104 104 104 104 104
          104 104 104 104 104 104
          104 104 104 104 104 104
          141 141 141 141 141 141
          141 141 141 141 141 141
          141 141 141 141 141 141
          141 141 141 141 141 141
          141 141 141 141 141 141
          141 141 141 141 141 141
          141 141 141 141 141 141
          141 141 141 141 141 141
          141 141 141 141 141 141
          105 105 105 105 105 105
          105 105 105 105 105 105
          105 105 105 105 105 105
          105 105 105 105 105 105
          105 105 105 105 106 106
          106 106 106 106 106 106
          106 106 106 106 106 106
          106 106 106 106 106 106
          106 106 106 106 106 106
          143 143 143 143 143 143
        </DataArray>
        <DataArray type="Int32" Name="processor_id" format="ascii" RangeMin="5" RangeMax="5">
          5 5 5 5 5 5
          5 5 5 5 5 5
          5 5 5 5 5 5
          5 5 5 5 5 5
          5 5 5 5 5 5
          5 5 5 5 5 5
          5 5 5 5 5 5
          5 5 5 5 5 5
          5 5 5 5 5 5
          5 5 5 5 5 5
          5 5 5 5 5 5
          5 5 5 5 5 5
          5 5 5 5 5 5
          5 5 5 5 5 5
          5 5 5 5 5 5
          5 5 5 5 5 5
          5 5 5 5 5 5
          5 5 5 5 5 5
          5 5 5 5 5 5
          5 5 5 5 5 5
          5 5 5 5 5 5
          5 5 5 5 5 5
          5 5 5 5 5 5
          5 5 5 5 5 5
          5 5 5 5 5 5
          5 5 5 5 5 5
          5 5 5 5 5 5
          5 5 5 5 5 5
          5 5 5 5 5 5
          5 5 5 5 5 5
          5 5 5 5 5 5
          5 5 5 5 5 5
          5 5 5 5 5 5
          5 5 5 5 5 5
          5 5 5 5 5 5
          5 5 5 5 5 5
          5 5 5 5 5 5
          5 5 5 5 5 5
          5 5 5 5 5 5
          5 5 5 5 5 5
          5 5 5 5 5 5
          5 5 5 5 5 5
          5 5 5 5 5 5
          5 5 5 5 5 5
          5 5 5 5 5 5
          5 5 5 5 5 5
          5 5 5 5 5 5
          5 5 5 5 5 5
          5 5 5 5 5 5
          5 5 5 5 5 5
          5 5 5 5 5 5
          5 5 5 5 5 5
          5 5 5 5 5 5
          5 5 5 5 5 5
          5 5 5 5 5 5
          5 5 5 5 5 5
          5 5 5 5 5 5
          5 5 5 5 5 5
          5 5 5 5 5 5
          5 5 5 5 5 5
          5 5 5 5 5 5
          5 5 5 5 5 5
          5 5 5 5 5 5
          5 5 5 5 5 5
          5 5 5 5 5 5
          5 5 5 5 5 5
          5 5 5 5 5 5
          5 5 5 5 5 5
          5 5 5 5 5 5
          5 5 5 5 5 5
          5 5 5 5 5 5
          5 5 5 5 5 5
          5 5 5 5 5 5
          5 5 5 5 5 5
          5 5 5 5 5 5
          5 5 5 5 5 5
          5 5 5 5 5 5
          5 5 5 5 5 5
        </DataArray>
      </CellData>
      <Points>
        <DataArray type="Float64" Name="Points" NumberOfComponents="3" format="ascii" RangeMin="0.0082758620689774" RangeMax="0.013139935358843113">
          0.00011111111111123 0.0082758620689751 0 0 0.0082758620689774 0
          0.00011111111111123 0.0082758620689751 0.00015 0 0.0082758620689774 0.00015
          0.00011111111111123 0.0082758620689751 0.0003 0 0.0082758620689774 0.0003
          0.00011111111111125 0.0086896551724226 0 0 0.0086896551724246 0
          0.00011111111111125 0.0086896551724226 0.00015 0 0.0086896551724246 0.00015
          0.00011111111111125 0.0086896551724226 0.0003 0 0.0086896551724246 0.0003
          0.00011111111111126 0.0091034482758696 0 0 0.0091034482758716 0
          0.00011111111111126 0.0091034482758696 0.00015 0 0.0091034482758716 0.00015
          0.00011111111111126 0.0091034482758696 0.0003 0 0.0091034482758716 0.0003
          0.00011111111111128 0.0095172413793168 0 0 0.0095172413793185 0
          0.00011111111111128 0.0095172413793168 0.00015 0 0.0095172413793185 0.00015
          0.00011111111111128 0.0095172413793168 0.0003 0 0.0095172413793185 0.0003
          0.00011111111111129 0.0099310344827632 0 0 0.0099310344827645 0
          0.00011111111111129 0.0099310344827632 0.00015 0 0.0099310344827645 0.00015
          0.00011111111111129 0.0099310344827632 0.0003 0 0.0099310344827645 0.0003
          0.00011111111111131 0.01034482758621 0 0 0.01034482758621 0
          0.00011111111111131 0.01034482758621 0.00015 0 0.01034482758621 0.00015
          0.00011111111111131 0.01034482758621 0.0003 0 0.01034482758621 0.0003
          0.00011111111111132 0.010758620689657 0 0 0.010758620689657 0
          0.00011111111111132 0.010758620689657 0.00015 0 0.010758620689657 0.00015
          0.00011111111111132 0.010758620689657 0.0003 0 0.010758620689657 0.0003
          0.00011111111111134 0.011172413793104 0 0 0.011172413793104 0
          0.00011111111111134 0.011172413793104 0.00015 0 0.011172413793104 0.00015
          0.00011111111111134 0.011172413793104 0.0003 0 0.011172413793104 0.0003
          0.00011111111111135 0.011586206896551 0 0 0.011586206896551 0
          0.00011111111111135 0.011586206896551 0.00015 0 0.011586206896551 0.00015
          0.00011111111111135 0.011586206896551 0.0003 0 0.011586206896551 0.0003
          0.00011111111111137 0.012 0 0 0.012 0
          0.00011111111111137 0.012 0.00015 0 0.012 0.00015
          0.00011111111111137 0.012 0.0003 0 0.012 0.0003
          0.00022222222222243 0.0082758620689727 0 0.00022222222222243 0.0082758620689727 0.00015
          0.00022222222222243 0.0082758620689727 0.0003 0.00022222222222246 0.0086896551724206 0
          0.00022222222222246 0.0086896551724206 0.00015 0.00022222222222246 0.0086896551724206 0.0003
          0.00022222222222249 0.0091034482758676 0 0.00022222222222249 0.0091034482758676 0.00015
          0.00022222222222249 0.0091034482758676 0.0003 0.00022222222222253 0.0095172413793151 0
          0.00022222222222253 0.0095172413793151 0.00015 0.00022222222222253 0.0095172413793151 0.0003
          0.00022222222222256 0.0099310344827619 0 0.00022222222222256 0.0099310344827619 0.00015
          0.00022222222222256 0.0099310344827619 0.0003 0.0002222222222226 0.010344827586209 0
          0.0002222222222226 0.010344827586209 0.00015 0.0002222222222226 0.010344827586209 0.0003
          0.00022222222222263 0.010758620689656 0 0.00022222222222263 0.010758620689656 0.00015
          0.00022222222222263 0.010758620689656 0.0003 0.00022222222222266 0.011172413793103 0
          0.00022222222222266 0.011172413793103 0.00015 0.00022222222222266 0.011172413793103 0.0003
          0.0002222222222227 0.011586206896551 0 0.0002222222222227 0.011586206896551 0.00015
          0.0002222222222227 0.011586206896551 0.0003 0.00022222222222273 0.012 0
          0.00022222222222273 0.012 0.00015 0.00022222222222273 0.012 0.0003
          0.00033333333333363 0.0082758620689704 0 0.00033333333333363 0.0082758620689704 0.00015
          0.00033333333333363 0.0082758620689704 0.0003 0.00033333333333368 0.0086896551724185 0
          0.00033333333333368 0.0086896551724185 0.00015 0.00033333333333368 0.0086896551724185 0.0003
          0.00033333333333373 0.0091034482758657 0 0.00033333333333373 0.0091034482758657 0.00015
          0.00033333333333373 0.0091034482758657 0.0003 0.00033333333333379 0.0095172413793133 0
          0.00033333333333379 0.0095172413793133 0.00015 0.00033333333333379 0.0095172413793133 0.0003
          0.00033333333333384 0.0099310344827607 0 0.00033333333333384 0.0099310344827607 0.00015
          0.00033333333333384 0.0099310344827607 0.0003 0.00033333333333389 0.010344827586208 0
          0.00033333333333389 0.010344827586208 0.00015 0.00033333333333389 0.010344827586208 0.0003
          0.00033333333333394 0.010758620689656 0 0.00033333333333394 0.010758620689656 0.00015
          0.00033333333333394 0.010758620689656 0.0003 0.000333333333334 0.011172413793103 0
          0.000333333333334 0.011172413793103 0.00015 0.000333333333334 0.011172413793103 0.0003
          0.00033333333333405 0.011586206896551 0 0.00033333333333405 0.011586206896551 0.00015
          0.00033333333333405 0.011586206896551 0.0003 0.0003333333333341 0.012 0
          0.0003333333333341 0.012 0.00015 0.0003333333333341 0.012 0.0003
          0.00044444444444486 0.0082758620689681 0 0.00044444444444486 0.0082758620689681 0.00015
          0.00044444444444486 0.0082758620689681 0.0003 0.00044444444444493 0.0086896551724165 0
          0.00044444444444493 0.0086896551724165 0.00015 0.00044444444444493 0.0086896551724165 0.0003
          0.00044444444444501 0.0091034482758637 0 0.00044444444444501 0.0091034482758637 0.00015
          0.00044444444444501 0.0091034482758637 0.0003 0.00044444444444508 0.0095172413793116 0
          0.00044444444444508 0.0095172413793116 0.00015 0.00044444444444508 0.0095172413793116 0.0003
          0.00044444444444516 0.0099310344827594 0 0.00044444444444516 0.0099310344827594 0.00015
          0.00044444444444516 0.0099310344827594 0.0003 0.00044444444444523 0.010344827586207 0
          0.00044444444444523 0.010344827586207 0.00015 0.00044444444444523 0.010344827586207 0.0003
          0.00044444444444531 0.010758620689655 0 0.00044444444444531 0.010758620689655 0.00015
          0.00044444444444531 0.010758620689655 0.0003 0.00044444444444538 0.011172413793103 0
          0.00044444444444538 0.011172413793103 0.00015 0.00044444444444538 0.011172413793103 0.0003
          0.00044444444444546 0.011586206896551 0 0.00044444444444546 0.011586206896551 0.00015
          0.00044444444444546 0.011586206896551 0.0003 0.00044444444444553 0.012 0
          0.00044444444444553 0.012 0.00015 0.00044444444444553 0.012 0.0003
          0.00055555555555597 0.0082758620689657 0 0.00055555555555597 0.0082758620689657 0.00015
          0.00055555555555597 0.0082758620689657 0.0003 0.00055555555555605 0.0086896551724145 0
          0.00055555555555605 0.0086896551724145 0.00015 0.00055555555555605 0.0086896551724145 0.0003
          0.00055555555555613 0.0091034482758618 0 0.00055555555555613 0.0091034482758618 0.00015
          0.00055555555555613 0.0091034482758618 0.0003 0.00055555555555621 0.0095172413793099 0
          0.00055555555555621 0.0095172413793099 0.00015 0.00055555555555621 0.0095172413793099 0.0003
          0.00055555555555629 0.0099310344827581 0 0.00055555555555629 0.0099310344827581 0.00015
          0.00055555555555629 0.0099310344827581 0.0003 0.00055555555555636 0.010344827586206 0
          0.00055555555555636 0.010344827586206 0.00015 0.00055555555555636 0.010344827586206 0.0003
          0.00055555555555644 0.010758620689655 0 0.00055555555555644 0.010758620689655 0.00015
          0.00055555555555644 0.010758620689655 0.0003 0.00055555555555652 0.011172413793102 0
          0.00055555555555652 0.011172413793102 0.00015 0.00055555555555652 0.011172413793102 0.0003
          0.0005555555555566 0.011586206896551 0 0.0005555555555566 0.011586206896551 0.00015
          0.0005555555555566 0.011586206896551 0.0003 0.00055555555555667 0.012 0
          0.00055555555555667 0.012 0.00015 0.00055555555555667 0.012 0.0003
          0.00066666666666675 0.0082758620689634 0 0.00066666666666675 0.0082758620689634 0.00015
          0.00066666666666675 0.0082758620689634 0.0003 0.00066666666666679 0.0086896551724125 0
          0.00066666666666679 0.0086896551724125 0.00015 0.00066666666666679 0.0086896551724125 0.0003
          0.00066666666666684 0.0091034482758598 0 0.00066666666666684 0.0091034482758598 0.00015
          0.00066666666666684 0.0091034482758598 0.0003 0.00066666666666688 0.0095172413793081 0
          0.00066666666666688 0.0095172413793081 0.00015 0.00066666666666688 0.0095172413793081 0.0003
          0.00066666666666693 0.0099310344827568 0 0.00066666666666693 0.0099310344827568 0.00015
          0.00066666666666693 0.0099310344827568 0.0003 0.00066666666666697 0.010344827586205 0
          0.00066666666666697 0.010344827586205 0.00015 0.00066666666666697 0.010344827586205 0.0003
          0.00066666666666701 0.010758620689654 0 0.00066666666666701 0.010758620689654 0.00015
          0.00066666666666701 0.010758620689654 0.0003 0.00066666666666706 0.011172413793102 0
          0.00066666666666706 0.011172413793102 0.00015 0.00066666666666706 0.011172413793102 0.0003
          0.0006666666666671 0.01158620689655 0 0.0006666666666671 0.01158620689655 0.00015
          0.0006666666666671 0.01158620689655 0.0003 0.00066666666666715 0.012 0
          0.00066666666666715 0.012 0.00015 0.00066666666666715 0.012 0.0003
          0.00077777777777787 0.0082758620689611 0 0.00077777777777787 0.0082758620689611 0.00015
          0.00077777777777787 0.0082758620689611 0.0003 0.00077777777777791 0.0086896551724104 0
          0.00077777777777791 0.0086896551724104 0.00015 0.00077777777777791 0.0086896551724104 0.0003
          0.00077777777777794 0.0091034482758578 0 0.00077777777777794 0.0091034482758578 0.00015
          0.00077777777777794 0.0091034482758578 0.0003 0.00077777777777797 0.0095172413793064 0
          0.00077777777777797 0.0095172413793064 0.00015 0.00077777777777797 0.0095172413793064 0.0003
          0.000777777777778 0.0099310344827555 0 0.000777777777778 0.0099310344827555 0.00015
          0.000777777777778 0.0099310344827555 0.0003 0.00077777777777803 0.010344827586205 0
          0.00077777777777803 0.010344827586205 0.00015 0.00077777777777803 0.010344827586205 0.0003
          0.00077777777777806 0.010758620689654 0 0.00077777777777806 0.010758620689654 0.00015
          0.00077777777777806 0.010758620689654 0.0003 0.00077777777777809 0.011172413793101 0
          0.00077777777777809 0.011172413793101 0.00015 0.00077777777777809 0.011172413793101 0.0003
          0.00077777777777813 0.01158620689655 0 0.00077777777777813 0.01158620689655 0.00015
          0.00077777777777813 0.01158620689655 0.0003 0.00077777777777816 0.012 0
          0.00077777777777816 0.012 0.00015 0.00077777777777816 0.012 0.0003
          0.0008888888888888 0.0082758620689588 0 0.0008888888888888 0.0082758620689588 0.00015
          0.0008888888888888 0.0082758620689588 0.0003 0.00088888888888881 0.0086896551724084 0
          0.00088888888888881 0.0086896551724084 0.00015 0.00088888888888881 0.0086896551724084 0.0003
          0.00088888888888882 0.0091034482758559 0 0.00088888888888882 0.0091034482758559 0.00015
          0.00088888888888882 0.0091034482758559 0.0003 0.00088888888888883 0.0095172413793047 0
          0.00088888888888883 0.0095172413793047 0.00015 0.00088888888888883 0.0095172413793047 0.0003
          0.00088888888888884 0.0099310344827542 0 0.00088888888888884 0.0099310344827542 0.00015
          0.00088888888888884 0.0099310344827542 0.0003 0.00088888888888885 0.010344827586204 0
          0.00088888888888885 0.010344827586204 0.00015 0.00088888888888885 0.010344827586204 0.0003
          0.00088888888888885 0.010758620689653 0 0.00088888888888885 0.010758620689653 0.00015
          0.00088888888888885 0.010758620689653 0.0003 0.00088888888888886 0.011172413793101 0
          0.00088888888888886 0.011172413793101 0.00015 0.00088888888888886 0.011172413793101 0.0003
          0.00088888888888887 0.01158620689655 0 0.00088888888888887 0.01158620689655 0.00015
          0.00088888888888887 0.01158620689655 0.0003 0.00088888888888888 0.012 0
          0.00088888888888888 0.012 0.00015 0.00088888888888888 0.012 0.0003
          0.001 0.0091034482758539 0 0.001 0.0091034482758539 0.00015
          0.001 0.0091034482758539 0.0003 0.001 0.0095172413793029 0
          0.001 0.0095172413793029 0.00015 0.001 0.0095172413793029 0.0003
          0.001 0.0099310344827529 0 0.001 0.0099310344827529 0.00015
          0.001 0.0099310344827529 0.0003 0.001 0.010344827586203 0
          0.001 0.010344827586203 0.00015 0.001 0.010344827586203 0.0003
          0.001 0.010758620689653 0 0.001 0.010758620689653 0.00015
          0.001 0.010758620689653 0.0003 0.001 0.0111724137931 0
          0.001 0.0111724137931 0.00015 0.001 0.0111724137931 0.0003
          0.001 0.01158620689655 0 0.001 0.01158620689655 0.00015
          0.001 0.01158620689655 0.0003 0.001 0.012 0
          0.001 0.012 0.00015 0.001 0.012 0.0003
          0.00067947077571632 0.012798245728111 0 0.00068678568032061 0.012710429785181 0
          0.00076344362314339 0.012698069087358 0 0.00078000626700894 0.012788238676479 0
          0.00067947077571632 0.012798245728111 0.00015 0.00068678568032061 0.012710429785181 0.00015
          0.00076344362314339 0.012698069087358 0.00015 0.00078000626700894 0.012788238676479 0.00015
          0.00067947077571632 0.012798245728111 0.0003 0.00068678568032061 0.012710429785181 0.0003
          0.00076344362314339 0.012698069087358 0.0003 0.00078000626700894 0.012788238676479 0.0003
          0.0007101811699723 0.012881232243155 0 0.00078737528777453 0.012884598822829 0
          0.0007101811699723 0.012881232243155 0.00015 0.00078737528777453 0.012884598822829 0.00015
          0.0007101811699723 0.012881232243155 0.0003 0.00078737528777453 0.012884598822829 0.0003
          0.00063149088332091 0.012876508075697 0 0.00071156048039536 0.012943694476106 0
          0.00064992343237843 0.012944046337553 0 0.00063149088332091 0.012876508075697 0.00015
          0.00071156048039536 0.012943694476106 0.00015 0.00064992343237843 0.012944046337553 0.00015
          0.00063149088332091 0.012876508075697 0.0003 0.00071156048039536 0.012943694476106 0.0003
          0.00064992343237843 0.012944046337553 0.0003 0.00014271480927744 0.012184528409521 0
          0.00021074182908597 0.012239195039162 0 0.00014617236906556 0.012274772666576 0
          0.00010836971036758 0.0122326927564 0 0.00014271480927744 0.012184528409521 0.00015
          0.00021074182908597 0.012239195039162 0.00015 0.00014617236906556 0.012274772666576 0.00015
          0.00010836971036758 0.0122326927564 0.00015 0.00014271480927744 0.012184528409521 0.0003
          0.00021074182908597 0.012239195039162 0.0003 0.00014617236906556 0.012274772666576 0.0003
          0.00010836971036758 0.0122326927564 0.0003 0.00040316247653445 0.012523054457121 0
          0.00050524235438491 0.012516470580574 0 0.00047556583290331 0.012611926172403 0
          0.00040677839563254 0.01259579728731 0 0.00040316247653445 0.012523054457121 0.00015
          0.00050524235438491 0.012516470580574 0.00015 0.00047556583290331 0.012611926172403 0.00015
          0.00040677839563254 0.01259579728731 0.00015 0.00040316247653445 0.012523054457121 0.0003
          0.00050524235438491 0.012516470580574 0.0003 0.00047556583290331 0.012611926172403 0.0003
          0.00040677839563254 0.01259579728731 0.0003 0.00038389728538556 0.012111104172094 0
          0.00037958632650406 0.012195366170904 0 0.00029855370140418 0.012181148574691 0
          0.00029802321336891 0.012105931916082 0 0.00038389728538556 0.012111104172094 0.00015
          0.00037958632650406 0.012195366170904 0.00015 0.00029855370140418 0.012181148574691 0.00015
          0.00029802321336891 0.012105931916082 0.00015 0.00038389728538556 0.012111104172094 0.0003
          0.00037958632650406 0.012195366170904 0.0003 0.00029855370140418 0.012181148574691 0.0003
          0.00029802321336891 0.012105931916082 0.0003 0.00062435778703091 0.012280526392523 0
          0.00063694887874418 0.012191685157308 0 0.00075163746499696 0.012211869018538 0
          0.0007101306235237 0.012330652999586 0 0.00062435778703091 0.012280526392523 0.00015
          0.00063694887874418 0.012191685157308 0.00015 0.00075163746499696 0.012211869018538 0.00015
          0.0007101306235237 0.012330652999586 0.00015 0.00062435778703091 0.012280526392523 0.0003
          0.00063694887874418 0.012191685157308 0.0003 0.00075163746499696 0.012211869018538 0.0003
          0.0007101306235237 0.012330652999586 0.0003 0.00090036231429234 0.012108977226849 0
          0.00080269198720626 0.012096984730608 0 0.00090036231429234 0.012108977226849 0.00015
          0.00080269198720626 0.012096984730608 0.00015 0.00090036231429234 0.012108977226849 0.0003
          0.00080269198720626 0.012096984730608 0.0003 0.00023865656240352 0.012177237347116 0
          0.00029061852669854 0.01224857812735 0 0.00023865656240352 0.012177237347116 0.00015
          0.00029061852669854 0.01224857812735 0.00015 0.00023865656240352 0.012177237347116 0.0003
          0.00029061852669854 0.01224857812735 0.0003 0.00056164385173704 0.012835416164401 0
          0.00056508360468666 0.012898794448667 0 0.00049240387645224 0.012913175910861 0
          0.00046984631090009 0.012828989929731 0 0.00056164385173704 0.012835416164401 0.00015
          0.00056508360468666 0.012898794448667 0.00015 0.00049240387645224 0.012913175910861 0.00015
          0.00046984631090009 0.012828989929731 0.00015 0.00056164385173704 0.012835416164401 0.0003
          0.00056508360468666 0.012898794448667 0.0003 0.00049240387645224 0.012913175910861 0.0003
          0.00046984631090009 0.012828989929731 0.0003 0.000050495613361417 0.012066083920595 0
          0.00011131843390441 0.012086989142678 0 0.000069577205110887 0.012153607960951 0
          0 0.012111111111109 0 0.000050495613361417 0.012066083920595 0.00015
          0.00011131843390441 0.012086989142678 0.00015 0.000069577205110887 0.012153607960951 0.00015
          0 0.012111111111109 0.00015 0.000050495613361417 0.012066083920595 0.0003
          0.00011131843390441 0.012086989142678 0.0003 0.000069577205110887 0.012153607960951 0.0003
          0 0.012111111111109 0.0003 0.00022470825547396 0.012306913365418 0
          0.00017103954025546 0.012340304715306 0 0.00022470825547396 0.012306913365418 0.00015
          0.00017103954025546 0.012340304715306 0.00015 0.00022470825547396 0.012306913365418 0.0003
          0.00017103954025546 0.012340304715306 0.0003 0.00085640575367095 0.012657655614724 0
          0.001 0.012571428571438 0 0.001 0.012714285714292 0
          0.00089085524488654 0.012778191533234 0 0.00085640575367095 0.012657655614724 0.00015
          0.001 0.012571428571438 0.00015 0.001 0.012714285714292 0.00015
          0.00089085524488654 0.012778191533234 0.00015 0.00085640575367095 0.012657655614724 0.0003
          0.001 0.012571428571438 0.0003 0.001 0.012714285714292 0.0003
          0.00089085524488654 0.012778191533234 0.0003 0.00017101007138246 0.012530153689505 0
          0.000086824088695593 0.01250759612347 0 0.00010015626416536 0.012463076177022 0
          0.00018026894988108 0.012457509098897 0 0.00017101007138246 0.012530153689505 0.00015
          0.000086824088695593 0.01250759612347 0.00015 0.00010015626416536 0.012463076177022 0.00015
          0.00018026894988108 0.012457509098897 0.00015 0.00017101007138246 0.012530153689505 0.0003
          0.000086824088695593 0.01250759612347 0.0003 0.00010015626416536 0.012463076177022 0.0003
          0.00018026894988108 0.012457509098897 0.0003 0.00055555555555552 0.013 0
          0.00054972466987376 0.012958523613261 0 0.00059017772624368 0.012950117696029 0
          0.00061111111111072 0.013 0 0.00055555555555552 0.013 0.00015
          0.00054972466987376 0.012958523613261 0.00015 0.00059017772624368 0.012950117696029 0.00015
          0.00061111111111072 0.013 0.00015 0.00055555555555552 0.013 0.0003
          0.00054972466987376 0.012958523613261 0.0003 0.00059017772624368 0.012950117696029 0.0003
          0.00061111111111072 0.013 0.0003 0.00056012017374448 0.012193168747791 0
          0.00054338833040714 0.012250054231166 0 0.00056012017374448 0.012193168747791 0.00015
          0.00054338833040714 0.012250054231166 0.00015 0.00056012017374448 0.012193168747791 0.0003
          0.00054338833040714 0.012250054231166 0.0003 0.00020164702899907 0.012111009853496 0
          0.00020164702899907 0.012111009853496 0.00015 0.00020164702899907 0.012111009853496 0.0003
          0.00058698867508036 0.01276393301723 0 0.00061242021253103 0.012689969395149 0
          0.00058698867508036 0.01276393301723 0.00015 0.00061242021253103 0.012689969395149 0.00015
          0.00058698867508036 0.01276393301723 0.0003 0.00061242021253103 0.012689969395149 0.0003
          0.00054704952286259 0.01264760123259 0 0.00058547756026548 0.012574831423214 0
          0.00066845126455385 0.012625352450745 0 0.00054704952286259 0.01264760123259 0.00015
          0.00058547756026548 0.012574831423214 0.00015 0.00066845126455385 0.012625352450745 0.00015
          0.00054704952286259 0.01264760123259 0.0003 0.00058547756026548 0.012574831423214 0.0003
          0.00066845126455385 0.012625352450745 0.0003 0.00040316497174951 0.012375710115571 0
          0.00038996592658543 0.012448925709731 0 0.00030251984068288 0.012451026681152 0
          0.00030273327950676 0.012339921797294 0 0.00040316497174951 0.012375710115571 0.00015
          0.00038996592658543 0.012448925709731 0.00015 0.00030251984068288 0.012451026681152 0.00015
          0.00030273327950676 0.012339921797294 0.00015 0.00040316497174951 0.012375710115571 0.0003
          0.00038996592658543 0.012448925709731 0.0003 0.00030251984068288 0.012451026681152 0.0003
          0.00030273327950676 0.012339921797294 0.0003 0 0.012166666666663 0
          0.000060257043043922 0.012213388328671 0 0 0.012222222222217 0
          0 0.012166666666663 0.00015 0.000060257043043922 0.012213388328671 0.00015
          0 0.012222222222217 0.00015 0 0.012166666666663 0.0003
          0.000060257043043922 0.012213388328671 0.0003 0 0.012222222222217 0.0003
          0.00086766031505541 0.012218873949421 0 0.00070802748250363 0.01210226547145 0
          0.00086766031505541 0.012218873949421 0.00015 0.00070802748250363 0.01210226547145 0.00015
          0.00086766031505541 0.012218873949421 0.0003 0.00070802748250363 0.01210226547145 0.0003
          0.00045681564832724 0.012667985356076 0 0.00038302222240927 0.012678606196169 0
          0.00045681564832724 0.012667985356076 0.00015 0.00038302222240927 0.012678606196169 0.00015
          0.00045681564832724 0.012667985356076 0.0003 0.00038302222240927 0.012678606196169 0.0003
          0.00057343997443155 0.012462111372123 0 0.00067467937701806 0.012497336760124 0
          0.00057343997443155 0.012462111372123 0.00015 0.00067467937701806 0.012497336760124 0.00015
          0.00057343997443155 0.012462111372123 0.0003 0.00067467937701806 0.012497336760124 0.0003
          0 0.012388888888886 0 0.00004805763346656 0.012364070531781 0
          0.000052775834931525 0.012418323433379 0 0 0.012444444444443 0
          0 0.012388888888886 0.00015 0.00004805763346656 0.012364070531781 0.00015
          0.000052775834931525 0.012418323433379 0.00015 0 0.012444444444443 0.00015
          0 0.012388888888886 0.0003 0.00004805763346656 0.012364070531781 0.0003
          0.000052775834931525 0.012418323433379 0.0003 0 0.012444444444443 0.0003
          0.0004655657017567 0.012222981448331 0 0.0004403524252846 0.012306679111378 0
          0.00036518397892919 0.012268658791136 0 0.0004655657017567 0.012222981448331 0.00015
          0.0004403524252846 0.012306679111378 0.00015 0.00036518397892919 0.012268658791136 0.00015
          0.0004655657017567 0.012222981448331 0.0003 0.0004403524252846 0.012306679111378 0.0003
          0.00036518397892919 0.012268658791136 0.0003 0.00079059026611164 0.012574208252283 0
          0.00074033738884001 0.012629472897336 0 0.00079059026611164 0.012574208252283 0.00015
          0.00074033738884001 0.012629472897336 0.00015 0.00079059026611164 0.012574208252283 0.0003
          0.00074033738884001 0.012629472897336 0.0003 0.00049134001885305 0.012124425854677 0
          0.00060162315338905 0.012101782274206 0 0.00049134001885305 0.012124425854677 0.00015
          0.00060162315338905 0.012101782274206 0.00015 0.00049134001885305 0.012124425854677 0.0003
          0.00060162315338905 0.012101782274206 0.0003 0.00055165526617401 0.012365152711649 0
          0.00046621557592763 0.012427373679685 0 0.00055165526617401 0.012365152711649 0.00015
          0.00046621557592763 0.012427373679685 0.00015 0.00055165526617401 0.012365152711649 0.0003
          0.00046621557592763 0.012427373679685 0.0003 0.00065175768920993 0.012395993188634 0
          0.00078658012555766 0.01242031863996 0 0.00065175768920993 0.012395993188634 0.00015
          0.00078658012555766 0.01242031863996 0.00015 0.00065175768920993 0.012395993188634 0.0003
          0.00078658012555766 0.01242031863996 0.0003 0.00072222222222142 0.013 0
          0.00076767785213736 0.012949407633443 0 0.00077777777777722 0.013 0
          0.00072222222222142 0.013 0.00015 0.00076767785213736 0.012949407633443 0.00015
          0.00077777777777722 0.013 0.00015 0.00072222222222142 0.013 0.0003
          0.00076767785213736 0.012949407633443 0.0003 0.00077777777777722 0.013 0.0003
          0.001 0.01228571428572 0 0.001 0.012428571428581 0
          0.00085243404696798 0.012340254950119 0 0.001 0.01228571428572 0.00015
          0.001 0.012428571428581 0.00015 0.00085243404696798 0.012340254950119 0.00015
          0.001 0.01228571428572 0.0003 0.001 0.012428571428581 0.0003
          0.00085243404696798 0.012340254950119 0.0003 0.000047305708530005 0.012255757186949 0
          0.000035989657241992 0.012305788523607 0 0 0.012277777777773 0
          0.000047305708530005 0.012255757186949 0.00015 0.000035989657241992 0.012305788523607 0.00015
          0 0.012277777777773 0.00015 0.000047305708530005 0.012255757186949 0.0003
          0.000035989657241992 0.012305788523607 0.0003 0 0.012277777777773 0.0003
          0 0.01233333333333 0 0 0.01233333333333 0.00015
          0 0.01233333333333 0.0003 0.00088888888888861 0.013 0
          0.00086852226729803 0.012945143609779 0 0.00092105077811413 0.012923509600428 0
          0.0009444444444442 0.013 0 0.00088888888888861 0.013 0.00015
          0.00086852226729803 0.012945143609779 0.00015 0.00092105077811413 0.012923509600428 0.00015
          0.0009444444444442 0.013 0.00015 0.00088888888888861 0.013 0.0003
          0.00086852226729803 0.012945143609779 0.0003 0.00092105077811413 0.012923509600428 0.0003
          0.0009444444444442 0.013 0.0003 0.000088322519872331 0.012287262323421 0
          0.000098057359918883 0.01234321954228 0 0.000088322519872331 0.012287262323421 0.00015
          0.000098057359918883 0.01234321954228 0.00015 0.000088322519872331 0.012287262323421 0.0003
          0.000098057359918883 0.01234321954228 0.0003 0.00082037799021753 0.012949927278989 0
          0.00083333333333302 0.013 0 0.00082037799021753 0.012949927278989 0.00015
          0.00083333333333302 0.013 0.00015 0.00082037799021753 0.012949927278989 0.0003
          0.00083333333333302 0.013 0.0003 0.000055423585756317 0.01245648439217 0
          0.00011750487062481 0.01240389197138 0 0.000055423585756317 0.01245648439217 0.00015
          0.00011750487062481 0.01240389197138 0.00015 0.000055423585756317 0.01245648439217 0.0003
          0.00011750487062481 0.01240389197138 0.0003 0.00022703795328819 0.012397087263253 0
          0.00024412512388832 0.012487409031957 0 0.00022703795328819 0.012397087263253 0.00015
          0.00024412512388832 0.012487409031957 0.00015 0.00022703795328819 0.012397087263253 0.0003
          0.00024412512388832 0.012487409031957 0.0003 0.00086622784349606 0.012879340816766 0
          0.00086622784349606 0.012879340816766 0.00015 0.00086622784349606 0.012879340816766 0.0003
          0.001 0.01214285714286 0 0.001 0.01214285714286 0.00015
          0.001 0.01214285714286 0.0003 0.00032807036377433 0.012530514194312 0
          0.00032139380548758 0.012616977778981 0 0.00032807036377433 0.012530514194312 0.00015
          0.00032139380548758 0.012616977778981 0.00015 0.00032807036377433 0.012530514194312 0.0003
          0.00032139380548758 0.012616977778981 0.0003 0.00078653837511981 0.012300730611142 0
          0.00078653837511981 0.012300730611142 0.00015 0.00078653837511981 0.012300730611142 0.0003
          0.00050187285486533 0.012723776617989 0 0.00050187285486533 0.012723776617989 0.00015
          0.00050187285486533 0.012723776617989 0.0003 0.00066666666666612 0.013 0
          0.00066666666666612 0.013 0.00015 0.00066666666666612 0.013 0.0003
          0.00086640285866826 0.012499721374928 0 0.00086640285866826 0.012499721374928 0.00015
          0.00086640285866826 0.012499721374928 0.0003 0.001 0.012857142857146 0
          0.001 0.012857142857146 0.00015 0.001 0.012857142857146 0.0003
          0.00043301270230906 0.012750000000722 0 0.00043301270230906 0.012750000000722 0.00015
          0.00043301270230906 0.012750000000722 0.0003 0.00025000000019401 0.01256698729822 0
          0.00025000000019401 0.01256698729822 0.00015 0.00025000000019401 0.01256698729822 0.0003
          0 0.0125 0 0 0.0125 0.00015
          0 0.0125 0.0003 0 0.012055555555554 0
          0 0.012055555555554 0.00015 0 0.012055555555554 0.0003
          0.001 0.013 0 0.001 0.013 0.00015
          0.001 0.013 0.0003 0.0005 0.013 0
          0.0005 0.013 0.00015 0.0005 0.013 0.0003
          0.0014444444444451 0.0095172413793029 0 0.0014444444444451 0.0095172413793029 0.00015
          0.0014444444444451 0.0095172413793029 0.0003 0.0018888888888902 0.0095172413793029 0
          0.0018888888888902 0.0095172413793029 0.00015 0.0018888888888902 0.0095172413793029 0.0003
          0.0014444444444452 0.0099310344827529 0 0.0014444444444452 0.0099310344827529 0.00015
          0.0014444444444452 0.0099310344827529 0.0003 0.0018888888888903 0.0099310344827529 0
          0.0018888888888903 0.0099310344827529 0.00015 0.0018888888888903 0.0099310344827529 0.0003
          0.0014444444444452 0.010344827586203 0 0.0014444444444452 0.010344827586203 0.00015
          0.0014444444444452 0.010344827586203 0.0003 0.0014444444444453 0.010758620689653 0
          0.0014444444444453 0.010758620689653 0.00015 0.0014444444444453 0.010758620689653 0.0003
          0.0014444444444453 0.0111724137931 0 0.0014444444444453 0.0111724137931 0.00015
          0.0014444444444453 0.0111724137931 0.0003 0.0014444444444454 0.01158620689655 0
          0.0014444444444454 0.01158620689655 0.00015 0.0014444444444454 0.01158620689655 0.0003
          0.0014444444444455 0.012 0 0.0014444444444455 0.012 0.00015
          0.0014444444444455 0.012 0.0003 0.0011659770658264 0.012184916069452 0
          0.0011978981211319 0.012291694091132 0 0.0011659770658264 0.012184916069452 0.00015
          0.0011978981211319 0.012291694091132 0.00015 0.0011659770658264 0.012184916069452 0.0003
          0.0011978981211319 0.012291694091132 0.0003 0.0014134281085546 0.012468353283698 0
          0.001412897365997 0.01265802692797 0 0.0011710921098332 0.012660749606473 0
          0.0011928404820732 0.012464476127519 0 0.0014134281085546 0.012468353283698 0.00015
          0.001412897365997 0.01265802692797 0.00015 0.0011710921098332 0.012660749606473 0.00015
          0.0011928404820732 0.012464476127519 0.00015 0.0014134281085546 0.012468353283698 0.0003
          0.001412897365997 0.01265802692797 0.0003 0.0011710921098332 0.012660749606473 0.0003
          0.0011928404820732 0.012464476127519 0.0003 0.0011801499871676 0.012824831216028 0
          0.0011801499871676 0.012824831216028 0.00015 0.0011801499871676 0.012824831216028 0.0003
          0.0014335559245349 0.012265987585326 0 0.0014335559245349 0.012265987585326 0.00015
          0.0014335559245349 0.012265987585326 0.0003 0.0014444444444455 0.013 0
          0.0014444444444455 0.013 0.00015 0.0014444444444455 0.013 0.0003
          0.0023333333333355 0.0099310344827529 0 0.0023333333333353 0.0095172413793029 0
          0.0023333333333355 0.0099310344827529 0.00015 0.0023333333333353 0.0095172413793029 0.00015
          0.0023333333333355 0.0099310344827529 0.0003 0.0023333333333353 0.0095172413793029 0.0003
          0.0018888888888904 0.010344827586203 0 0.0018888888888904 0.010344827586203 0.00015
          0.0018888888888904 0.010344827586203 0.0003 0.0023333333333357 0.010344827586203 0
          0.0023333333333357 0.010344827586203 0.00015 0.0023333333333357 0.010344827586203 0.0003
          0.0018888888888905 0.010758620689653 0 0.0018888888888905 0.010758620689653 0.00015
          0.0018888888888905 0.010758620689653 0.0003 0.0018888888888907 0.0111724137931 0
          0.0018888888888907 0.0111724137931 0.00015 0.0018888888888907 0.0111724137931 0.0003
          0.0018888888888908 0.01158620689655 0 0.0018888888888908 0.01158620689655 0.00015
          0.0018888888888908 0.01158620689655 0.0003 0.0018888888888909 0.012 0
          0.0018888888888909 0.012 0.00015 0.0018888888888909 0.012 0.0003
          0.0017386847932316 0.012348636106575 0 0.0017386847932316 0.012348636106575 0.00015
          0.0017386847932316 0.012348636106575 0.0003 0.0018888888888909 0.013 0
          0.001702980389272 0.012655949584096 0 0.0020604062010233 0.012679406151259 0
          0.0018888888888909 0.013 0.00015 0.001702980389272 0.012655949584096 0.00015
          0.0020604062010233 0.012679406151259 0.00015 0.0018888888888909 0.013 0.0003
          0.001702980389272 0.012655949584096 0.0003 0.0020604062010233 0.012679406151259 0.0003
          <InformationKey name="L2_NORM_RANGE" location="vtkDataArray" length="2">
            <Value index="0">
              0.008275862069
            </Value>
            <Value index="1">
              0.013139935359
            </Value>
          </InformationKey>
        </DataArray>
      </Points>
      <Cells>
        <DataArray type="Int64" Name="connectivity" format="ascii" RangeMin="0" RangeMax="755">
          1 0 6 7 3 2
          8 9 3 2 8 9
          5 4 10 11 7 6
          12 13 9 8 14 15
          9 8 14 15 11 10
          16 17 13 12 18 19
          15 14 20 21 15 14
          20 21 17 16 22 23
          19 18 24 25 21 20
          26 27 21 20 26 27
          23 22 28 29 25 24
          30 31 27 26 32 33
          27 26 32 33 29 28
          34 35 31 30 36 37
          33 32 38 39 33 32
          38 39 35 34 40 41
          37 36 42 43 39 38
          44 45 39 38 44 45
          41 40 46 47 43 42
          48 49 45 44 50 51
          45 44 50 51 47 46
          52 53 49 48 54 55
          51 50 56 57 51 50
          56 57 53 52 58 59
          0 60 63 6 2 61
          64 8 2 61 64 8
          4 62 65 10 6 63
          66 12 8 64 67 14
          8 64 67 14 10 65
          68 16 12 66 69 18
          14 67 70 20 14 67
          70 20 16 68 71 22
          18 69 72 24 20 70
          73 26 20 70 73 26
          22 71 74 28 24 72
          75 30 26 73 76 32
          26 73 76 32 28 74
          77 34 30 75 78 36
          32 76 79 38 32 76
          79 38 34 77 80 40
          36 78 81 42 38 79
          82 44 38 79 82 44
          40 80 83 46 42 81
          84 48 44 82 85 50
          44 82 85 50 46 83
          86 52 48 84 87 54
          50 85 88 56 50 85
          88 56 52 86 89 58
          60 90 93 63 61 91
          94 64 61 91 94 64
          62 92 95 65 63 93
          96 66 64 94 97 67
          64 94 97 67 65 95
          98 68 66 96 99 69
          67 97 100 70 67 97
          100 70 68 98 101 71
          69 99 102 72 70 100
          103 73 70 100 103 73
          71 101 104 74 72 102
          105 75 73 103 106 76
          73 103 106 76 74 104
          107 77 75 105 108 78
          76 106 109 79 76 106
          109 79 77 107 110 80
          78 108 111 81 79 109
          112 82 79 109 112 82
          80 110 113 83 81 111
          114 84 82 112 115 85
          82 112 115 85 83 113
          116 86 84 114 117 87
          85 115 118 88 85 115
          118 88 86 116 119 89
          90 120 123 93 91 121
          124 94 91 121 124 94
          92 122 125 95 93 123
          126 96 94 124 127 97
          94 124 127 97 95 125
          128 98 96 126 129 99
          97 127 130 100 97 127
          130 100 98 128 131 101
          99 129 132 102 100 130
          133 103 100 130 133 103
          101 131 134 104 102 132
          135 105 103 133 136 106
          103 133 136 106 104 134
          137 107 105 135 138 108
          106 136 139 109 106 136
          139 109 107 137 140 110
          108 138 141 111 109 139
          142 112 109 139 142 112
          110 140 143 113 111 141
          144 114 112 142 145 115
          112 142 145 115 113 143
          146 116 114 144 147 117
          115 145 148 118 115 145
          148 118 116 146 149 119
          120 150 153 123 121 151
          154 124 121 151 154 124
          122 152 155 125 123 153
          156 126 124 154 157 127
          124 154 157 127 125 155
          158 128 126 156 159 129
          127 157 160 130 127 157
          160 130 128 158 161 131
          129 159 162 132 130 160
          163 133 130 160 163 133
          131 161 164 134 132 162
          165 135 133 163 166 136
          133 163 166 136 134 164
          167 137 135 165 168 138
          136 166 169 139 136 166
          169 139 137 167 170 140
          138 168 171 141 139 169
          172 142 139 169 172 142
          140 170 173 143 141 171
          174 144 142 172 175 145
          142 172 175 145 143 173
          176 146 144 174 177 147
          145 175 178 148 145 175
          178 148 146 176 179 149
          150 180 183 153 151 181
          184 154 151 181 184 154
          152 182 185 155 153 183
          186 156 154 184 187 157
          154 184 187 157 155 185
          188 158 156 186 189 159
          157 187 190 160 157 187
          190 160 158 188 191 161
          159 189 192 162 160 190
          193 163 160 190 193 163
          161 191 194 164 162 192
          195 165 163 193 196 166
          163 193 196 166 164 194
          197 167 165 195 198 168
          166 196 199 169 166 196
          199 169 167 197 200 170
          168 198 201 171 169 199
          202 172 169 199 202 172
          170 200 203 173 171 201
          204 174 172 202 205 175
          172 202 205 175 173 203
          206 176 174 204 207 177
          175 205 208 178 175 205
          208 178 176 206 209 179
          180 210 213 183 181 211
          214 184 181 211 214 184
          182 212 215 185 183 213
          216 186 184 214 217 187
          184 214 217 187 185 215
          218 188 186 216 219 189
          187 217 220 190 187 217
          220 190 188 218 221 191
          189 219 222 192 190 220
          223 193 190 220 223 193
          191 221 224 194 192 222
          225 195 193 223 226 196
          193 223 226 196 194 224
          227 197 195 225 228 198
          196 226 229 199 196 226
          229 199 197 227 230 200
          198 228 231 201 199 229
          232 202 199 229 232 202
          200 230 233 203 201 231
          234 204 202 232 235 205
          202 232 235 205 203 233
          236 206 204 234 237 207
          205 235 238 208 205 235
          238 208 206 236 239 209
          210 240 243 213 211 241
          244 214 211 241 244 214
          212 242 245 215 213 243
          246 216 214 244 247 217
          214 244 247 217 215 245
          248 218 216 246 249 219
          217 247 250 220 217 247
          250 220 218 248 251 221
          219 249 252 222 220 250
          253 223 220 250 253 223
          221 251 254 224 222 252
          255 225 223 253 256 226
          223 253 256 226 224 254
          257 227 225 255 258 228
          226 256 259 229 226 256
          259 229 227 257 260 230
          228 258 261 231 229 259
          262 232 229 259 262 232
          230 260 263 233 231 261
          264 234 232 262 265 235
          232 262 265 235 233 263
          266 236 234 264 267 237
          235 265 268 238 235 265
          268 238 236 266 269 239
          246 270 273 249 247 271
          274 250 247 271 274 250
          248 272 275 251 249 273
          276 252 250 274 277 253
          250 274 277 253 251 275
          278 254 252 276 279 255
          253 277 280 256 253 277
          280 256 254 278 281 257
          255 279 282 258 256 280
          283 259 256 280 283 259
          257 281 284 260 258 282
          285 261 259 283 286 262
          259 283 286 262 260 284
          287 263 261 285 288 264
          262 286 289 265 262 286
          289 265 263 287 290 266
          264 288 291 267 265 289
          292 268 265 289 292 268
          266 290 293 269 294 295
          296 297 298 299 300 301
          298 299 300 301 302 303
          304 305 306 294 297 307
          308 298 301 309 308 298
          301 309 310 302 305 311
          312 306 313 314 315 308
          316 317 315 308 316 317
          318 310 319 320 321 322
          323 324 325 326 327 328
          325 326 327 328 329 330
          331 332 333 334 335 336
          337 338 339 340 337 338
          339 340 341 342 343 344
          345 346 347 348 349 350
          351 352 349 350 351 352
          353 354 355 356 357 358
          359 360 361 362 363 364
          361 362 363 364 365 366
          367 368 267 369 370 237
          268 371 372 238 268 371
          372 238 269 373 374 239
          375 347 376 322 377 351
          378 326 377 351 378 326
          379 355 380 330 381 382
          383 384 385 386 387 388
          385 386 387 388 389 390
          391 392 393 394 395 396
          397 398 399 400 397 398
          399 400 401 402 403 404
          323 322 405 406 327 326
          407 408 327 326 407 408
          331 330 409 410 411 412
          413 414 415 416 417 418
          415 416 417 418 419 420
          421 422 423 424 425 426
          427 428 429 430 427 428
          429 430 431 432 433 434
          435 436 437 438 439 440
          441 442 439 440 441 442
          443 444 445 446 447 358
          357 448 449 362 361 450
          449 362 361 450 451 366
          365 452 54 87 453 394
          56 88 454 398 56 88
          454 398 58 89 455 402
          456 457 295 294 458 459
          299 298 458 459 299 298
          460 461 303 302 457 462
          463 464 459 465 466 467
          459 465 466 467 461 468
          469 470 456 294 312 381
          458 298 315 385 458 298
          315 385 460 302 318 389
          471 472 473 474 475 476
          477 478 475 476 477 478
          479 480 481 482 483 395
          484 485 486 399 487 488
          486 399 487 488 489 403
          490 491 370 492 359 493
          372 494 363 495 372 494
          363 495 374 496 367 497
          237 370 493 207 238 372
          495 208 238 372 495 208
          239 374 497 209 336 335
          498 499 340 339 500 501
          340 339 500 501 344 343
          502 503 463 334 504 505
          466 338 506 507 466 338
          506 507 469 342 508 509
          510 511 512 513 514 515
          516 517 514 515 516 517
          518 519 520 521 522 523
          524 346 525 526 527 350
          525 526 527 350 528 529
          530 354 531 532 464 505
          533 534 467 507 533 534
          467 507 535 536 470 509
          537 147 177 538 539 148
          178 540 539 148 178 540
          541 149 179 542 523 543
          544 471 526 545 546 475
          526 545 546 475 529 547
          548 479 549 360 550 505
          551 364 552 507 551 364
          552 507 553 368 554 509
          555 313 556 557 558 316
          559 560 558 316 559 560
          561 319 562 563 564 565
          566 492 567 568 569 494
          567 568 569 494 570 571
          572 496 573 574 575 485
          576 577 578 488 576 577
          578 488 579 580 581 491
          582 574 511 510 583 577
          515 514 583 577 515 514
          584 580 519 518 87 117
          348 453 88 118 352 454
          88 118 352 454 89 119
          356 455 504 334 544 543
          506 338 546 545 506 338
          546 545 508 342 548 547
          585 586 587 588 589 590
          591 592 589 590 591 592
          593 594 595 596 574 597
          598 511 577 599 600 515
          577 599 600 515 580 601
          602 519 375 322 321 453
          377 326 325 454 377 326
          325 454 379 330 329 455
          557 556 603 604 560 559
          605 606 560 559 605 606
          563 562 607 608 425 609
          512 610 429 611 516 612
          429 611 516 612 433 613
          520 614 207 493 538 177
          208 495 540 178 208 495
          540 178 209 497 542 179
          615 473 616 426 617 477
          618 430 617 477 618 430
          619 481 620 434 297 414
          621 307 301 418 622 309
          301 418 622 309 305 422
          623 311 492 369 624 564
          494 371 625 567 494 371
          625 567 496 373 626 570
          627 333 336 628 629 337
          340 630 629 337 340 630
          631 341 344 632 360 633
          566 550 364 634 569 552
          364 634 569 552 368 635
          572 554 457 456 636 462
          459 458 637 465 459 458
          637 465 461 460 638 468
          357 360 549 543 361 364
          551 545 361 364 551 545
          365 368 553 547 295 464
          532 296 299 467 534 300
          299 467 534 300 303 470
          536 304 639 314 313 555
          640 317 316 558 640 317
          316 558 641 320 319 561
          471 474 524 523 475 478
          527 526 475 478 527 526
          479 482 530 529 426 610
          406 615 430 612 408 617
          430 612 408 617 434 614
          410 619 504 543 549 505
          506 545 551 507 506 545
          551 507 508 547 553 509
          566 565 642 550 569 568
          643 552 569 568 643 552
          572 571 644 554 610 512
          511 598 612 516 515 600
          612 516 515 600 614 520
          519 602 621 414 645 587
          622 418 646 591 622 418
          646 591 623 422 647 595
          405 474 615 406 407 478
          617 408 407 478 617 408
          409 482 619 410 381 384
          636 456 385 388 637 458
          385 388 637 458 389 392
          638 460 648 499 498 636
          649 501 500 637 649 501
          500 637 650 503 502 638
          616 651 423 426 618 652
          427 430 618 652 427 430
          620 653 431 434 324 597
          573 484 328 599 576 487
          328 599 576 487 332 601
          579 490 642 412 411 531
          643 416 415 533 643 416
          415 533 644 420 419 535
          538 358 447 537 540 362
          449 539 540 362 449 539
          542 366 451 541 524 376
          347 346 527 378 351 350
          527 378 351 350 530 380
          355 354 627 651 616 473
          629 652 618 477 629 652
          618 477 631 653 620 481
          405 322 376 474 407 326
          378 478 407 326 378 478
          409 330 380 482 306 307
          556 313 308 309 559 316
          308 309 559 316 310 311
          562 319 345 117 147 537
          349 118 148 539 349 118
          148 539 353 119 149 541
          414 297 296 411 418 301
          300 415 418 301 300 415
          422 305 304 419 621 586
          603 307 622 590 605 309
          622 590 605 309 623 594
          607 311 544 334 333 472
          546 338 337 476 546 338
          337 476 548 342 341 480
          348 347 375 453 352 351
          377 454 352 351 377 454
          356 355 379 455 531 505
          550 642 533 507 552 643
          533 507 552 643 535 509
          554 644 321 324 484 395
          325 328 487 399 325 328
          487 399 329 332 490 403
          598 597 323 406 600 599
          327 408 600 599 327 408
          602 601 331 410 447 448
          522 537 449 450 525 539
          449 450 525 539 451 452
          528 541 513 512 609 654
          517 516 611 655 517 516
          611 655 521 520 613 656
          604 603 586 585 606 605
          590 589 606 605 590 589
          608 607 594 593 463 462
          335 334 466 465 339 338
          466 465 339 338 469 468
          343 342 438 437 314 639
          442 441 317 640 442 441
          317 640 446 445 320 641
          436 383 382 437 440 387
          386 441 440 387 386 441
          444 391 390 445 393 657
          55 54 397 658 57 56
          397 658 57 56 401 659
          59 58 312 314 437 382
          315 317 441 386 315 317
          441 386 318 320 445 390
          346 345 537 522 350 349
          539 525 350 349 539 525
          354 353 541 528 498 335
          462 636 500 339 465 637
          500 339 465 637 502 343
          468 638 369 267 291 624
          371 268 292 625 371 268
          292 625 373 269 293 626
          358 538 493 359 362 540
          495 363 362 540 495 363
          366 542 497 367 394 453
          321 395 398 454 325 399
          398 454 325 399 402 455
          329 403 587 645 660 588
          591 646 661 592 591 646
          661 592 595 647 662 596
          448 543 523 522 450 545
          526 525 450 545 526 525
          452 547 529 528 472 333
          627 473 476 337 629 477
          476 337 629 477 480 341
          631 481 436 435 663 383
          440 439 664 387 440 439
          664 387 444 443 665 391
          411 296 532 531 415 300
          534 533 415 300 534 533
          419 304 536 535 609 425
          424 654 611 429 428 655
          611 429 428 655 613 433
          432 656 492 566 633 359
          494 569 634 363 494 569
          634 363 496 572 635 367
          393 394 54 397 398 56
          397 398 56 401 402 58
          413 414 645 417 418 646
          417 418 646 421 422 647
          628 627 651 630 629 652
          630 629 652 632 631 653
          117 348 345 118 352 349
          118 352 349 119 356 353
          565 642 412 568 643 416
          568 643 416 571 644 420
          457 295 464 459 299 467
          459 299 467 461 303 470
          463 464 505 466 467 507
          466 467 507 469 470 509
          499 336 628 501 340 630
          501 340 630 503 344 632
          384 636 648 388 637 649
          388 637 649 392 638 650
          492 369 370 494 371 372
          494 371 372 496 373 374
          473 474 615 477 478 617
          477 478 617 481 482 619
          381 382 312 385 386 315
          385 386 315 389 390 318
          471 472 544 475 476 546
          475 476 546 479 480 548
          582 574 575 583 577 578
          583 577 578 584 580 581
          312 306 294 315 308 298
          315 308 298 318 310 302
          524 376 474 527 378 478
          527 378 478 530 380 482
          396 393 657 400 397 658
          400 397 658 404 401 659
          483 395 396 486 399 400
          486 399 400 489 403 404
          357 448 543 361 450 545
          361 450 545 365 452 547
          485 573 484 488 576 487
          488 576 487 491 579 490
          621 586 587 622 590 591
          622 590 591 623 594 595
          324 597 323 328 599 327
          328 599 327 332 601 331
          603 307 556 605 309 559
          605 309 559 607 311 562
          610 425 426 612 429 430
          612 429 430 614 433 434
          360 633 359 364 634 363
          364 634 363 368 635 367
          598 610 406 600 612 408
          600 612 408 602 614 410
          574 597 573 577 599 576
          577 599 576 580 601 579
          672 276 273 666 673 277
          274 667 673 277 274 667
          674 278 275 668 675 672
          666 669 676 673 667 670
          676 673 667 670 677 674
          668 671 720 675 669 721
          722 676 670 723 722 676
          670 723 724 677 671 725
          678 279 276 672 679 280
          277 673 679 280 277 673
          680 281 278 674 726 678
          672 675 727 679 673 676
          727 679 673 676 728 680
          674 677 729 726 675 720
          730 727 676 722 730 727
          676 722 731 728 677 724
          681 282 279 678 682 283
          280 679 682 283 280 679
          683 284 281 680 732 681
          678 726 733 682 679 727
          733 682 679 727 734 683
          680 728 684 285 282 681
          685 286 283 682 685 286
          283 682 686 287 284 683
          735 684 681 732 736 685
          682 733 736 685 682 733
          737 686 683 734 687 288
          285 684 688 289 286 685
          688 289 286 685 689 290
          287 686 738 687 684 735
          739 688 685 736 739 688
          685 736 740 689 686 737
          690 291 288 687 691 292
          289 688 691 292 289 688
          692 293 290 689 741 690
          687 738 742 691 688 739
          742 691 688 739 743 692
          689 740 693 694 564 624
          695 696 567 625 695 696
          567 625 697 698 570 626
          699 700 701 702 703 704
          705 706 703 704 705 706
          707 708 709 710 702 701
          412 565 706 705 416 568
          706 705 416 568 710 709
          420 571 413 701 711 645
          417 705 712 646 417 705
          712 646 421 709 713 647
          690 741 744 714 691 742
          745 715 691 742 745 715
          692 743 746 716 714 699
          702 694 715 703 706 696
          715 703 706 696 716 707
          710 698 694 702 565 564
          696 706 568 567 696 706
          568 567 698 710 571 570
          747 717 748 749 750 718
          751 752 750 718 751 752
          753 719 754 755 699 744
          748 700 703 745 751 704
          703 745 751 704 707 746
          754 708 711 701 700 717
          712 705 704 718 712 705
          704 718 713 709 708 719
          714 694 693 690 715 696
          695 691 715 696 695 691
          716 698 697 692 291 690
          693 624 292 691 695 625
          292 691 695 625 293 692
          697 626 711 717 660 645
          712 718 661 646 712 718
          661 646 713 719 662 647
          714 699 744 715 703 745
          715 703 745 716 707 746
          748 700 717 751 704 718
          751 704 718 754 708 719
          413 701 412 417 705 416
          417 705 416 421 709 420
        </DataArray>
        <DataArray type="Int64" Name="offsets" format="ascii" RangeMin="8" RangeMax="3624">
          8 16 24 32 40 48
          56 64 72 80 88 96
          104 112 120 128 136 144
          152 160 168 176 184 192
          200 208 216 224 232 240
          248 256 264 272 280 288
          296 304 312 320 328 336
          344 352 360 368 376 384
          392 400 408 416 424 432
          440 448 456 464 472 480
          488 496 504 512 520 528
          536 544 552 560 568 576
          584 592 600 608 616 624
          632 640 648 656 664 672
          680 688 696 704 712 720
          728 736 744 752 760 768
          776 784 792 800 808 816
          824 832 840 848 856 864
          872 880 888 896 904 912
          920 928 936 944 952 960
          968 976 984 992 1000 1008
          1016 1024 1032 1040 1048 1056
          1064 1072 1080 1088 1096 1104
          1112 1120 1128 1136 1144 1152
          1160 1168 1176 1184 1192 1200
          1208 1216 1224 1232 1240 1248
          1256 1264 1272 1280 1288 1296
          1304 1312 1320 1328 1336 1344
          1352 1360 1368 1376 1384 1392
          1400 1408 1416 1424 1432 1440
          1448 1456 1464 1472 1480 1488
          1496 1504 1512 1520 1528 1536
          1544 1552 1560 1568 1576 1584
          1592 1600 1608 1616 1624 1632
          1640 1648 1656 1664 1672 1680
          1688 1696 1704 1712 1720 1728
          1736 1744 1752 1760 1768 1776
          1784 1792 1800 1808 1816 1824
          1832 1840 1848 1856 1864 1872
          1880 1888 1896 1904 1912 1920
          1928 1936 1944 1952 1960 1968
          1976 1984 1992 2000 2008 2016
          2024 2032 2040 2048 2056 2064
          2072 2080 2088 2096 2104 2112
          2120 2128 2136 2144 2152 2160
          2168 2176 2184 2192 2200 2208
          2216 2224 2232 2240 2248 2256
          2264 2272 2280 2288 2296 2304
          2312 2320 2328 2336 2344 2352
          2360 2368 2376 2384 2392 2400
          2408 2416 2424 2432 2440 2448
          2456 2464 2472 2480 2488 2496
          2504 2512 2520 2528 2536 2544
          2552 2560 2568 2576 2584 2592
          2600 2608 2616 2624 2632 2640
          2648 2656 2664 2672 2680 2688
          2696 2704 2712 2720 2728 2736
          2744 2752 2760 2768 2776 2784
          2792 2800 2808 2816 2824 2832
          2838 2844 2850 2856 2862 2868
          2874 2880 2886 2892 2898 2904
          2910 2916 2922 2928 2934 2940
          2946 2952 2958 2964 2970 2976
          2982 2988 2994 3000 3006 3012
          3018 3024 3030 3036 3042 3048
          3054 3060 3066 3072 3078 3084
          3090 3096 3102 3108 3114 3120
          3126 3132 3138 3144 3150 3156
          3164 3172 3180 3188 3196 3204
          3212 3220 3228 3236 3244 3252
          3260 3268 3276 3284 3292 3300
          3308 3316 3324 3332 3340 3348
          3356 3364 3372 3380 3388 3396
          3404 3412 3420 3428 3436 3444
          3452 3460 3468 3476 3484 3492
          3500 3508 3516 3524 3532 3540
          3548 3556 3564 3572 3580 3588
          3594 3600 3606 3612 3618 3624
        </DataArray>
        <DataArray type="UInt8" Name="types" format="ascii" RangeMin="12" RangeMax="13">
          12 12 12 12 12 12
          12 12 12 12 12 12
          12 12 12 12 12 12
          12 12 12 12 12 12
          12 12 12 12 12 12
          12 12 12 12 12 12
          12 12 12 12 12 12
          12 12 12 12 12 12
          12 12 12 12 12 12
          12 12 12 12 12 12
          12 12 12 12 12 12
          12 12 12 12 12 12
          12 12 12 12 12 12
          12 12 12 12 12 12
          12 12 12 12 12 12
          12 12 12 12 12 12
          12 12 12 12 12 12
          12 12 12 12 12 12
          12 12 12 12 12 12
          12 12 12 12 12 12
          12 12 12 12 12 12
          12 12 12 12 12 12
          12 12 12 12 12 12
          12 12 12 12 12 12
          12 12 12 12 12 12
          12 12 12 12 12 12
          12 12 12 12 12 12
          12 12 12 12 12 12
          12 12 12 12 12 12
          12 12 12 12 12 12
          12 12 12 12 12 12
          12 12 12 12 12 12
          12 12 12 12 12 12
          12 12 12 12 12 12
          12 12 12 12 12 12
          12 12 12 12 12 12
          12 12 12 12 12 12
          12 12 12 12 12 12
          12 12 12 12 12 12
          12 12 12 12 12 12
          12 12 12 12 12 12
          12 12 12 12 12 12
          12 12 12 12 12 12
          12 12 12 12 12 12
          12 12 12 12 12 12
          12 12 12 12 12 12
          12 12 12 12 12 12
          12 12 12 12 12 12
          12 12 12 12 12 12
          12 12 12 12 12 12
          12 12 12 12 12 12
          12 12 12 12 12 12
          12 12 12 12 12 12
          12 12 12 12 12 12
          12 12 12 12 12 12
          12 12 12 12 12 12
          12 12 12 12 12 12
          12 12 12 12 12 12
          12 12 12 12 12 12
          13 13 13 13 13 13
          13 13 13 13 13 13
          13 13 13 13 13 13
          13 13 13 13 13 13
          13 13 13 13 13 13
          13 13 13 13 13 13
          13 13 13 13 13 13
          13 13 13 13 13 13
          13 13 13 13 13 13
          12 12 12 12 12 12
          12 12 12 12 12 12
          12 12 12 12 12 12
          12 12 12 12 12 12
          12 12 12 12 12 12
          12 12 12 12 12 12
          12 12 12 12 12 12
          12 12 12 12 12 12
          12 12 12 12 12 12
          13 13 13 13 13 13
        </DataArray>
      </Cells>
    </Piece>
  </UnstructuredGrid>
</VTKFile>
