<?xml version="1.0"?>
<VTKFile type="UnstructuredGrid" version="0.1" byte_order="LittleEndian" header_type="UInt32" compressor="vtkZLibDataCompressor">
  <UnstructuredGrid>
    <Piece NumberOfPoints="774" NumberOfCells="452">
      <PointData>
        <DataArray type="Int32" Name="libmesh_node_id" format="ascii" RangeMin="2286" RangeMax="4991">
          2286 2287 2288 2289 2290 2291
          2292 2293 2294 2295 2296 2297
          2340 2341 2342 2343 2344 2345
          2346 2347 2348 2349 2350 2351
          2400 2401 2403 2404 2406 2407
          2412 2413 2414 2415 2416 2417
          2418 2419 2420 2421 2422 2423
          2487 2488 2489 2490 2491 2492
          2523 2524 2525 2526 2527 2528
          2529 2530 2531 2532 2533 2534
          2550 2551 2552 2553 2554 2555
          2556 2557 2558 2559 2560 2561
          2580 2581 2582 2583 2584 2585
          2685 2686 2687 2688 2689 2690
          2691 2692 2693 2694 2695 2696
          2698 2699 2700 2702 2703 2704
          2706 2707 2708 2796 2797 2798
          2799 2800 2801 2802 2803 2804
          2805 2806 2807 2838 2839 2840
          2841 2842 2843 2844 2845 2846
          2847 2848 2849 2881 2883 2885
          2949 2950 2951 2952 2953 2954
          2955 2956 2957 3054 3055 3056
          3057 3058 3059 3093 3094 3095
          3096 3097 3098 3099 3100 3101
          3102 3103 3104 3117 3118 3119
          3120 3121 3122 3123 3124 3125
          3126 3127 3128 3195 3196 3197
          3198 3199 3200 3201 3202 3203
          3210 3211 3212 3213 3214 3215
          3216 3217 3218 3219 3220 3221
          3222 3223 3224 3225 3226 3227
          3252 3253 3254 3255 3256 3257
          3300 3301 3302 3303 3304 3305
          3306 3307 3308 3309 3310 3311
          3318 3319 3320 3321 3322 3323
          3324 3325 3326 3327 3328 3329
          3330 3331 3332 3333 3334 3335
          3366 3367 3368 3378 3379 3380
          3381 3382 3383 3384 3385 3386
          3387 3388 3389 3390 3391 3392
          3453 3454 3455 3456 3457 3458
          3459 3460 3461 3483 3484 3485
          3492 3493 3494 3525 3526 3528
          3529 3531 3532 3543 3544 3545
          3564 3565 3566 3567 3568 3569
          3570 3571 3572 3588 3589 3590
          3591 3592 3593 3609 3610 3611
          3612 3613 3614 3615 3616 3617
          3618 3619 3620 3630 3631 3632
          3633 3634 3635 3636 3637 3638
          3639 3640 3641 3654 3655 3656
          3657 3658 3659 3660 3661 3662
          3684 3685 3686 3687 3689 3691
          3693 3694 3695 3696 3697 3698
          3708 3709 3710 3711 3712 3713
          3735 3736 3737 3738 3739 3740
          3741 3742 3743 3744 3745 3746
          3747 3748 3749 3762 3763 3764
          3771 3772 3773 3774 3775 3776
          3777 3778 3779 3786 3787 3788
          3795 3796 3797 3798 3799 3800
          3801 3802 3803 3804 3805 3806
          3807 3808 3809 3816 3817 3818
          3834 3835 3836 3837 3838 3839
          3846 3847 3848 3849 3850 3851
          3861 3862 3863 3882 3884 3885
          3887 3888 3890 3900 3901 3902
          3903 3904 3905 3906 3907 3908
          3924 3925 3926 3927 3928 3929
          3930 3931 3932 3939 3940 3941
          3942 3943 3944 3954 3955 3956
          3958 3959 3960 3962 3963 3964
          3969 3970 3971 3972 3973 3974
          3993 3994 3995 4032 4033 4034
          4035 4036 4037 4053 4054 4055
          4056 4057 4058 4059 4060 4061
          4062 4063 4064 4089 4090 4091
          4104 4105 4106 4107 4108 4109
          4116 4117 4118 4128 4129 4130
          4167 4168 4169 4170 4171 4172
          4185 4186 4187 4208 4209 4212
          4213 4216 4217 4233 4234 4235
          4236 4237 4238 4254 4255 4256
          4257 4258 4259 4269 4270 4271
          4272 4273 4274 4284 4285 4286
          4287 4288 4289 4290 4291 4292
          4293 4294 4295 4302 4303 4304
          4314 4315 4316 4317 4318 4319
          4320 4321 4322 4323 4324 4325
          4326 4327 4328 4338 4339 4340
          4344 4345 4346 4350 4351 4352
          4353 4354 4355 4365 4366 4367
          4368 4369 4370 4371 4372 4373
          4374 4375 4376 4377 4378 4379
          4380 4381 4382 4383 4384 4385
          4386 4387 4388 4389 4390 4391
          4398 4399 4400 4416 4417 4418
          4422 4423 4424 4425 4426 4427
          4428 4429 4430 4434 4435 4436
          4437 4438 4439 4440 4441 4442
          4443 4444 4445 4458 4459 4460
          4482 4483 4484 4485 4486 4487
          4488 4489 4490 4491 4492 4493
          4494 4495 4496 4497 4498 4499
          4500 4501 4502 4506 4507 4508
          4509 4510 4511 4518 4519 4520
          4521 4522 4523 4545 4546 4547
          4566 4567 4568 4569 4570 4571
          4572 4573 4574 4599 4600 4601
          4602 4603 4604 4605 4606 4607
          4611 4612 4613 4647 4648 4649
          4650 4651 4652 4653 4654 4655
          4656 4657 4658 4677 4678 4679
          4689 4690 4691 4692 4693 4694
          4695 4696 4697 4716 4717 4718
          4743 4744 4745 4746 4747 4748
          4749 4750 4751 4779 4780 4781
          4788 4789 4790 4800 4801 4802
          4803 4804 4805 4806 4807 4808
          4809 4810 4811 4830 4831 4832
          4872 4873 4874 4902 4903 4904
          4923 4924 4925 4968 4969 4970
          4986 4987 4988 4989 4990 4991
          2880 2882 2884 3883 3873 3886
          3876 3889 3879 3957 3961 3965
          3875 3878 3881 4119 4120 4121
          4206 4207 4210 4211 4214 4215
          4347 4348 4349 4251 4252 4253
        </DataArray>
        <DataArray type="Float64" Name="resid_x" format="ascii" RangeMin="-0.03117810038187585" RangeMax="0.0286669253847478">
          0.001047627623906866 0.0016859000029709748 0.001436044069230924 0.0015730874343580226 0.00079368617818254 0.0019820027178996114
          -0.0009479158939900145 -0.0002542762178094904 -0.008735783700270172 -0.010283074089128874 -0.010998587158254303 -0.008851231588116626
          -0.005377532259716489 -0.000001006498660416355 -0.0005144254572471696 0.0012396038679742816 -0.011275611462851387 -0.0029307432372416287
          -0.003160633362572815 0.0017607973222784068 -0.017173284200077354 -0.011840876300478698 -0.009453349501304165 -0.009511922834935405
          -0.010147555061625901 -0.000723003184210036 -0.01372622604632312 -0.0005851217557699684 -0.014014703026700381 -0.004722179028168405
          -0.00008354692955947485 0.0011819617062931442 0.0007516632833386439 0.0015247329359917572 -0.005093288601899282 -0.0016460983773569637
          -0.007674512134999478 -0.0060495175700001624 -0.010574185554788507 -0.008426021268631345 -0.011169746597564423 -0.00886769876842397
          -0.0033369089592156786 -0.001752900316940753 -0.0018187546251664521 -0.00045359330157523914 -0.008058840929308309 -0.008363236054838019
          0.0005348379324310315 0.0003071371577429982 -0.002828378935530118 0.0007700999675055442 0.0023157886874258793 -0.00019328756145653436
          -0.0063466313017706 0.0009051859309820998 0.004223254766146489 0.0022000936158377282 0.0028831336467023405 0.0019843688724723307
          0.0024991595733210303 0.001666495116841027 0.0016166028693227474 0.002287712846463563 0.004723036037923567 0.003550286058268348
          0.0026527819950068476 -0.0008738383916728765 -0.007195297702074832 -0.003645541827069998 -0.004803627386335663 -0.008621351595054172
          -0.0003460809006465837 -0.00024342420394951603 -0.0006057774730079402 -0.0006926542067020591 -0.005821962077431131 -0.006807334673191612
          0.005510380016549021 -0.00039675802067318244 0.0020395513375790486 0.004848111872454375 0.010999365979058595 0.0025508048611149192
          0.002032020954395364 0.009736611140857221 -0.004492097822017094 -0.008908910271669512 -0.008168113362569507 -0.0030550502215405118
          -0.004781546293298078 -0.006245516531422801 -0.0032316796462481534 -0.007920480295432242 -0.002603521122768626 -0.0008613401293633416
          -0.010642262541029623 -0.00948912891195075 -0.007726896668510896 0.001422180710690668 0.003241731223248223 0.0016610103487479932
          0.002323621413304444 0.0018285927191028506 0.003971279208059286 0.0024828590778334103 0.001839993052609401 -0.005275825404572387
          -0.0030353627280041984 -0.003245554564487385 -0.005059119018125724 0.0038557151959555114 0.0018006434557333861 -0.00037169816099869024
          0.0003154364676243304 0.0029436320449161 0.00378365198714814 -0.000332054034492657 -0.0026309610499541947 -0.003186327599390637
          -0.002403110138720521 -0.00307337238386296 -0.004402656431088392 -0.007163501543938189 -0.010901949547802658 -0.011889247540169734
          -0.0008101162707125908 -0.00027536003998385183 -0.0000057837702285290504 -0.0009032385658001019 0.0006870845234159262 0.0008802507190019959
          0.00020563498888126475 0.0014140438804028932 0.002056138719466194 0.003254917860965989 0.00031080023686946845 0.0023524993682624284
          0.002661445597016865 -0.005331059640944602 -0.004337227614469974 -0.006594899535679488 -0.00471379326399024 0.0006742787394409255
          0.0009396200113975794 -0.0039583018313438245 0.00015001988134510924 0.0015627166175478102 0.0017341267856609832 -0.005673260008231651
          -0.003478181784507761 -0.0004361400975918528 -0.00038638930904433266 0.006025720781353883 0.0011268487931919147 -0.0024354703725872895
          0.014617850638025232 0.010715145440564733 -0.0015223405646871413 -0.006261514642286414 0.0286669253847478 -0.0075685477120597255
          -0.011926822944210436 -0.01424824167334826 -0.012440837802900617 0.0005478665250655546 -0.00046690037852847865 -0.0019401160091572223
          -0.001313566420203749 -0.001190288673917017 -0.0020195824406110674 -0.0062191396279751565 -0.00976372308453044 -0.00577691802408431
          0.0020841137759486372 0.0034280999472899865 0.015205944040236119 0.003971044575108884 -0.008044429534542097 -0.004618718849910941
          0.0007154041410251111 0.00047850419152695167 0.0007645359620265246 0.0013788481401837416 0.001351018549653027 0.0005101585598294989
          0.0023733611572738234 0.0022919588472012364 -0.005553248944303313 -0.006649993928150799 -0.006071630207560297 -0.004187471728186232
          -0.003943333289396556 -0.008906872050758352 -0.0007645335349817373 -0.011586284681714076 -0.005517544707359434 -0.012263197523430414
          0.001493311356906446 0.0036222205165401533 0.003192342614806165 0.00855459324781549 -0.000314227610392237 0.0024678455395790166
          -0.0027313687397798603 -0.002731077447934993 0.0014350625519368165 0.0013028645502375369 -0.002027006752924887 -0.002569849283862169
          -0.0005678553573345013 -0.0014511331616802181 -0.0004934934328195695 -0.00007733729015435564 -0.001559873691359126 -0.0031826042461187143
          -0.002099859300738416 -0.0023752418614940707 -0.005725075380133671 -0.004792399720089158 -0.004917762148463289 -0.00678850943070064
          -0.0006716459364560778 -0.00043171664956975775 -0.0008394880769271307 -0.0004041482567709309 0.000018342269570092995 -0.00031534108947184336
          0.0016284590991944015 0.0032508051331809895 -0.004089217685985247 -0.0031729301622576145 -0.0033289685304991323 -0.003620881338819437
          -0.003628794886515685 -0.003265736832459787 -0.005720445101423444 0.0010126963808438916 0.00037721521479561204 0.001050743286937994
          0.0012924878421261 0.0008231100915798706 0.0017288278230065401 -0.0054680290442501445 -0.0006895370071244855 0.00010370631658407348
          -0.005017137878137845 -0.0033809213459985443 0.0018455831823711577 -0.004612745705681043 -0.004200900097138138 0.0031265679795922097
          -0.005847472886512328 -0.007459124509352932 -0.005180879168138475 -0.0020403978815517476 -0.0010886855091181147 0.0012969262553967909
          -0.0010920820917919016 0.0010719490891553107 -0.004944284647680597 -0.013813627577027532 -0.013291019780581337 -0.020354966893833648
          -0.016697872609459097 -0.01085501157078994 -0.0108716396372035 -0.00031659780233184165 -0.001984553722178539 -0.00830147111567836
          -0.0009812259525525668 -0.0020202515257041753 -0.0026565032836725067 -0.002102053373174595 -0.0012634153803565695 -0.0014559611225126723
          -0.0051592269189253415 -0.003104870305549401 -0.00658449197648503 -0.00037183626789705215 -0.00020919198577917797 0.0017839003825965705
          0.0019993448330919428 -0.004955786784604399 -0.0018225688633437542 -0.005540111529020564 -0.0008141350869701469 -0.0005054817349563479
          -0.0008848023866887544 -0.010600429106347065 -0.0022948594534726308 -0.00195978963896426 -0.0030798173735089307 -0.01605791275467716
          -0.005301767720640838 -0.008740268834672271 -0.011449133473492523 0.002303678418235755 -0.00008479145629891605 -0.0005825695971157785
          -0.00023527160940339797 0.0035771658315928434 -0.00109981995682773 -0.0014178850706469959 -0.0026379344318137044 -0.008327471432412636
          -0.01123870015902284 -0.01287237538078223 -0.012405963894404515 -0.00495419885104198 0.002405022244793553 -0.0002959904038100092
          -0.004769021602591295 0.0055226861240731395 -0.0009125315294129521 -0.00009715370704022064 -0.0037747224222011155 -0.004883290722035305
          -0.0010179018633484915 0.0002680696200050292 0.00034337314950949605 0.0019116883789020989 0.001841068857292072 0.000010480138320723142
          -0.008953974872243808 -0.006657523377556984 -0.01328933362430007 -0.010277838528997663 -0.011006729393877368 -0.013157828246468384
          -0.005305994867859987 -0.006238567393777039 -0.002031591330999838 -0.0030232503979084058 -0.010738416924714222 -0.011980617997805254
          -0.004396891719132157 -0.0017196282602842672 -0.0012353584792266226 -0.004808879315587822 0.0009415398413348541 -0.00398007884881757
          -0.00841052881333848 0.0009627717547506798 0.0032277787021202653 -0.0015245608170690872 -0.006524897980388467 -0.011375808879898752
          -0.00351901059159887 -0.009925561778364234 -0.012631736554397754 -0.007616720244824293 -0.00426070963738745 -0.009473324876921652
          -0.004126225348946466 0.00018156879028796702 -0.009506605340843466 -0.0015187986141427245 -0.0027454414118710524 0.0005062064277481237
          -0.002230489452481166 -0.004097339647871623 -0.006312078673564425 -0.005111212916751207 -0.006064536457154546 -0.0024136103171574774
          -0.004357152276017295 -0.003364696981481785 -0.003368067876615477 -0.0022944786672063344 -0.0061829224212823775 -0.005966656579487584
          -0.0015779149464592024 -0.0017864510698952785 -0.00032407815517387917 -0.004015657401037737 -0.003964305897291354 -0.00417766916263454
          -0.004072763025405379 -0.008085130584337907 -0.008461597960098821 -0.004398591165820975 -0.0007790819743984656 -0.007779409899129286
          -0.0026601679293092317 0.0011380645864704775 -0.01057895817314769 -0.0052446550680844695 -0.002520899364189866 -0.00660678825911476
          -0.001765296226227342 -0.0016843177178544888 -0.001945758737479153 -0.0031065562129357627 0.0004413334889727949 -0.0012351377047665757
          -0.005326945239085723 0.0000758884571837315 -0.004005158988239277 -0.015351295053478431 -0.009878315238037061 -0.024688707524855857
          -0.013608177454575099 -0.014107088040723248 -0.014825900756781252 -0.00032447295790305475 -0.0010746903762726134 -0.0006399896774995639
          0.0016144381321567813 0.0012730712626281004 0.00021584068289293157 -0.0049891863022493155 -0.0038196526224707483 -0.0035415987051390374
          -0.0020718014901655035 -0.00009350220812098797 -0.004801971458502585 0.0029173144847938204 0.004046390834889557 -0.0010050726768264795
          -0.002376050161836618 -0.0019810348907167707 -0.003131567002289337 -0.006124873735130265 -0.006070300490935487 -0.011151332223358068
          -0.010947487750819107 -0.0018062219203649477 -0.0011770490876692463 -0.013311614177229814 -0.008145760385053435 -0.011992016741121603
          -0.026850133883701943 -0.011073135501064257 -0.015012426088807374 -0.01643845038950076 -0.008289427791593695 -0.014923565032003872
          -0.018122013171326223 -0.01369821467691823 -0.014473986785697335 -0.00034342005016396726 -0.006370512624569891 -0.0024871887158832706
          -0.006550933675230297 -0.002895585760271935 -0.008347790858915793 -0.0005017977274777152 -0.0007042706014273037 0.002911165147522432
          0.0014365345351032843 -0.0004068784796640301 -0.0019599536171703846 -0.00114044224371046 -0.00039017621148307313 0.0015654338543109603
          0.0011667605643843615 -0.0012214573699633746 -0.0020516427834351703 -0.000465832164554314 0.000769413398781893 0.002462986222425023
          0.003499417852522946 -0.004441781601840944 -0.0017237627392714394 -0.0023086310384448083 0.0017124057765207645 -0.0049252648846316305
          -0.004613299570115359 -0.012693388013053308 -0.0007397536119206904 -0.0033760635020394503 -0.0009314603703511892 -0.004653202450176863
          -0.005356111625863136 -0.001503355150227037 -0.0030576761831557775 -0.006336388563210171 -0.0024586961482579994 -0.011740180955391644
          -0.0045008020096153345 -0.0014920259943691505 -0.0042115550232280086 -0.005223508182401915 -0.000272085717704762 -0.009916211703581368
          -0.004912211522884347 -0.001510791065193029 -0.00969637039975968 -0.023875987333133786 -0.012790128086265007 -0.02662999462172655
          -0.01740802691445964 -0.00981362731390023 -0.007785684583491381 -0.008154115545808471 -0.009327301639463492 -0.002956785310783472
          -0.0064557055774203675 -0.005886510096442699 -0.00944755314186807 -0.005468243856194377 -0.003954184383471393 -0.007155608045233741
          -0.0035276090642968327 -0.0004828536040220044 -0.010915352452112614 -0.01033870295563144 -0.00583481268287489 -0.011696279469228799
          -0.001759042284536605 0.0003930135593801509 -0.0017217068507049405 -0.0029581690000757277 -0.00347870660519245 -0.0012463697496425397
          -0.0037303107392236967 -0.006129232771584725 -0.000586830185017817 -0.0031271146016003115 -0.003175310510725282 0.0007208191389214136
          0.0012151780222886543 -0.0010644593975968064 -0.0014140805500586495 -0.0031256103570873606 0.0014855959528619067 -0.000787957952387508
          -0.0001815828819018428 -0.0020234513875934113 0.005070658068633271 -0.0005279996593405833 -0.0025621519379814828 -0.00343881756881137
          -0.0051746382318507145 -0.005909912055917843 -0.0017953491620126272 -0.001887969705753001 -0.014180763586036704 -0.0018648045562779103
          -0.008594035364494879 -0.01725993838351414 -0.00899110486547361 -0.0021048077019107936 -0.0014543024198347965 -0.00895854524267925
          -0.003128550404953856 0.002516307678481766 -0.0006329994079443679 -0.003834379919176456 -0.0029798026500609254 -0.0037196429873729286
          0.0013548568332906186 -0.01552926166900992 -0.008200017726657016 -0.007405183200295262 -0.0037219032492137316 -0.000011343617459580457
          0.002049492545727727 -0.0018904389492613305 -0.0003924235262653397 -0.003746270322733114 0.0013691804181146239 -0.001142821850279363
          -0.007890084450885126 -0.006752594289405778 -0.0015420501706548961 -0.0025300526874398876 -0.002392911278808363 -0.002775595637497741
          -0.002388458128790738 0.0010370347425685544 0.0022262129349881477 -0.0006346105463683749 -0.006158479116448845 0.001746675681408405
          0.0012470584347821223 -0.002907938454759229 -0.0045118423675596375 -0.002241332406358598 -0.005347793034020221 -0.005794404510633733
          -0.004027675846741019 0.0005906974694651623 -0.009934909969160799 -0.006617469371651641 -0.006337775931169798 -0.006601235410150785
          0.0023552801718764727 0.0001298747324876004 0.003968744679228031 -0.001124037620940932 -0.0035671631024767336 -0.003769925280536768
          -0.006710234927128411 0.0005243544621155172 -0.002753568813690488 -0.010389730509341888 -0.001710668644192559 -0.01833366308266804
          0.0004629192187213249 -0.016834780184748155 -0.004495997574578858 0.0009058060799054246 0.0040521608045001045 0.0004396925210246039
          0.010258337402198947 -0.007304016644227751 -0.0019929692148501488 -0.008456647851117438 -0.01879732754362884 -0.01922236130956101
          -0.004863138985784943 -0.004786757928143759 0.000633913273873965 -0.002317248865529531 -0.0005582570243412022 -0.002290184083154845
          -0.000880227004837586 -0.0021144783706752435 -0.003910418781860159 -0.0021271194265057858 -0.0007283061298029025 -0.0024539187275678387
          -0.0007348717402875238 -0.001061126876108709 -0.006063984592837635 -0.008829426651761452 -0.009095649034566833 -0.007535202153169607
          0.0006372510293086719 0.002234895159809014 -0.00469569985043794 -0.0059102593941666726 -0.0017815208050153686 -0.001431411612458966
          -0.0020003362418794524 -0.010996166739746016 -0.00410131100383726 0.0027313681685319224 0.0004173361447348256 0.004264525930573804
          0.005498480587549537 -0.006624093559777222 -0.005108487379310134 -0.0013301227975341945 0.002041426408129432 -0.007172300664614717
          -0.004723877780844266 -0.00015187576956865456 -0.008919545148277308 -0.002771434627509173 -0.004502135001371421 -0.008970470379598083
          -0.006090385765564754 -0.003843761258969902 -0.007591356991382803 -0.006716234494005491 -0.01179910576262344 -0.005964456356337244
          0.0021829416533662993 -0.0007935264622416227 0.0036304887959923704 -0.0033892814456013554 -0.00757227138956118 -0.009295925445916176
          -0.004942718983535599 -0.0016263363554180899 -0.009573465255337865 -0.0009004482484344933 -0.000026422753762744833 -0.00005328289250527973
          -0.008652305508431324 -0.0032586570050279207 -0.00867005290829903 -0.005149278256326717 0.002218447666598067 -0.0008592323150260484
          -0.005556445151283285 -0.007354074163430369 -0.006750209223115533 -0.008740468582453143 -0.0011146183726608028 -0.002792971694616453
          -0.0007175868364024396 -0.0024885262947833553 -0.0008892643829403468 0.0006547456635574989 -0.00010048376020765915 -0.0005661495101652037
          -0.0028101722719489075 -0.006544130292448713 -0.004527537675103943 -0.004704056667858225 -0.00157729238065496 -0.004126386973615226
          -0.0052681750477914235 -0.006181770987883084 -0.0011959324403028049 -0.004979598908900762 -0.003955431418418698 -0.004390958600633432
          -0.00666020253996269 -0.0028815020578925044 -0.007093918669875521 -0.006109583569876786 -0.004330881362331063 -0.007142725580409515
          -0.000635300538646355 -0.001603620459781574 -0.006196613114085814 -0.0051533043707006065 -0.001572638905042112 -0.006638558853548915
          -0.007965836243937652 -0.010064150544424777 -0.0070074842837266615 -0.008235770905099749 -0.0121097366447378 -0.011289014698157018
          -0.007479668580989252 -0.0031845532923768793 -0.006273440674386066 -0.0069872260410956955 -0.008909506098614628 -0.0075758647595218775
          -0.019472113243623523 -0.020309302950919594 -0.008932886463379974 -0.016358308020141266 -0.021276493995621593 -0.015550162633219955
          -0.005749914463009986 -0.00045112128925861583 -0.0018324159397775652 -0.01056446840479719 -0.01194529031746594 -0.006852773201179385
          -0.009112595018453185 -0.01578141139520639 0.0006857220775273731 -0.006133299805085812 -0.0022952344695470472 -0.00761478037173724
          -0.012171331727527601 -0.026204387167444665 -0.010256163153663955 -0.010164397492193444 -0.011980216845209668 -0.02393177314070627
          -0.023353198990371027 -0.019993023382861352 -0.018782762994252522 -0.006905248522870444 -0.005188804127678637 -0.006620341888700754
          -0.01777644814533552 -0.017901691531484687 -0.014050245704547493 -0.016575243911985282 -0.013446086800426471 -0.007547512897366104
          -0.0073262990024316466 -0.021655170948516655 -0.016404041933189006 -0.03117810038187585 -0.010305651340475563 -0.01874474335913945
          -0.013061532713897428 -0.015532159417878333 -0.009030321981944311 -0.01901003920173494 -0.022654079095122626 -0.013805835897274576
        </DataArray>
        <DataArray type="Float64" Name="resid_y" format="ascii" RangeMin="-1.2600920758052792" RangeMax="1.1225317532766028">
          0.000009911965746373097 -0.00027887987440822215 -0.00026027440769718635 -0.0008239923372144187 0.0011237841731165654 0.000704721993575963
          0.0014739891097335367 0.0001299490679064763 0.003645250068161965 0.0042585632835386855 0.004141521750849475 0.0033647850962103543
          0.0005356286391126411 0.001302825159177498 0.00026193862438381177 -0.0011082927322533798 0.0012959545149952012 0.002755951595676945
          0.0004540006592116397 0.0005762484796638101 0.003928450503376285 0.0032804269589723767 0.0027987465154184488 0.003545856584632079
          0.004875914783801644 0.0014891717093551415 0.0038860375614090947 0.0029765146870806836 0.0032503819729680916 0.00252894849617874
          -0.0019962803105364677 -0.0005966502664726328 0.0011321363469905532 -0.0028238380091622772 -0.003565339153576423 -0.0005064816799381575
          0.004963916401539481 -0.007444769003635776 -0.0001983977841720011 0.0010559427235587657 0.003561282044020675 -0.00216324767408424
          -0.0005588606859521367 -0.0011696761768718034 0.001420699125945668 0.001889628360742926 0.0037159714166550978 0.003299350925565145
          0.0015491902525480161 0.00011203402288811892 0.002478679362163172 0.0023409241420408004 0.003327470757219203 0.001602569539625176
          0.0059748804205375095 0.0033118329958955264 0.0030281612113731704 0.0019620125489242524 0.003379502409175783 0.0018392935758125284
          -0.0005570113279264044 -0.0002774244801699022 -0.00020513141562678028 -0.0003404515819441234 -0.0007941830591418064 0.00005206550055664172
          0.0005613459799225229 0.0001363381493649507 0.0014012991581238976 0.001527564742361931 0.0023716635916941065 0.002283631213540027
          0.0013244373745402716 0.0025867025295134545 0.0011641284011041086 0.002261592975991929 0.002589244318320749 0.0031962552882565005
          0.00018396554476629579 -0.000822323497289279 -0.0009931620783888429 -0.0008994295476424385 0.0005054051241741853 -0.0008935973586736701
          -0.0010437641311193957 -0.0020286377283350587 0.0005655058836978033 0.0008259124465883616 0.00046502840778217536 0.000014593669451890001
          -0.0013508230757218465 0.00719747346611449 0.003835534159561671 -0.0017692740221816605 0.005398636067654838 0.002299496329543599
          0.002572863079107507 0.005247869162825464 0.0023965381868017582 0.00019486349132169511 -0.0005666256005865192 -0.0005346230908364613
          -0.0000688410778419829 0.0005369129432888364 -0.00044565052288785684 -0.0008230506669908988 -0.00027643352355222195 0.0007888459645091495
          0.000652819916490216 0.0009001746866004745 0.0005119285107725302 0.0013108959068822146 -0.000044285721248787935 0.0007370497847236368
          0.0008172155242750501 0.0027656062333362708 0.0006113980398663177 0.0030514632105068384 0.0027508882982765076 0.0030173080007783737
          0.0034306920516056633 0.004754970073217346 0.003357889631090672 0.0024887651238007513 0.003281572558484269 0.0021001797797046834
          0.001236846570103263 0.000972772377174913 0.0016268993446622582 0.0012125238111326611 0.0023191372091845297 0.005011960431188012
          0.001453976479846547 0.0033221041400492424 0.005285098518083564 0.0024042384314048593 0.00405273171854869 0.0011552105304289406
          0.0024189789682813323 0.0024844782143086386 0.003917733792989417 0.0004299489644661314 0.002133215987735193 0.00018382904771183095
          -0.0002764540119558623 0.0009783456969411075 0.0015874317101233215 0.00005788347009352823 -0.00047082630493755495 0.0014523664855487506
          0.0012147138667965018 0.000567076174146669 0.0012452639066468651 -0.0025705966222679955 -0.0003525288904011603 0.01134083592720217
          0.013740909886545971 -0.006434815817143669 -0.00011931264368542083 0.020774908293395122 0.019199954227717697 -0.002471936333994229
          0.0003036669546900572 0.006186325742255555 0.0053790744925700795 -0.00030034286038482794 0.0011778132898337956 0.0005809815634913867
          0.000628805599770299 0.00024071445828832694 0.003487077746132189 0.001996651365732613 0.002737888022275259 0.0029005149875670835
          -0.6069230939188235 -0.4962463380721983 -1.2600920758052792 -1.018306388073281 -0.6930623801767682 -0.665122747352594
          -0.00048771178589249176 -0.0003294637043244411 0.0006688416050211893 -0.0015736938645665305 -0.0005491303952789295 -0.0005364413079224917
          0.0017882689013854342 -0.00100445249073711 0.005502196582921393 0.0043298563970485815 0.005522762863118036 0.0035460023678056188
          0.0011198026092991142 0.004273187094591145 -0.0004698033224405096 0.005013095992174699 0.0006359122287860619 0.0026184485475455738
          0.0013558634601724961 -0.0022423354565510034 -0.00012012961016505397 -0.0024542535290645873 0.002198200526874805 0.0019514448075157453
          0.0022593330815275092 0.0014195403657984162 0.0008420035500338874 0.0002532729578379189 0.003203043851427584 0.0041246557789700045
          0.0010919197740473507 0.0012769936246027347 -0.0004315843447821044 -0.0003886334826376653 0.00031574853277194226 0.0027814182835541046
          0.0005853458817552393 0.0014869931455557123 0.0017332896358662753 0.0030611362331037784 0.002837701034109852 0.0034188608936492892
          0.001787538745935069 0.001134432172853389 0.0032068234047732402 0.0040427396590220765 0.004971708807794961 0.004770191337110846
          0.002177149974715936 0.004096294693837765 0.0017537893014888395 0.004034719013456284 0.004544431383000619 0.004281816891310131
          0.004073990382452458 0.004716737842029195 0.005386015620171103 0.001353892101242711 0.002660917510432237 0.0029683101943124707
          0.0024094947142452583 0.002851206680765661 0.004503701651651648 0.003675308463461902 0.0030994764045111367 0.004710906520211056
          0.004069908062856564 0.001759344368792104 0.004498429164511264 0.00768728793762119 0.0032379695607404613 0.00814390942865284
          0.0044777156224447 0.0023207508260892906 0.0040303535252489975 0.003681134324004076 0.00439489030102741 0.0036294891863219436
          -0.48840872762156795 -0.98143482489042 -0.5806118643078453 0.005485078891908579 0.009294039758246372 0.010607726763317359
          0.0107512491315771 0.006517786458785639 0.006334386403069291 0.003018261571029829 0.0021904429632509936 0.0036358165888445426
          0.0009311162224033276 0.004766072797244336 0.003957525863205608 0.0010205675086496502 0.0031419501769684444 0.005352519244921666
          0.0031923038890069033 0.004585349862804511 0.007156462867231261 0.001367401925376488 0.0023229669958241272 -0.0009575873189405226
          0.000579432390970594 0.0022092151048690445 0.002484511844267484 0.0020668499452200784 0.0019460420459274097 0.0004195565316622296
          -0.00034335164295384857 0.0049630328791081535 0.005074889173899894 0.001033226777376467 0.000236133132598626 0.006095644709844195
          0.004402895574238647 0.003231085165110281 0.002527282053173985 -0.001063378557263961 0.0008282555893110444 0.0031951238596841236
          0.001281886975988633 -0.0017850780534172661 -0.00022853685698756565 0.0026255431078084646 0.0027823978487936107 0.0019405688009494493
          0.0020451682092448298 0.004062819117949673 0.005235354732481934 0.004060005291517732 -0.002894505590574331 -0.005611259487865658
          0.006881133143524731 -0.004049254831016036 -0.007739607608643909 0.004223467820167193 0.002266551958961055 0.0004385456536827592
          0.00470776883557511 0.003978079454487249 0.003374154773171989 0.002833329632763948 0.00527316550227841 0.0038464688650398093
          0.005459593914293404 0.004442416508667918 0.00777702890589671 0.0076275250169592634 0.00472226139247775 0.0064043274147287665
          0.004882782600285185 0.005192556190681735 0.002229600027106038 0.003193999420029875 0.0036702907166523135 0.004505510240857824
          0.00714903948680164 0.004743990256517831 0.004450198502813616 0.0003507207611487262 0.0009278164725106952 0.000017586473951863857
          0.0019423650297619999 -0.000983044746973305 0.0018184513338433336 0.00020896173844769939 0.004098884844598638 0.003992549731469758
          0.0028209842672156926 0.0042317410780355336 0.006441987943003019 0.006314481964369567 0.00769753979018406 0.006142114347275934
          0.003366541140341836 0.002033182031752817 0.004299719452140249 0.0011983358018133883 0.0014158122180660537 0.0018953297239429623
          0.0024789119091117306 0.005138950250990898 0.004968741767098661 0.005430949455334039 0.005626611948776089 0.00657632528678867
          0.0002557247527245343 0.000503283888676459 0.0008853513611755404 0.002966293063037556 0.004200140112626399 0.005222520600467073
          0.0024142468251304727 0.00197282347617031 0.0025913392754184916 0.0023874552228707463 0.0029801154648552985 0.0016967375038886429
          0.001881204031165179 0.0032389692475724985 0.0031299720385571383 0.0035207328694645545 0.0009871214215664628 0.002720637000176468
          0.004176579950222581 0.002828594937841322 0.004314264823258557 0.0034394796915146464 0.0016667707105894325 0.003453650897928373
          0.0018832327807855598 0.0034567119560476867 0.0006837885993754012 0.002867893431912405 0.0020092601302786756 0.00349815822069649
          0.003814103595456142 0.001611712002893867 0.00430896812265516 0.0015026913705854794 0.00406800449833751 0.004015035637810249
          0.0018122337347739048 0.0014546642578343039 0.0014151718804145536 0.000605328565748825 0.0024510274350212358 0.0014851046674957957
          0.0001515804232392337 0.0008666555631566542 0.0004620623396429935 0.0006989039113130813 0.0011431449684558004 0.0005157153003893522
          -0.001331057264995189 -0.0004803621460049978 0.00010444422996640917 -0.00021734927951810867 0.0002907092280265977 0.00021602993820284133
          0.002175522046236167 0.00174387808922577 0.00179458225391161 0.007617937760009255 0.005749536257154575 0.011310558858200065
          0.008975283862603156 0.0039044473326758575 0.004087241585919998 0.0022191373392560776 0.0016140556347001567 0.0024266943581185557
          0.004641684503899901 0.005750267702832712 0.005378788987673591 0.003934187587048846 0.00636028962712791 0.0029711575240816412
          0.0014742908809445565 0.0039139530352852725 0.004417542367290382 0.0009750976985632293 0.0022645321570907706 0.001960529259045808
          0.004479974036088075 0.005955890469231645 0.004579014757493172 0.49440726336923285 0.39567961970501386 0.9949297651843462
          0.7948000076346033 0.540861868680994 0.44128829406403536 0.15962641488113286 -0.033773035491879766 0.32808513414549506
          -0.0511099395774626 0.24084301995960133 0.06531476210149201 0.00023401251049610938 0.001378745327179992 -0.0014378011026754123
          -0.0004812354121912499 0.0014854043267583938 0.0015970483374413424 0.005285315856305511 0.002686513778119598 0.004017946435259351
          0.5611041504727041 -0.0009087384821830774 1.1225317532766028 0.00038697799393055954 0.5630887055427364 0.0015562932731182366
          0.5420745744001361 1.078405855270645 0.4933416982560876 0.0035455723748174933 0.0023952233850191157 0.004239892167445414
          0.47150005439597004 0.9236635973442067 0.34180961955364647 0.004073225089623059 0.002766665467277385 0.00384447622395373
          0.003698658790301545 0.0008431204120030057 0.0015257940147418575 -0.005683761163799095 0.5844636169481238 -0.006983065297924931
          1.1216291411703723 -0.0010311182521761664 0.3668910942702649 0.0053690286809675025 0.006205164081667852 0.0018992813743936021
          0.0015990873507954195 0.0028088142619985823 0.0021423404680077918 0.0032472856385760696 0.0008894908431013038 0.003299207537934279
          0.0031422069745518644 0.0005241911098054497 0.0041202341206432735 0.0050454269498511894 0.0003628752143738645 0.0015898776990969365
          0.0047335197426668085 0.0029994083488382173 0.003631074897581993 0.004054690669836436 0.002523350883728459 0.002858876429020052
          0.008588412510449728 0.01261482950130599 0.007103789904509106 0.0020785315430218165 0.0021694391755884834 0.00046110577831864896
          0.0007132199177463383 0.0020029585538457184 0.0030512801169294557 0.0019491097765065718 -0.0009008721465212921 0.0017505603465182706
          0.001753314238836956 0.00139623063219306 -0.000013740412427035165 0.0011649706748952156 0.0013693393452695324 0.0016846882394624674
          0.002686292066202578 0.0008676453386201044 -0.00023454556840807328 0.00044005512995443086 0.00495158141063351 0.00037290131120354397
          0.0037975925416423584 0.00748340463606928 0.004145384523153883 0.004553308979699161 0.006188885866963617 0.005316147915417319
          0.0025549660804906754 -0.000138751170585108 0.001381544574380264 0.0032068364817276485 0.001995660314488848 0.00024110277679589842
          0.000016811960534754422 0.00010064326195369233 0.0017436921374909126 0.0034575734155762317 0.0024646579938863433 0.0008765574389756198
          -0.0003587437577874941 0.000887225783223769 0.00041562857564453326 0.0016607772709956448 -0.0005342324338364068 0.001052976556000229
          0.0022666572290746673 0.0013452994930015366 -0.00027746838712799926 0.00034996827816596854 0.0007713080603650169 0.0006301510687976297
          0.0030849143802076096 0.001258480078792354 0.0005713221142657453 -0.00014837118297242324 0.006589808927050911 0.00289498558982125
          0.0024269111073733224 0.0028334201667111134 0.006314186637450647 0.0044465736030496195 0.005003007638691798 0.005006166465368694
          0.0027388498238413994 -0.00021172318654127942 0.003050046970691639 0.0045558357510571135 0.0021128306857974843 0.004166690874764178
          0.002946355473263662 0.0017444186044194218 0.0027816076239873533 0.0014928643386379684 0.003179926196225785 0.0022806143267177087
          0.0028996454446683084 0.0003123477688079246 0.0029970740224204706 0.0008632132639880552 0.001036458474465582 0.0027785130528386603
          0.0003898319032637765 0.0025647675344041693 0.0019229394806628726 0.0019862620461896796 0.0026682628172011447 0.0028815195706632935
          0.0032750379847976685 0.0033525129744803595 0.003445536467523491 0.00751899112183585 0.014761620251151575 0.008007233864581909
          0.0024007311639225315 0.0015482258695541373 0.0005393679187397082 0.0019724609974996477 0.0015780811312158805 0.0013945070972588292
          0.00020748442406456902 0.0004377238238019998 0.0025425777700094493 0.0014843266609756711 0.0004199509547489211 0.0006949478772473594
          0.00233450828216597 0.004193058670273808 0.0030612379604861018 0.003103151819707578 0.004408646962465457 0.005625782629024273
          0.0026484025255933408 0.001402572296793414 0.0026510936448860822 0.004251314808773547 0.001011007894514332 0.0029978827743195324
          0.0006840953278907658 0.005756709177235982 0.0015290626018719389 -0.0004737266080038216 0.0000939891598055187 -0.002416703028344347
          -0.0012589095669573447 0.0005051054604822136 0.0008001261589740127 -0.00005535337665035778 -0.0005443439258516758 0.0006382262201616307
          0.002585544452296168 0.00033835078835585397 0.0017610242177025642 0.0019451789895090776 -0.00029391990814242597 0.0010382613317852507
          0.006007981225046005 0.005460866055939775 0.005635740293978925 0.009244410818404825 0.013658814909474737 0.007151893613760785
          0.0010942348333346508 0.0024207674123049583 -0.0008811350476145008 -0.0003420162996746745 0.001223711240365688 0.0016662870655861917
          0.0059927294263982245 0.0032520982746935823 0.004267827223699144 0.004701090719343659 0.003201779947571426 0.003247564551055071
          0.003002567780794857 0.00072575135341503 0.003910107484991654 0.0019890268131903706 -0.0010398015916805552 0.0004653310974095243
          0.005497310572036562 0.006436347798599834 0.004714567908949391 0.003173441764979079 0.0016464277473402372 0.0022857615315259594
          -0.10918477911524588 0.000249075831689094 -0.17844887233081425 -0.19912300982449677 -0.0004071657788651817 -0.3398835379000336
          -0.029862629092294146 0.00045693838873589465 -0.12459246449263545 0.004888434444514478 0.0003910641152328198 0.0024193230576502467
          0.0031773643945107732 0.003048412345979093 -0.0018023767587155987 0.0007496775457418031 -0.0005715652665153198 0.0004809753497098668
          0.004623415665247488 -0.0007142902565809295 0.0022755202016339626 0.006497905165040646 0.006096244617280588 0.0044740960498298454
          -0.3371894646055986 -0.6655277390843009 -0.34054756919081924 0.004323746944558837 -0.0007053857943388336 0.0017992205671273076
          0.0023052438906225603 0.002285249403038203 -0.0008669747300661668 0.0003875042454526967 0.0021814503469985425 0.0026058718672826164
          0.007051049969351082 0.004706059876206148 0.004502483715115205 0.004994995476934123 0.006150013421597711 0.0038645850017798578
          -0.002968132761994105 -0.00834599152362886 -0.004857734347608084 0.005305052120212331 0.0015001407978664644 0.0013921002745548514
          0.0013148415514727674 0.0009248797023518052 0.0009042579268966622 0.008284639957692824 0.010326693494323164 0.0034240174429592297
          0.004221468972390688 0.0017730160984686522 0.002456767993043646 -0.0005797130772692144 0.0019821565355254284 0.001637814291081105
          0.0027336575788259668 0.0027541151917517097 -0.00048118129046561403 0.004127221724322554 0.004177776166613301 0.01073375141953424
          0.004794583338674108 0.003335401044143746 -0.00031596156283361654 0.002595131212235584 0.0024369427314796105 0.0006970581058784175
          0.003030137925990495 0.0016480476568681846 -0.00011665276337365083 0.011755137963877116 0.015656979173357788 0.005840757690876164
          0.4870347293669248 -0.012085828111760444 0.9590568199309928 -0.014150274326402645 0.4004725446401524 -0.0022458192728663784
          0.004738198768022818 0.008980103302955539 0.0045899388087665485 -0.009430669860437224 -0.017155687468713432 -0.007846807981714832
        </DataArray>
        <DataArray type="Float64" Name="resid_z" format="ascii" RangeMin="0" RangeMax="0">
          0 0 0 0 0 0
          0 0 0 0 0 0
          0 0 0 0 0 0
          0 0 0 0 0 0
          0 0 0 0 0 0
          0 0 0 0 0 0
          0 0 0 0 0 0
          0 0 0 0 0 0
          0 0 0 0 0 0
          0 0 0 0 0 0
          0 0 0 0 0 0
          0 0 0 0 0 0
          0 0 0 0 0 0
          0 0 0 0 0 0
          0 0 0 0 0 0
          0 0 0 0 0 0
          0 0 0 0 0 0
          0 0 0 0 0 0
          0 0 0 0 0 0
          0 0 0 0 0 0
          0 0 0 0 0 0
          0 0 0 0 0 0
          0 0 0 0 0 0
          0 0 0 0 0 0
          0 0 0 0 0 0
          0 0 0 0 0 0
          0 0 0 0 0 0
          0 0 0 0 0 0
          0 0 0 0 0 0
          0 0 0 0 0 0
          0 0 0 0 0 0
          0 0 0 0 0 0
          0 0 0 0 0 0
          0 0 0 0 0 0
          0 0 0 0 0 0
          0 0 0 0 0 0
          0 0 0 0 0 0
          0 0 0 0 0 0
          0 0 0 0 0 0
          0 0 0 0 0 0
          0 0 0 0 0 0
          0 0 0 0 0 0
          0 0 0 0 0 0
          0 0 0 0 0 0
          0 0 0 0 0 0
          0 0 0 0 0 0
          0 0 0 0 0 0
          0 0 0 0 0 0
          0 0 0 0 0 0
          0 0 0 0 0 0
          0 0 0 0 0 0
          0 0 0 0 0 0
          0 0 0 0 0 0
          0 0 0 0 0 0
          0 0 0 0 0 0
          0 0 0 0 0 0
          0 0 0 0 0 0
          0 0 0 0 0 0
          0 0 0 0 0 0
          0 0 0 0 0 0
          0 0 0 0 0 0
          0 0 0 0 0 0
          0 0 0 0 0 0
          0 0 0 0 0 0
          0 0 0 0 0 0
          0 0 0 0 0 0
          0 0 0 0 0 0
          0 0 0 0 0 0
          0 0 0 0 0 0
          0 0 0 0 0 0
          0 0 0 0 0 0
          0 0 0 0 0 0
          0 0 0 0 0 0
          0 0 0 0 0 0
          0 0 0 0 0 0
          0 0 0 0 0 0
          0 0 0 0 0 0
          0 0 0 0 0 0
          0 0 0 0 0 0
          0 0 0 0 0 0
          0 0 0 0 0 0
          0 0 0 0 0 0
          0 0 0 0 0 0
          0 0 0 0 0 0
          0 0 0 0 0 0
          0 0 0 0 0 0
          0 0 0 0 0 0
          0 0 0 0 0 0
          0 0 0 0 0 0
          0 0 0 0 0 0
          0 0 0 0 0 0
          0 0 0 0 0 0
          0 0 0 0 0 0
          0 0 0 0 0 0
          0 0 0 0 0 0
          0 0 0 0 0 0
          0 0 0 0 0 0
          0 0 0 0 0 0
          0 0 0 0 0 0
          0 0 0 0 0 0
          0 0 0 0 0 0
          0 0 0 0 0 0
          0 0 0 0 0 0
          0 0 0 0 0 0
          0 0 0 0 0 0
          0 0 0 0 0 0
          0 0 0 0 0 0
          0 0 0 0 0 0
          0 0 0 0 0 0
          0 0 0 0 0 0
          0 0 0 0 0 0
          0 0 0 0 0 0
          0 0 0 0 0 0
          0 0 0 0 0 0
          0 0 0 0 0 0
          0 0 0 0 0 0
          0 0 0 0 0 0
          0 0 0 0 0 0
          0 0 0 0 0 0
          0 0 0 0 0 0
          0 0 0 0 0 0
          0 0 0 0 0 0
          0 0 0 0 0 0
          0 0 0 0 0 0
          0 0 0 0 0 0
          0 0 0 0 0 0
          0 0 0 0 0 0
          0 0 0 0 0 0
          0 0 0 0 0 0
        </DataArray>
        <DataArray type="Float64" Name="stress_zz" format="ascii" RangeMin="-5836620.460222267" RangeMax="5097274.569474152">
          -1107170.5900092009 -350280.1388657413 -902192.9063114063 -2014563.9987690956 -1194056.1447615454 -421308.47357564914
          -920832.3461758328 -2020050.9324454523 -1280941.6995138896 -492336.80828555685 -939471.7860402593 -2025537.866121809
          391145.8333452103 119102.20558236905 420965.5875519309 972453.8825640937 400683.93906204484 70687.8670116452
          388248.6161116186 972656.4154381861 410222.0447788794 22273.528440921364 355531.6446713063 972858.9483122785
          -1203957.2615736844 -575149.0060815959 -1263538.1229225895 -532782.9463584658 -1323118.984271495 -490416.8866353359
          -1945093.3282285882 -525884.1730490141 -449648.8790010666 -3049558.33190992 -1919092.665814164 -510804.06423605245
          -619277.2745059599 -3313224.6539344424 -1893092.0033997404 -495723.95542309084 -788905.6700108534 -3576890.975958964
          870364.9324789835 2029873.9876421173 816633.0740566802 1975872.7704453382 762901.2156343767 1921871.553248559
          1939095.942030687 3906416.3455406236 3798008.2353712106 1192695.804840976 1985441.9745254093 4205961.9702131
          3727571.5252433256 946196.0802773524 2031788.0070201322 4505507.594885578 3657134.8151154416 699696.3557137288
          2032560.834196568 2186341.3950482495 1470434.8278635475 1731898.8920552365 2133408.4465097585 2163102.166737575
          1566244.4748873354 1894122.0502612721 2234256.0588229494 2139862.9384268997 1662054.1219111236 2056345.2084673082
          -3021287.3388096686 -1772088.35037732 -3053075.600696335 -1854275.875135937 -3084863.862583002 -1936463.399894554
          -956807.1554238852 2335401.929344921 4041595.4114614986 2186354.6536560818 -998548.4574081418 2422593.4419027907
          3940795.097917838 2150029.3319331654 -1040289.7593923982 2509784.9544606605 3839994.784374177 2113704.0102102496
          1217490.1165351362 1317684.7274989455 2534374.3865981773 1185809.8628887213 1260627.8369442206 2653618.5674820524
          1154129.609242306 1203570.9463894954 2772862.7483659275 3006962.6056975387 2439523.9368670797 1241182.1734532767
          2909485.2168938825 2910564.855185594 2477220.3919898677 1312847.6804421248 2789085.1664043274 2814167.1046736483
          2514916.847112656 1384513.1874309725 2668685.1159147723 261401.93119980008 111830.7864191255 721865.970531467
          318504.59841761773 175407.36448791722 215418.9131638711 819132.5149541559 252218.0312642859 89412.7977760344
          319007.0399086167 916399.0593768444 185931.464110954 27530.834005080353 106366.44240744179 185202.05080980348
          2143773.562861767 3086422.519301421 1517947.760340068 2185818.734378757 3168254.8197331615 1663992.9367098096
          2227863.905895747 3250087.120164903 1810038.1130795516 1134410.2939174692 288722.46788034454 1056904.5411387451
          395000.8824325481 979398.7883600211 501279.2969847516 636746.8077484712 1584370.8169312794 2412932.161394456
          2210808.0528599094 662264.6048273373 1614558.388587396 2414615.505986687 2241446.4171531373 687782.4019062035
          1644745.9602435122 2416298.850578917 2272084.781446365 -1141979.028771853 -4347194.307445905 -5357756.126756722
          -3954484.41202707 -1355454.6968900627 -4601957.310950071 -5597188.293489495 -4260784.664811413 -1568930.3650082722
          -4856720.314454236 -5836620.460222267 -4567084.917595756 3768398.5493327132 2207776.0726767126 3542598.1045712726
          3814390.10707598 2242206.0043731113 3623899.4832478245 3860381.664819246 2276635.93606951 3705200.8619243754
          -3527632.7346358225 3298420.9833333604 -3445635.0726382653 3279169.362628024 -3363637.4106407077 3259917.7419226877
          307240.8991824727 1017995.4687222254 -1031645.1801387372 -846283.2865145896 270925.1187670836 1046183.1895956107
          -1053641.2094643854 -984587.2341520182 234609.3383516945 1074370.910468996 -1075637.2387900339 -1122891.1817894469
          2571210.1469255243 1740751.3881846105 2576082.5883176303 1823196.3453930502 2580955.029709736 1905641.3026014895
          -278175.16491392115 -571858.2552371003 -194140.59477868938 -554468.119359513 -110106.02464345755 -537077.9834819258
          1177856.1035120438 1612044.6061564551 1098300.5087326583 1652352.8387002815 1018744.9139532731 1692661.0712441078
          -2234305.382786322 -3218923.5511415736 -3435742.5526536116 -2115694.3550236067 -2291165.9761667848 -3296492.5347350743
          -3445133.069133453 -2083467.136471957 -2348026.5695472476 -3374061.518328575 -3454523.5856132954 -2051239.9179203073
          1752599.3351824845 -2619200.715451501 1776557.2037554285 -3021520.1724375463 1800515.0723283726 -3423839.6294235913
          -901448.2743351412 -867073.2467808552 -832698.2192265694 1505436.0560644544 2202701.125995042 1531470.4097703393
          2220087.821162832 1557504.7634762242 2237474.5163306217 583962.9267958899 1076948.6278370144 365076.6449491093
          597327.1866658756 1064752.849542707 254534.32682142095 610691.4465358611 1052557.0712483996 143992.00869373258
          -1577648.3976145221 -1317255.5019697007 -2364614.457054393 -1515329.6646785468 -1202819.0190867493 -2326828.9781075455
          -1453010.931742571 -1088382.5362037981 -2289043.4991606986 2829405.5760265077 3099337.599899777 3369269.6237730472
          4359539.448840174 4648086.248836601 4936633.0488330275 88526.83315452613 388003.79753114394 35283.536477983056
          404144.32187916164 -17959.760198560078 420284.84622717934 -334798.12549490033 -158307.4511532348 18183.22318843077
          -2232222.8106415817 1097599.974582403 21049.186466281244 -2244511.640833559 1178768.0865438937 -28456.753688983532
          -2256800.4710255363 1259936.1985053844 -77962.69384424808 -402119.0534680134 637534.2287489993 -564817.5605968102
          496141.8971428147 -727516.0677256067 354749.5655366302 -1059963.1855505295 -747750.1428421949 -1272525.8382795556
          -1339046.2554543517 -1139538.477478276 -772459.4322003172 -1316177.814713087 -1427002.9668751145 -1219113.769406022
          -797168.7215584397 -1359829.7911466185 -1514959.6782958775 681211.8169392659 -309268.10563119664 -69082.43032262466
          874192.4757773848 642939.6423073908 -296811.2212700519 -78523.98525440771 802598.785623997 604667.4676755157
          -284354.33690890716 -87965.54018619077 731005.0954706091 1347304.163116234 709927.9561912093 -113304.18706067961
          1398462.1985027685 700395.5114673016 -195545.97617156245 1449620.2338893034 690863.066743394 -277787.76528244535
          2786797.720414144 2844445.2563963667 2902092.7923785895 546497.9860920496 403769.2072320988 261040.42837214802
          -438501.94364267285 -1077886.0488950983 -387158.87165211723 -984635.5173341427 -335815.7996615616 -891384.9857731871
          -368901.9918435497 -664436.376953753 -377584.0896111368 -630047.2239568832 -386266.18737872393 -595658.0709600133
          3943158.8020429853 4055342.578179858 4167526.3543167314 280953.6472804247 -248110.8232376765 1030176.9026009539
          1203693.2685013996 319858.7773471473 -303947.24013582733 1020200.812484886 1275974.6476274768 358763.90741386975
          -359783.6570339782 1010224.7223688178 1348256.0267535541 -285900.01387858595 -332270.80859064375 -378641.6033027016
          -20395.348404824443 26193.490639980446 72782.32968478533 -1846498.10197685 -3641723.400393515 -1860179.6497441945
          -3716718.697261937 -1873861.197511539 -3791713.994130358 -836455.8234116522 -894201.0561164903 -951946.2888213277
          -3930368.064148054 -2460646.48394298 -3928698.7862119153 -2402983.977247424 -3927029.5082757752 -2345321.4705518684
          -4172781.0243186206 -4934451.697958161 -5696122.3715977 -1024101.1215836608 -878062.4934077859 -998337.9421622877
          -844052.7027747742 -972574.7627409142 -810042.9121417622 -723084.2874233995 -717316.975968461 -711549.6645135225
          720168.7193656622 708284.7480679628 696400.7767702634 -902027.8880514884 -879508.5205338423 -856989.1530161961
          -3180650.534168559 -2129219.428114981 -3610754.6599014937 -2472822.5093728644 -4040858.7856344287 -2816425.5906307474
          124240.3639607348 188447.0689277549 252653.77389477502 -2650674.4346639146 -573953.7594588418 -2828334.6405351176
          -614093.2587041598 -3005994.846406321 -654232.7579494776 3891156.551366715 1372279.0055413393 2222164.5921848547
          3826971.2065056297 1252571.1802560317 2028080.2604019986 3762785.8616445432 1132863.3549707243 1833995.9286191426
          1806835.0806350145 1554474.3222083508 1953791.7810762622 1815007.60622404 1537331.9746885246 1929758.5774936925
          1823180.1318130654 1520189.6271686982 1905725.3739111226 1946037.6536256555 3931994.195875139 1989789.3013224122
          4116074.7336581154 2033540.9490191692 4300155.271441092 731563.1085405995 839800.6874500322 340105.44187003124
          798753.8139671849 841411.9911599801 340673.97487008513 865944.5193937703 843023.2948699277 341242.50787013903
          -670622.6572618857 504123.7196853909 -717930.6117003093 540648.5508337906 -765238.5661387326 577173.3819821902
          209260.2221869778 197652.51867580885 186044.81516463988 883685.9587989452 1867816.6475716128 841364.8683559322
          1893469.3877007486 799043.7779129192 1919122.1278298844 2656201.675517871 2322446.228391094 2639049.901143337
          2195570.531913772 2621898.126768803 2068694.8354364499 -188103.05917055276 303939.481410627 -399409.09814798145
          161977.36786976998 -610715.13712541 20015.25432891288 -1009148.098739776 -947808.992206281 -886469.885672786
          808797.5895973865 330406.81879342324 875883.8922162955 356917.69151362625 942970.1948352044 383428.5642338294
          1192827.1659065364 1280560.925236043 1368294.6845655497 772307.5254939266 838708.1503434828 905108.7751930394
          1800556.0261258632 1885913.1862189365 1971270.3463120097 1151881.801509416 1281125.5828600735 1410369.3642107307
          -58403.34745117245 -11828.317386754941 34746.71267766261 -1463083.7058762037 1607457.4061080646 -1601626.2978580552
          1931314.4318097928 -1740168.8898399067 2255171.457511521 21876.316382420548 -206422.2454691713 -5326.335785082432
          -204569.13831529638 -32528.987952585412 -202716.03116142144 -3463844.4644728014 -3506084.2338362234 -3548324.0031996453
          231596.7354938436 247935.03691005032 264273.338326257 -347060.9910254357 -337806.9342524296 -328552.8774794234
          1615414.4435915323 1597477.5895799126 1579540.7355682934 711177.5734658267 1121416.509548679 1531655.4456315318
          -1116978.1025384604 -1115907.4429930719 -1114836.783447683 2484611.5114762164 1882094.5359235907 2504152.037523626
          1960063.9125187998 2523692.563571036 2038033.289114009 1828921.7049206719 1842924.2426156355 1856926.7803105996
          885797.2813504648 1128491.9179197925 860086.146464812 952005.3892817121 834375.0115791593 775518.8606436318
          984926.439205026 589850.2999929609 713303.5613052477 945939.5266195468 598673.2584761784 688215.2595933382
          906952.6140340681 607496.2169593958 663126.9578814289 442242.4087379975 420551.9491332838 398861.4895285701
          1579859.0934184883 1615267.449028846 1650675.8046392042 745032.8561881615 1674515.097243146 754759.0833674725
          1728043.411550846 764485.3105467836 1781571.7258585459 2150801.1712135538 2882773.9691962954 2187997.9792333855
          2910124.035019717 2225194.787253217 2937474.100843139 3633197.927261278 3730454.5158092952 3827711.104357313
          3071702.220330361 4234745.207038093 3039667.424219528 4362779.571353293 3007632.628108697 4490813.935668495
          -4000314.7421963257 1338586.5131698803 -1958682.090779082 -3966441.5526010445 -4094692.255021046 1731311.2675190987
          -1929318.109570562 -3909357.391636296 -4189069.7678457657 2124036.0218683174 -1899954.128362042 -3852273.2306715474
          -894607.537890152 -830295.7023657099 -765983.8668412677 -1850768.2878542081 -1773695.3939756404 -1696622.5000970718
          -53933.10630175678 33982.12266756489 -159966.84660129837 -150208.73214189263 -266000.58690084005 -334399.58695135015
          550535.9499738847 589600.5930378549 628665.2361018248 102659.5556259027 381922.3153386409 164519.60797503858
          247500.90126263784 226379.66032417447 113079.48718663485 -2411191.4975031167 -3311768.512248939 -2406007.079852672
          -3406859.4354360644 -2400822.6622022265 -3501950.3586231894 657615.6654922974 733381.0504753753 809146.4354584533
          3327958.348157063 4566753.236512283 3494146.196599468 4832013.902993218 3660334.0450418736 5097274.569474152
          -3772236.0741955917 -3210048.8514708704 -2271936.3894559466 -3010936.0615664916 -3803047.068885755 -3145327.3728466937
          -2217964.8765336107 -3099620.672296646 -3833858.063575919 -3080605.8942225175 -2163993.363611275 -3188305.2830268014
          -25780.12708894891 -40866.38575011869 -55952.64441128845 -2605676.2705076425 -4095520.5769045125 -2631639.853763148
          -3990184.7704678476 -2657603.4370186543 -3884848.9640311836 287000.8910867479 3384920.1470283037 271986.8446351526
          3559836.8026375966 256972.79818355723 3734753.4582468895 3496056.4295996223 3607534.4362938656 3719012.442988109
          1634187.3621551758 1626430.8997574348 1618674.4373596942 -370693.363170611 -428633.5051395879 -486573.64710856485
          -1604632.4445987986 -1686407.8958495962 -1768183.3471003938 -3452767.9840707877 -3553806.3012834378 -3654844.6184960874
          -1365863.6162737524 409950.6148195822 -1391812.5858819445 308592.97777242423 -1417761.555490136 207235.34072526626
          -1638231.6537980589 -1710828.1777592336 -1783424.7017204084 2602740.2917111074 3306416.2331558093 4010092.1746005104
          935019.2193713809 908096.0910463724 881172.9627213642 1169501.716108711 1126171.3376035732 1082840.959098436
          -4119089.1114005568 -4132729.7443924695 -4146370.3773843823 1997495.9000548674 2037514.104241485 2077532.3084281024
          3057979.113693363 2962488.5835374193 4270948.1883386485 3008677.973380597 2975487.6458604774 4307128.43782956
          2959376.8330678307 2988486.708183536 4343308.68732047 1232547.6090621003 1647635.8621844524 2062724.1153068044
          288908.9276943765 1169190.0644084124 128376.1030004078 945452.59735335 -32156.721693560954 721715.1302982877
          -3216348.4400295448 -3293483.979805108 -3370619.5195806706 -3685985.866955626 -3673537.1969990013 -3661088.527042377
          4890169.861803273 4847492.73380822 4804815.605813168 -3912617.7833875204 -3864014.701712219 -3815411.620036916
          -181704.91388082257 319233.3652050813 -122433.47213824942 353570.1698809282 -63162.030395676295 387906.97455677495
          -4316547.426931301 -4338175.21675352 -4359803.006575739 -1959452.8946895127 -2064893.7523393692 -2170334.609989225
          -4051081.828691864 -4573376.137192805 -5095670.445693747 89409.30882791319 113671.11158576049 137932.91434360773
          802869.8564928746 779935.1668564136 757000.4772199527 2780487.924806527 3024291.1317373463 3268094.338668166
          1285985.580673478 976513.1788275454 1147672.7441672713 949032.7818347706 1009359.9076610646 921552.3848419957
          -1227048.8013310884 -1312530.9743893866 -1398013.1474476843 -1496345.9811770858 -519117.9736271097 -1532180.7131748532
          -548780.7491554242 -1568015.4451726207 -578443.5246837385 493578.4205614145 469900.79981492145 446223.1790684285
          -17226.328122371415 -51166.13340376975 -85105.93868516808 -1458086.5421204015 -1534707.3002116282 -1611328.0583028554
          -734473.4494790798 -2132130.229835849 -547293.3608910459 -2066470.5276156447 -360113.2723030122 -2000810.8253954402
          -1415247.9417057026 -1407206.267196248 -1399164.5926867938 -2084918.1896807745 -2196736.911103555 -2308555.6325263362
        </DataArray>
        <DataArray type="Float64" Name="peeq" format="ascii" RangeMin="0.0014740425927383615" RangeMax="0.008366221304811027">
          0.004188649705449058 0.004055706848479306 0.0035734494671889553 0.003796592962030782 0.004187878189058465 0.004054860248743615
          0.0035730801872165758 0.0037964373447803733 0.004187106672667873 0.004054013649007925 0.0035727109072441966 0.0037962817275299645
          0.00563558966182195 0.005434539760471972 0.0055230489086424955 0.00575479441246196 0.005634443559995283 0.005434449669000049
          0.0055233052765208904 0.005754453973500714 0.0056332974581686165 0.005434359577528126 0.005523561644399285 0.0057541135345394664
          0.0024243757598714282 0.0028622771948981045 0.0024245703651095576 0.0028629414062918738 0.0024247649703476874 0.0028636056176856426
          0.006953222082953096 0.0070680230667861665 0.006473194759235015 0.006511283482639886 0.006953363708318377 0.0070672454152137
          0.006471445141778836 0.006508787029532779 0.006953505333683658 0.0070664677636412335 0.006469695524322659 0.0065062905764256725
          0.005676445250256486 0.005938647880275479 0.0056778771479465305 0.005939325330481597 0.005679309045636575 0.005940002780687712
          0.005003073285610359 0.004764284645271011 0.004838486324709836 0.005128046700482997 0.0050016378441117325 0.004766025980827033
          0.004835501785391241 0.005120058264903172 0.005000202402613104 0.004767767316383057 0.0048325172460726455 0.005112069829323346
          0.006893714886169166 0.007399289908186648 0.007042126797323608 0.006607026381885222 0.006891677984664407 0.007393895237621476
          0.007038603591721914 0.006606124148121138 0.00688964108315965 0.007388500567056303 0.00703508038612022 0.006605221914357055
          0.004013405631942277 0.004318906190667073 0.004013930314771929 0.0043186069614647 0.00401445499760158 0.0043183077322623276
          0.005067931244350923 0.0048004537924517315 0.005917332798397134 0.006002656198921064 0.005062709138618904 0.004796012592758469
          0.005912971426421805 0.005999143068453606 0.005057487032886885 0.004791571393065207 0.005908610054446477 0.0059956299379861485
          0.004680704125195931 0.004779054937794951 0.005149182986715146 0.004679176681402077 0.00477755290525208 0.005148360376681819
          0.004677649237608225 0.004776050872709209 0.005147537766648493 0.008070168422747081 0.008324237539627412 0.008189539384546446
          0.007969349060578487 0.008062189748397845 0.008317865793998343 0.008182273137991029 0.00796098295565224 0.00805421107404861
          0.008311494048369275 0.00817500689143561 0.00795261685072599 0.005809078173699076 0.006082885900115267 0.005692855198376079
          0.005595488347419027 0.005807766976318038 0.006082695348726777 0.005693527547557587 0.005595162693943749 0.005806455778937002
          0.006082504797338288 0.005694199896739095 0.00559483704046847 0.006729267880086665 0.006729733539814229 0.006730199199541793
          0.005061255752987555 0.004861479910327546 0.004658483112029403 0.005061239457985515 0.004861880846796354 0.0046601855195054715
          0.005061223162983475 0.0048622817832651615 0.00466188792698154 0.0059606438376236665 0.006385996834653668 0.005958241351483378
          0.006385266392835784 0.00595583886534309 0.0063845359510179 0.007415024503245071 0.007103490315431073 0.00742669375493499
          0.007798610916516817 0.007415861140953608 0.007105311542950915 0.007427667662990271 0.007798015316679575 0.007416697778662148
          0.007107132770470757 0.007428641571045553 0.007797419716842334 0.0036214271554351517 0.0040776179653332755 0.0031461930707880024
          0.0024187178856957016 0.0036173812892238855 0.004071721595207274 0.00314244905176979 0.0024211343906680185 0.0036133354230126194
          0.0040658252250812725 0.0031387050327515782 0.0024235508956403353 0.006420187441221434 0.00617476668755056 0.006147174160900301
          0.006422304548269876 0.006175644289763032 0.0061496091017178645 0.006424421655318318 0.0061765218919755055 0.006152044042535429
          0.001818410765966438 0.003380581595790106 0.0018258867348399266 0.0033774939028704105 0.0018333627037134155 0.003374406209950714
          0.0056308204412240425 0.0057241205986473635 0.0062788882574718995 0.006452146715992968 0.005627882574056689 0.0057229314266093265
          0.006276166190435361 0.006446299338775038 0.005624944706889336 0.0057217422545712895 0.006273444123398821 0.0064404519615571115
          0.006750208522620291 0.006444654942247201 0.006752459780064696 0.006445595297960556 0.006754711037509098 0.006446535653673908
          0.004657070719556426 0.00492437129699926 0.004651933218694547 0.004918152989111284 0.004646795717832667 0.0049119346812233075
          0.0066062563706042795 0.005954762567641968 0.006601792515177743 0.0059535917932656305 0.006597328659751208 0.005952421018889292
          0.004413848210981149 0.00417055820539117 0.0041479897328174035 0.004492137538212866 0.004414673657096572 0.004171864997268618
          0.004149916428862281 0.0044941128015358375 0.004415499103211994 0.004173171789146065 0.004151843124907159 0.004496088064858809
          0.004495732169643702 0.004254386051094528 0.004496406197461466 0.0042536010245692295 0.00449708022527923 0.004252815998043932
          0.004326086697771049 0.0043211516533507984 0.004316216608930548 0.00524453159648463 0.005104003308274872 0.005246330768906064
          0.005105102437991949 0.005248129941327499 0.005106201567709027 0.0052237279656142666 0.005164585903247022 0.005155964718162601
          0.005222067042000628 0.005163161335368276 0.005150709816810355 0.005220406118386992 0.0051617367674895295 0.00514545491545811
          0.004652040124118473 0.004851925641722146 0.003956337907185816 0.0046478283052282824 0.004849397798218241 0.00395139730524679
          0.004643616486338091 0.0048468699547143355 0.003946456703307765 0.004406133125420423 0.0044098281572339994 0.004413523189047576
          0.004663299378326819 0.004659147367811788 0.004654995357296757 0.005868367716218946 0.005952287339123106 0.005865112043546835
          0.0059483048808832515 0.005861856370874722 0.005944322422643396 0.005037020256476413 0.005035160919198875 0.005033301581921337
          0.004127621488790634 0.004461203228622369 0.004840884641266938 0.00413034748189754 0.004464600446053896 0.004840419215472847
          0.004133073475004445 0.004467997663485423 0.004839953789678756 0.007003368821727643 0.00718709227661102 0.006995593922614562
          0.007179697662238279 0.006987819023501478 0.0071723030478655385 0.002389071970097398 0.00207961022104218 0.0021181917068604744
          0.0025618207341191667 0.00238902740561602 0.0020804301264952365 0.002119652980766132 0.0025620541122740544 0.002388982841134642
          0.0020812500319482927 0.0021211142546717896 0.002562287490428942 0.0037736543672725327 0.003203838844397639 0.003373772088328491
          0.0039227622553473646 0.0037734123013023688 0.0032041413801047274 0.00337356422289802 0.003921973900237452 0.0037731702353322053
          0.0032044439158118152 0.0033733563574675487 0.003921185545127539 0.005649211401170766 0.005335520691723232 0.005685146146088167
          0.005647366241154883 0.005334174404628347 0.005682626236050237 0.005645521081139001 0.005332828117533462 0.005680106326012309
          0.005059371637248614 0.0050599081641524175 0.00506044469105622 0.005111818374429749 0.005103177643450462 0.005094536912471174
          0.0017921153833162938 0.0016774794858956323 0.0017947106301009212 0.001680690306727322 0.0017973058768855482 0.0016839011275590113
          0.0026712000787463288 0.0030560694258884155 0.002671905646141678 0.0030568265424650845 0.002672611213537028 0.003057583659041754
          0.004809917892816078 0.004812106811383741 0.004814295729951403 0.0045933879613922115 0.004891230019968781 0.004837314759277888
          0.00440416081338553 0.004594183306939217 0.004891530921253058 0.004836632804540224 0.004403958966908654 0.004594978652486222
          0.004891831822537334 0.004835950849802559 0.004403757120431778 0.0052459608376383415 0.00524498838808778 0.005244015938537218
          0.004595476296196964 0.004596299733296082 0.004597123170395199 0.004999621025211395 0.004486734855080729 0.004999452222899211
          0.004486366250199313 0.004999283420587029 0.004485997645317897 0.0038343701962336766 0.003838821337613052 0.0038432724789924273
          0.004230315643357331 0.004645483468259591 0.004231513923295095 0.004647535604902079 0.004232712203232859 0.004649587741544568
          0.003838611628521879 0.0038387995099347753 0.003838987391347673 0.004755833157156252 0.0048540162036786695 0.004756616746352148
          0.004855672170192937 0.0047574003355480435 0.004857328136707206 0.004674535635758173 0.0046749585330370935 0.004675381430316015
          0.004311194466162384 0.004310240019401912 0.004309285572641441 0.005024801428748886 0.005027396983329491 0.0050299925379100946
          0.0034431403237752158 0.0038890463764148305 0.0034434476062824835 0.0038893752428247035 0.0034437548887897513 0.003889704109234576
          0.005378846897421092 0.00538053530285066 0.005382223708280227 0.005833604405740763 0.005747989686556921 0.005830997242921166
          0.005746194377578381 0.005828390080101568 0.005744399068599842 0.0074957231136301644 0.007760046986152154 0.007464042040892754
          0.0074900501245288836 0.007752325715306075 0.007458960428844482 0.007484377135427602 0.007744604444459996 0.007453878816796211
          0.008281373085584777 0.008042412071140039 0.008012912617173604 0.008277340046742795 0.008040654672138436 0.008009952090450651
          0.008273307007900816 0.008038897273136832 0.0080069915637277 0.003447844757922953 0.004179514013901051 0.003450855782096791
          0.004183377410546328 0.0034538668062706296 0.004187240807191605 0.005768394710293655 0.005704501745936176 0.0056469611754083725
          0.005766701912346494 0.005701754056249166 0.005645180532411727 0.0057650091143993335 0.005699006366562156 0.005643399889415082
          0.006125089274046999 0.0059316980929987025 0.006123273017876416 0.00593101722474863 0.006121456761705833 0.005930336356498557
          0.00334297532973338 0.003343344393654331 0.0033437134575752814 0.008117564684141033 0.008362802596857028 0.008115487100834734
          0.008359244730315716 0.008113409517528439 0.008355686863774402 0.008366221304811027 0.008107307651434224 0.008360346672167987
          0.008099658661214837 0.008354472039524947 0.008092009670995451 0.0073976761431405295 0.007643245230948947 0.007389180888372937
          0.007634431697927908 0.007380685633605345 0.007625618164906869 0.006722676101479316 0.006719411842903991 0.006716147584328667
          0.00767980949697606 0.007616503600678273 0.007678806533633618 0.007616132565791396 0.007677803570291176 0.00761576153090452
          0.007089628776523166 0.0070880062701393146 0.007086383763755463 0.005100205788460153 0.005100895955764098 0.0051015861230680444
          0.006411756735716555 0.006410035355936462 0.006408313976156368 0.005016130127486873 0.005017799948999487 0.0050194697705121
          0.005051202439346336 0.005052295178925635 0.005053387918504934 0.0058573218758767335 0.005709111021171286 0.005858604640608739
          0.005711467235951159 0.005859887405340744 0.005713823450731032 0.005372134191895816 0.005209968358845244 0.0053744538182034785
          0.005211165424729398 0.005376773444511142 0.005212362490613552 0.003880966450804807 0.0038821560345748884 0.0038833456183449697
          0.003618165280655803 0.0036185528050936386 0.003618940329531474 0.00511544707734771 0.005116169328101794 0.00511689157885588
          0.005319391466215615 0.005319888695890583 0.005320385925565552 0.0031141888135050207 0.0031206141588016097 0.0031270395040981997
          0.002740208584725429 0.0027428954723029858 0.002745582359880542 0.006695405526485121 0.006128805944403787 0.0066951120508126185
          0.006131070915703459 0.006694818575140118 0.006133335887003132 0.007245755607858932 0.007242876916301558 0.007239998224744183
          0.00792424154485637 0.007623799178654179 0.00791569110212059 0.007615007016555619 0.007907140659384814 0.007606214854457058
          0.0041823749614858 0.00454623333710809 0.004021022502928932 0.0041813743322702355 0.004545281078509925 0.004020621946409654
          0.00418037370305467 0.004544328819911761 0.004020221389890376 0.0038503107192461804 0.003850798074894758 0.003851285430543335
          0.007723285890702648 0.007718389997489392 0.007713494104276139 0.005393908224508612 0.005398052187976102 0.005394015956477117
          0.005397884901974524 0.005394123688445621 0.005397717615972945 0.0076410075452003475 0.007185389064260654 0.00763990079586717
          0.007186296881946452 0.007638794046533991 0.00718720469963225 0.006705935891892741 0.006708691890670878 0.006711447889449015
          0.007010077350237774 0.00661193162156551 0.0070124065102412005 0.006615261993836358 0.007014735670244627 0.006618592366107206
          0.0020798542844245017 0.002399174065159459 0.0022643581558663564 0.0019150099312427796 0.0020856591191212182 0.002407040301814377
          0.002269958652853218 0.0019211131707879664 0.002091463953817935 0.002414906538469295 0.0022755591498400795 0.0019272164103331533
          0.0028466413055370284 0.0028475464441823414 0.002848451582827655 0.003455402795743436 0.0034613550853109186 0.0034673073748784002
          0.005444031141522526 0.0054516788610896915 0.0054420106522979714 0.00545020438905715 0.005439990163073418 0.005448729917024609
          0.005663216478416531 0.005666389335348037 0.005669562192279541 0.005870699445584814 0.005789899237441376 0.005868447668159639
          0.005785732095363658 0.005866195890734465 0.005781564953285939 0.004418008315784419 0.003580818373965824 0.004412028398675632
          0.0035757628933572438 0.004406048481566844 0.003570707412748663 0.004370624748738741 0.0043710867503612034 0.004371548751983666
          0.006258719384970938 0.006330672844860088 0.0062627176214401165 0.006334550684912791 0.006266715857909296 0.006338428524965494
          0.003273666909505476 0.0034658837837978325 0.0031230664673489927 0.0028199269508115284 0.003274650271780312 0.003466880605466509
          0.00312402194135756 0.0028211356543262995 0.0032756336340551474 0.0034678774271351843 0.003124977415366127 0.002822344357841071
          0.005425471856486282 0.005422506807140774 0.005419541757795266 0.00235323095073989 0.0019517335304097521 0.0023554253045137705
          0.0019560903910846032 0.0023576196582876514 0.001960447251759455 0.00606554620246075 0.0068138733027180275 0.006062446712308224
          0.006811258982931446 0.006059347222155697 0.0068086446631448645 0.006851496208197113 0.006847245577868873 0.0068429949475406334
          0.005499057181899373 0.005497061102046684 0.0054950650221939935 0.0053857431854910515 0.0053813924300383795 0.005377041674585708
          0.0027330250897021017 0.002736845292381118 0.0027406654950601333 0.001789445823828846 0.0017930752257975628 0.0017967046277662792
          0.00527644569898854 0.006057557204664412 0.005271057223186919 0.006054572298372709 0.005265668747385297 0.006051587392081007
          0.002198755048874637 0.0022004789819163135 0.0022022029149579903 0.0027082863657920363 0.0027141504131686874 0.0027200144605453395
          0.0056902897746001265 0.005686826710523617 0.005683363646447108 0.008058455328601468 0.008052604556154717 0.008046753783707969
          0.0016877816565487405 0.0016920083986176747 0.001696235140686609 0.005909009003890357 0.005912296910734144 0.005915584817577933
          0.0076134389672445355 0.007572033526397773 0.006872104964770233 0.007606927287162356 0.007565727350996667 0.006867013575016633
          0.007600415607080175 0.007559421175595561 0.006861922185263032 0.0028582125240465 0.0028662686675461966 0.0028743248110458934
          0.005834000473868579 0.005707365548493389 0.0058291395910173025 0.0057029727373815895 0.005824278708166025 0.005698579926269788
          0.0032726396940904673 0.0032752652541762108 0.0032778908142619538 0.0038132879008456588 0.0038146247602323657 0.0038159616196190736
          0.005872124676852801 0.005867271764167027 0.005862418851481252 0.001839869022627208 0.0018437368109898182 0.001847604599352428
          0.002938089107542704 0.003467635877716738 0.002938938575396027 0.0034682815351781953 0.00293978804324935 0.0034689271926396526
          0.003762268964484447 0.0037632268028744446 0.003764184641264442 0.0014740425927383615 0.0014764774912466461 0.0014789123897549308
          0.006111054836348707 0.006109469673062723 0.0061078845097767365 0.005947554549332525 0.005944209913774543 0.005940865278216559
          0.008229942517670584 0.008224189122226151 0.00821843572678172 0.005414995464467726 0.005414208106853895 0.005413420749240065
          0.005652212020249552 0.005603369221946934 0.005648850028595879 0.005601408093227937 0.005645488036942203 0.005599446964508938
          0.0062557415188866814 0.006252806772312507 0.00624987202573833 0.0055685474938702954 0.005553397154031995 0.005568915396664431
          0.005552752639151887 0.005569283299458568 0.005552108124271779 0.005654273936858816 0.005652943215113651 0.005651612493368485
          0.005475640870633033 0.005475510239906549 0.005475379609180063 0.005774976209101788 0.005773461927667206 0.005771947646232624
          0.005122904965164083 0.0051941176686367985 0.005127489828395472 0.005198772518342347 0.00513207469162686 0.005203427368047896
          0.0055524609165687674 0.005554058517715372 0.005555656118861976 0.005773856936863431 0.005774132950218664 0.005774408963573896
        </DataArray>
        <DataArray type="Float64" Name="pe11" format="ascii" RangeMin="0.0014735736663333216" RangeMax="0.008365266355449126">
          0.004187951041014576 0.004055138308683915 0.0035727936167402464 0.0037955255207732454 0.004187159539485829 0.004054280625863034
          0.0035724073117276373 0.0037953323844646864 0.004186368037957082 0.004053422943042152 0.0035720210067150277 0.003795139248156128
          0.005634348496016569 0.005433062692085645 0.005520070947496836 0.005751839437999386 0.0056331640100950224 0.005432918066996301
          0.005520259936257929 0.005751443306690686 0.005631979524173476 0.005432773441906958 0.005520448925019021 0.0057510471753819846
          0.002424101341237774 0.0028619853375570947 0.002424287742293834 0.002862640909557899 0.002424474143349894 0.0028632964815587026
          0.006947610342555282 0.00706238933568409 0.006468411654020587 0.006506882620587935 0.006947615458082656 0.007061482647615487
          0.006466605782509981 0.006504224719873684 0.006947620573610031 0.007060575959546884 0.006464799910999375 0.006501566819159437
          0.005671226908121682 0.005933499091927003 0.005672594480985963 0.005934123587379063 0.005673962053850244 0.005934748082831125
          0.005000651251768513 0.004760636358778278 0.004835364677706069 0.005127049459143844 0.004999161618628759 0.00476236169613921
          0.004832323496201213 0.005118969320824894 0.004997671985489003 0.004764087033500142 0.004829282314696358 0.005110889182505942
          0.006891543285008484 0.007396308842067117 0.00703830126061236 0.006604820442473387 0.006889531159344453 0.007390909449850379
          0.007034820181570564 0.006603966859452666 0.006887519033680421 0.007385510057633642 0.0070313391025287695 0.006603113276431946
          0.0040115663318037184 0.004317712610706579 0.00401201944818697 0.004317373467293294 0.004012472564570219 0.004317034323880008
          0.0050639321944743985 0.004796248378656415 0.00591474303845939 0.006000461668455864 0.005058785021847445 0.0047918180484380025
          0.005910407640852192 0.005996984585766897 0.005053637849220492 0.004787387718219589 0.0059060722432449945 0.005993507503077931
          0.00468026203060943 0.004778575899325105 0.005148559501428658 0.004678743912647908 0.004777080151669223 0.0051477348566951395
          0.0046772257946863845 0.0047755844040133395 0.005146910211961623 0.00806945056851786 0.008322917801414396 0.00818731553169047
          0.007967748339855883 0.00806147994744235 0.008316496009352406 0.008180002272744206 0.007959369045843405 0.008053509326366838
          0.008310074217290415 0.008172689013797942 0.007950989751830926 0.00580737084559034 0.006079048748542298 0.005687938635978057
          0.005593243619427566 0.0058061049115686915 0.006078923216012815 0.005688700352057116 0.005592958309991413 0.005804838977547044
          0.006078797683483332 0.005689462068136174 0.00559267300055526 0.006723368114141247 0.006723741052535324 0.006724113990929401
          0.0050585896113979996 0.004857401263632568 0.004653619105860763 0.005058529976572231 0.004857790312700571 0.004655280337505136
          0.0050584703417464625 0.004858179361768572 0.004656941569149509 0.005959457675651744 0.0063834178204660195 0.005957080905666598
          0.00638273034800618 0.005954704135681453 0.00638204287554634 0.007408569408711535 0.0070962643899361195 0.007419081170078923
          0.007792171296068442 0.007409289056077951 0.00709800472628924 0.007419971523734158 0.007791469865412505 0.007410008703444366
          0.007099745062642361 0.007420861877389394 0.007790768434756569 0.003616316893087024 0.004072266211544862 0.00313944929181184
          0.0024133544577017722 0.0036122733219251793 0.0040664421732650455 0.0031355822138294546 0.002415621444914404 0.0036082297507633344
          0.004060618134985229 0.0031317151358470695 0.002417888432127036 0.006412581779584385 0.006169437883962619 0.006139637086902665
          0.00641465940270825 0.0061702743842742104 0.006142037028213963 0.006416737025832113 0.0061711108845858 0.006144436969525262
          0.0018152156407450222 0.0033763562385325033 0.00182253736232929 0.003373172348556358 0.001829859083913558 0.0033699884585802137
          0.005621118258160857 0.005716817968570186 0.00627259820461586 0.006442867531391983 0.005618119019490278 0.005715693260328419
          0.006269934219769726 0.006437006673230879 0.005615119780819699 0.005714568552086652 0.006267270234923592 0.006431145815069775
          0.006742626803861741 0.006439083776684285 0.0067448219199379746 0.006439976838937957 0.006747017036014208 0.00644086990119163
          0.0046545664003198916 0.004922818187952845 0.0046493144375865415 0.004916522790981115 0.0046440624748531915 0.004910227394009384
          0.006595665691449938 0.005944284275442359 0.006591097140941936 0.00594298797799222 0.006586528590433934 0.00594169168054208
          0.004411512342412211 0.004167913937884612 0.004143448123101202 0.004487581274960763 0.004412270461291059 0.004169124165058332
          0.004145235908696805 0.004489452766919604 0.004413028580169908 0.004170334392232052 0.00414702369429241 0.004491324258878444
          0.0044885699225356256 0.004246179500565458 0.0044893224149679745 0.0042453205356408775 0.004490074907400324 0.004244461570716297
          0.004322553329218531 0.004317474591800436 0.004312395854382341 0.005238929757444298 0.005096207320214816 0.00524085626720847
          0.005097413123151446 0.005242782776972642 0.005098618926088078 0.005222640564557445 0.0051627752396754805 0.005154895994332287
          0.005220950807652 0.0051613181335728045 0.005149552335443254 0.005219261050746556 0.00515986102747013 0.005144208676554221
          0.004649004918992207 0.004849900237346431 0.003951820079119846 0.004644727500727399 0.004847287589401598 0.003946730325538015
          0.004640450082462591 0.004844674941456766 0.003941640571956183 0.004400009826324803 0.004403730927135231 0.004407452027945661
          0.004659554410476885 0.004655341912909601 0.004651129415342315 0.005867785060771256 0.005951748109604428 0.0058645438341883415
          0.005947776580257174 0.005861302607605427 0.00594380505090992 0.005035811336868686 0.00503388726053583 0.005031963184202974
          0.004117811177789244 0.004452492847597633 0.004831420346056314 0.004120621715578023 0.0044560840796027 0.004830948447263691
          0.004123432253366801 0.004459675311607767 0.004830476548471067 0.006996210775517585 0.007178986797401692 0.006988458400866988
          0.007171535129368499 0.006980706026216391 0.007164083461335306 0.00238873946371978 0.002079313788695738 0.0021179106479103844
          0.0025614379163677657 0.002388685806468877 0.0020801305206354904 0.002119366930858125 0.0025616578362635204 0.0023886321492179743
          0.002080947252575243 0.002120823213805866 0.0025618777561592742 0.0037731755333380054 0.003203375662586174 0.0033732730239659408
          0.003922215888655815 0.003772932349187414 0.0032036718457551534 0.0033730571386209724 0.003921420512411554 0.003772689165036821
          0.003203968028924132 0.003372841253276004 0.003920625136167294 0.0056485166416325155 0.005334867111273297 0.005684620340053816
          0.005646670601373194 0.00533352183278484 0.005682101185841453 0.005644824561113872 0.005332176554296385 0.005679582031629091
          0.005055766064586279 0.005056358661024776 0.005056951257463273 0.005111073246378163 0.005102333396631942 0.00509359354688572
          0.0017917587394534074 0.001677216670824265 0.001794348112274613 0.0016804304626930628 0.0017969374850958192 0.0016836442545618614
          0.0026707916451090903 0.003055625474641796 0.0026714837601082434 0.0030563723067877475 0.002672175875107397 0.0030571191389336984
          0.0048038524881773535 0.004806198837512236 0.0048085451868471185 0.004592778340310935 0.004890552036564313 0.0048367130374863555
          0.004403600140937937 0.0045935625584576775 0.004890847478713503 0.004836029871922953 0.004403387989472539 0.0045943467766044205
          0.004891142920862694 0.004835346706359552 0.004403175838007142 0.0052453572966000015 0.005244383605730758 0.005243409914861516
          0.00459482383872482 0.004595635214002649 0.004596446589280477 0.004990416638308658 0.004477197072391998 0.00499011536260488
          0.004476702034219827 0.004989814086901104 0.0044762069960476575 0.003825281539866326 0.0038299060789380923 0.0038345306180098604
          0.004223014967485618 0.00463804902744399 0.004224039438827243 0.00463996411008964 0.004225063910168869 0.004641879192735291
          0.0038296916722936874 0.0038298338548148673 0.0038299760373360476 0.004753873125893646 0.004850155217268788 0.004754622553720149
          0.004851750725183096 0.004755371981546653 0.004853346233097403 0.0046734906222050555 0.004673895212795147 0.004674299803385239
          0.0043107410783560715 0.004309787899500405 0.004308834720644739 0.005018134245705283 0.005020640561597174 0.005023146877489064
          0.0034327918166732843 0.003879621856208544 0.0034329915711190885 0.0038799017798990167 0.003433191325564893 0.0038801817035894887
          0.005370274607519541 0.005371856411604984 0.005373438215690426 0.005831595505174576 0.005746368369551981 0.005828898274503494
          0.005744515732660887 0.005826201043832411 0.005742663095769793 0.007493983868794676 0.007757679789572484 0.007461669081812482
          0.007488321558487406 0.007749930705623076 0.007456585175003478 0.007482659248180136 0.007742181621673668 0.007451501268194473
          0.008278083362027046 0.00803734919801857 0.008007336271086147 0.008273952966414316 0.008035450395595433 0.008004290034923752
          0.008269822570801586 0.008033551593172296 0.008001243798761359 0.003437138384009373 0.0041715755833231245 0.003440270855618685
          0.004175521333336585 0.0034434033272279963 0.004179467083350045 0.005767388673637227 0.0057039242349635035 0.00564604676313168
          0.005765688621100809 0.005701170247370464 0.005644257818901171 0.005763988568564391 0.005698416259777424 0.005642468874670663
          0.006121848770348444 0.005928653760539659 0.006119960622062381 0.00592792190216294 0.006118072473776317 0.00592719004378622
          0.0033426244547906155 0.0033429801014980822 0.003343335748205549 0.008113190362145951 0.008360281952175162 0.008110946994249569
          0.008356603353904896 0.008108703626353186 0.008352924755634629 0.008365266355449126 0.008106822061764822 0.00835933996053809
          0.008099193955916763 0.008353413565627053 0.008091565850068705 0.0073925454562729104 0.007637235143675521 0.007384048123293785
          0.0076283834608680615 0.007375550790314659 0.007619531778060601 0.0067177115425477085 0.006714507831336199 0.006711304120124689
          0.007673813980440545 0.007610555039621695 0.007672644897573907 0.007610033231146893 0.0076714758147072674 0.007609511422672091
          0.0070834233666549565 0.0070816875762147215 0.007079951785774485 0.005099614168340782 0.0051002977436336965 0.005100981318926612
          0.0064057320949896 0.006404042516563336 0.006402352938137073 0.0050154789864385076 0.005017135065612263 0.005018791144786017
          0.00505028988868113 0.0050513625253199145 0.005052435161958698 0.005852338393085943 0.005702760234084149 0.0058536562971138045
          0.005705301813943515 0.005854974201141667 0.00570784339380288 0.005366504247180051 0.005206808558718442 0.00536875490851253
          0.005207950247274147 0.005371005569845009 0.005209091935829851 0.003872273510571351 0.0038733766345373146 0.0038744797585032777
          0.0036177248482114474 0.003618110024325812 0.003618495200440177 0.005113869838042856 0.005114555282647112 0.0051152407272513686
          0.005316538303830409 0.005317089666821556 0.005317641029812703 0.003105151478042907 0.0031116703792509704 0.0031181892804590335
          0.0027310935779190646 0.0027337420228142227 0.0027363904677093816 0.006685213060010001 0.006118885613760205 0.006684820151755302
          0.00612104158752116 0.006684427243500603 0.006123197561282113 0.007237042494951032 0.007234091825035597 0.007231141155120161
          0.007920571743487589 0.007620192185890491 0.007911980402424076 0.007611363340192468 0.007903389061360563 0.007602534494494446
          0.004181915242095723 0.0045458331403684625 0.004020585853988739 0.004180920442634797 0.00454488915069726 0.004020185246362676
          0.00417992564317387 0.0045439451610260586 0.004019784638736612 0.003849937300130561 0.003850416199459957 0.003850895098789353
          0.007716393645524351 0.007711441045388322 0.007706488445252294 0.005393136375929464 0.0053974621841329775 0.005393208877840972
          0.00539726834125571 0.005393281379752481 0.005397074498378442 0.007633555948344967 0.007176313748778269 0.0076323747400327225
          0.007177173525606815 0.007631193531720481 0.0071780333024353635 0.006695784074438351 0.006698508386024666 0.006701232697610979
          0.00700145132657912 0.006602618466105427 0.007003726334827187 0.006605928028016986 0.007006001343075253 0.006609237589928545
          0.002076072387553075 0.002394378884098405 0.0022612716512848195 0.0019132646471734993 0.0020818603108155717 0.0024023763255653042
          0.0022669616911724887 0.0019193967570923767 0.0020876482340780687 0.002410373767032203 0.0022726517310601574 0.0019255288670112542
          0.0028460244489180416 0.002846914235642189 0.0028478040223663356 0.0034459796445452683 0.0034521035740365533 0.0034582275035278387
          0.0054433155856661915 0.005450777246667637 0.005441304548095808 0.005449314090152003 0.005439293510525425 0.005447850933636371
          0.005655124555246273 0.005658210817494705 0.005661297079743136 0.0058700394144852956 0.005789388727909665 0.005867784727914447
          0.00578522211094164 0.005865530041343598 0.005781055493973614 0.004413879113442474 0.0035756733449337583 0.004407897556702491
          0.003570473684848971 0.00440191599996251 0.003565274024764184 0.00437027223297346 0.0043707349611486635 0.004371197689323867
          0.006249135862886748 0.006321446971864116 0.00625309064588591 0.00632531194448175 0.006257045428885073 0.006329176917099382
          0.00326922721870645 0.0034636745236969555 0.003121885902992153 0.0028174466973060175 0.0032701268272565948 0.0034646136643438105
          0.0031228155687396055 0.0028186277421319416 0.0032710264358067386 0.0034655528049906664 0.003123745234487057 0.0028198087869578657
          0.005424508070685026 0.005421534741319136 0.005418561411953244 0.0023520967679392614 0.0019509775756742648 0.0023542863268240033
          0.001955341613190581 0.0023564758857087444 0.0019597056507068976 0.006063854954010981 0.006812249109448781 0.0060607915731648995
          0.006809649373951521 0.006057728192318817 0.006807049638454261 0.0068501629525752105 0.006845951721093339 0.006841740489611468
          0.005498499807101464 0.005496485272537182 0.0054944707379728985 0.0053840801219643426 0.005379733518711355 0.005375386915458368
          0.002728239242273609 0.0027321312993591213 0.002736023356444634 0.00178636439481307 0.0017899634551334642 0.0017935625154538583
          0.005273729599109614 0.0060562260854938165 0.005268383699703966 0.006053270518342933 0.005263037800298319 0.00605031495119205
          0.00219845437496513 0.0022001678056984605 0.0022018812364317914 0.0027002616105099467 0.002706132588073213 0.0027120035656364792
          0.005689778052886429 0.005686310361785597 0.005682842670684765 0.008053708758441578 0.008047805100910747 0.008041901443379915
          0.0016870584211792434 0.0016912933148945008 0.0016955282086097581 0.005901387580538393 0.005904618001642427 0.005907848422746461
          0.007612678362027716 0.007571170284689419 0.006870770408638432 0.0076062240639171285 0.007564901294024201 0.006865735050077675
          0.0075997697658065425 0.007558632303358983 0.00686069969151692 0.00285087361836978 0.0028591512780860935 0.0028674289378024073
          0.005833526727880943 0.0057068720501125105 0.0058286623655359245 0.005702457774724407 0.005823798003190906 0.005698043499336305
          0.003265575088729886 0.0032681789923144195 0.0032707828958989525 0.003809686805164959 0.0038109095025503324 0.003812132199935706
          0.0058695813864169735 0.00586473784729712 0.005859894308177264 0.0018395755431064214 0.0018434511191006183 0.0018473266950948157
          0.002937734565034829 0.003467232109845994 0.0029385726001552653 0.003467868588042374 0.002939410635275702 0.003468505066238754
          0.0037559178161416904 0.0037567264886285007 0.0037575351611153114 0.0014735736663333216 0.0014760204052170199 0.0014784671441007181
          0.006107024525234664 0.006105294090540306 0.006103563655845949 0.005946998757152757 0.005943659807782295 0.005940320858411831
          0.008226887682888767 0.008221072335941713 0.008215256988994661 0.00541431257019884 0.005413508003805492 0.005412703437412147
          0.00565171323235763 0.00560280060625018 0.005648331671456915 0.005600814858353148 0.005644950110556198 0.005598829110456114
          0.006251726159927573 0.006248687604118967 0.00624564904831036 0.005566374966349991 0.005551716811532782 0.00556671284694088
          0.005551059045680813 0.00556705072753177 0.005550401279828846 0.005652623339950704 0.00565129711188002 0.005649970883809335
          0.00547333856014824 0.005473223580604774 0.005473108601061308 0.0057722168850179445 0.005770670153953833 0.00576912342288972
          0.005117727190035695 0.005190261592709943 0.005122492273845558 0.0051950009568817 0.0051272573576554206 0.005199740321053458
          0.005549608781921192 0.005551208646948078 0.005552808511974963 0.0057702119873477755 0.005770433492851856 0.005770654998355936
        </DataArray>
        <DataArray type="Float64" Name="pe22" format="ascii" RangeMin="-0.0043396893671565125" RangeMax="-0.0007536866712423026">
          -0.0020823113571107194 -0.0020132153306928356 -0.00177816946924399 -0.0018958211432678876 -0.0020817362888472897 -0.0020127119840793266
          -0.001777375851490235 -0.0018951538588342014 -0.00208116122058386 -0.0020122086374658173 -0.0017765822337364803 -0.0018944865744005151
          -0.0028855997598510584 -0.0027802289415840616 -0.0028539283459434986 -0.0029855150952468384 -0.002885446113116872 -0.0027805026208011724
          -0.00285400227719372 -0.002985288427575383 -0.0028852924663826853 -0.002780776300018283 -0.0028540762084439415 -0.0029850617599039273
          -0.0012018508963960624 -0.001416509831852172 -0.0012015171069029978 -0.0014162141138936903 -0.0012011833174099334 -0.001415918395935209
          -0.003689783751733968 -0.0037626732324389624 -0.003430423957941813 -0.003439484775309136 -0.003692070533401378 -0.003764443401014918
          -0.0034305103961655963 -0.003441304975702379 -0.0036943573150687893 -0.003766213569590874 -0.0034305968343893794 -0.0034431251760956225
          -0.002964057438561156 -0.0031177804471305953 -0.0029641530988824 -0.0031175314650987423 -0.002964248759203643 -0.0031172824830668893
          -0.002605863814536637 -0.0025114312992513817 -0.0025268181549887355 -0.002619286663488176 -0.002607645973281136 -0.00251360038772444
          -0.0025286664109905816 -0.0026201693949110907 -0.002609428132025636 -0.0025157694761974996 -0.002530514666992427 -0.0026210521263340058
          -0.0034216425516601584 -0.003709252906769757 -0.0035363833821326213 -0.0033039034687445453 -0.0034227514455062004 -0.0037105318006632674
          -0.003537990754482748 -0.003305254338194884 -0.0034238603393522424 -0.003711810694556778 -0.003539598126832875 -0.003306605207645223
          -0.002009857742341116 -0.002158136230297104 -0.002009356264364766 -0.0021574844282867133 -0.002008854786388416 -0.0021568326262763225
          -0.0023933473467738 -0.0022607725431581685 -0.002839082572106412 -0.002892808971160738 -0.0023932268281797215 -0.002259076823971473
          -0.002838720857526951 -0.002892953434032975 -0.0023931063095856426 -0.0022573811047847774 -0.002838359142947489 -0.002893097896905212
          -0.0023201336525130603 -0.0023693519403218135 -0.0025417042446074884 -0.0023206970001190125 -0.0023695134994743587 -0.0025415772872421326
          -0.0023212603477249646 -0.002369675058626904 -0.002541450329876776 -0.004012222532326457 -0.004217876535129462 -0.004144726202941873
          -0.0039826514177267 -0.004013664748805665 -0.004219778024462131 -0.00414646728892122 -0.003983896559127347 -0.004015106965284872
          -0.0042216795137948 -0.004148208374900569 -0.003985141700527993 -0.002939561603555388 -0.0031073696195410756 -0.0029475222689872163
          -0.002871495004664125 -0.0029406231795190774 -0.003109313476848737 -0.002949049621125056 -0.002872838312305688 -0.002941684755482766
          -0.003111257334156398 -0.002950576973262895 -0.0028741816199472528 -0.003569586152933431 -0.0035708718972403426 -0.0035721576415472553
          -0.00264949551736841 -0.0025687345221436612 -0.0024749925231705005 -0.002651697948708334 -0.0025699186520929313 -0.00247707934577122
          -0.002653900380048258 -0.0025711027820422014 -0.00247916616837194 -0.002976375741207711 -0.003228177047775678 -0.0029770683061465155
          -0.0032298934867286285 -0.0029777608710853196 -0.0032316099256815786 -0.003936022551022927 -0.003769720889333877 -0.003919842330562462
          -0.004109998843572312 -0.003938527775732427 -0.003771463284041856 -0.003922013560039959 -0.004112635790898812 -0.003941033000441927
          -0.0037732056787498345 -0.003924184789517456 -0.004115272738225311 -0.0016885696748203186 -0.0018995668656461456 -0.0014561024998476285
          -0.001130884421187687 -0.001686061957851046 -0.0018985747083439348 -0.0014538253661142185 -0.0011296291328005707 -0.001683554240881774
          -0.001897582551041724 -0.0014515482323808088 -0.0011283738444134547 -0.003410602247681097 -0.0032544463917793393 -0.0032601651585215975
          -0.0034103295895495113 -0.0032541834529665093 -0.0032598223522689604 -0.003410056931417926 -0.0032539205141536784 -0.003259479546016323
          -0.0008684585550847056 -0.0015897608766671104 -0.0008685443849238518 -0.0015856969436960648 -0.0008686302147629981 -0.001581633010725019
          -0.0029011203546604704 -0.0029641572525773807 -0.003204079696868913 -0.0032892773031898974 -0.0029004601016506823 -0.0029647255986832892
          -0.0032056153192780937 -0.003289868134510326 -0.0028997998486408934 -0.0029652939447891973 -0.0032071509416872744 -0.003290458965830755
          -0.0035835854985432768 -0.003409304125943658 -0.0035843474888767202 -0.003409595392797222 -0.0035851094792101633 -0.003409886659650786
          -0.002286522453574937 -0.0024495493136876675 -0.0022867393445193816 -0.0024508468697268305 -0.002286956235463826 -0.0024521444257659944
          -0.0033952381069940743 -0.00308474787789366 -0.0033958446668010613 -0.0030841971236131712 -0.003396451226608048 -0.0030836463693326814
          -0.002218937464554472 -0.00209212157094363 -0.0020908235392281048 -0.0022746675986547067 -0.002218089669434945 -0.002091604370219758
          -0.002090181190417344 -0.00227376999769128 -0.002217241874315418 -0.0020910871694958867 -0.0020895388416065836 -0.0022728723967278533
          -0.0023898857735875894 -0.002260935671581845 -0.0023902941256518343 -0.002262558760718649 -0.0023907024777160783 -0.002264181849855453
          -0.0020939465578392715 -0.00209335998629762 -0.0020927734147559683 -0.0027477261756573184 -0.002677590203013526 -0.002748466172621508
          -0.002677578383134419 -0.002749206169585698 -0.0026775665632553115 -0.0026506144920803534 -0.002669027449812966 -0.0026292607175454324
          -0.0026521551902586355 -0.0026712676495378963 -0.0026311364807675985 -0.0026536958884369175 -0.002673507849262827 -0.0026330122439897647
          -0.0022300043841706413 -0.0023632548348457645 -0.0018857326765948435 -0.002229270974155037 -0.0023632627466663716 -0.001884319586318125
          -0.0022285375641394323 -0.0023632706584869783 -0.0018829064960414065 -0.002351291972962922 -0.002354207488529758 -0.002357123004096594
          -0.0022071217151786947 -0.002204028012555684 -0.0022009343099326736 -0.00291563468987852 -0.0029599578183770268 -0.0029168114716396102
          -0.002961038545247696 -0.0029179882534007004 -0.0029621192721183648 -0.002495206684803177 -0.0024958455060320774 -0.002496484327260978
          -0.0021465503864964174 -0.002353625143887446 -0.00250682967535943 -0.0021468838987559525 -0.0023539881752923622 -0.0025065578073458833
          -0.0021472174110154867 -0.0023543512066972784 -0.0025062859393323368 -0.0035361768019026205 -0.00365898306616978 -0.0035377566232164394
          -0.0036607449452672244 -0.003539336444530259 -0.0036625068243646692 -0.0011823380630266867 -0.0010333312325986942 -0.0010540139376799197
          -0.0012637211148238262 -0.0011817199643191427 -0.0010327740475972453 -0.0010533610108698053 -0.0012628773779411304 -0.001181101865611599
          -0.0010322168625957965 -0.0010527080840596907 -0.0012620336410584343 -0.001873711628558666 -0.0015833372059666638 -0.0016729787239655673
          -0.0019497026437673287 -0.0018738321424217742 -0.0015827847462166463 -0.0016722297390553403 -0.001949460343695742 -0.0018739526562848831
          -0.0015822322864666285 -0.001671480754145113 -0.0019492180436241552 -0.002800983210895111 -0.002645032108036765 -0.0028311295741419635
          -0.0028013992393427683 -0.0026455196547854696 -0.00283228164963412 -0.0028018152677904253 -0.0026460072015341745 -0.002833433725126276
          -0.002647626770072414 -0.0026487659546001077 -0.0026499051391278023 -0.0025789399505880273 -0.002580025994142474 -0.002581112037696921
          -0.0008931937565743105 -0.0008455891427598661 -0.000893172154787532 -0.0008455048033754263 -0.0008931505530007535 -0.0008454204639909864
          -0.0013195993351788721 -0.0015088811692030083 -0.0013185356883342189 -0.001508447143946157 -0.0013174720414895658 -0.001508013118689306
          -0.002542606120882125 -0.0025427631297304477 -0.0025429201385787706 -0.0022845761991637367 -0.002424671062065836 -0.002393648790084058
          -0.002190087493887401 -0.0022846005632010153 -0.002424902534263983 -0.002393789164942806 -0.002190317988792002 -0.002284624927238293
          -0.002425134006462129 -0.0023939295398015532 -0.0021905484836966024 -0.002613381127432015 -0.0026138284103446657 -0.0026142756932573162
          -0.002294246943462957 -0.0022939545019114997 -0.0022936620603600417 -0.002554796273028158 -0.002286464651308441 -0.002554164825234571
          -0.002286064425637931 -0.002553533377440983 -0.0022856641999674217 -0.0020298864460145333 -0.0020307686999730032 -0.0020316509539314723
          -0.002141215400936229 -0.0023613072379047046 -0.0021405841399388626 -0.0023608777380164795 -0.0021399528789414965 -0.002360448238128254
          -0.0020223907319853953 -0.0020236120634118085 -0.0020248333948382218 -0.002407494070523226 -0.0024767708496210472 -0.0024067067166193535
          -0.0024759787470833078 -0.0024059193627154808 -0.0024751866445455683 -0.0023494478440624564 -0.0023488364541859948 -0.002348225064309534
          -0.0021448608752653005 -0.002145422909552775 -0.002145984943840249 -0.0025782687437348266 -0.002577960877853373 -0.00257765301197192
          -0.0018340643511318075 -0.0020725718085743807 -0.0018342972896972177 -0.0020743914032396505 -0.001834530228262628 -0.002076210997904921
          -0.002778081336779024 -0.0027775927617612094 -0.0027771041867433945 -0.003030030058242877 -0.0029658637680263856 -0.0030303966194925127
          -0.0029658770924857174 -0.0030307631807421492 -0.0029658904169450493 -0.0037097687122456084 -0.003893886945344558 -0.0037217377199819913
          -0.0037109366091146964 -0.003895075972169856 -0.0037229045788819315 -0.003712104505983785 -0.003896264998995155 -0.003724071437781872
          -0.004279474162338899 -0.0042341222128410025 -0.004165655905244255 -0.004282096771419025 -0.004237253576199864 -0.0041683150321301455
          -0.004284719380499151 -0.004240384939558724 -0.0041709741590160365 -0.0018652139001227427 -0.0022464882405361345 -0.0018658452020310417
          -0.002249095270237962 -0.0018664765039393407 -0.0022517022999397904 -0.0029096881108152408 -0.002873460459962984 -0.002875411965156007
          -0.002910295024175254 -0.0028735003193560717 -0.0028754048130543762 -0.002910901937535267 -0.00287354017874916 -0.002875397660952746
          -0.003204905201943685 -0.0030864077731047753 -0.003204978737308152 -0.0030862543423507585 -0.003205052272672618 -0.0030861009115967417
          -0.001654118423844315 -0.0016535633676094885 -0.001653008311374662 -0.0042736411259531966 -0.004333840645673635 -0.00427702995451245
          -0.004336765006415074 -0.004280418783071702 -0.0043396893671565125 -0.004240397796513043 -0.00401908223793037 -0.004242633230762495
          -0.004020877902396766 -0.004244868665011947 -0.004022673566863163 -0.0037178186783839236 -0.0038754889158923774 -0.0037196285896241945
          -0.003877605209179371 -0.003721438500864466 -0.003879721502466366 -0.003402427760421117 -0.003404248602832488 -0.0034060694452438586
          -0.004091566323382636 -0.0040508220183979775 -0.004094484467755591 -0.004053731725640847 -0.004097402612128546 -0.004056641432883718
          -0.003787457685282228 -0.0037882906053373104 -0.003789123525392392 -0.00255354854548307 -0.002553628651620257 -0.0025537087577574436
          -0.003425153683127379 -0.003422917768271019 -0.0034206818534146585 -0.0025237533111307645 -0.0025236446631888942 -0.0025235360152470235
          -0.002557267695255004 -0.002557175107195702 -0.0025570825191364 -0.003109862656408003 -0.003062514169772431 -0.00311011302441991
          -0.0030599571220992685 -0.003110363392431816 -0.0030574000744261055 -0.0027844070407283096 -0.0026772596201167756 -0.0027844118987831656
          -0.002677165461142734 -0.00278441675683802 -0.0026770713021686916 -0.001986258620409477 -0.0019856148194066473 -0.0019849710184038174
          -0.0017932881333243271 -0.0017933041919843318 -0.0017933202506443362 -0.002606041646390881 -0.002606020225282877 -0.002605998804174874
          -0.002756330302876268 -0.0027578002038595503 -0.002759270104842832 -0.0016732068102489422 -0.0016733065729857706 -0.0016734063357225991
          -0.0014790823320859708 -0.00147847346660186 -0.001477864601117749 -0.003491145447961013 -0.003210479553469109 -0.003491889715589712
          -0.0032105460395249314 -0.0034926339832184092 -0.003210612525580753 -0.003750217120393415 -0.0037519547418578773 -0.0037536923633223395
          -0.0040034935338386715 -0.0038238268959861453 -0.004005225051660588 -0.003825302990128248 -0.0040069565694825044 -0.003826779084270352
          -0.0020758499510366104 -0.002255761670650255 -0.0019946931115901677 -0.0020762828033831894 -0.0022566453728638403 -0.001994803139917921
          -0.002076715655729768 -0.002257529075077425 -0.0019949131682456735 -0.0019124379307699948 -0.0019122086828624516 -0.0019119794349549079
          -0.003977042267460819 -0.003979288240719516 -0.003981534213978212 -0.002738689415141029 -0.002723790759606235 -0.0027391081597543574
          -0.0027241104409167897 -0.002739526904367686 -0.0027244301222273453 -0.0039914035538562 -0.003771537895989624 -0.003993781411062003
          -0.0037731121880488355 -0.003996159268267807 -0.003774686480108047 -0.0035425444205003293 -0.0035429834880711985 -0.0035434225556420667
          -0.003708844597117557 -0.0035150834023710787 -0.003710183976465117 -0.0035152019080925494 -0.0037115233558126775 -0.0035153204138140197
          -0.001093553637240746 -0.0012762655937423456 -0.001166492774734864 -0.000981365671591891 -0.0010936790580812243 -0.001275777394040309
          -0.0011654025500676987 -0.0009812991256226396 -0.0010938044789217025 -0.0012752891943382725 -0.0011643123254005334 -0.0009812325796533883
          -0.0014153355487746945 -0.0014141110691827572 -0.0014128865895908194 -0.0018167970958638448 -0.0018167705941772483 -0.0018167440924906518
          -0.0027212705650360896 -0.0027651588122238474 -0.002721778733971676 -0.0027660184439185762 -0.002722286902907263 -0.002766878075613306
          -0.0029574178577698763 -0.0029574229361192216 -0.0029574280144685663 -0.0029436290887638527 -0.0028949825611147588 -0.0029444782335846477
          -0.0028955867150352553 -0.0029453273784054426 -0.0028961908689557523 -0.0020860871013485475 -0.0016819392830409287 -0.002085005575810027
          -0.0016794576302555518 -0.002083924050271506 -0.001676975977470175 -0.002175430737472221 -0.002176015622630833 -0.0021766005077894445
          -0.0033159291206806252 -0.0033730955425231315 -0.003315966113390765 -0.003372782384333844 -0.0033160031061009046 -0.0033724692261445574
          -0.0016568836976113498 -0.0017420225175671968 -0.001561774464057808 -0.0014242682026659563 -0.0016550995943954254 -0.0017409871356803093
          -0.001560604699902729 -0.0014223455669517807 -0.0016533154911795012 -0.0017399517537934218 -0.0015594349357476499 -0.0014204229312376048
          -0.0026708191674621544 -0.002670967848406816 -0.0026711165293514783 -0.0011802590826454687 -0.0009821216812321149 -0.0011787948377420079
          -0.0009814484331335117 -0.001177330592838547 -0.0009807751850349083 -0.002954714623537571 -0.0033430876170805206 -0.002955087869518505
          -0.003344050605248803 -0.0029554611154994376 -0.0033450135934170845 -0.003343627694414929 -0.003344932204036017 -0.003346236713657105
          -0.002761428911533284 -0.002761565146377868 -0.0027617013812224513 -0.002614954257955537 -0.002614862418111207 -0.0026147705782668764
          -0.0014154152582730847 -0.0014132769491470509 -0.0014111386400210172 -0.0009400513965919682 -0.0009395121874405146 -0.000938972978289061
          -0.0025270362184890657 -0.0029879085401343197 -0.0025269886321646917 -0.0029884397095810587 -0.002526941045840317 -0.0029889708790277972
          -0.0010925656254543222 -0.0010914956004498357 -0.0010904255754453493 -0.0014717648520592207 -0.0014712491914144678 -0.0014707335307697154
          -0.002841561658794667 -0.002842147402700195 -0.0028427331466057233 -0.0041269332271636 -0.004129253788913268 -0.004131574350662937
          -0.0008689458212418213 -0.0008686119430260764 -0.0008682780648103316 -0.003114211336376069 -0.0031143901202185377 -0.003114568904061007
          -0.0037325977557918625 -0.003725514438494613 -0.0033435518681730328 -0.003734567547731692 -0.0037270762970936086 -0.003345116499090423
          -0.003736537339671522 -0.003728638155692604 -0.0033466811300078133 -0.0015241148562599614 -0.0015231912588642691 -0.0015222676614685769
          -0.0029140059857442266 -0.002858495065035374 -0.0029146687462245596 -0.002858983433166704 -0.0029153315067048935 -0.0028594718012980337
          -0.0016859514117358017 -0.0016842880901924906 -0.0016826247686491796 -0.0019203812194816157 -0.0019195902298107846 -0.0019187992401399536
          -0.002818119483349847 -0.0028173123568946824 -0.0028165052304395177 -0.0009287445859861337 -0.0009283736970143617 -0.0009280028080425899
          -0.0014529353825474783 -0.0017165812458812646 -0.001452494442068454 -0.0017162136145674912 -0.00145205350158943 -0.001715845983253717
          -0.0019047488048207206 -0.0019035710980617763 -0.0019023933913028326 -0.0007551737562491132 -0.0007544302137457079 -0.0007536866712423026
          -0.003223668888025659 -0.003225962877858491 -0.0032282568676913225 -0.002969858961931914 -0.0029708193253878403 -0.0029717796888437667
          -0.004199958486086933 -0.004202168523823598 -0.004204378561560263 -0.0026712494571796506 -0.0026710609319615156 -0.002670872406743381
          -0.0028369225701842214 -0.002833585383989419 -0.0028375075149791097 -0.0028338117523118655 -0.0028380924597739966 -0.0028340381206343117
          -0.0032991018661756313 -0.0032992104072787076 -0.003299318948381783 -0.0029044761180766496 -0.0028641982381068876 -0.0029053634811397884
          -0.0028647052491237697 -0.002906250844202927 -0.002865212260140652 -0.002876133507485399 -0.002876677951287432 -0.002877222395089464
          -0.002809166303293545 -0.002809589922896335 -0.0028100135424991247 -0.0030253126196557838 -0.003024745554833155 -0.0030241784900105267
          -0.0027410229048819464 -0.002747371662995278 -0.002739844178131613 -0.0027477120123151526 -0.0027386654513812795 -0.0027480523616350274
          -0.0029170293939671846 -0.002917319666368131 -0.002917609938769078 -0.0030430792522731327 -0.003043838935137865 -0.003044598618002597
        </DataArray>
        <DataArray type="Float64" Name="pe33" format="ascii" RangeMin="-0.004124868558936082" RangeMax="-0.0007183999100842083">
          -0.002105639683903856 -0.0020419229779910786 -0.0017946241474962564 -0.0018997043775053576 -0.002105423250638539 -0.002041568641783706
          -0.0017950314602374017 -0.0019001785256304853 -0.002105206817373222 -0.002041214305576334 -0.001795438772978547 -0.0019006526737556126
          -0.00274874873616551 -0.002652833750501583 -0.0026661426015533373 -0.0027663243427525474 -0.0027477178969781495 -0.0026524154461951286
          -0.0026662576590642086 -0.002766154879115302 -0.002746687057790789 -0.002651997141888675 -0.00266637271657508 -0.0027659854154780555
          -0.0012222504448417115 -0.0014454755057049227 -0.0012227706353908358 -0.0014464267956642077 -0.0012232908259399602 -0.0014473780856234931
          -0.003257826590821313 -0.003299716103245128 -0.0030379876960787734 -0.0030673978452787983 -0.0032555449246812773 -0.0032970392466005684
          -0.003036095386344384 -0.0030629197441713048 -0.0032532632585412407 -0.003294362389956009 -0.003034203076609994 -0.003058441643063812
          -0.002707169469560525 -0.0028157186447964077 -0.002708441382103563 -0.002816592122280321 -0.002709713294646601 -0.002817465599764234
          -0.002394787437231876 -0.002249205059526896 -0.0023085465227173333 -0.002507762795655668 -0.0023915156453476216 -0.002248761308414769
          -0.0023036570852106317 -0.0024987999259138017 -0.002388243853463367 -0.0022483175573026416 -0.0022987676477039297 -0.002489837056171935
          -0.0034699007333483254 -0.0036870559352973602 -0.003501917878479738 -0.003300916973728841 -0.003466779713838253 -0.0036803776491871124
          -0.0034968294270878164 -0.003298712521257782 -0.0034636586943281797 -0.003673699363076864 -0.003491740975695894 -0.003296508068786723
          -0.0020017085894626016 -0.0021595763804094746 -0.0020026631838222023 -0.00215988903900658 -0.002003617778181802 -0.0021602016976036854
          -0.0026705848477005987 -0.0025354758354982454 -0.0030756604663529767 -0.003107652697295125 -0.0026655581936677235 -0.0025327412244665285
          -0.003071686783325241 -0.0031040311517339216 -0.0026605315396348492 -0.002530006613434812 -0.0030677131002975052 -0.0031004096061727185
          -0.002360128378096369 -0.002409223959003291 -0.002606855256821168 -0.0023580469125288944 -0.0024075666521948635 -0.0026061575694530078
          -0.0023559654469614195 -0.002405909345386436 -0.002605459882084847 -0.004057228036191402 -0.004105041266284934 -0.004042589328748598
          -0.003985096922129183 -0.004047815198636683 -0.004096717984890273 -0.004033534983822985 -0.003975472486716057 -0.004038402361081964
          -0.004088394703495615 -0.004024480638897374 -0.003965848051302931 -0.002867809242034952 -0.0029716791290012212 -0.002740416366990839
          -0.002721748614763441 -0.0028654817320496145 -0.002969609739164077 -0.0027396507309320585 -0.002720119997685723 -0.0028631542220642773
          -0.002967540349326933 -0.002738885094873279 -0.002718491380608006 -0.003153781961207816 -0.003152869155294981 -0.003151956349382146
          -0.002409094094029589 -0.0022886667414889067 -0.0021786265826902627 -0.0024068320278638963 -0.0022878716606076393 -0.002178200991733916
          -0.002404569961698204 -0.002287076579726371 -0.0021777754007775694 -0.002983081934444033 -0.0031552407726903407 -0.0029800125995200826
          -0.0031528368612775506 -0.002976943264596133 -0.0031504329498647614 -0.0034725468576886067 -0.003326543500602242 -0.003499238839516462
          -0.00368217245249613 -0.003470761280345522 -0.0033265414422473842 -0.0034979579636941985 -0.003678834074513694 -0.0034689757030024375
          -0.003326539383892526 -0.003496677087871936 -0.0036754956965312584 -0.0019277472182667047 -0.002172699345898716 -0.0016833467919642113
          -0.001282470036514085 -0.0019262113640741328 -0.0021678674649211107 -0.0016817568477152359 -0.0012859923121138332 -0.0019246755098815606
          -0.0021630355839435053 -0.0016801669034662604 -0.0012895145877135812 -0.0030019795319032884 -0.00291499149218328 -0.0028794719283810662
          -0.0030043298131587374 -0.0029160909313077008 -0.0028822146759450024 -0.003006680094414187 -0.0029171903704321217 -0.002884957423508939
          -0.0009467570856603164 -0.001786595361865392 -0.0009539929774054382 -0.0017874754048602933 -0.0009612288691505602 -0.0017883554478551945
          -0.002719997903500385 -0.0027526607159928038 -0.0030685185077469466 -0.003153590228202085 -0.002717658917839595 -0.0027509676616451297
          -0.0030643189004916313 -0.003147138538720553 -0.0027153199321788054 -0.0027492746072974557 -0.003060119293236317 -0.0031406868492390204
          -0.0031590413053184637 -0.0030297796507406274 -0.003160474431061254 -0.003030381446140736 -0.003161907556804044 -0.0030309832415408434
          -0.002368043946744953 -0.0024732688742651774 -0.0023625750930671586 -0.002465675921254283 -0.002357106239389365 -0.0024580829682433894
          -0.0032004275844558622 -0.0028595363975486973 -0.003195252474140875 -0.0028587908543790475 -0.003190077363825887 -0.0028580453112093986
          -0.0021925748778577384 -0.0020757923669409814 -0.0020526245838730964 -0.0022129136763060567 -0.002194180791856114 -0.002077519794838573
          -0.002055054718279461 -0.0022156827692283243 -0.0021957867058544894 -0.002079247222736164 -0.0020574848526858256 -0.0022184518621505916
          -0.002098684148948036 -0.001985243828983613 -0.0020990282893161407 -0.0019827617749222284 -0.002099372429684245 -0.001980279720860843
          -0.0022286067713792584 -0.0022241146055028155 -0.0022196224396263727 -0.002491203581786979 -0.0024186171172012887 -0.0024923900945869617
          -0.0024198347400170277 -0.0024935766073869445 -0.002421052362832767 -0.002572026072477091 -0.002493747789862514 -0.0025256352767868543
          -0.0025687956173933648 -0.002490050484034908 -0.0025184158546756544 -0.0025655651623096385 -0.0024863531782073024 -0.0025111964325644546
          -0.0024190005348215648 -0.0024866454025006647 -0.0020660874025250024 -0.0024154565265723615 -0.0024840248427352263 -0.002062410739219889
          -0.002411912518323159 -0.0024814042829697878 -0.0020587340759147758 -0.0020487178533618805 -0.0020495234386054733 -0.0020503290238490656
          -0.002452432695298189 -0.0024513139003539157 -0.002450195105409642 -0.002952150370892735 -0.0029917902912273996 -0.0029477323625487304
          -0.002986738035009477 -0.0029433143542047253 -0.0029816857787915542 -0.0025406046520655085 -0.0025380417545037516 -0.0025354788569419947
          -0.0019712607912928267 -0.0020988677037101864 -0.002324590670696884 -0.0019737378168220706 -0.0021020959043103376 -0.0023243906399178075
          -0.001976214842351314 -0.0021053241049104887 -0.002324190609138731 -0.003460033973614964 -0.0035200037312319112 -0.003450701777650548
          -0.0035107901841012743 -0.0034413695816861312 -0.003501576636970638 -0.001206401400693093 -0.0010459825560970436 -0.001063896710230464
          -0.0012977168015439388 -0.0012069658421497342 -0.0010473564730382448 -0.0010660059199883198 -0.0012987804583223894 -0.0012075302836063752
          -0.001048730389979446 -0.0010681151297461753 -0.00129984411510084 -0.0018994639047793394 -0.0016200384566195103 -0.0017002943000003737
          -0.0019725132448884857 -0.0018991002067656386 -0.0016208870995385069 -0.0017008273995656317 -0.0019719601687158118 -0.0018987365087519378
          -0.0016217357424575033 -0.0017013604991308901 -0.0019714070925431378 -0.0028475334307374043 -0.002689835003236532 -0.002853490765911851
          -0.0028452713620304255 -0.00268800217799937 -0.0028498195362073324 -0.0028430092933234468 -0.0026861693527622096 -0.002846148306502813
          -0.0024081392945138657 -0.002407592706424668 -0.0024070461183354703 -0.0025321332957901365 -0.0025223074024894676 -0.0025124815091887983
          -0.0008985649828790966 -0.0008316275280643986 -0.0009011759574870809 -0.0008349256593176365 -0.0009037869320950651 -0.0008382237905708746
          -0.0013511923099302182 -0.0015467443054387874 -0.0013529480717740245 -0.00154792516284159 -0.0013547038336178309 -0.0015491060202443925
          -0.0022612463672952283 -0.002263435707781788 -0.002265625048268347 -0.0023082021411471977 -0.002465880974498477 -0.002443064247402296
          -0.0022135126470505355 -0.0023089619952566627 -0.00246594494444952 -0.002442240706980147 -0.0022130700006805374 -0.0023097218493661276
          -0.002466008914400564 -0.0024414171665579987 -0.002212627354310539 -0.0026319761691679855 -0.002630555195386092 -0.0026291342216041994
          -0.002300576895261863 -0.002301680712091149 -0.002302784528920436 -0.0024356203652804997 -0.0021907324210835555 -0.00243595053737031
          -0.0021906376085818954 -0.00243628070946012 -0.002190542796080235 -0.001795395093851792 -0.0017991373789650895 -0.0018028796640783876
          -0.0020817995665493886 -0.002276741789539285 -0.0020834552988883803 -0.002279086372073161 -0.002085111031227372 -0.0022814309546070367
          -0.001807300940308292 -0.0018062217914030585 -0.001805142642497825 -0.0023463790553704183 -0.00237338436764774 -0.0023479158371007953
          -0.0023757719780997874 -0.002349452618831172 -0.002378159588551835 -0.002324042778142599 -0.002325058758609152 -0.0023260747390757043
          -0.0021658802030907706 -0.00216436498994763 -0.00216284977680449 -0.002439865501970457 -0.0024426796837438004 -0.002445493865517144
          -0.0015987274655414766 -0.0018070500476341628 -0.0015986942814218705 -0.001805510376659365 -0.0015986610973022647 -0.001803970705684567
          -0.0025921932707405164 -0.0025942636498437733 -0.002596334028947031 -0.002801565446931698 -0.0027805046015255954 -0.00279850165501098
          -0.002778638640175169 -0.002795437863090262 -0.002776772678824743 -0.0037842151565490663 -0.003863792844227925 -0.0037399313618304898
          -0.003777384949372709 -0.003854854733453218 -0.0037336805961215446 -0.0037705547421963506 -0.0038459166226785116 -0.0037274298304126
          -0.003998609199688146 -0.0038032269851775674 -0.0038416803658418916 -0.003991856194995291 -0.003798196819395569 -0.003835975002793607
          -0.0039851031903024355 -0.003793166653613571 -0.0038302696397453226 -0.00157192448388663 -0.001925087342786989 -0.0015744256535876427
          -0.0019264260630986218 -0.0015769268232886553 -0.0019277647834102549 -0.002857700562821985 -0.0028304637750005183 -0.0027706347979756726
          -0.0028553935969255545 -0.0028276699280143907 -0.0027688530058467943 -0.0028530866310291243 -0.0028248760810282644 -0.0027670712137179156
          -0.002916943568404759 -0.0028422459874348836 -0.0029149818847542296 -0.0028416675598121805 -0.0029130202011037 -0.002841089132189478
          -0.0016885060309463004 -0.0016894167338885936 -0.0016903274368308871 -0.0038395492361927557 -0.004026441306501526 -0.003833917039737119
          -0.004019838347489821 -0.0038282848432814828 -0.004013235388478117 -0.004124868558936082 -0.00408773982383445 -0.004116706729775594
          -0.004078316053519995 -0.004108544900615107 -0.00406889228320554 -0.0036747267778889864 -0.0037617462277831433 -0.0036644195336695898
          -0.0037507782516886887 -0.0036541122894501923 -0.0037398102755942346 -0.0033152837821265897 -0.0033102592285037097 -0.003305234674880829
          -0.003582247657057909 -0.003559733021223718 -0.0035781604298183154 -0.003556301505506045 -0.0035740732025787217 -0.0035528699897883712
          -0.0032959656813727287 -0.0032933969708774102 -0.0032908282603820917 -0.0025460656228577117 -0.0025466690920134395 -0.0025472725611691677
          -0.0029805784118622208 -0.002981124748292318 -0.002981671084722414 -0.0024917256753077426 -0.0024934904024233677 -0.002495255129538993
          -0.002493022193426126 -0.0024941874181242116 -0.0024953526428222964 -0.002742475736677939 -0.002640246064311718 -0.0027435432726938946
          -0.002645344691844246 -0.0027446108087098497 -0.0026504433193767743 -0.0025820972064517413 -0.0025295489386016655 -0.0025843430097293647
          -0.0025307847861314125 -0.0025865888130069885 -0.002532020633661159 -0.0018860148901618738 -0.001887761815130667 -0.0018895087400994603
          -0.0018244367148871202 -0.0018248058323414806 -0.0018251749497958404 -0.0025078281916519735 -0.0025085350573642337 -0.0025092419230764947
          -0.002560208000954141 -0.0025592894629620057 -0.0025583709249698706 -0.0014319446677939645 -0.001438363806265199 -0.0014447829447364338
          -0.0012520112458330934 -0.001255268556212363 -0.0012585258665916321 -0.003194067612048989 -0.002908406060291097 -0.0031929304361655916
          -0.002910495547996229 -0.0031917932602821943 -0.0029125850357013604 -0.003486825374557617 -0.003482137083177719 -0.003477448791797822
          -0.003917078209648916 -0.0037963652899043452 -0.0039067553507634864 -0.0037860603500642184 -0.0038964324918780565 -0.0037757554102240917
          -0.0021060652910591124 -0.0022900714697182056 -0.002025892742398571 -0.002104637639251607 -0.0022882437778334193 -0.002025382106444755
          -0.0021032099874441013 -0.002286416085948633 -0.0020248714704909393 -0.0019374993693605652 -0.0019382075165975047 -0.0019389156638344443
          -0.003739351378063532 -0.0037321528046688067 -0.0037249542312740814 -0.0026544469607884345 -0.002673671424526743 -0.002654100718086614
          -0.0026731579003389187 -0.0026537544753847944 -0.002672644376151095 -0.003642152394488765 -0.003404775852788644 -0.0036385933289707195
          -0.0034040613375579797 -0.0036350342634526734 -0.003403346822327315 -0.003153239653938023 -0.003155524897953468 -0.0031578101419689124
          -0.003292606729461563 -0.003087535063734348 -0.0032935423583620687 -0.0030907261199244356 -0.0032944779872625747 -0.003093917176114524
          -0.0009825187503123287 -0.001118113290356059 -0.0010947788765499557 -0.0009318989755816085 -0.0009881812527343472 -0.0011265989315249946
          -0.0011015591411047897 -0.0009380976314697369 -0.0009938437551563657 -0.0011350845726939302 -0.0011083394056596238 -0.0009442962873578654
          -0.0014306889001433473 -0.0014328031664594316 -0.001434917432775516 -0.001629182548681423 -0.0016353329798593046 -0.0016414834110371863
          -0.002722045020630102 -0.0026856184344437903 -0.0027195258141241322 -0.002683295646233427 -0.0027170066076181616 -0.0026809728580230647
          -0.0026977066974763963 -0.0027007878813754826 -0.00270386906527457 -0.0029264103257214415 -0.0028944061667949056 -0.002923306494329798
          -0.002889635395906384 -0.002920202662938155 -0.002884864625017861 -0.0023277920120939252 -0.0018937340618928285 -0.002322891980892464
          -0.0018910160545934185 -0.002317991949691003 -0.0018882980472940088 -0.002194841495501237 -0.0021947193385178296 -0.0021945971815344216
          -0.0029332067422061232 -0.002948351429340986 -0.0029371245324951462 -0.002952529560147905 -0.002941042322784169 -0.0029567076909548253
          -0.0016123435210951003 -0.0017216520061297579 -0.001560111438934345 -0.0013931784946400612 -0.0016150272328611685 -0.001723626528663501
          -0.0015622108688368762 -0.0013962821751801605 -0.001617710944627237 -0.0017256010511972444 -0.0015643102987394075 -0.0013993858557202602
          -0.0027536889032228717 -0.0027505668929123186 -0.0027474448826017655 -0.0011718376852937926 -0.0009688558944421498 -0.0011754914890819948
          -0.0009738931800570695 -0.001179145292870197 -0.000978930465671989 -0.0031091403304734097 -0.0034691614923682587 -0.003105703703646394
          -0.0034655987687027172 -0.003102267076819379 -0.0034620360450371753 -0.0035065352581602795 -0.0035010195170573216 -0.0034955037759543633
          -0.0027370708955681802 -0.0027349201261593127 -0.002732769356750446 -0.0027691258640088045 -0.002764871100600148 -0.0027606163371914913
          -0.0013128239840005237 -0.0013188543502120704 -0.0013248847164236167 -0.0008463129982211018 -0.0008504512676929493 -0.0008545895371647969
          -0.002746693380620548 -0.003068317545359497 -0.002741395067539274 -0.0030648308087618745 -0.0027360967544580003 -0.0030613440721642513
          -0.0011058887495108073 -0.0011086722052486247 -0.001111455660986442 -0.001228496758450725 -0.0012348833966587438 -0.001241270034866763
          -0.0028482163940917607 -0.0028441629590854004 -0.002840109524079041 -0.003926775531277979 -0.003918551311997478 -0.003910327092716978
          -0.0008181125999374221 -0.0008226813718684243 -0.0008272501437994265 -0.0027871762441623233 -0.002790227881423889 -0.0027932795186854545
          -0.0038800806062358525 -0.0038456558461948042 -0.0035272185404653976 -0.003871656516185435 -0.003837824996930591 -0.003520618550987252
          -0.003863232426135018 -0.003829994147666378 -0.0035140185615091064 -0.0013267587621098183 -0.0013359600192218244 -0.0013451612763338303
          -0.002919520742136716 -0.0028483769850771346 -0.002913993619311364 -0.0028434743415577026 -0.0029084664964860118 -0.0028385716980382707
          -0.001579623676994084 -0.0015838909021219283 -0.0015881581272497722 -0.0018893055856833427 -0.0018913192727395473 -0.0018933329597957522
          -0.0030514619030671255 -0.0030474254904024364 -0.0030433890777377473 -0.0009108309571202876 -0.0009150774220862567 -0.000919323887052226
          -0.00148479918248735 -0.0017506508639647293 -0.0014860781580868108 -0.0017516549734748832 -0.0014873571336862716 -0.0017526590829850368
          -0.0018511690113209695 -0.001853155390566724 -0.0018551417698124788 -0.0007183999100842083 -0.0007215901914713119 -0.0007247804728584156
          -0.002883355637209005 -0.002879331212681814 -0.0028753067881546242 -0.0029771397952208425 -0.0029728404823944525 -0.002968541169568063
          -0.004026929196801833 -0.004018903812118115 -0.004010878427434397 -0.0027430631130191895 -0.0027424470718439772 -0.002741831030668766
          -0.002814790662173408 -0.0027692152222607604 -0.0028108241564778038 -0.002767003106041281 -0.0028068576507821997 -0.0027647909898218014
          -0.0029526242937519417 -0.002949477196840259 -0.002946330099928577 -0.002661898848273341 -0.0026875185734258934 -0.002661349365801091
          -0.002686353796557043 -0.002660799883328841 -0.002685189019688192 -0.0027764898324653033 -0.0027746191605925873 -0.0027727484887198712
          -0.002664172256854695 -0.0026636336577084384 -0.0026630950585621828 -0.00274690426536216 -0.002745924599120677 -0.002744944932879193
          -0.002376704285153749 -0.002442889929714665 -0.002382648095713945 -0.0024472889445665467 -0.00238859190627414 -0.0024516879594184285
          -0.002632579387954007 -0.002633888980579946 -0.002635198573205885 -0.002727132735074642 -0.0027265945577139906 -0.002726056380353339
        </DataArray>
        <DataArray type="Float64" Name="disp_x" format="ascii" RangeMin="0.000007475976141704334" RangeMax="0.00006514265211338362">
          0.00004546353576575815 0.00004563620988506292 0.00004314595351834015 0.00004304972425842692 0.00004546766721438454 0.00004564136387562491
          0.00004315150022652497 0.000043054536065719034 0.00004548022851813367 0.000045655939925688255 0.00004316946595270976 0.00004307018563603503
          0.00005578886261456865 0.00005192265263626771 0.00004994376595995165 0.000052192392877024714 0.00005578940823278387 0.000051924587581133725
          0.00004994497766624082 0.00005219247288581487 0.000055791157309880354 0.000051930783215136314 0.00004994888457105408 0.00005219284567341885
          0.00004347320552647259 0.000045347728046408816 0.00004347815069413351 0.000045352803128525844 0.000043491917497660096 0.00004536785788107445
          0.00005167254266406099 0.00005200106993621205 0.000055944758536228836 0.00005539184780940717 0.00005166828969534674 0.000051994892986316827
          0.0000559375667903908 0.000055386029827140806 0.000051654134937436886 0.000051978123515233736 0.00005591718745489809 0.00005537295440631324
          0.00004739386131992774 0.00004934227107734378 0.00004739452800029471 0.000049342369765427834 0.0000473962212481476 0.00004934171243933374
          0.00002179635802387931 0.00002422423044997661 0.000023741868313002838 0.00002052133391050939 0.000021792132417257386 0.000024218508015824944
          0.000023734427799431608 0.000020518147844521645 0.000021777430288969252 0.00002419973531735107 0.000023711356621420254 0.000020506858212467075
          0.000022033001440586417 0.000026150885267084802 0.000026383699154696958 0.000022794420154480213 0.0000220401172517059 0.000026156403690920798
          0.000026388855724898732 0.00002280043826069168 0.000022063136158872367 0.000026175598017833186 0.000026407254317386777 0.000022815859894075413
          0.000042985443553955185 0.00004508275169168326 0.00004298935157713313 0.00004508642259886206 0.00004300150274658668 0.00004509735811315188
          0.000013746246588818822 0.000012806884556194914 0.000015986724241247373 0.00001682246670607377 0.0000137572553037227 0.000012819878129962407
          0.000015998071917661288 0.00001683188906301723 0.000013791978345871782 0.00001286182070647771 0.000016031036793926338 0.000016858744285625265
          0.000051404718441993415 0.00005123117426478685 0.000054173776952399456 0.00005141000208657391 0.00005123621345001648 0.000054178813032057506
          0.00005142597604803337 0.00005125104263101037 0.00005418949565692119 0.000027815048691070002 0.00003228706161727591 0.00003127656584092095
          0.000027351755325118796 0.00002781820970398813 0.000032286253781855315 0.000031276787466094234 0.0000273557559837238 0.00002782691885276396
          0.000032284179863794 0.00003127742551390743 0.0000273668086978602 0.00002192022218155788 0.000025128176241319113 0.000026149673466057332
          0.000022968697941590387 0.00002192439651252703 0.000025131776011142244 0.000026151429448009866 0.00002297091909149118 0.000021935562853385416
          0.000025142293023163287 0.000026157663356380626 0.000022975909640753963 0.00005155706818113128 0.00005155376424765006 0.0000515439634917357
          0.000022985322002753313 0.00002519632650887256 0.000025811565000035077 0.000022982203551303615 0.000025193479293554055 0.00002580808896128216
          0.00002297339964458362 0.00002518410584376999 0.000025798351950667787 0.00002054540033917218 0.00002389695009602466 0.000020550988955684934
          0.000023901905419990583 0.00002056773288273267 0.000023916572577684995 0.00004761855903390936 0.00004758062836329673 0.000043849353677518926
          0.00004330436134435773 0.00004761349001811118 0.00004757658406300995 0.00004384424711028212 0.000043298801614655586 0.000047597426067423664
          0.00004756372936947155 0.00004382914621319653 0.000043282578976831244 0.000010269874185291217 0.000011305871671981539 0.00000959510121468849
          0.000008356294827203229 0.000010285629180313507 0.000011320860089167688 0.000009611914612506079 0.000008374198867925357 0.000010330301592274593
          0.000011362584827495283 0.000009665163177052313 0.00000842875171643808 0.000047452436237477455 0.000050541494810585805 0.00004663108281326351
          0.00004745031554167827 0.00005054036298006139 0.00004662993018222646 0.000047444819453283755 0.00005053690749449285 0.00004662788249692024
          0.000007475976141704334 0.000009462671510618846 0.000007492491563695252 0.000009479701470814635 0.000007543998555589528 0.000009526415985339687
          0.000034322864962517675 0.000029766708811127718 0.000028735015216963152 0.00003242163070989672 0.00003432245998064477 0.000029768397046821267
          0.00002873790386317937 0.000032421627439718623 0.00003432119365569103 0.000029773660616790588 0.000028747591954849038 0.00003242199656424911
          0.000047650670125239234 0.000051200030012823326 0.00004764750012282884 0.00005119808665279227 0.000047636495038388004 0.000051191538843962294
          0.00001486487050775277 0.00001670163291006268 0.000014870094114574512 0.00001670381881059392 0.000014883813985805898 0.000016710468090699666
          0.00003585707267806482 0.00003776210141737966 0.00003585398085737527 0.000037759403324152913 0.000035843071787591336 0.000037750335581453525
          0.00004429040655376266 0.00004290469608261261 0.00004150026355440387 0.00004275135862143595 0.00004429347044781916 0.000042907879802696064
          0.000041502414648672714 0.00004275314338711493 0.00004430244363081164 0.0000429175215159059 0.000041509604398203366 0.00004275933001749813
          0.000028200555375738167 0.000028677916346079853 0.000028197117429282482 0.000028673786314889365 0.000028185538253029243 0.000028664778938702926
          0.000013172049719910877 0.000013180346853490061 0.000013205474095205002 0.000026958706283487816 0.00003036986487194267 0.000026958848768495183
          0.000030370793493392272 0.00002695861025694587 0.00003037291094529529 0.00001991922965088471 0.000021738891797483 0.000019600049303586877
          0.000019920349125253097 0.000021736985192091027 0.000019598860536333002 0.00001992496321492374 0.000021730063866619387 0.000019595927762991047
          0.000013614913209221613 0.000015122697299017977 0.000011749578962811211 0.000013625676038735918 0.000015130486443686004 0.000011761069255021194
          0.00001365770909750045 0.00001515353028797515 0.000011796120841695296 0.000026616196153115266 0.000026611898366602286 0.000026600233789160594
          0.00001212461252216003 0.000012138678625543384 0.000012183953386687558 0.000059052283474490114 0.0000602456362932083 0.0000590558245195996
          0.00006024777297743622 0.000059065136146432376 0.000060254160423987485 0.00001700550756951816 0.000017010469544133248 0.000017026105733455438
          0.00003389487787218484 0.000030852183076574275 0.00003375871078737659 0.00003389582618599691 0.000030851563897993214 0.00003375983498360376
          0.00003389811094125186 0.00003085164288417352 0.00003376376289455664 0.00003097118169184118 0.000034380069440986604 0.00003097279047704147
          0.00003437756971216237 0.00003097753046693868 0.000034369770343412 0.00004224254413210669 0.000040752403903115894 0.00004034023220198298
          0.000042018479008094694 0.0000422478325313226 0.00004075821412552834 0.00004034607568655655 0.000042024331146512016 0.000042264050044901695
          0.00004077579654565396 0.00004036481909107766 0.00004204172639937003 0.000045883618069355584 0.00004360282894709354 0.00004329950773861483
          0.0000457039204468958 0.000045890053404977044 0.000043609122347154274 0.00004330578031377317 0.00004570977364772079 0.00004590936516522181
          0.000043628836476982484 0.00004332638324475579 0.00004572649662131965 0.00005754239359374009 0.000054472029981410776 0.00005677574272344414
          0.00005754642618743481 0.00005447662803668899 0.00005677993837606033 0.00005756034602415164 0.00005449151958114656 0.00005679184188540679
          0.00002449879638887195 0.000024496595402493676 0.000024489142424135794 0.0000180775128758638 0.00001807789677959006 0.000018081373124052043
          0.000040019541059637514 0.00003877629328495373 0.000040024930909748424 0.00003878028069864956 0.00004004091436328332 0.00003879264510299929
          0.00004155939166341779 0.00004400770603298995 0.000041565722792699464 0.00004401388197763613 0.00004158417114154284 0.00004403138839525321
          0.0000276317480392963 0.000027630034043903335 0.00002762474969707695 0.00004893231644108804 0.00005110583008091221 0.00005106853134901977
          0.000048341575978426504 0.00004893711753824468 0.00005111125862922711 0.00005107407036455073 0.00004834717638587757 0.00004895223488943352
          0.00005112804575194935 0.000051091298506320095 0.00004836274813290442 0.000053204494747052463 0.00005321049395556493 0.000053225983624610296
          0.000048249993358103177 0.000048253858670267404 0.000048263630760131614 0.0000380061170168159 0.00003683663376361335 0.000038005033358494386
          0.0000368373120872347 0.000038000973775763436 0.000036839210825020545 0.000031633514610190595 0.00003163034468986645 0.0000316185110990089
          0.000039453571784795614 0.0000406115150416268 0.00003945470550715353 0.00004061192142706403 0.00003945703337928516 0.00004061225169885997
          0.000030653617240422754 0.00003064930083602121 0.000030633265681616935 0.0000465643612869302 0.000044862106424537306 0.00004656711813370745
          0.000044864012160810576 0.000046574894327677776 0.000044869272736463405 0.000047625800515708855 0.000047629157312225164 0.00004763835146023621
          0.00004840388639045356 0.0000484100313633282 0.00004842866855242347 0.000042625531646849245 0.00004262613342105181 0.0000426278184853446
          0.00003168660181676798 0.000029464829825390163 0.00003168123999675801 0.000029460745999881158 0.0000316618171626118 0.00002945179627250189
          0.0000401337816614964 0.00004013226565446642 0.00004012740734409477 0.00005798826963435267 0.000057296454547734327 0.000057985155314147
          0.00005729537046491712 0.0000579760838851632 0.00005729222625386432 0.000023687642659182183 0.00002674742536736358 0.000024188565671956924
          0.00002369431072031007 0.000026753004175848387 0.000024195393686664805 0.00002371837297241372 0.000026765764647443628 0.000024216858808179292
          0.000037375506777295015 0.0000430581036452752 0.000039136997469636706 0.00003737215961212548 0.000043052892011038195 0.00003913270236776224
          0.000037362187705186334 0.00004303791373857946 0.00003911790247239375 0.000030474625858524717 0.000027459193836917304 0.000030469649948987953
          0.00002745234962784657 0.000030456400657790674 0.000027429814804462777 0.00006276399022486953 0.0000595851234810551 0.00006024300855962819
          0.00006276385950509382 0.000059585898835568325 0.000060243141195760195 0.00006276335346115848 0.00005958798886864549 0.000060243351371070395
          0.00005466108793380175 0.00005379386338607857 0.00005465952780572532 0.000053793733311290696 0.00005465556923257951 0.000053791843273794035
          0.00004749433764334029 0.000047500093435138074 0.0000475175211749226 0.000043587765675458706 0.000038632973500935184 0.00004358259513627265
          0.00003862934830798318 0.00004356683101230894 0.00003861853644061542 0.00003362386960895853 0.000028670764625436922 0.0000336227270974704
          0.000028673072885525958 0.0000336173734039007 0.00002868012166407779 0.000029713884071351992 0.000032974814810237565 0.000029716948823886974
          0.00003297398631056053 0.000029727433195408034 0.00003296933326099215 0.00002747518853498997 0.000027479617292159546 0.000027492784165545107
          0.00004834644724677678 0.00004777565988338421 0.00004834068685374434 0.00004777051555824565 0.00004832089537815159 0.00004775276181037304
          0.0000528171121757219 0.0000528105105259815 0.000052790025415741365 0.000052003909498176624 0.0000520094709962169 0.00005202581140530926
          0.0000569235574971559 0.00005691590569295622 0.000056889948416810273 0.00005110591702507667 0.00005111036642492635 0.00005112336873645019
          0.000050342301620977354 0.000050345706287584556 0.000050355614717426425 0.000059307960797288125 0.000060627277798847044 0.00005930048561460947
          0.00006062048994738767 0.00005927377969663979 0.00006059969797836396 0.000045078717983715516 0.0000473915192960106 0.00004507955971246644
          0.00004739350349302924 0.000045081331388936994 0.00004739860213143295 0.000036581325434647655 0.00003658312171391365 0.00003658821573661632
          0.00004623800928312937 0.00004624460737230016 0.000046264876006533733 0.00004910585328147988 0.00004910870351400823 0.000049117006630467115
          0.000023671269974122587 0.00002367151656905178 0.000023671803816634582 0.000033384566555366326 0.00003338047656178329 0.00003336508025836376
          0.00003334381886609338 0.00003334038373261485 0.00003332936521697558 0.00003899061827435884 0.00004062589323417275 0.000038985916473233295
          0.00004062240462226081 0.00003897056003651861 0.00004061225236374412 0.000037680126057545606 0.00003767531233147243 0.000037660156428693175
          0.00003084944509579174 0.000028791059934478414 0.00003085009444650498 0.00002879486975512902 0.000030852704909430884 0.000028804770328566754
          0.000048696696492506785 0.00005172302379005613 0.000049136007732563205 0.00004870329649541149 0.000051728899719821476 0.00004914236174836228
          0.00004872212402743755 0.000051746961263271804 0.000049161255887776564 0.00004976268341567961 0.00004976847680283418 0.00004978576272646886
          0.000036452297729097936 0.00003644811379246524 0.00003643433225613592 0.00005320767169363798 0.00005383258824273221 0.00005321104151810476
          0.000053837423277541164 0.00005322018370959587 0.00005385202853467371 0.00004008930613283665 0.00004096920473277148 0.00004008427418330599
          0.000040964199957491695 0.000040068970992638084 0.000040948674654590415 0.000041890365755741355 0.00004188593699114751 0.000041871802426078674
          0.00004426911870786829 0.0000446394975845697 0.000044265026406297285 0.00004463660147991566 0.00004425160052141171 0.000044626383127846075
          0.00003555315372089235 0.00003547418515942924 0.000037107974550813586 0.00003710089720789129 0.0000355520677538032 0.00003547371867914663
          0.000037111743645375785 0.000037103472359034916 0.00003554775218312089 0.00003547470000826896 0.000037123511390043244 0.00003710937736586625
          0.00004115516964667977 0.00004116144924209025 0.00004117907544977535 0.00003447308824610816 0.000034473242362032665 0.0000344747934771344
          0.000019242937072427557 0.00002069283742728681 0.000019247732111897175 0.000020695739452405118 0.000019264641355473864 0.00002070388701500863
          0.00004273633189550575 0.00004273531464505064 0.000042731650617911503 0.00006210483668286789 0.000059161676935895046 0.00006210478266116816
          0.00005916331707335838 0.0000621045730751822 0.00005916696635294853 0.000012377357228673868 0.000010604588490723436 0.00001239004471301897
          0.000010619181907328069 0.000012428197256654357 0.000010663126129552962 0.0000521915832503716 0.000052197563965003924 0.00005221559499545252
          0.000043171727533222296 0.00004483702949617608 0.00004316949581173758 0.00004483519948821008 0.0000431601688585523 0.000044828574722035816
          0.000038836153130730696 0.0000408940655049979 0.00004095414159254135 0.000038931012932393834 0.00003883993253947128 0.00004089871722798906
          0.000040959744059137144 0.000038935733668487303 0.00003885163980156385 0.000040912426607691905 0.00004097576253493317 0.00003894967358146817
          0.000017568584350043744 0.000017575680923004834 0.000017596768392738186 0.000038969360642702285 0.00003813641284354566 0.00003897471341310836
          0.000038140700230358917 0.00003899098952636559 0.000038155231733260425 0.000017909621132651312 0.00002023670580102349 0.000017917967709491066
          0.000020245437590651912 0.000017941058241754487 0.000020270360472236053 0.000019625125823913472 0.000019634175726385597 0.000019660686326734734
          0.000054663053636202815 0.000054668304712503465 0.000054684190773965114 0.000016051877452900228 0.000016060676919816836 0.000016088565984543997
          0.0000370047597181339 0.000037008994406196196 0.000037021522074547205 0.00003571334983232596 0.00003571351037786567 0.00003571387814885311
          0.000014833095935058722 0.000019168047592371057 0.000014843069354397805 0.00001917471013848345 0.000014873799021627296 0.000019194227474741036
          0.000039824236946469224 0.00003983003431656025 0.00003984673603821682 0.00003417468735758596 0.000034172073803036725 0.00003416046624381886
          0.00005656016753378629 0.00005656448488600226 0.000056577984474824196 0.00003524511288201076 0.000035242532498076536 0.000035234516214226105
          0.00003712747966627855 0.000037129546914253994 0.00003713606775023609 0.00004501759073139919 0.00004501717421309431 0.00004501489422982051
          0.000023904449863345913 0.000023627782046987135 0.00001945917086269062 0.00002391084273801725 0.00002363468916646055 0.000019468771626458378
          0.000023930982288180425 0.000023654973420711303 0.000019497550967703705 0.000035108593810441495 0.00003510894942595327 0.00003511241545980361
          0.0000583717833599279 0.000056477834114346876 0.00005837473581127491 0.000056481719619950824 0.000058381031292224605 0.00005649440859601084
          0.000036755249820413 0.00003675857912286984 0.000036767545266065666 0.000041033149150209285 0.00004103688220301658 0.000041047137240854845
          0.00001548354500390107 0.000015496089713199772 0.00001553360786584288 0.00003841581298652884 0.000038420431561647964 0.00003843394434590802
          0.00004455178250385126 0.000046762583496456776 0.000044557465043148217 0.00004676881908642675 0.00004457356385732325 0.000046787894485333816
          0.00003894943714796464 0.000038952161504945704 0.000038959823199668016 0.0000371302839381707 0.000037132714354838306 0.000037138549421633287
          0.000058204640910508564 0.000058197906615985524 0.00005817683116765547 0.00006128093525839517 0.00006128188758181155 0.00006128326284932626
          0.000034410089395534145 0.00003440827269330226 0.000034402403314606796 0.000056465883530508937 0.00005647034646019358 0.00005648472056331093
          0.00005642875302935271 0.00005629322768292225 0.00005643272350785442 0.00005629593205463643 0.000056444035323521964 0.00005630247394870814
          0.00005606910118053142 0.00005606448206941769 0.000056051346264190534 0.000061016730220125123 0.00006174798770271159 0.000061012842298166956
          0.00006174570934171944 0.00006100004299843844 0.0000617393741214551 0.0000636359064202081 0.00006363532650787126 0.00006363357384895649
          0.00006514265211338362 0.00006514104614830903 0.00006513501546677867 0.000059134342270399855 0.00005912916202341501 0.000059111304510610545
          0.0000639654869832146 0.00006299021517060497 0.00006396168437810538 0.00006298463518847344 0.00006395407106494433 0.00006296770490158777
          0.00006095467471979259 0.000060950346830681766 0.000060934149265663756 0.000059716878081034325 0.000059710031787691 0.000059684476244069395
        </DataArray>
        <DataArray type="Float64" Name="disp_y" format="ascii" RangeMin="-0.000026441540376122236" RangeMax="0">
          -0.000019415005531740752 -0.000020530907240913737 -0.000020787525461675978 -0.00001981670211844983 -0.000019417274737006603 -0.000020533056258070754
          -0.000020790405241519102 -0.000019819979278489914 -0.000019424199470307268 -0.00002053949168357315 -0.000020799186049656325 -0.0000198300881333448
          -0.000011900183429579276 -0.000013962258388842086 -0.000013309833071545262 -0.000011559914060386265 -0.000011900619045641492 -0.00001396382049491053
          -0.000013312044077368978 -0.000011561827185293396 -0.0000119015270942764 -0.00001396842749889561 -0.000013318753757452237 -0.00001156729227651559
          -0.000025307575903470468 -0.000025712127265511416 -0.00002530899269383503 -0.000025713618696221712 -0.000025312953172910993 -0.000025717773604917818
          -0.000003843887618690034 -0.0000019011825350921254 -0.0000016992207866991857 -0.0000033855919305277934 -0.000003845536567107601 -0.0000019019418192279238
          -0.0000016989350406589878 -0.000003385743016991283 -0.0000038508229280847115 -0.0000019031786966843572 -0.0000016957948947886445 -0.000003388644830562581
          -0.000012962786100555055 -0.000011371769748952948 -0.000012965806575976331 -0.000011374268688887916 -0.000012975300835472766 -0.000011382300293734114
          -0.000012048714949746894 -0.00001382761515058372 -0.000013762536815006675 -0.000011475080404956244 -0.000012050990672301093 -0.000013831218361486101
          -0.000013765868707816778 -0.000011476340730608887 -0.000012060214975575064 -0.000013841695310053417 -0.000013775427075470128 -0.000011480380341844
          -0.000005486636644321908 -0.000006867661705694946 -0.000008457620330561362 -0.000007438706409645461 -0.000005489041598929718 -0.0000068713164446263645
          -0.000008462090659781368 -0.0000074419186245032185 -0.000005496655426701356 -0.000006883492793376642 -0.000008475811901304752 -0.000007451255226920524
          -0.000018894439106380372 -0.00001842638474544119 -0.00001889794757404847 -0.000018429062205960292 -0.000018908763219161596 -0.00001843633376367414
          -0.0000024903661399320573 -0.0000011786600903528516 -0.0000014517644014506257 -0.0000029740906882740564 -0.000002489447425828595 -0.0000011774313548807785
          -0.0000014522237340647995 -0.0000029748382258761763 -0.000002488267784338017 -0.0000011731115447495022 -0.0000014523353018451954 -0.000002977715821744923
          -0.000023797501871452633 -0.00002249240573819896 -0.000022202950796597093 -0.00002379930964956565 -0.000022494152485469884 -0.000022204634599842167
          -0.000023805866092204065 -0.000022498192665131825 -0.000022209127416293096 -0.0000019326108232171906 -0.000002139090410190198 -0.000004134566232770223
          -0.0000037969187309418053 -0.0000019337844897700334 -0.0000021400727779933485 -0.000004136570577776566 -0.0000037989935559306376 -0.0000019372895677911296
          -0.0000021442862691247527 -0.000004142761257253476 -0.0000038049820569799283 -0.00000957380536163131 -0.000010841026416234099 -0.000012313143528797463
          -0.000010856228290741243 -0.000009577419895230355 -0.000010846231532111243 -0.000012319407102590356 -0.000010860321001739176 -0.000009588614268744204
          -0.000010862393948630335 -0.00001233767951026369 -0.000010873635936700586 -0.000005839808669322664 -0.000005842487642059639 -0.000005850802679316314
          -0.000012453711375629263 -0.000013770935411425493 -0.000014546855511159752 -0.00001245669958034472 -0.000013775747095282907 -0.000014551342504330983
          -0.000012467124231865957 -0.000013788648287870217 -0.00001456584816333126 -0.000008033098536177128 -0.000009202991106607706 -0.000008036113003579015
          -0.000009207151483425482 -0.000008045374803854745 -0.000009219007073588025 -0.0000041621452947122875 -0.000006147996950034353 -0.00000658848513765503
          -0.000004497645106515127 -0.000004164717828508694 -0.000006151862902472197 -0.000006592781652847212 -0.000004500902641113455 -0.000004173753459761101
          -0.000006162882831407607 -0.000006605472532893866 -0.000004511040363082678 -9.965801770360109e-7 -0.0000021005330684003524 -0.000001869014581284166
          -9.550220544745692e-7 -9.95161344456724e-7 -0.0000020993033439244034 -0.000001867012392446985 -9.528704297359897e-7 -9.859126918684196e-7
          -0.000002094669553290314 -0.0000018643546933134763 -9.480576332167735e-7 -0.000009758422384423326 -0.000009678985930600405 -0.000011220185041356462
          -0.00000976232605829181 -0.00000968176797029072 -0.000011223905832322588 -0.000009774394872096162 -0.00000968874752737061 -0.000011234386036183732
          0 0 0 0 0 0
          -0.000014879617066821611 -0.000013683574279504792 -0.000012009187841763277 -0.000012569669182444706 -0.00001488760728390531 -0.000013691411924433885
          -0.00001201596400413425 -0.000012577264607212913 -0.000014911865081287902 -0.000013716263092778871 -0.000012036914547281865 -0.000012601182375095862
          -0.000008040002683265745 -0.000007845043363765161 -0.000008044174506772549 -0.00000784779306179876 -0.000008056830299544514 -0.000007856611844926272
          -0.000006591120693611119 -0.000008269038367179468 -0.000006588846146444915 -0.000008267462814988967 -0.000006581783242323374 -0.00000826227549508688
          -0.000012408844964226285 -0.00001403378572675803 -0.000012416475997524106 -0.000014040901101231199 -0.000012439754308779456 -0.000014063189280530432
          -0.000017701345733727656 -0.000018270418389919738 -0.00001813931113629558 -0.000017239531409102495 -0.00001770449392768458 -0.000018274086748671934
          -0.000018143951084028918 -0.000017243598728793507 -0.000017713216184289682 -0.000018285044447000505 -0.000018157365439628918 -0.000017255470936757317
          -0.000015496152434646098 -0.00001620896363437201 -0.00001550109032478452 -0.000016214285648823826 -0.000015514135420354225 -0.000016227892793202163
          -0.000005122307165372629 -0.000005119775866666694 -0.000005112523238962512 -0.000013574013419489377 -0.00001509063714022934 -0.000013580502539237736
          -0.00001509858985725856 -0.000013600592257503127 -0.0000151222127643437 -0.000009799547004790263 -0.00001142366150389041 -0.000010396680973107837
          -0.000009800892391332738 -0.000011425962168516591 -0.000010398021051765988 -0.00000980399139405895 -0.000011433513339779634 -0.000010401525687445247
          -0.000004502300568639545 -0.00000591890168454398 -0.000003850840673694269 -0.000004501972804842847 -0.0000059184743374926044 -0.00000384841415288894
          -0.000004500677277020883 -0.000005918295788884538 -0.000003840590166223615 -0.000015358640347459097 -0.0000153633646000717 -0.000015376999647988972
          0 0 0 -0.000019431677296938902 -0.00001782314208193825 -0.000019432734698932348
          -0.000017823106222590614 -0.00001943593328883304 -0.00001782255181156051 -0.000007563668752319735 -0.000007563683664768108 -0.0000075639401634415005
          -0.00001750000729334733 -0.000016257390461722885 -0.000016363036545770024 -0.000017508277870350047 -0.000016264224768840898 -0.00001637092458052842
          -0.000017533499965764935 -0.000016285440100195982 -0.000016394048137614753 -0.000010699780631797566 -0.000010559683058413745 -0.000010706326455683607
          -0.000010566277141521873 -0.000010726146853514072 -0.000010585852566318577 -0.000024203985008071465 -0.000023513424578381777 -0.00002301845509579242
          -0.000023337562115339966 -0.000024205234750271423 -0.000023514700975517857 -0.000023019865968027742 -0.000023339062912326283 -0.000024209125884484597
          -0.00002351782949968857 -0.000023024565396927358 -0.000023343490932572498 -0.000022832428618593384 -0.000022747515286298677 -0.00002178583019299438
          -0.000021727193034441432 -0.000022834683693417946 -0.000022749817894127823 -0.000021788452072976895 -0.000021729302839837512 -0.000022842018588652653
          -0.000022757296847502013 -0.000021796230756378103 -0.000021735556543009223 -0.000020934596079059897 -0.00002061975366942991 -0.00001936240366262216
          -0.00002093597003001432 -0.00002062113595283104 -0.000019363226205943063 -0.00002094213512485641 -0.00002062643246909141 -0.000019366076243392127
          -0.000012914144189127521 -0.000012918668900054133 -0.000012932762623026741 -0.000009718591360615056 -0.000009718672342952641 -0.000009715999072384961
          -0.000023499097886749843 -0.000022689966774669613 -0.00002349994485094998 -0.000022691296634545943 -0.000023502017816759213 -0.000022695584205054597
          -0.000022534778115379653 -0.000023697956460080997 -0.000022537011296905697 -0.000023700252373704674 -0.000022542164782738394 -0.000023707020903665214
          -0.000014627091431745475 -0.000014632903762294741 -0.000014651011232964568 -0.000019907939268147222 -0.000020200644252191627 -0.000021202466582570758
          -0.000021497299766245603 -0.00001990929589577314 -0.000020201710850007758 -0.000021203608790492292 -0.0000214986343435868 -0.00001991313706344
          -0.000020205066833922928 -0.00002120736027755921 -0.00002150212955476718 -0.000019387951437983238 -0.00001938906893878248 -0.00001939111859867023
          -0.000018561276119101952 -0.000018562990710541348 -0.000018567751487092393 -0.000016232772277408838 -0.00001728610144319594 -0.000016239352197551974
          -0.000017293315068921133 -0.0000162585295164126 -0.000017316007419787347 -0.000017429987368978057 -0.00001743726324512758 -0.00001745746340992886
          -0.000017846538667905835 -0.000016844364786953716 -0.00001785262039701813 -0.000016849676436622655 -0.00001787028584478155 -0.000016866359133683398
          -0.000017254055599308514 -0.00001726119109133297 -0.000017277963800179803 -0.00001668253193491744 -0.00001614069590680661 -0.000016685516940365633
          -0.000016144376173090083 -0.000016693671682991386 -0.000016155399836984136 -0.00001748636439320734 -0.000017488751301722647 -0.000017495460705696294
          -0.00002273603736059277 -0.000022737895746625544 -0.00002274238088460973 -0.00001572091227897429 -0.00001572557150238753 -0.000015739569046387508
          -0.000018087944681755186 -0.000017034011507792623 -0.00001809445271417946 -0.000017040686731027116 -0.000018117857125691253 -0.000017062681525216782
          -0.000015135435677341758 -0.000015141261873518834 -0.000015157504184259102 -0.000007583702042947 -0.000009450303273319556 -0.000007583426529561913
          -0.000009450827526095687 -0.000007583462816350341 -0.000009453169584742446 -0.0000035403455431553144 -0.000005445702241597894 -0.000004792297750329684
          -0.0000035428857468554573 -0.000005448543982988678 -0.000004794933475975617 -0.0000035480648860140576 -0.0000054580954355468554 -0.000004803232354071169
          -0.000002802750325548921 -0.000002257691156686073 -0.000005140819402827501 -0.000002804451782970544 -0.0000022595682912721426 -0.000005144106666796148
          -0.000002808927677947642 -0.00000226605643225682 -0.000005153937266589244 -0.00001790725971010063 -0.000016123704677926686 -0.00001791436884409104
          -0.000016129605504660735 -0.000017938939872268422 -0.000016145298672598828 -0.000012820811100727253 -0.000013059200752461807 -0.000011236178272551225
          -0.000012819008157483288 -0.000013057871494109199 -0.000011234901346563943 -0.00001281386540110238 -0.000013053481945352721 -0.00001123149089870622
          -0.000007725952774223783 -0.000009642683450901988 -0.000007727472025804688 -0.000009644522765950934 -0.000007732661130761031 -0.000009649789673624678
          -0.000026114892392418802 -0.000026117004018623373 -0.000026122933167858295 0 0 0
          0 0 0 0 0 0
          0 0 0 -0.000008916047823729903 -0.000008627623284567439 -0.00000892062857757312
          -0.000008632539337038058 -0.000008935996960965807 -0.000008646150956338157 -0.000010231462592559196 -0.000010237172901638621 -0.0000102525026200928
          0 -0.0000020707896267001168 0 -0.000002072259697319594 0 -0.0000020765199911245157
          0 0 0 -0.000018391097611609006 -0.000018392048364697473 -0.000018393938733751233
          0 0 0 -0.000017337098995948348 -0.000017338470972272404 -0.000017342385190119897
          -0.000016265651274480832 -0.000016267622073689817 -0.000016273936412670303 -0.0000016686760314546314 0 -0.0000016676120623155774
          0 -0.0000016575010546651775 0 -0.000014412848508876324 -0.000014824302007432198 -0.000014416916635246146
          -0.000014827466134988 -0.000014428615188092196 -0.000014836770177217354 -0.00001832537721729799 -0.00001833320227673409 -0.00001835768672218559
          -0.00002390266846368667 -0.00002390528552449295 -0.000023912947470398214 -0.00001543474879437773 -0.000015437426312083106 -0.00001544506117891084
          -0.000011906220833265658 -0.000011910851559967543 -0.000011924424513130828 -0.00001877256778898504 -0.00001877914112853043 -0.0000188024704812903
          -0.00001940843192192674 -0.00001941509935615042 -0.000019433388631286445 -0.000011578822142134836 -0.0000129830298895234 -0.000011585162838631163
          -0.000012988879440688868 -0.000011604141464263836 -0.000013006682909423337 -0.000009830721316439015 -0.000009836725614965229 -0.000009854450320281755
          -0.000006435018108578446 -0.00000754103216022181 -0.000006438356593330673 -0.000007545016091113187 -0.000006446838725417979 -0.00000755511144257614
          -0.0000239278893763174 -0.00002509685388196568 -0.00002513717920468596 -0.000023930237851494884 -0.000025099573496758954 -0.000025139945730016148
          -0.00002393749693975415 -0.000025107387164528988 -0.000025148272807818294 -0.000026372920845633718 -0.000026375896358082665 -0.00002638478713223501
          -0.000007916604992568931 -0.000007921467110754176 -0.000007935842205963276 -0.000014938910414831739 -0.00001610038070680832 -0.000014940189338909263
          -0.00001610133516194705 -0.000014944411763730429 -0.0000161044611254397 -0.000007134931481648369 -0.000009009374891290726 -0.000007139594074614198
          -0.000009014976145170815 -0.000007153795104242532 -0.000009031659962716087 -0.000010651223016246246 -0.000010656787804309524 -0.00001067423045036972
          -0.000008397516805977568 -0.00001000654216979186 -0.000008402630979139018 -0.000010011329664142784 -0.000008418166455480875 -0.000010027520200136621
          -0.000020532578525500928 -0.000020090322136752632 -0.00002073756307226399 -0.00002117079132022919 -0.000020536726796806252 -0.000020095219028437585
          -0.000020741743013367887 -0.000021174154303549997 -0.00002054847263071879 -0.00002010735650083257 -0.000020755022530301504 -0.000021184141781005928
          -0.000021685419459797703 -0.00002168840755509673 -0.000021697312446362615 -0.00001854926331519886 -0.00001855758201125708 -0.00001858437228458399
          -0.000008468914779826952 -0.000009673245926239566 -0.000008471116129352522 -0.00000967562762239727 -0.000008476461129061783 -0.000009683536143186556
          -0.00001386573218593082 -0.000013870676749235494 -0.000013885205647585214 -0.000014470328489749555 -0.00001465422499810423 -0.000014468778456780954
          -0.000014653355193780213 -0.000014464133185204473 -0.000014649025209511841 -0.000003248724674674282 -0.000002789185146957614 -0.0000032481361835178763
          -0.00000278707645898562 -0.0000032474108195411338 -0.0000027817912865194643 -0.000026427383400359075 -0.00002643052271871938 -0.000026441540376122236
          -0.000011858836463289598 -0.000011063944944909691 -0.000011864065361267256 -0.00001106856397651281 -0.00001187841392502108 -0.000011082051945900557
          -0.000019711725978132297 -0.000019908763311715043 -0.000020812181048554305 -0.0000205611837596903 -0.00001971723658364677 -0.000019913248233163856
          -0.00002081607085452729 -0.000020565802685464487 -0.000019733958192282503 -0.00001992647349856239 -0.000020827971439242286 -0.000020579499236183623
          -0.000006896973608699992 -0.000006898433466240687 -0.000006902774685038107 -0.00002144061061875464 -0.000021562613976176586 -0.000021444026302282634
          -0.00002156563464235592 -0.00002145453995767432 -0.000021574286771622857 -0.000004649515142952967 -0.00000339975229381473 -0.000004651087415401614
          -0.000003401431630624526 -0.000004654500405898501 -0.000003407344325522442 -0.0000016790853760168257 -0.0000016801108209856167 -0.0000016847847671568248
          -0.00001711551475029705 -0.0000171160638382445 -0.000017118058090001106 -0.000005325669647169166 -0.000005326633167358052 -0.00000533023460120894
          -0.000020097377759110865 -0.000020103150176422212 -0.0000201210182550813 -0.000020975339896630103 -0.00002097941132584539 -0.000020992880450939862
          -0.0000038812653083485544 -0.0000063610084805764695 -0.000003881797754844256 -0.000006363149731340724 -0.000003882999301781689 -0.000006369794443812897
          -0.000022319687304867114 -0.000022321942397957717 -0.000022328660239567788 -0.000019458031651258792 -0.00001946476695927388 -0.00001948037198822289
          -0.000018036311881639355 -0.00001803687410164597 -0.000018038317975461045 -0.000005896513612381435 -0.000005899864613371782 -0.000005910951535272338
          -0.00002158200775274384 -0.00002158452350311169 -0.00002159106262909505 -0.00001255293607289753 -0.000012557100308673636 -0.000012568483783392514
          0 -0.0000018102887264216666 0 0 -0.0000018112955497729182 0
          0 -0.00000181512705455344 0 -0.0000194636969592375 -0.000019470245426074796 -0.000019491397341866675
          -0.000016162315541301884 -0.00001616768520364608 -0.000016162105021683592 -0.000016168014601272013 -0.00001616201475274821 -0.000016168679445435412
          -0.000019274600434461783 -0.000019282025901762136 -0.000019303622022478926 -0.00001899158587866348 -0.000018996309597973908 -0.000019010449355542467
          0 0 0 -0.000022012819764157474 -0.00002201529839783458 -0.000022021875190078844
          -0.000024690320024884284 -0.000024995252633655254 -0.00002469228990422802 -0.00002499761485844222 -0.000024697776217005898 -0.00002500513481816593
          -0.000018800680512473263 -0.000018806806450822164 -0.000018825291754927367 -0.000021962879169036218 -0.00002196451867386146 -0.000021969551072849854
          -0.00000290784839961505 -0.000002906896497819608 -0.000002906009557383695 -0.000016138719239896926 -0.00001613802392431623 -0.000016134964899289963
          -0.000004385712652428803 -0.000004388443317411503 -0.000004394634592960017 -0.000021990500739638564 -0.000021992169259676193 -0.00002199663452608019
          -0.00001518314299782219 -0.000013787901967393237 -0.000015183270476952247 -0.00001378766331066046 -0.000015181968916858304 -0.000013786439491050177
          -0.000005375328726732304 -0.000005376663755089465 -0.000005379958601492689 -0.000007102903025026619 -0.000008857552780988243 -0.0000071016086651630575
          -0.000008856051357907887 -0.000007096623060393403 -0.000008851438990299282 -0.000011131840489958341 -0.000011129742014113078 -0.000011123531599026379
          -0.000009439999513815814 -0.000009437707026132115 -0.000009429886281150453 -0.000005921280128924247 -0.000005920412747382522 -0.000005916293542958598
          0 -0.0000019671690348247057 0 -0.000001966020138988994 0 -0.000001962953738639471
          -0.000006076788258497825 -0.000006075521507683921 -0.000006070620280564359 -0.000003628251785689355 -0.000003627846046017712 -0.000003629569145641274
        </DataArray>
        <DataArray type="Float64" Name="disp_z" format="ascii" RangeMin="-0.000001363803234250117" RangeMax="0">
          0 0 0 0 -3.772840633387785e-7 -3.6553221424259394e-7
          -3.263414555851821e-7 -3.4144480514601136e-7 -7.542806247782019e-7 -7.308684491957566e-7 -6.526014916079562e-7 -6.828734943269641e-7
          0 0 0 0 -4.6752531168911836e-7 -4.5689105952272737e-7
          -4.552829375701709e-7 -4.6835261908967935e-7 -9.350299363947821e-7 -9.134012375041528e-7 -9.104839309703445e-7 -9.366785430444047e-7
          0 0 -2.4345906889990775e-7 -2.7325496777686125e-7 -4.869383800556985e-7 -5.469015411299502e-7
          0 0 0 0 -5.396541402885785e-7 -5.530772281751469e-7
          -5.221286028045673e-7 -5.167841030815062e-7 -0.0000010788069827590161 -0.0000011055834280475756 -0.0000010436981490541563 -0.0000010311035660834613
          0 0 -4.601776001391068e-7 -4.7702539917486e-7 -9.207138275853472e-7 -9.539095933189666e-7
          0 0 0 0 -4.1867751832533496e-7 -3.797167766818817e-7
          -4.0389557314244203e-7 -4.4654958138996476e-7 -8.36514913861521e-7 -7.594345810562356e-7 -8.059986033776267e-7 -8.899394535145428e-7
          0 0 0 0 -5.744468472781557e-7 -6.151784403626204e-7
          -5.771681450144133e-7 -5.495258522557418e-7 -0.0000011483087255077665 -0.0000012285692755916673 -0.0000011532530325334505 -0.0000010987917958266656
          0 0 -3.579143823094274e-7 -3.8306945489067397e-7 -7.158971019909111e-7 -7.659803151795739e-7
          0 0 0 0 -4.658093768930244e-7 -4.475690885255614e-7
          -5.283591225028602e-7 -5.303340343314158e-7 -9.293070719796691e-7 -8.952547068094458e-7 -0.0000010551590060840808 -0.0000010597542330324756
          0 0 0 -4.130955827237409e-7 -4.2493269369164667e-7 -4.459935099670344e-7
          -8.252434770621323e-7 -8.491069086918604e-7 -8.925874493196218e-7 0 0 0
          0 -6.699108569135255e-7 -6.750129228489797e-7 -6.646757265623024e-7 -6.638318207707654e-7 -0.0000013363678392033181
          -0.0000013474061696545151 -0.0000013266637833996756 -0.0000013246597695933587 0 0 0
          0 -4.914300202494687e-7 -5.020555465182309e-7 -4.6612573794673905e-7 -4.62792884891169e-7 -9.822504786641776e-7
          -0.0000010035270272067403 -9.322327273953724e-7 -9.245293851512919e-7 0 -5.291290801943595e-7 -0.0000010582754977215273
          0 0 0 -4.129138849796238e-7 -3.9647371861270567e-7 -3.807520316307037e-7
          -8.25204355924342e-7 -7.924028542707125e-7 -7.630418168593529e-7 0 0 -5.070472378466287e-7
          -5.314841710805835e-7 -0.000001012878278388571 -0.00000106231515960335 0 0 0
          0 -5.748581133235406e-7 -5.517771260403447e-7 -5.795447994056992e-7 -6.06084132964502e-7 -0.0000011492032483171163
          -0.0000011038372689933179 -0.000001158833931485761 -0.000001211257312702188 0 0 0
          0 -3.5224694008879125e-7 -3.966627704730822e-7 -3.249013407096061e-7 -2.6692187682397564e-7 -7.028743689287844e-7
          -7.900549374792895e-7 -6.499865499306578e-7 -5.354092030516284e-7 0 0 0
          -4.992643758573172e-7 -4.901380862646932e-7 -4.826699847218098e-7 -9.992592721662871e-7 -9.809510325568643e-7 -9.66499488687652e-7
          0 0 -2.0067764428055677e-7 -3.042442543831746e-7 -4.0581041104815373e-7 -6.077447069153482e-7
          0 0 0 0 -4.657834126438387e-7 -4.69219851957112e-7
          -5.217920183995318e-7 -5.389412447508733e-7 -9.305906094051587e-7 -9.378023111609704e-7 -0.0000010419371793636736 -0.0000010753640827658788
          0 0 -5.258342163613266e-7 -5.01817850760614e-7 -0.0000010522820115056708 -0.0000010041223004604304
          0 0 -4.143106612510213e-7 -4.331894002074733e-7 -8.274934006045726e-7 -8.642816396077928e-7
          0 0 -5.416731036823314e-7 -4.791320089757415e-7 -0.0000010816013496778776 -9.580083937580276e-7
          0 0 0 0 -3.8661993085232046e-7 -3.6933540983994537e-7
          -3.6430982851800106e-7 -3.8629556882782486e-7 -7.736724899112712e-7 -7.393386881252382e-7 -7.295542803248362e-7 -7.735987972082455e-7
          0 0 -3.662231295089692e-7 -3.5595729936841604e-7 -7.32445002136107e-7 -7.089086741527803e-7
          0 -3.958154737232651e-7 -7.901908850710613e-7 0 0 -4.2795914897723854e-7
          -4.1307490295432976e-7 -8.565222568074019e-7 -8.267900087330246e-7 0 0 0
          -4.4478818310052574e-7 -4.3344300366122667e-7 -4.4168563860474795e-7 -8.88372404658985e-7 -8.656834784950278e-7 -8.804995869470352e-7
          0 0 0 -4.24071624361473e-7 -4.337989173108371e-7 -3.7091100528511306e-7
          -8.472415751167735e-7 -8.671782621819366e-7 -7.409432010744221e-7 0 -3.5500226575066733e-7 -7.113485262767366e-7
          0 -4.142180407063721e-7 -8.288456758388386e-7 0 0 -5.014577904316714e-7
          -5.122554682584674e-7 -0.0000010006341354825558 -0.0000010227083175394736 0 -4.3459922215755535e-7 -8.686646072730548e-7
          0 0 0 -3.5342038305309135e-7 -3.67101500023169e-7 -4.0317821366734117e-7
          -7.07255856986864e-7 -7.358993582067321e-7 -8.060618696847162e-7 0 0 -5.816283833113817e-7
          -5.892882606589183e-7 -0.000001159647419907063 -0.0000011749439156631592 0 0 0
          0 -2.4151066879178944e-7 -2.1373353108749768e-7 -2.1614271292581942e-7 -2.569256894659282e-7 -4.830559618145578e-7
          -4.2700523792531985e-7 -4.3299960189229014e-7 -5.142950079155825e-7 0 0 0
          0 -3.4348207470103815e-7 -3.009657374123774e-7 -3.123048672945959e-7 -3.571685282637203e-7 -6.867514021222268e-7
          -6.02220006130074e-7 -6.24684442132475e-7 -7.139979174642723e-7 0 0 0
          -4.868281929202591e-7 -4.6353322564181054e-7 -4.918218168926632e-7 -9.735792449901787e-7 -9.262060296240894e-7 -9.832823621410208e-7
          0 -4.15133462850398e-7 -8.303353952035112e-7 0 -4.392046106777887e-7 -8.748360673734839e-7
          0 0 -1.922245837270341e-7 -1.7672038133917014e-7 -3.8631634245510715e-7 -3.549812795709351e-7
          0 0 -2.59258902994311e-7 -2.8808467364124204e-7 -5.190765593676209e-7 -5.764107250978966e-7
          0 -3.876348023611276e-7 -7.768582393088952e-7 0 0 0
          0 -4.004380587136423e-7 -4.3324871188293547e-7 -4.2268970475909877e-7 -3.8484742908898933e-7 -8.011302457294685e-7
          -8.678105996856074e-7 -8.448952137330148e-7 -7.694670163318599e-7 0 -4.525256621476073e-7 -9.038073757327977e-7
          0 -4.000953888559856e-7 -8.00523156121802e-7 0 0 -4.237640926340992e-7
          -3.8887767147697457e-7 -8.475251736806229e-7 -7.769424750074394e-7 0 -3.171244723708159e-7 -6.348493554619388e-7
          0 0 -3.6781231695594894e-7 -3.9379162038712114e-7 -7.359753149486038e-7 -7.884833255187664e-7
          0 -3.4184381167561805e-7 -6.855954943641821e-7 0 0 -4.0786087599061853e-7
          -4.1147153797026405e-7 -8.162729026848726e-7 -8.237857910652967e-7 0 -4.060576803345536e-7 -8.124031136570559e-7
          0 -3.83883098895402e-7 -7.670692071260826e-7 0 -4.1971505781719094e-7 -8.403799349436234e-7
          0 0 -3.0219290872746466e-7 -3.2869504482315275e-7 -6.039088071860319e-7 -6.549537078318204e-7
          0 -4.3917862028680447e-7 -8.794086640709037e-7 0 0 -4.824734030199471e-7
          -4.7327787751710757e-7 -9.63053612110911e-7 -9.458874914203191e-7 0 0 0
          -6.268165788361197e-7 -6.386383290328323e-7 -6.287327951352203e-7 -0.0000012511313704887146 -0.0000012731385343458427 -0.0000012567699060699256
          0 0 0 -6.586468555927708e-7 -6.310095886128069e-7 -6.343609759965344e-7
          -0.0000013152040463440656 -0.0000012603959032787159 -0.0000012667809974581477 0 0 -2.7835480016076156e-7
          -3.42087805193172e-7 -5.57909220903084e-7 -6.855464015197625e-7 0 0 0
          -4.84836775879058e-7 -4.81634691108945e-7 -4.720810593375356e-7 -9.690880489525294e-7 -9.624778599038813e-7 -9.43563855397268e-7
          0 0 -4.929933260397872e-7 -4.791324083896834e-7 -9.85308200975007e-7 -9.581854916243785e-7
          0 -3.1040170437917177e-7 -6.212268559925989e-7 0 0 -6.335899366751995e-7
          -6.590407776584294e-7 -0.0000012650978120030424 -0.0000013163402417809455 0 0 -6.83042061940673e-7
          -6.829054315759741e-7 -0.000001363803234250117 -0.0000013628348818692473 0 0 -6.181082091063448e-7
          -6.298598034325814e-7 -0.0000012322556966901667 -0.0000012556356014085508 0 -5.573076303179952e-7 -0.0000011132604082997846
          0 0 -5.869294521667105e-7 -5.926289554035816e-7 -0.0000011725269215131674 -0.0000011843397654466883
          0 -5.38198798758327e-7 -0.0000010750343944569337 0 -4.391407046071686e-7 -8.790376678366332e-7
          0 -4.880451298124601e-7 -9.762833836066355e-7 0 -4.26694937741464e-7 -8.545626569163227e-7
          0 -4.310696922844276e-7 -8.62716496099727e-7 0 0 -4.6852162208793316e-7
          -4.1701457667127454e-7 -9.373577999946621e-7 -8.375912265502946e-7 0 0 -4.404905752939052e-7
          -4.3398014818764663e-7 -8.816255484686862e-7 -8.683190120012734e-7 0 -3.3748338973868937e-7 -6.754636413294945e-7
          0 -3.3225720353988806e-7 -6.649556162947928e-7 0 -4.3147043776897604e-7 -8.630215759384162e-7
          0 -4.412464130883624e-7 -8.821906104428046e-7 0 -2.549270413566559e-7 -5.129565235044746e-7
          0 -2.3997167165936763e-7 -4.814292455358062e-7 0 0 -5.318802415456161e-7
          -4.877341808779651e-7 -0.0000010633763067027145 -9.763640470176702e-7 0 -5.803611592766273e-7 -0.0000011593676864355502
          0 0 -6.469349687251859e-7 -6.321753727433802e-7 -0.000001290684519170956 -0.0000012609540241505546
          0 0 0 -3.75431598926104e-7 -4.025586616173416e-7 -3.6239245869109987e-7
          -7.499598601299462e-7 -8.043386256983809e-7 -7.245063244672777e-7 0 -3.491180699859005e-7 -6.983836933056484e-7
          0 -6.176770742587842e-7 -0.000001233170119608046 0 0 -4.5641083318071337e-7
          -4.560648526288493e-7 -9.127594652992457e-7 -9.122056099815474e-7 0 0 -6.011914646619775e-7
          -5.651244405148906e-7 -0.00000120141547127759 -0.0000011302851536044715 0 -5.2355806947955e-7 -0.0000010482184413099813
          0 0 -5.473413403586391e-7 -5.119515863059735e-7 -0.0000010947844517427917 -0.000001025570267153683
          0 0 0 0 -2.018823462035189e-7 -2.122892725292846e-7
          -2.1258286044640946e-7 -1.9118387199423164e-7 -4.061080027214302e-7 -4.2902878601548764e-7 -4.2686033705229444e-7 -3.8537066673165573e-7
          0 -2.678005548304401e-7 -5.36309493349316e-7 0 -2.928294568334412e-7 -5.882198403118334e-7
          0 0 -4.7002416084569127e-7 -4.6473752856016385e-7 -9.391126796095544e-7 -9.298697622437118e-7
          0 -4.5570728076762634e-7 -9.126995021741231e-7 0 0 -4.972449596561077e-7
          -4.95272513880881e-7 -9.939178382557589e-7 -9.885589601999914e-7 0 0 -4.1295822528846695e-7
          -3.4596934906848864e-7 -8.240013033681191e-7 -6.910032574350896e-7 0 -3.864903291966458e-7 -7.730553524640597e-7
          0 0 -4.88862565154203e-7 -4.870548441368019e-7 -9.79659277826605e-7 -9.74939066697952e-7
          0 0 0 0 -2.960740975009318e-7 -3.1334637804540835e-7
          -2.8898174847030713e-7 -2.659062721787741e-7 -5.92853924330426e-7 -6.273798823973039e-7 -5.788468016535219e-7 -5.327167445022366e-7
          0 -4.72600378914077e-7 -9.443089087695873e-7 0 0 -2.3222089197422937e-7
          -2.004268687077614e-7 -4.6571597401452383e-7 -4.0235190296007565e-7 0 0 -5.282678158649171e-7
          -5.706551409182376e-7 -0.0000010556970793606419 -0.000001140453193235218 0 -5.870425462064795e-7 -0.0000011724855905466546
          0 -4.668767124825936e-7 -9.331477449409622e-7 0 -4.777483621368281e-7 -9.537846805507785e-7
          0 -2.486705217319692e-7 -4.991380299637462e-7 0 -1.7618632469294698e-7 -3.527819838523772e-7
          0 0 -4.772441124361223e-7 -5.263545769103747e-7 -9.524641401745904e-7 -0.0000010513639153840867
          0 -2.2283131496400827e-7 -4.465576571967763e-7 0 -2.1941735204022733e-7 -4.37649383146674e-7
          0 -4.875635882735694e-7 -9.737090312481488e-7 0 -6.529111882794571e-7 -0.0000013029885611588898
          0 -1.753906157099856e-7 -3.525268974522473e-7 0 -4.6908866550462856e-7 -9.391063522048763e-7
          0 0 0 -6.494281923223979e-7 -6.390347647696383e-7 -5.911269078465908e-7
          -0.000001296024123832072 -0.000001275835739701449 -0.00000117958184573822 0 -2.426145479821465e-7 -4.904303197789457e-7
          0 0 -5.021227109105201e-7 -4.904535876511575e-7 -0.0000010020736454348236 -9.793400612830585e-7
          0 -2.88209080792613e-7 -5.776108237567831e-7 0 -3.400543820916525e-7 -6.80688647831476e-7
          0 -5.146919959225943e-7 -0.0000010276470662749424 0 -1.9228266391214302e-7 -3.862096058365176e-7
          0 0 -2.785216792116318e-7 -3.1976355047916057e-7 -5.575446527435266e-7 -6.401664054024432e-7
          0 -3.343794629899913e-7 -6.694944795260125e-7 0 -1.6293587185766118e-7 -3.266960260704665e-7
          0 -5.087584426480963e-7 -0.0000010150748999211866 0 -5.04793420146946e-7 -0.000001008154846179516
          0 -6.662318323539885e-7 -0.000001330311438710707 0 -4.574471832182202e-7 -9.139925902869926e-7
          0 0 -4.827897694173056e-7 -4.7275072027820407e-7 -9.638454618884825e-7 -9.448262052077136e-7
          0 -5.038347382410825e-7 -0.0000010063355358645236 0 0 -4.544079893920636e-7
          -4.612454122897075e-7 -9.086441375973149e-7 -9.219769363072312e-7 0 -4.7566492062860133e-7 -9.506705668210283e-7
          0 -4.5560023976008136e-7 -9.110389331514889e-7 0 -4.719499711747651e-7 -9.429018249524862e-7
          0 0 -3.975256971094385e-7 -4.116073603074589e-7 -7.971091336059506e-7 -8.252906880097089e-7
          0 -4.489801217817825e-7 -8.98702885317839e-7 0 -4.65320086399672e-7 -9.297696193110617e-7
        </DataArray>
      </PointData>
      <CellData>
        <DataArray type="Int32" Name="libmesh_elem_id" format="ascii" RangeMin="1392" RangeMax="3231">
          1392 1393 1402 1403 1418 1419
          1434 1435 1442 1443 1448 1449
          1454 1455 1478 1479 1500 1501
          1512 1513 1522 1523 1546 1547
          1572 1573 1582 1583 1590 1591
          1608 1609 1614 1615 1616 1617
          1630 1631 1638 1639 1650 1651
          1654 1655 1656 1657 1678 1679
          1682 1683 1684 1685 1704 1705
          1714 1715 1718 1719 1746 1747
          1760 1761 1762 1763 1772 1773
          1790 1791 1794 1795 1802 1803
          1816 1817 1824 1825 1832 1833
          1838 1839 1840 1841 1846 1847
          1848 1849 1852 1853 1856 1857
          1858 1859 1862 1863 1864 1865
          1874 1875 1876 1877 1878 1879
          1882 1883 1888 1889 1904 1905
          1906 1907 1910 1911 1916 1917
          1924 1925 1926 1927 1930 1931
          1936 1937 1946 1947 1950 1951
          1956 1957 1960 1961 1982 1983
          1996 1997 1998 1999 2026 2027
          2028 2029 2038 2039 2046 2047
          2048 2049 2052 2053 2054 2055
          2058 2059 2060 2061 2084 2085
          2088 2089 2096 2097 2102 2103
          2106 2107 2110 2111 2126 2127
          2136 2137 2138 2139 2144 2145
          2148 2149 2154 2155 2158 2159
          2162 2163 2164 2165 2170 2171
          2176 2177 2178 2179 2196 2197
          2200 2201 2202 2203 2204 2205
          2212 2213 2220 2221 2222 2223
          2224 2225 2226 2227 2228 2229
          2232 2233 2236 2237 2246 2247
          2250 2251 2252 2253 2254 2255
          2260 2261 2264 2265 2266 2267
          2274 2275 2282 2283 2308 2309
          2310 2311 2312 2313 2318 2319
          2324 2325 2328 2329 2346 2347
          2350 2351 2364 2365 2368 2369
          2370 2371 2402 2403 2416 2417
          2420 2421 2444 2445 2458 2459
          2462 2463 2466 2467 2468 2469
          2470 2471 2478 2479 2484 2485
          2488 2489 2490 2491 2502 2503
          2504 2505 2510 2511 2512 2513
          2524 2525 2550 2551 2566 2567
          2570 2571 2580 2581 2582 2583
          2602 2603 2608 2609 2616 2617
          2628 2629 2634 2635 2636 2637
          2640 2641 2642 2643 2644 2645
          2650 2651 2666 2667 2668 2669
          2684 2685 2690 2691 2696 2697
          2700 2701 2710 2711 2714 2715
          2716 2717 2726 2727 2750 2751
          2760 2761 2766 2767 2772 2773
          2782 2783 2798 2799 2802 2803
          2810 2811 2826 2827 2830 2831
          2838 2839 2860 2861 2868 2869
          2874 2875 2884 2885 2922 2923
          2928 2929 2934 2935 2938 2939
          2946 2947 2948 2949 2960 2961
          2962 2963 2964 2965 2974 2975
          2978 2979 2994 2995 2998 2999
          3004 3005 3008 3009 3020 3021
          3028 3029 3034 3035 3038 3039
          3040 3041 3042 3043 3050 3051
          3052 3053 3054 3055 3060 3061
          3066 3067 3072 3073 3076 3077
          3082 3083 3086 3087 3096 3097
          3100 3101 3102 3103 3112 3113
          3116 3117 3148 3149 3154 3155
          3158 3159 3166 3167 3182 3183
          3230 3231
        </DataArray>
        <DataArray type="Int32" Name="subdomain_id" format="ascii" RangeMin="107" RangeMax="107">
          107 107 107 107 107 107
          107 107 107 107 107 107
          107 107 107 107 107 107
          107 107 107 107 107 107
          107 107 107 107 107 107
          107 107 107 107 107 107
          107 107 107 107 107 107
          107 107 107 107 107 107
          107 107 107 107 107 107
          107 107 107 107 107 107
          107 107 107 107 107 107
          107 107 107 107 107 107
          107 107 107 107 107 107
          107 107 107 107 107 107
          107 107 107 107 107 107
          107 107 107 107 107 107
          107 107 107 107 107 107
          107 107 107 107 107 107
          107 107 107 107 107 107
          107 107 107 107 107 107
          107 107 107 107 107 107
          107 107 107 107 107 107
          107 107 107 107 107 107
          107 107 107 107 107 107
          107 107 107 107 107 107
          107 107 107 107 107 107
          107 107 107 107 107 107
          107 107 107 107 107 107
          107 107 107 107 107 107
          107 107 107 107 107 107
          107 107 107 107 107 107
          107 107 107 107 107 107
          107 107 107 107 107 107
          107 107 107 107 107 107
          107 107 107 107 107 107
          107 107 107 107 107 107
          107 107 107 107 107 107
          107 107 107 107 107 107
          107 107 107 107 107 107
          107 107 107 107 107 107
          107 107 107 107 107 107
          107 107 107 107 107 107
          107 107 107 107 107 107
          107 107 107 107 107 107
          107 107 107 107 107 107
          107 107 107 107 107 107
          107 107 107 107 107 107
          107 107 107 107 107 107
          107 107 107 107 107 107
          107 107 107 107 107 107
          107 107 107 107 107 107
          107 107 107 107 107 107
          107 107 107 107 107 107
          107 107 107 107 107 107
          107 107 107 107 107 107
          107 107 107 107 107 107
          107 107 107 107 107 107
          107 107 107 107 107 107
          107 107 107 107 107 107
          107 107 107 107 107 107
          107 107 107 107 107 107
          107 107 107 107 107 107
          107 107 107 107 107 107
          107 107 107 107 107 107
          107 107 107 107 107 107
          107 107 107 107 107 107
          107 107 107 107 107 107
          107 107 107 107 107 107
          107 107 107 107 107 107
          107 107 107 107 107 107
          107 107 107 107 107 107
          107 107 107 107 107 107
          107 107 107 107 107 107
          107 107 107 107 107 107
          107 107 107 107 107 107
          107 107
        </DataArray>
        <DataArray type="Int32" Name="processor_id" format="ascii" RangeMin="2" RangeMax="2">
          2 2 2 2 2 2
          2 2 2 2 2 2
          2 2 2 2 2 2
          2 2 2 2 2 2
          2 2 2 2 2 2
          2 2 2 2 2 2
          2 2 2 2 2 2
          2 2 2 2 2 2
          2 2 2 2 2 2
          2 2 2 2 2 2
          2 2 2 2 2 2
          2 2 2 2 2 2
          2 2 2 2 2 2
          2 2 2 2 2 2
          2 2 2 2 2 2
          2 2 2 2 2 2
          2 2 2 2 2 2
          2 2 2 2 2 2
          2 2 2 2 2 2
          2 2 2 2 2 2
          2 2 2 2 2 2
          2 2 2 2 2 2
          2 2 2 2 2 2
          2 2 2 2 2 2
          2 2 2 2 2 2
          2 2 2 2 2 2
          2 2 2 2 2 2
          2 2 2 2 2 2
          2 2 2 2 2 2
          2 2 2 2 2 2
          2 2 2 2 2 2
          2 2 2 2 2 2
          2 2 2 2 2 2
          2 2 2 2 2 2
          2 2 2 2 2 2
          2 2 2 2 2 2
          2 2 2 2 2 2
          2 2 2 2 2 2
          2 2 2 2 2 2
          2 2 2 2 2 2
          2 2 2 2 2 2
          2 2 2 2 2 2
          2 2 2 2 2 2
          2 2 2 2 2 2
          2 2 2 2 2 2
          2 2 2 2 2 2
          2 2 2 2 2 2
          2 2 2 2 2 2
          2 2 2 2 2 2
          2 2 2 2 2 2
          2 2 2 2 2 2
          2 2 2 2 2 2
          2 2 2 2 2 2
          2 2 2 2 2 2
          2 2 2 2 2 2
          2 2 2 2 2 2
          2 2 2 2 2 2
          2 2 2 2 2 2
          2 2 2 2 2 2
          2 2 2 2 2 2
          2 2 2 2 2 2
          2 2 2 2 2 2
          2 2 2 2 2 2
          2 2 2 2 2 2
          2 2 2 2 2 2
          2 2 2 2 2 2
          2 2 2 2 2 2
          2 2 2 2 2 2
          2 2 2 2 2 2
          2 2 2 2 2 2
          2 2 2 2 2 2
          2 2 2 2 2 2
          2 2 2 2 2 2
          2 2 2 2 2 2
          2 2 2 2 2 2
          2 2
        </DataArray>
      </CellData>
      <Points>
        <DataArray type="Float64" Name="Points" NumberOfComponents="3" format="ascii" RangeMin="0.0055128205128194" RangeMax="0.014586579917196396">
          0.010655961336451 0.0054415469453289 0 0.010738296327413 0.0059250363170334 0
          0.010252884061106 0.0059462536680524 0 0.010205117478458 0.0054994523140404 0
          0.010655961336451 0.0054415469453289 0.00015 0.010738296327413 0.0059250363170334 0.00015
          0.010252884061106 0.0059462536680524 0.00015 0.010205117478458 0.0054994523140404 0.00015
          0.010655961336451 0.0054415469453289 0.0003 0.010738296327413 0.0059250363170334 0.0003
          0.010252884061106 0.0059462536680524 0.0003 0.010205117478458 0.0054994523140404 0.0003
          0.011940440807394 0.0034141066074527 0 0.011459595517011 0.003824326979063 0
          0.011102612382238 0.0034627190197861 0 0.011355953963772 0.0030463545109029 0
          0.011940440807394 0.0034141066074527 0.00015 0.011459595517011 0.003824326979063 0.00015
          0.011102612382238 0.0034627190197861 0.00015 0.011355953963772 0.0030463545109029 0.00015
          0.011940440807394 0.0034141066074527 0.0003 0.011459595517011 0.003824326979063 0.0003
          0.011102612382238 0.0034627190197861 0.0003 0.011355953963772 0.0030463545109029 0.0003
          0.010057653370411 0.0084974472595183 0 0.01054988842507 0.0084422245958245 0
          0.010057653370411 0.0084974472595183 0.00015 0.01054988842507 0.0084422245958245 0.00015
          0.010057653370411 0.0084974472595183 0.0003 0.01054988842507 0.0084422245958245 0.0003
          0.011046194733105 0.00090743319272295 0 0.011064186406242 0.00044456569898216 0
          0.011549090679959 0.00043919238601916 0 0.011507246232172 0.00087204304167501 0
          0.011046194733105 0.00090743319272295 0.00015 0.011064186406242 0.00044456569898216 0.00015
          0.011549090679959 0.00043919238601916 0.00015 0.011507246232172 0.00087204304167501 0.00015
          0.011046194733105 0.00090743319272295 0.0003 0.011064186406242 0.00044456569898216 0.0003
          0.011549090679959 0.00043919238601916 0.0003 0.011507246232172 0.00087204304167501 0.0003
          0.010695724673322 0.003201084864495 0 0.010922769205465 0.002821493997395 0
          0.010695724673322 0.003201084864495 0.00015 0.010922769205465 0.002821493997395 0.00015
          0.010695724673322 0.003201084864495 0.0003 0.010922769205465 0.002821493997395 0.0003
          0.0063972422249218 0.0045440807567198 0 0.0065062213292024 0.0050164807168814 0
          0.0062389906493372 0.0053128670028646 0 0.0060512178389602 0.0047929387822649 0
          0.0063972422249218 0.0045440807567198 0.00015 0.0065062213292024 0.0050164807168814 0.00015
          0.0062389906493372 0.0053128670028646 0.00015 0.0060512178389602 0.0047929387822649 0.00015
          0.0063972422249218 0.0045440807567198 0.0003 0.0065062213292024 0.0050164807168814 0.0003
          0.0062389906493372 0.0053128670028646 0.0003 0.0060512178389602 0.0047929387822649 0.0003
          0.0077450758336629 0.0014176167893871 0 0.0081853433575 0.0016343392489207 0
          0.0081296210030831 0.0020475545417094 0 0.0077097822266787 0.0019577759081516 0
          0.0077450758336629 0.0014176167893871 0.00015 0.0081853433575 0.0016343392489207 0.00015
          0.0081296210030831 0.0020475545417094 0.00015 0.0077097822266787 0.0019577759081516 0.00015
          0.0077450758336629 0.0014176167893871 0.0003 0.0081853433575 0.0016343392489207 0.0003
          0.0081296210030831 0.0020475545417094 0.0003 0.0077097822266787 0.0019577759081516 0.0003
          0.010163700921554 0.0050965322104848 0 0.010539876174215 0.0050107335132671 0
          0.010163700921554 0.0050965322104848 0.00015 0.010539876174215 0.0050107335132671 0.00015
          0.010163700921554 0.0050965322104848 0.0003 0.010539876174215 0.0050107335132671 0.0003
          0.0067145785472978 0.00092067788586619 0 0.0066311284750677 0.00045344715700039 0
          0.0071039644964018 0.00045254776362746 0 0.0071622170579096 0.00091220258976311 0
          0.0067145785472978 0.00092067788586619 0.00015 0.0066311284750677 0.00045344715700039 0.00015
          0.0071039644964018 0.00045254776362746 0.00015 0.0071622170579096 0.00091220258976311 0.00015
          0.0067145785472978 0.00092067788586619 0.0003 0.0066311284750677 0.00045344715700039 0.0003
          0.0071039644964018 0.00045254776362746 0.0003 0.0071622170579096 0.00091220258976311 0.0003
          0.011832021157187 0.0073476785459853 0 0.011779780861271 0.0068646395959748 0
          0.012243708910156 0.0068324173193727 0 0.011832021157187 0.0073476785459853 0.00015
          0.011779780861271 0.0068646395959748 0.00015 0.012243708910156 0.0068324173193727 0.00015
          0.011832021157187 0.0073476785459853 0.0003 0.011779780861271 0.0068646395959748 0.0003
          0.012243708910156 0.0068324173193727 0.0003 0.0084907788898463 0.00044286110481525 0
          0.0089555217282148 0.00046389179151574 0 0.0088246864415892 0.00090448805343066 0
          0.0084146790711037 0.00087434414493667 0 0.0084907788898463 0.00044286110481525 0.00015
          0.0089555217282148 0.00046389179151574 0.00015 0.0088246864415892 0.00090448805343066 0.00015
          0.0084146790711037 0.00087434414493667 0.00015 0.0084907788898463 0.00044286110481525 0.0003
          0.0089555217282148 0.00046389179151574 0.0003 0.0088246864415892 0.00090448805343066 0.0003
          0.0084146790711037 0.00087434414493667 0.0003 0.0073198391209489 0.002802975731369 0
          0.007729981097025 0.0028801564362105 0 0.0077015154526268 0.0033237594367458 0
          0.0072927827923603 0.0032114269239825 0 0.0073198391209489 0.002802975731369 0.00015
          0.007729981097025 0.0028801564362105 0.00015 0.0077015154526268 0.0033237594367458 0.00015
          0.0072927827923603 0.0032114269239825 0.00015 0.0073198391209489 0.002802975731369 0.0003
          0.007729981097025 0.0028801564362105 0.0003 0.0077015154526268 0.0033237594367458 0.0003
          0.0072927827923603 0.0032114269239825 0.0003 0.011061956134478 0.0014022262787872 0
          0.011061956134478 0.0014022262787872 0.00015 0.011061956134478 0.0014022262787872 0.0003
          0.0067262777673885 0.0043003855308917 0 0.0070184374453973 0.0044097475846897 0
          0.0069143452336461 0.0047780273607631 0 0.0067262777673885 0.0043003855308917 0.00015
          0.0070184374453973 0.0044097475846897 0.00015 0.0069143452336461 0.0047780273607631 0.00015
          0.0067262777673885 0.0043003855308917 0.0003 0.0070184374453973 0.0044097475846897 0.0003
          0.0069143452336461 0.0047780273607631 0.0003 0.0072966772765568 0.0023596996909359 0
          0.0077191611848381 0.0024307703640478 0 0.0072966772765568 0.0023596996909359 0.00015
          0.0077191611848381 0.0024307703640478 0.00015 0.0072966772765568 0.0023596996909359 0.0003
          0.0077191611848381 0.0024307703640478 0.0003 0.010569749843509 0.00092230265866691 0
          0.010578573679683 0.0013844170604281 0 0.010145320905195 0.0014335884987508 0
          0.01008894187929 0.00096115561381429 0 0.010569749843509 0.00092230265866691 0.00015
          0.010578573679683 0.0013844170604281 0.00015 0.010145320905195 0.0014335884987508 0.00015
          0.01008894187929 0.00096115561381429 0.00015 0.010569749843509 0.00092230265866691 0.0003
          0.010578573679683 0.0013844170604281 0.0003 0.010145320905195 0.0014335884987508 0.0003
          0.01008894187929 0.00096115561381429 0.0003 0.0061669869081239 0.00049673093518566 0
          0.0062913293509889 0.00097410606592609 0 0.0059245902968253 0.0010856763727913 0
          0.0057061681768373 0.00065177476244477 0 0.0061669869081239 0.00049673093518566 0.00015
          0.0062913293509889 0.00097410606592609 0.00015 0.0059245902968253 0.0010856763727913 0.00015
          0.0057061681768373 0.00065177476244477 0.00015 0.0061669869081239 0.00049673093518566 0.0003
          0.0062913293509889 0.00097410606592609 0.0003 0.0059245902968253 0.0010856763727913 0.0003
          0.0057061681768373 0.00065177476244477 0.0003 0.010613957240618 0.0022894151744625 0
          0.011031068838334 0.0023895404946521 0 0.01053554486979 0.0026566023779455 0
          0.010613957240618 0.0022894151744625 0.00015 0.011031068838334 0.0023895404946521 0.00015
          0.01053554486979 0.0026566023779455 0.00015 0.010613957240618 0.0022894151744625 0.0003
          0.011031068838334 0.0023895404946521 0.0003 0.01053554486979 0.0026566023779455 0.0003
          0.0055128205128194 0 0 0.0060256410256386 0 0
          0.0055128205128194 0 0.00015 0.0060256410256386 0 0.00015
          0.0055128205128194 0 0.0003 0.0060256410256386 0 0.0003
          0.0087932726011055 0.003543484648519 0 0.0081725565838686 0.0034418576035907 0
          0.0081844882448281 0.0029554535172717 0 0.0086653225286358 0.0029358056411338 0
          0.0087932726011055 0.003543484648519 0.00015 0.0081725565838686 0.0034418576035907 0.00015
          0.0081844882448281 0.0029554535172717 0.00015 0.0086653225286358 0.0029358056411338 0.00015
          0.0087932726011055 0.003543484648519 0.0003 0.0081725565838686 0.0034418576035907 0.0003
          0.0081844882448281 0.0029554535172717 0.0003 0.0086653225286358 0.0029358056411338 0.0003
          0.010609256891376 0.0018508518753275 0 0.011063963632424 0.0019108783312894 0
          0.010609256891376 0.0018508518753275 0.00015 0.011063963632424 0.0019108783312894 0.00015
          0.010609256891376 0.0018508518753275 0.0003 0.011063963632424 0.0019108783312894 0.0003
          0.0061614658010566 0.0029736343202522 0 0.0061372854142827 0.0036106222238676 0
          0.0061614658010566 0.0029736343202522 0.00015 0.0061372854142827 0.0036106222238676 0.00015
          0.0061614658010566 0.0029736343202522 0.0003 0.0061372854142827 0.0036106222238676 0.0003
          0.0091223832784702 0.0028108558594978 0 0.0093224708097351 0.0032450014434347 0
          0.0091223832784702 0.0028108558594978 0.00015 0.0093224708097351 0.0032450014434347 0.00015
          0.0091223832784702 0.0028108558594978 0.0003 0.0093224708097351 0.0032450014434347 0.0003
          0.010365654248251 0.0046741943492533 0 0.010130092133721 0.0048347586786618 0
          0.0098673679311407 0.0047157860708196 0 0.010078628200493 0.0044157313734999 0
          0.010365654248251 0.0046741943492533 0.00015 0.010130092133721 0.0048347586786618 0.00015
          0.0098673679311407 0.0047157860708196 0.00015 0.010078628200493 0.0044157313734999 0.00015
          0.010365654248251 0.0046741943492533 0.0003 0.010130092133721 0.0048347586786618 0.0003
          0.0098673679311407 0.0047157860708196 0.0003 0.010078628200493 0.0044157313734999 0.0003
          0.0074225055052033 0.0045889494028562 0 0.0073125071067115 0.0049521547682488 0
          0.0074225055052033 0.0045889494028562 0.00015 0.0073125071067115 0.0049521547682488 0.00015
          0.0074225055052033 0.0045889494028562 0.0003 0.0073125071067115 0.0049521547682488 0.0003
          0.0061231952422177 0.002444135475079 0 0.0061231952422177 0.002444135475079 0.00015
          0.0061231952422177 0.002444135475079 0.0003 0.007634491258567 0.0037589111207536 0
          0.0080978935956725 0.0039120786728548 0 0.007634491258567 0.0037589111207536 0.00015
          0.0080978935956725 0.0039120786728548 0.00015 0.007634491258567 0.0037589111207536 0.0003
          0.0080978935956725 0.0039120786728548 0.0003 0.0067400809843091 0.0034207975388345 0
          0.0067100713183769 0.0039836679330495 0 0.0063054236008776 0.0041223407032968 0
          0.0067400809843091 0.0034207975388345 0.00015 0.0067100713183769 0.0039836679330495 0.00015
          0.0063054236008776 0.0041223407032968 0.00015 0.0067400809843091 0.0034207975388345 0.0003
          0.0067100713183769 0.0039836679330495 0.0003 0.0063054236008776 0.0041223407032968 0.0003
          0.0064429727892239 0.0018594619814901 0 0.0065003657821779 0.0023397297588745 0
          0.0060722038988066 0.0019538017587265 0 0.0064429727892239 0.0018594619814901 0.00015
          0.0065003657821779 0.0023397297588745 0.00015 0.0060722038988066 0.0019538017587265 0.00015
          0.0064429727892239 0.0018594619814901 0.0003 0.0065003657821779 0.0023397297588745 0.0003
          0.0060722038988066 0.0019538017587265 0.0003 0.0068255396015086 0.0051581133306003 0
          0.0068255396015086 0.0051581133306003 0.00015 0.0068255396015086 0.0051581133306003 0.0003
          0.0065384615384579 0 0 0.0065384615384579 0 0.00015
          0.0065384615384579 0 0.0003 0.012879713087233 0.0060908484912964 0
          0.012982043505355 0.0056371881930815 0 0.012879713087233 0.0060908484912964 0.00015
          0.012982043505355 0.0056371881930815 0.00015 0.012879713087233 0.0060908484912964 0.0003
          0.012982043505355 0.0056371881930815 0.0003 0.0065699942646101 0.0028542668018424 0
          0.0065699942646101 0.0028542668018424 0.00015 0.0065699942646101 0.0028542668018424 0.0003
          0.0084683943974961 0.0045583446766593 0 0.0079943718437571 0.0043747262241866 0
          0.0085823759797054 0.0040943119694046 0 0.0084683943974961 0.0045583446766593 0.00015
          0.0079943718437571 0.0043747262241866 0.00015 0.0085823759797054 0.0040943119694046 0.00015
          0.0084683943974961 0.0045583446766593 0.0003 0.0079943718437571 0.0043747262241866 0.0003
          0.0085823759797054 0.0040943119694046 0.0003 0.0085830886495109 0.0024681574500846 0
          0.0090044137010858 0.0023542069269131 0 0.0085830886495109 0.0024681574500846 0.00015
          0.0090044137010858 0.0023542069269131 0.00015 0.0085830886495109 0.0024681574500846 0.0003
          0.0090044137010858 0.0023542069269131 0.0003 0.0098857235699117 0.0079055319030787 0
          0.0095144479526816 0.0076594245921199 0 0.0094715724969347 0.0073263583858313 0
          0.0099283521138692 0.0073475677072736 0 0.0098857235699117 0.0079055319030787 0.00015
          0.0095144479526816 0.0076594245921199 0.00015 0.0094715724969347 0.0073263583858313 0.00015
          0.0099283521138692 0.0073475677072736 0.00015 0.0098857235699117 0.0079055319030787 0.0003
          0.0095144479526816 0.0076594245921199 0.0003 0.0094715724969347 0.0073263583858313 0.0003
          0.0099283521138692 0.0073475677072736 0.0003 0.010833716827414 0.0069257207373803 0
          0.010357413059119 0.0069077241183533 0 0.010300982556592 0.0064274708783385 0
          0.010786080808085 0.0064391381968206 0 0.010833716827414 0.0069257207373803 0.00015
          0.010357413059119 0.0069077241183533 0.00015 0.010300982556592 0.0064274708783385 0.00015
          0.010786080808085 0.0064391381968206 0.00015 0.010833716827414 0.0069257207373803 0.0003
          0.010357413059119 0.0069077241183533 0.0003 0.010300982556592 0.0064274708783385 0.0003
          0.010786080808085 0.0064391381968206 0.0003 0.012723582323863 0.006509831652106 0
          0.012251440655851 0.0062918667587536 0 0.012542392069256 0.0059723735377719 0
          0.012723582323863 0.006509831652106 0.00015 0.012251440655851 0.0062918667587536 0.00015
          0.012542392069256 0.0059723735377719 0.00015 0.012723582323863 0.006509831652106 0.0003
          0.012251440655851 0.0062918667587536 0.0003 0.012542392069256 0.0059723735377719 0.0003
          0.0071151184692216 0.0040272738406853 0 0.0071151184692216 0.0040272738406853 0.00015
          0.0071151184692216 0.0040272738406853 0.0003 0.005927800859391 0.0043689372395662 0
          0.005927800859391 0.0043689372395662 0.00015 0.005927800859391 0.0043689372395662 0.0003
          0.0092411258002763 0.0078319639415625 0 0.0089588909882048 0.0073942383853577 0
          0.0092411258002763 0.0078319639415625 0.00015 0.0089588909882048 0.0073942383853577 0.00015
          0.0092411258002763 0.0078319639415625 0.0003 0.0089588909882048 0.0073942383853577 0.0003
          0.009874674666521 0.0068715373563056 0 0.010410157305432 0.007394545582291 0
          0.009874674666521 0.0068715373563056 0.00015 0.010410157305432 0.007394545582291 0.00015
          0.009874674666521 0.0068715373563056 0.0003 0.010410157305432 0.007394545582291 0.0003
          0.0075354000991736 0.004186248288406 0 0.0075354000991736 0.004186248288406 0.00015
          0.0075354000991736 0.004186248288406 0.0003 0.01131847387487 0.0058224977902188 0
          0.011696082283392 0.0060272916092408 0 0.011725204011411 0.0063910302275778 0
          0.011265055974573 0.0064250601080915 0 0.01131847387487 0.0058224977902188 0.00015
          0.011696082283392 0.0060272916092408 0.00015 0.011725204011411 0.0063910302275778 0.00015
          0.011265055974573 0.0064250601080915 0.00015 0.01131847387487 0.0058224977902188 0.0003
          0.011696082283392 0.0060272916092408 0.0003 0.011725204011411 0.0063910302275778 0.0003
          0.011265055974573 0.0064250601080915 0.0003 0.012000241143886 0.0058170880130831 0
          0.012000241143886 0.0058170880130831 0.00015 0.012000241143886 0.0058170880130831 0.0003
          0.011120492592586 0.0052514705902296 0 0.011120492592586 0.0052514705902296 0.00015
          0.011120492592586 0.0052514705902296 0.0003 0.0092910901193945 0.0039260363263486 0
          0.0090503465409481 0.0043132092761106 0 0.0092910901193945 0.0039260363263486 0.00015
          0.0090503465409481 0.0043132092761106 0.00015 0.0092910901193945 0.0039260363263486 0.0003
          0.0090503465409481 0.0043132092761106 0.0003 0.007889027184575 0.0048982243533992 0
          0.007889027184575 0.0048982243533992 0.00015 0.007889027184575 0.0048982243533992 0.0003
          0.0094935553236164 0.004533528646427 0 0.0097061514105808 0.0041851036755216 0
          0.0094935553236164 0.004533528646427 0.00015 0.0097061514105808 0.0041851036755216 0.00015
          0.0094935553236164 0.004533528646427 0.0003 0.0097061514105808 0.0041851036755216 0.0003
          0.007602124101561 0.0050930903063015 0 0.007602124101561 0.0050930903063015 0.00015
          0.007602124101561 0.0050930903063015 0.0003 0.010723762445737 0.0044202706845482 0
          0.010410164583979 0.0041181159817359 0 0.010723762445737 0.0044202706845482 0.00015
          0.010410164583979 0.0041181159817359 0.00015 0.010723762445737 0.0044202706845482 0.0003
          0.010410164583979 0.0041181159817359 0.0003 0.01095205032792 0.0047963590452232 0
          0.01095205032792 0.0047963590452232 0.00015 0.01095205032792 0.0047963590452232 0.0003
          0.011303178752756 0.0069106117689346 0 0.011303178752756 0.0069106117689346 0.00015
          0.011303178752756 0.0069106117689346 0.0003 0.01003253261535 0.0038623502872685 0
          0.01003253261535 0.0038623502872685 0.00015 0.01003253261535 0.0038623502872685 0.0003
          0.0076528923620256 0.0053996878686031 0 0.0072494384034052 0.005322441352826 0
          0.0076528923620256 0.0053996878686031 0.00015 0.0072494384034052 0.005322441352826 0.00015
          0.0076528923620256 0.0053996878686031 0.0003 0.0072494384034052 0.005322441352826 0.0003
          0.0096442187720765 0.0035928190702974 0 0.0096442187720765 0.0035928190702974 0.00015
          0.0096442187720765 0.0035928190702974 0.0003 0.012013949131265 0.002158444108951 0
          0.012018063243501 0.0027123142038817 0 0.012013949131265 0.002158444108951 0.00015
          0.012018063243501 0.0027123142038817 0.00015 0.012013949131265 0.002158444108951 0.0003
          0.012018063243501 0.0027123142038817 0.0003 0.0080144547016537 0.00086684480617367 0
          0.008304219624614 0.0012703006012415 0 0.0080327132462595 0.0011721512048422 0
          0.0080144547016537 0.00086684480617367 0.00015 0.008304219624614 0.0012703006012415 0.00015
          0.0080327132462595 0.0011721512048422 0.00015 0.0080144547016537 0.00086684480617367 0.0003
          0.008304219624614 0.0012703006012415 0.0003 0.0080327132462595 0.0011721512048422 0.0003
          0.0094736490244467 0.0005865877812969 0 0.010068957850501 0.00047856930843549 0
          0.0096358530086744 0.0010887425154837 0 0.0094736490244467 0.0005865877812969 0.00015
          0.010068957850501 0.00047856930843549 0.00015 0.0096358530086744 0.0010887425154837 0.00015
          0.0094736490244467 0.0005865877812969 0.0003 0.010068957850501 0.00047856930843549 0.0003
          0.0096358530086744 0.0010887425154837 0.0003 0.0071984303565192 0.0057392272964834 0
          0.0067200519522164 0.0055550541115669 0 0.0071984303565192 0.0057392272964834 0.00015
          0.0067200519522164 0.0055550541115669 0.00015 0.0071984303565192 0.0057392272964834 0.0003
          0.0067200519522164 0.0055550541115669 0.0003 0.013091675611077 0.0041736873632184 0
          0.012621380555602 0.004071395146678 0 0.012601464682814 0.0035037767307713 0
          0.013091675611077 0.0041736873632184 0.00015 0.012621380555602 0.004071395146678 0.00015
          0.012601464682814 0.0035037767307713 0.00015 0.013091675611077 0.0041736873632184 0.0003
          0.012621380555602 0.004071395146678 0.0003 0.012601464682814 0.0035037767307713 0.0003
          0.01153639784925 0.0020208067996516 0 0.011496246026306 0.0025480504488598 0
          0.01153639784925 0.0020208067996516 0.00015 0.011496246026306 0.0025480504488598 0.00015
          0.01153639784925 0.0020208067996516 0.0003 0.011496246026306 0.0025480504488598 0.0003
          0.011043213382792 0.0084269911709333 0 0.011043213382792 0.0084269911709333 0.00015
          0.011043213382792 0.0084269911709333 0.0003 0.010128205128191 0 0
          0.0096153846153732 0 0 0.010128205128191 0 0.00015
          0.0096153846153732 0 0.00015 0.010128205128191 0 0.0003
          0.0096153846153732 0 0.0003 0.0091025641025551 0 0
          0.0085897435897353 0 0 0.0091025641025551 0 0.00015
          0.0085897435897353 0 0.00015 0.0091025641025551 0 0.0003
          0.0085897435897353 0 0.0003 0.0085182476127008 0.0020437661198126 0
          0.0089029205554566 0.0019047336662455 0 0.0085182476127008 0.0020437661198126 0.00015
          0.0089029205554566 0.0019047336662455 0.00015 0.0085182476127008 0.0020437661198126 0.0003
          0.0089029205554566 0.0019047336662455 0.0003 0.0081522818828449 0.0024947087352937 0
          0.0081522818828449 0.0024947087352937 0.00015 0.0081522818828449 0.0024947087352937 0.0003
          0.010641025641009 0 0 0.010579843756946 0.00045349299099366 0
          0.010641025641009 0 0.00015 0.010579843756946 0.00045349299099366 0.00015
          0.010641025641009 0 0.0003 0.010579843756946 0.00045349299099366 0.0003
          0.011153846153828 0 0 0.011153846153828 0 0.00015
          0.011153846153828 0 0.0003 0.011760912133753 0.0054122119446059 0
          0.011760912133753 0.0054122119446059 0.00015 0.011760912133753 0.0054122119446059 0.0003
          0.011666666666648 0 0 0.011666666666648 0 0.00015
          0.011666666666648 0 0.0003 0.011547825504055 0.0049713459697514 0
          0.011547825504055 0.0049713459697514 0.00015 0.011547825504055 0.0049713459697514 0.0003
          0.011349632014182 0.0045239710214715 0 0.011349632014182 0.0045239710214715 0.00015
          0.011349632014182 0.0045239710214715 0.0003 0.011997463288521 0.00046572766410539 0
          0.012179487179468 0 0 0.011997463288521 0.00046572766410539 0.00015
          0.012179487179468 0 0.00015 0.011997463288521 0.00046572766410539 0.0003
          0.012179487179468 0 0.0003 0.01039056673058 0.0035410773695937 0
          0.010772622187787 0.0038062315725381 0 0.01039056673058 0.0035410773695937 0.00015
          0.010772622187787 0.0038062315725381 0.00015 0.01039056673058 0.0035410773695937 0.0003
          0.010772622187787 0.0038062315725381 0.0003 0.0089323359070786 0.0047421281357296 0
          0.0089323359070786 0.0047421281357296 0.00015 0.0089323359070786 0.0047421281357296 0.0003
          0.010891746765568 0.007407252260552 0 0.010891746765568 0.007407252260552 0.00015
          0.010891746765568 0.007407252260552 0.0003 0.011089383238376 0.0041358143249023 0
          0.011089383238376 0.0041358143249023 0.00015 0.011089383238376 0.0041358143249023 0.0003
          0.007205317033861 0.0036141963404016 0 0.007205317033861 0.0036141963404016 0.00015
          0.007205317033861 0.0036141963404016 0.0003 0.0080269839945158 0.0054023282425744 0
          0.0080269839945158 0.0054023282425744 0.00015 0.0080269839945158 0.0054023282425744 0.0003
          0.0077721363879251 0.0058968168784219 0 0.0077721363879251 0.0058968168784219 0.00015
          0.0077721363879251 0.0058968168784219 0.0003 0.0095370253310475 0.0025850582106885 0
          0.009732219723835 0.0029713438236062 0 0.0095370253310475 0.0025850582106885 0.00015
          0.009732219723835 0.0029713438236062 0.00015 0.0095370253310475 0.0025850582106885 0.0003
          0.009732219723835 0.0029713438236062 0.0003 0.0094100372761059 0.0021522308351028 0
          0.0094100372761059 0.0021522308351028 0.00015 0.0094100372761059 0.0021522308351028 0.0003
          0.0087313387484914 0.001424359608332 0 0.0084651319029022 0.0017289788972556 0
          0.0087313387484914 0.001424359608332 0.00015 0.0084651319029022 0.0017289788972556 0.00015
          0.0087313387484914 0.001424359608332 0.0003 0.0084651319029022 0.0017289788972556 0.0003
          0.011363196701121 0.0073867521895413 0 0.011894488312007 0.0078344841271679 0
          0.011431801070778 0.0078815011129823 0 0.011363196701121 0.0073867521895413 0.00015
          0.011894488312007 0.0078344841271679 0.00015 0.011431801070778 0.0078815011129823 0.00015
          0.011363196701121 0.0073867521895413 0.0003 0.011894488312007 0.0078344841271679 0.0003
          0.011431801070778 0.0078815011129823 0.0003 0.011511795106494 0.0083968566041475 0
          0.011511795106494 0.0083968566041475 0.00015 0.011511795106494 0.0083968566041475 0.0003
          0.0093066157528448 0.0017085494075796 0 0.0093066157528448 0.0017085494075796 0.00015
          0.0093066157528448 0.0017085494075796 0.0003 0.011737204813157 0.0042624504192267 0
          0.011920232844873 0.0047153506313134 0 0.011737204813157 0.0042624504192267 0.00015
          0.011920232844873 0.0047153506313134 0.00015 0.011737204813157 0.0042624504192267 0.0003
          0.011920232844873 0.0047153506313134 0.0003 0.0097199155871303 0.0015315099671301 0
          0.0098040259351994 0.0019696894002764 0 0.0097199155871303 0.0015315099671301 0.00015
          0.0098040259351994 0.0019696894002764 0.00015 0.0097199155871303 0.0015315099671301 0.0003
          0.0098040259351994 0.0019696894002764 0.0003 0.0099068743951204 0.0023814903757239 0
          0.0099068743951204 0.0023814903757239 0.00015 0.0099068743951204 0.0023814903757239 0.0003
          0.010196799496301 0.0018655242590307 0 0.010252080701677 0.0022738797315184 0
          0.010196799496301 0.0018655242590307 0.00015 0.010252080701677 0.0022738797315184 0.00015
          0.010196799496301 0.0018655242590307 0.0003 0.010252080701677 0.0022738797315184 0.0003
          0.0082479601882269 0.0062087007836213 0 0.0083721174281176 0.0058457654542534 0
          0.0087793359412623 0.006030240425184 0 0.0086690881028679 0.0063945203238097 0
          0.0082479601882269 0.0062087007836213 0.00015 0.0083721174281176 0.0058457654542534 0.00015
          0.0087793359412623 0.006030240425184 0.00015 0.0086690881028679 0.0063945203238097 0.00015
          0.0082479601882269 0.0062087007836213 0.0003 0.0083721174281176 0.0058457654542534 0.0003
          0.0087793359412623 0.006030240425184 0.0003 0.0086690881028679 0.0063945203238097 0.0003
          0.0098103305116681 0.0063862496116293 0 0.0098103305116681 0.0063862496116293 0.00015
          0.0098103305116681 0.0063862496116293 0.0003 0.0084248193747317 0.0050261658136402 0
          0.0084248193747317 0.0050261658136402 0.00015 0.0084248193747317 0.0050261658136402 0.0003
          0.0069463016830039 0.0027787422025108 0 0.0070048409545821 0.0031125297586922 0
          0.0069463016830039 0.0027787422025108 0.00015 0.0070048409545821 0.0031125297586922 0.00015
          0.0069463016830039 0.0027787422025108 0.0003 0.0070048409545821 0.0031125297586922 0.0003
          0.010028456835002 0.0032748409090605 0 0.010028456835002 0.0032748409090605 0.00015
          0.010028456835002 0.0032748409090605 0.0003 0.013084530633285 0.0046685927017207 0
          0.012657407202949 0.0045740785705039 0 0.013084530633285 0.0046685927017207 0.00015
          0.012657407202949 0.0045740785705039 0.00015 0.013084530633285 0.0046685927017207 0.0003
          0.012657407202949 0.0045740785705039 0.0003 0.0063788755008874 0.0014091508241809 0
          0.0060137569775388 0.0015029488511318 0 0.0063788755008874 0.0014091508241809 0.00015
          0.0060137569775388 0.0015029488511318 0.00015 0.0063788755008874 0.0014091508241809 0.0003
          0.0060137569775388 0.0015029488511318 0.0003 0.01196380743939 0.0083394019710021 0
          0.01196380743939 0.0083394019710021 0.00015 0.01196380743939 0.0083394019710021 0.0003
          0.010073855840534 0.0027196155419985 0 0.010289681297386 0.0025561678844121 0
          0.010073855840534 0.0027196155419985 0.00015 0.010289681297386 0.0025561678844121 0.00015
          0.010073855840534 0.0027196155419985 0.0003 0.010289681297386 0.0025561678844121 0.0003
          0.0093223919318803 0.0053434698815888 0 0.009764317340127 0.0054658727348424 0
          0.0097769212248058 0.0059119658621614 0 0.0093027527337708 0.0057939169389015 0
          0.0093223919318803 0.0053434698815888 0.00015 0.009764317340127 0.0054658727348424 0.00015
          0.0097769212248058 0.0059119658621614 0.00015 0.0093027527337708 0.0057939169389015 0.00015
          0.0093223919318803 0.0053434698815888 0.0003 0.009764317340127 0.0054658727348424 0.0003
          0.0097769212248058 0.0059119658621614 0.0003 0.0093027527337708 0.0057939169389015 0.0003
          0.0068882925124701 0.0023177669638962 0 0.0068882925124701 0.0023177669638962 0.00015
          0.0068882925124701 0.0023177669638962 0.0003 0.0092499592325966 0.0063238181416562 0
          0.0089620052424248 0.0065330227489775 0 0.0092499592325966 0.0063238181416562 0.00015
          0.0089620052424248 0.0065330227489775 0.00015 0.0092499592325966 0.0063238181416562 0.0003
          0.0089620052424248 0.0065330227489775 0.0003 0.0072168253422346 0.001397514094839 0
          0.0076041066380058 0.00089936619415626 0 0.0072168253422346 0.001397514094839 0.00015
          0.0076041066380058 0.00089936619415626 0.00015 0.0072168253422346 0.001397514094839 0.0003
          0.0076041066380058 0.00089936619415626 0.0003 0.0075718226613923 0.00044755222139025 0
          0.0075718226613923 0.00044755222139025 0.00015 0.0075718226613923 0.00044755222139025 0.0003
          0.012116660000204 0.0051206445675074 0 0.012116660000204 0.0051206445675074 0.00015
          0.012116660000204 0.0051206445675074 0.0003 0.0068338524094732 0.0018398489073113 0
          0.0068338524094732 0.0018398489073113 0.00015 0.0068338524094732 0.0018398489073113 0.0003
          0.0088473960481577 0.0056214227923259 0 0.0088473960481577 0.0056214227923259 0.00015
          0.0088473960481577 0.0056214227923259 0.0003 0.0081402125110085 0.0066115625704341 0
          0.0081402125110085 0.0066115625704341 0.00015 0.0081402125110085 0.0066115625704341 0.0003
          0.0067824993802385 0.0013824026215467 0 0.0072591856110724 0.0018865642034293 0
          0.0067824993802385 0.0013824026215467 0.00015 0.0072591856110724 0.0018865642034293 0.00015
          0.0067824993802385 0.0013824026215467 0.0003 0.0072591856110724 0.0018865642034293 0.0003
          0.0094035295411974 0.0068662830960629 0 0.0094035295411974 0.0068662830960629 0.00015
          0.0094035295411974 0.0068662830960629 0.0003 0.0080770297303238 0.0057078658228848 0
          0.0080770297303238 0.0057078658228848 0.00015 0.0080770297303238 0.0057078658228848 0.0003
          0.012455160230445 0.0055307966461266 0 0.012455160230445 0.0055307966461266 0.00015
          0.012455160230445 0.0055307966461266 0.0003 0.0092134396095011 0.0012639463069257 0
          0.0092134396095011 0.0012639463069257 0.00015 0.0092134396095011 0.0012639463069257 0.0003
          0.0085681017610313 0.0067725899286886 0 0.0085681017610313 0.0067725899286886 0.00015
          0.0085681017610313 0.0067725899286886 0.0003 0.010337781301114 0.0029713007827362 0
          0.010337781301114 0.0029713007827362 0.00015 0.010337781301114 0.0029713007827362 0.0003
          0.0080769230769162 0 0 0.0080362994401078 0.00044130282391618 0
          0.0075641025640979 0 0 0.0080769230769162 0 0.00015
          0.0080362994401078 0.00044130282391618 0.00015 0.0075641025640979 0 0.00015
          0.0080769230769162 0 0.0003 0.0080362994401078 0.00044130282391618 0.0003
          0.0075641025640979 0 0.0003 0.0084157309119158 0.0054663429893237 0
          0.0084157309119158 0.0054663429893237 0.00015 0.0084157309119158 0.0054663429893237 0.0003
          0.012625060394875 0.0050215313919928 0 0.012340535819996 0.0049145470001145 0
          0.012625060394875 0.0050215313919928 0.00015 0.012340535819996 0.0049145470001145 0.00015
          0.012625060394875 0.0050215313919928 0.0003 0.012340535819996 0.0049145470001145 0.0003
          0.0088807280393962 0.0051824777758032 0 0.0088807280393962 0.0051824777758032 0.00015
          0.0088807280393962 0.0051824777758032 0.0003 0.00978640191627 0.0050564284414982 0
          0.00978640191627 0.0050564284414982 0.00015 0.00978640191627 0.0050564284414982 0.0003
          0.007051282051278 0 0 0.007051282051278 0 0.00015
          0.007051282051278 0 0.0003 0.0089738769927721 0.0068608682916542 0
          0.0089738769927721 0.0068608682916542 0.00015 0.0089738769927721 0.0068608682916542 0.0003
          0.010464396561549 0.007914442793445 0 0.010959162019398 0.0079079830093058 0
          0.010464396561549 0.007914442793445 0.00015 0.010959162019398 0.0079079830093058 0.00015
          0.010464396561549 0.007914442793445 0.0003 0.010959162019398 0.0079079830093058 0.0003
          0.0093768424757788 0.0049206652486621 0 0.0093768424757788 0.0049206652486621 0.00015
          0.0093768424757788 0.0049206652486621 0.0003 0.0084364690699339 0.0071912877673881 0
          0.0084364690699339 0.0071912877673881 0.00015 0.0084364690699339 0.0071912877673881 0.0003
          0.011870414872976 0.00080294526771027 0 0.011870414872976 0.00080294526771027 0.00015
          0.011870414872976 0.00080294526771027 0.0003 0.013048655853798 0.0051555709380823 0
          0.013048655853798 0.0051555709380823 0.00015 0.013048655853798 0.0051555709380823 0.0003
          0.0091480378790118 0.00093783666102615 0 0.0091480378790118 0.00093783666102615 0.00015
          0.0091480378790118 0.00093783666102615 0.0003 0.012592651705639 0.0068198098450163 0
          0.012592651705639 0.0068198098450163 0.00015 0.012592651705639 0.0068198098450163 0.0003
          0.012272070002081 0.0045810549534562 0 0.012153081904124 0.0040944528080542 0
          0.012272070002081 0.0045810549534562 0.00015 0.012153081904124 0.0040944528080542 0.00015
          0.012272070002081 0.0045810549534562 0.0003 0.012153081904124 0.0040944528080542 0.0003
          0.011634800364854 0.0014122839921498 0 0.011634800364854 0.0014122839921498 0.00015
          0.011634800364854 0.0014122839921498 0.0003 0.012451479243686 0.0021914486022899 0
          0.012674188674928 0.0028095410694266 0 0.012451479243686 0.0021914486022899 0.00015
          0.012674188674928 0.0028095410694266 0.00015 0.012451479243686 0.0021914486022899 0.0003
          0.012674188674928 0.0028095410694266 0.0003 0.013121586466294 0.0036708577033715 0
          0.013121586466294 0.0036708577033715 0.00015 0.013121586466294 0.0036708577033715 0.0003
          0.013248150362312 0.0031919567697963 0 0.013248150362312 0.0031919567697963 0.00015
          0.013248150362312 0.0031919567697963 0.0003 0.012096711335481 0.0017058387426491 0
          0.012096711335481 0.0017058387426491 0.00015 0.012096711335481 0.0017058387426491 0.0003
          0.012692307692288 0 0 0.012542896420733 0.00061304595643839 0
          0.012692307692288 0 0.00015 0.012542896420733 0.00061304595643839 0.00015
          0.012692307692288 0 0.0003 0.012542896420733 0.00061304595643839 0.0003
          0.012384518900215 0.0018567382086698 0 0.012384518900215 0.0018567382086698 0.00015
          0.012384518900215 0.0018567382086698 0.0003 0.012087580163866 0.0010424427844857 0
          0.012087580163866 0.0010424427844857 0.00015 0.012087580163866 0.0010424427844857 0.0003
          <InformationKey name="L2_NORM_RANGE" location="vtkDataArray" length="2">
            <Value index="0">
              0.0055128205128
            </Value>
            <Value index="1">
              0.014586579917
            </Value>
          </InformationKey>
        </DataArray>
      </Points>
      <Cells>
        <DataArray type="Int64" Name="connectivity" format="ascii" RangeMin="0" RangeMax="773">
          0 1 2 3 4 5
          6 7 4 5 6 7
          8 9 10 11 12 13
          14 15 16 17 18 19
          16 17 18 19 20 21
          22 23 30 31 32 33
          34 35 36 37 34 35
          36 37 38 39 40 41
          15 14 42 43 19 18
          44 45 19 18 44 45
          23 22 46 47 48 49
          50 51 52 53 54 55
          52 53 54 55 56 57
          58 59 60 61 62 63
          64 65 66 67 64 65
          66 67 68 69 70 71
          3 72 73 0 7 74
          75 4 7 74 75 4
          11 76 77 8 78 79
          80 81 82 83 84 85
          82 83 84 85 86 87
          88 89 99 100 101 102
          103 104 105 106 103 104
          105 106 107 108 109 110
          111 112 113 114 115 116
          117 118 115 116 117 118
          119 120 121 122 744 123
          30 33 745 124 34 37
          745 124 34 37 746 125
          38 41 48 126 127 128
          52 129 130 131 52 129
          130 131 56 132 133 134
          135 136 112 111 137 138
          116 115 137 138 116 115
          139 140 120 119 141 142
          143 144 145 146 147 148
          145 146 147 148 149 150
          151 152 153 154 155 156
          157 158 159 160 157 158
          159 160 161 162 163 164
          165 166 43 167 168 169
          45 170 168 169 45 170
          171 172 47 173 174 175
          153 156 176 177 157 160
          176 177 157 160 178 179
          161 164 180 181 182 183
          184 185 186 187 184 185
          186 187 188 189 190 191
          166 165 192 193 169 168
          194 195 169 168 194 195
          172 171 196 197 112 182
          181 113 116 186 185 117
          116 186 185 117 120 190
          189 121 204 205 180 183
          206 207 184 187 206 207
          184 187 208 209 188 191
          210 211 212 213 214 215
          216 217 214 215 216 217
          218 219 220 221 222 223
          128 127 224 225 131 130
          224 225 131 130 226 227
          134 133 154 153 79 78
          158 157 83 82 158 157
          83 82 162 161 87 86
          231 113 181 232 233 117
          185 234 233 117 185 234
          235 121 189 236 237 238
          239 199 240 241 242 201
          240 241 242 201 243 244
          245 203 246 247 228 248
          249 250 229 251 249 250
          229 251 252 253 230 254
          255 49 48 128 256 53
          52 131 256 53 52 131
          257 57 56 134 175 258
          79 153 177 259 83 157
          177 259 83 157 179 260
          87 161 267 237 199 198
          268 240 201 200 268 240
          201 200 269 243 203 202
          270 271 232 272 273 274
          234 275 273 274 234 275
          276 277 236 278 267 198
          228 247 268 200 229 250
          268 200 229 250 269 202
          230 253 183 279 280 204
          187 281 282 206 187 281
          282 206 191 283 284 208
          285 286 287 288 289 290
          291 292 289 290 291 292
          293 294 295 296 297 298
          299 300 301 302 303 304
          301 302 303 304 305 306
          307 308 261 309 310 311
          263 312 313 314 263 312
          313 314 265 315 316 317
          238 318 127 126 241 319
          130 129 241 319 130 129
          244 320 133 132 324 325
          287 286 326 327 291 290
          326 327 291 290 328 329
          295 294 330 298 331 288
          332 302 333 292 332 302
          333 292 334 306 335 296
          318 336 222 127 319 337
          224 130 319 337 224 130
          320 338 226 133 339 340
          341 342 343 344 345 346
          343 344 345 346 347 348
          349 350 300 1 339 342
          304 5 343 346 304 5
          343 346 308 9 347 350
          351 310 341 340 352 313
          345 344 352 313 345 344
          353 316 349 348 354 339
          1 0 355 343 5 4
          355 343 5 4 356 347
          9 8 357 358 272 180
          359 360 275 184 359 360
          275 184 361 362 278 188
          48 239 238 126 52 242
          241 129 52 242 241 129
          56 245 244 132 336 271
          363 222 337 274 364 224
          337 274 364 224 338 277
          365 226 51 321 239 48
          55 322 242 52 55 322
          242 52 59 323 245 56
          366 367 213 212 368 369
          217 216 368 369 217 216
          370 371 221 220 223 222
          363 372 225 224 364 373
          225 224 364 373 227 226
          365 374 375 210 213 376
          377 214 217 378 377 214
          217 378 379 218 221 380
          375 381 73 210 377 382
          75 214 377 382 75 214
          379 383 77 218 381 354
          0 73 382 355 4 75
          382 355 4 75 383 356
          8 77 297 300 342 384
          301 304 346 385 301 304
          346 385 305 308 350 386
          376 213 367 387 378 217
          369 388 378 217 369 388
          380 221 371 389 223 372
          390 391 225 373 392 393
          225 373 392 393 227 374
          394 395 396 357 180 205
          397 359 184 207 397 359
          184 207 398 361 188 209
          387 367 357 396 388 369
          359 397 388 369 359 397
          389 371 361 398 399 747
          748 400 401 749 750 402
          401 749 750 402 403 751
          752 404 405 102 406 407
          408 106 409 410 408 106
          409 410 411 110 412 413
          180 272 232 181 184 275
          234 185 184 275 234 185
          188 278 236 189 414 415
          144 416 417 418 148 419
          417 418 148 419 420 421
          152 422 423 424 255 391
          425 426 256 393 425 426
          256 393 427 428 257 395
          429 430 431 753 432 433
          434 754 432 433 434 754
          435 436 437 755 438 399
          400 439 440 401 402 441
          440 401 402 441 442 403
          404 443 447 415 414 448
          449 418 417 450 449 418
          417 450 451 421 420 452
          453 100 99 454 455 104
          103 456 455 104 103 456
          457 108 107 458 279 459
          460 280 281 461 462 282
          281 461 462 282 283 463
          464 284 279 465 62 459
          281 466 66 461 281 466
          66 461 283 467 70 463
          448 414 100 453 450 417
          104 455 450 417 104 455
          452 420 108 457 468 469
          415 447 470 471 418 449
          470 471 418 449 472 473
          421 451 753 431 748 756
          754 434 750 757 754 434
          750 757 755 437 752 758
          400 748 431 12 402 750
          434 16 402 750 434 16
          404 752 437 20 474 31
          469 468 475 35 471 470
          475 35 471 470 476 39
          473 472 399 438 744 759
          401 440 745 760 401 440
          745 760 403 442 746 761
          339 477 351 340 343 478
          352 344 343 478 352 344
          347 479 353 348 367 366
          358 357 369 368 360 359
          369 368 360 359 371 370
          362 361 480 32 31 474
          481 36 35 475 481 36
          35 475 482 40 39 476
          483 477 339 354 484 478
          343 355 484 478 343 355
          485 479 347 356 486 483
          354 381 487 484 355 382
          487 484 355 382 488 485
          356 383 183 182 465 279
          187 186 466 281 187 186
          466 281 191 190 467 283
          762 763 489 490 764 765
          491 492 764 765 491 492
          766 767 493 494 490 489
          32 480 492 491 36 481
          492 491 36 481 494 493
          40 482 387 495 496 376
          388 497 498 378 388 497
          498 378 389 499 500 380
          501 270 272 358 502 273
          275 360 502 273 275 360
          503 276 278 362 504 331
          298 297 505 333 302 301
          505 333 302 301 506 335
          306 305 507 486 381 375
          508 487 382 377 508 487
          382 377 509 488 383 379
          318 238 237 510 319 241
          240 511 319 241 240 511
          320 244 243 512 50 49
          255 424 54 53 256 426
          54 53 256 426 58 57
          257 428 363 513 390 372
          364 514 392 373 364 514
          392 373 365 515 394 374
          516 423 391 390 517 425
          393 392 517 425 393 392
          518 427 395 394 519 520
          205 204 521 522 207 206
          521 522 207 206 523 524
          209 208 525 519 204 280
          526 521 206 282 526 521
          206 282 527 523 208 284
          528 460 459 529 530 462
          461 531 530 462 461 531
          532 464 463 533 534 90
          535 536 537 93 538 539
          537 93 538 539 540 96
          541 542 546 525 280 460
          547 526 282 462 547 526
          282 462 548 527 284 464
          759 768 747 399 760 769
          749 401 760 769 749 401
          761 770 751 403 507 375
          376 496 508 377 378 498
          508 377 378 498 509 379
          380 500 483 486 549 550
          484 487 551 552 484 487
          551 552 485 488 553 554
          231 232 271 336 233 234
          274 337 233 234 274 337
          235 236 277 338 391 255
          128 223 393 256 131 225
          393 256 131 225 395 257
          134 227 525 546 555 556
          526 547 557 558 526 547
          557 558 527 548 559 560
          519 525 556 561 521 526
          558 562 521 526 558 562
          523 527 560 563 561 556
          564 565 562 558 566 567
          562 558 566 567 563 560
          568 569 570 571 572 573
          574 575 576 577 574 575
          576 577 578 579 580 581
          2 1 300 299 6 5
          304 303 6 5 304 303
          10 9 308 307 582 299
          298 330 583 303 302 332
          583 303 302 332 584 307
          306 334 585 363 271 270
          586 364 274 273 586 364
          274 273 587 365 277 276
          555 416 144 143 557 419
          148 147 557 419 148 147
          559 422 152 151 588 589
          237 267 590 591 240 268
          590 591 240 268 592 593
          243 269 396 594 495 387
          397 595 497 388 397 595
          497 388 398 596 499 389
          594 396 205 520 595 397
          207 522 595 397 207 522
          596 398 209 524 597 598
          430 429 599 600 433 432
          599 600 433 432 601 602
          436 435 603 246 248 604
          605 249 251 606 605 249
          251 606 607 252 254 608
          72 211 210 73 74 215
          214 75 74 215 214 75
          76 219 218 77 536 535
          609 543 539 538 610 544
          539 538 610 544 542 541
          611 545 612 561 565 613
          614 562 567 615 614 562
          567 615 616 563 569 617
          618 619 620 621 622 623
          624 625 622 623 624 625
          626 627 628 629 630 588
          267 247 631 590 268 250
          631 590 268 250 632 592
          269 253 633 634 573 572
          635 636 577 576 635 636
          577 576 637 638 581 580
          60 639 81 640 64 641
          85 642 64 641 85 642
          68 643 89 644 561 612
          520 519 562 614 522 521
          562 614 522 521 563 616
          524 523 510 231 336 318
          511 233 337 319 511 233
          337 319 512 235 338 320
          640 81 80 645 642 85
          84 646 642 85 84 646
          644 89 88 647 550 648
          477 483 552 649 478 484
          552 649 478 484 554 650
          479 485 630 247 246 651
          631 250 249 652 631 250
          249 652 632 253 252 653
          633 572 654 621 635 576
          655 625 635 576 655 625
          637 580 656 629 15 43
          166 439 19 45 169 441
          19 45 169 441 23 47
          172 443 660 639 661 651
          662 641 663 652 662 641
          663 652 664 643 665 653
          666 330 288 287 667 332
          292 291 667 332 292 291
          668 334 296 295 603 660
          651 246 605 662 652 249
          605 662 652 249 607 664
          653 252 571 570 516 669
          575 574 517 670 575 574
          517 670 579 578 518 671
          672 262 261 311 673 264
          263 314 673 264 263 314
          674 266 265 317 416 555
          546 675 419 557 547 676
          419 557 547 676 422 559
          548 677 570 573 678 657
          574 577 679 658 574 577
          679 658 578 581 680 659
          495 42 14 496 497 44
          18 498 497 44 18 498
          499 46 22 500 61 529
          459 62 65 531 461 66
          65 531 461 66 69 533
          463 70 13 507 496 14
          17 508 498 18 17 508
          498 18 21 509 500 22
          114 510 237 589 118 511
          240 591 118 511 240 591
          122 512 243 593 513 669
          516 390 514 670 517 392
          514 670 517 392 515 671
          518 394 594 681 42 495
          595 682 44 497 595 682
          44 497 596 683 46 499
          114 589 588 111 118 591
          590 115 118 591 590 115
          122 593 592 119 510 114
          113 231 511 118 117 233
          511 118 117 233 512 122
          121 235 681 594 520 612
          682 595 522 614 682 595
          522 614 683 596 524 616
          684 685 645 686 687 688
          646 689 687 688 646 689
          690 691 647 692 693 654
          572 571 694 655 576 575
          694 655 576 575 695 656
          580 579 675 546 460 528
          676 547 462 530 676 547
          462 530 677 548 464 532
          439 400 12 15 441 402
          16 19 441 402 16 19
          443 404 20 23 696 672
          648 697 698 673 649 699
          698 673 649 699 700 674
          650 701 702 618 621 654
          703 622 625 655 703 622
          625 655 704 626 629 656
          72 705 212 211 74 706
          216 215 74 706 216 215
          76 707 220 219 182 112
          136 465 186 116 138 466
          186 116 138 466 190 120
          140 467 708 686 645 80
          709 689 646 84 709 689
          646 84 710 692 647 88
          91 341 310 92 94 345
          313 95 94 345 313 95
          97 349 316 98 135 630
          651 661 137 631 652 663
          137 631 652 663 139 632
          653 665 666 287 325 711
          667 291 327 712 667 291
          327 712 668 295 329 713
          444 25 714 715 445 27
          716 717 445 27 716 717
          446 29 718 719 705 720
          366 212 706 721 368 216
          706 721 368 216 707 722
          370 220 331 504 715 714
          333 505 717 716 333 505
          717 716 335 506 719 718
          13 549 486 507 17 551
          487 508 17 551 487 508
          21 553 488 509 571 669
          513 693 575 670 514 694
          575 670 514 694 579 671
          515 695 102 405 685 99
          106 408 688 103 106 408
          688 103 110 411 691 107
          672 351 477 648 673 352
          478 649 673 352 478 649
          674 353 479 650 693 513
          363 585 694 514 364 586
          694 514 364 586 695 515
          365 587 285 714 25 24
          289 716 27 26 289 716
          27 26 293 718 29 28
          143 142 192 564 147 146
          194 566 147 146 194 566
          151 150 196 568 726 489
          763 771 727 491 765 772
          727 491 765 772 728 493
          767 773 534 536 715 504
          537 539 717 505 537 539
          717 505 540 542 719 506
          165 565 564 192 168 567
          566 194 168 567 566 194
          171 569 568 196 78 81
          639 660 82 85 641 662
          82 85 641 662 86 89
          643 664 136 135 661 63
          138 137 663 67 138 137
          663 67 140 139 665 71
          729 262 672 696 730 264
          673 698 730 264 673 698
          731 266 674 700 630 135
          111 588 631 137 115 590
          631 137 115 590 632 139
          119 592 702 585 270 501
          703 586 273 502 703 586
          273 502 704 587 276 503
          585 702 654 693 586 703
          655 694 586 703 655 694
          587 704 656 695 61 406
          528 529 65 409 530 531
          65 409 530 531 69 412
          532 533 414 732 101 100
          417 733 105 104 417 733
          105 104 420 734 109 108
          63 62 465 136 67 66
          466 138 67 66 466 138
          71 70 467 140 501 720
          618 702 502 721 622 703
          502 721 622 703 503 722
          626 704 720 501 358 366
          721 502 360 368 721 502
          360 368 722 503 362 370
          685 684 454 99 688 687
          456 103 688 687 456 103
          691 690 458 107 685 405
          640 645 688 408 642 646
          688 408 642 646 691 411
          644 647 30 141 469 31
          34 145 471 35 34 145
          471 35 38 149 473 39
          598 738 739 430 600 740
          741 433 600 740 741 433
          602 742 743 436 43 42
          681 167 45 44 682 170
          45 44 682 170 47 46
          683 173 678 711 325 723
          679 712 327 724 679 712
          327 724 680 713 329 725
          619 618 720 705 623 622
          721 706 623 622 721 706
          627 626 722 707 102 101
          528 406 106 105 530 409
          106 105 530 409 110 109
          532 412 549 13 12 739
          551 17 16 741 551 17
          16 741 553 21 20 743
          711 678 573 634 712 679
          577 636 712 679 577 636
          713 680 581 638 80 79
          258 708 84 83 259 709
          84 83 259 709 88 87
          260 710 738 598 696 697
          740 600 698 699 740 600
          698 699 742 602 700 701
          714 285 288 331 716 289
          292 333 716 289 292 333
          718 293 296 335 672 311
          310 351 673 314 313 352
          673 314 313 352 674 317
          316 353 430 739 12 431
          433 741 16 434 433 741
          16 434 436 743 20 437
          193 438 439 166 195 440
          441 169 195 440 441 169
          197 442 443 172 489 726
          33 32 491 727 37 36
          491 727 37 36 493 728
          41 40 444 715 536 543
          445 717 539 544 445 717
          539 544 446 719 542 545
          3 619 705 72 7 623
          706 74 7 623 706 74
          11 627 707 76 633 666
          711 634 635 667 712 636
          635 667 712 636 637 668
          713 638 384 534 504 297
          385 537 505 301 385 537
          505 301 386 540 506 305
          726 771 744 33 727 772
          745 37 727 772 745 37
          728 773 746 41 167 613
          565 165 170 615 567 168
          170 615 567 168 173 617
          569 171 675 732 414 416
          676 733 417 419 676 733
          417 419 677 734 420 422
          550 549 739 738 552 551
          741 740 552 551 741 740
          554 553 743 742 732 675
          528 101 733 676 530 105
          733 676 530 105 734 677
          532 109 63 661 639 60
          67 663 641 64 67 663
          641 64 71 665 643 68
          384 91 90 534 385 94
          93 537 385 94 93 537
          386 97 96 540 123 744
          438 193 124 745 440 195
          124 745 440 195 125 746
          442 197 406 61 60 407
          409 65 64 410 409 65
          64 410 412 69 68 413
          154 78 660 603 158 82
          662 605 158 82 662 605
          162 86 664 607 91 384
          342 341 94 385 346 345
          94 385 346 345 97 386
          350 349 405 407 60 640
          408 410 64 642 408 410
          64 642 411 413 68 644
          648 550 738 697 649 552
          740 699 649 552 740 699
          650 554 742 701 735 92
          310 309 736 95 313 312
          736 95 313 312 737 98
          316 315 633 582 330 666
          635 583 332 667 635 583
          332 667 637 584 334 668
          167 681 612 613 170 682
          614 615 170 682 614 615
          173 683 616 617 620 2
          299 582 624 6 303 583
          624 6 303 583 628 10
          307 584 582 633 621 620
          583 635 625 624 583 635
          625 624 584 637 629 628
          141 144 415 469 145 148
          418 471 145 148 418 471
          149 152 421 473 143 564
          556 555 147 566 558 557
          147 566 558 557 151 568
          560 559 2 620 619 3
          6 624 623 7 6 624
          623 7 10 628 627 11
          729 696 598 597 730 698
          600 599 730 698 600 599
          731 700 602 601 141 30
          123 142 145 34 124 146
          145 34 124 146 149 38
          125 150 154 603 604 155
          158 605 606 159 158 605
          606 159 162 607 608 163
          193 192 142 123 195 194
          146 124 195 194 146 124
          197 196 150 125
        </DataArray>
        <DataArray type="Int64" Name="offsets" format="ascii" RangeMin="8" RangeMax="3616">
          8 16 24 32 40 48
          56 64 72 80 88 96
          104 112 120 128 136 144
          152 160 168 176 184 192
          200 208 216 224 232 240
          248 256 264 272 280 288
          296 304 312 320 328 336
          344 352 360 368 376 384
          392 400 408 416 424 432
          440 448 456 464 472 480
          488 496 504 512 520 528
          536 544 552 560 568 576
          584 592 600 608 616 624
          632 640 648 656 664 672
          680 688 696 704 712 720
          728 736 744 752 760 768
          776 784 792 800 808 816
          824 832 840 848 856 864
          872 880 888 896 904 912
          920 928 936 944 952 960
          968 976 984 992 1000 1008
          1016 1024 1032 1040 1048 1056
          1064 1072 1080 1088 1096 1104
          1112 1120 1128 1136 1144 1152
          1160 1168 1176 1184 1192 1200
          1208 1216 1224 1232 1240 1248
          1256 1264 1272 1280 1288 1296
          1304 1312 1320 1328 1336 1344
          1352 1360 1368 1376 1384 1392
          1400 1408 1416 1424 1432 1440
          1448 1456 1464 1472 1480 1488
          1496 1504 1512 1520 1528 1536
          1544 1552 1560 1568 1576 1584
          1592 1600 1608 1616 1624 1632
          1640 1648 1656 1664 1672 1680
          1688 1696 1704 1712 1720 1728
          1736 1744 1752 1760 1768 1776
          1784 1792 1800 1808 1816 1824
          1832 1840 1848 1856 1864 1872
          1880 1888 1896 1904 1912 1920
          1928 1936 1944 1952 1960 1968
          1976 1984 1992 2000 2008 2016
          2024 2032 2040 2048 2056 2064
          2072 2080 2088 2096 2104 2112
          2120 2128 2136 2144 2152 2160
          2168 2176 2184 2192 2200 2208
          2216 2224 2232 2240 2248 2256
          2264 2272 2280 2288 2296 2304
          2312 2320 2328 2336 2344 2352
          2360 2368 2376 2384 2392 2400
          2408 2416 2424 2432 2440 2448
          2456 2464 2472 2480 2488 2496
          2504 2512 2520 2528 2536 2544
          2552 2560 2568 2576 2584 2592
          2600 2608 2616 2624 2632 2640
          2648 2656 2664 2672 2680 2688
          2696 2704 2712 2720 2728 2736
          2744 2752 2760 2768 2776 2784
          2792 2800 2808 2816 2824 2832
          2840 2848 2856 2864 2872 2880
          2888 2896 2904 2912 2920 2928
          2936 2944 2952 2960 2968 2976
          2984 2992 3000 3008 3016 3024
          3032 3040 3048 3056 3064 3072
          3080 3088 3096 3104 3112 3120
          3128 3136 3144 3152 3160 3168
          3176 3184 3192 3200 3208 3216
          3224 3232 3240 3248 3256 3264
          3272 3280 3288 3296 3304 3312
          3320 3328 3336 3344 3352 3360
          3368 3376 3384 3392 3400 3408
          3416 3424 3432 3440 3448 3456
          3464 3472 3480 3488 3496 3504
          3512 3520 3528 3536 3544 3552
          3560 3568 3576 3584 3592 3600
          3608 3616
        </DataArray>
        <DataArray type="UInt8" Name="types" format="ascii" RangeMin="12" RangeMax="12">
          12 12 12 12 12 12
          12 12 12 12 12 12
          12 12 12 12 12 12
          12 12 12 12 12 12
          12 12 12 12 12 12
          12 12 12 12 12 12
          12 12 12 12 12 12
          12 12 12 12 12 12
          12 12 12 12 12 12
          12 12 12 12 12 12
          12 12 12 12 12 12
          12 12 12 12 12 12
          12 12 12 12 12 12
          12 12 12 12 12 12
          12 12 12 12 12 12
          12 12 12 12 12 12
          12 12 12 12 12 12
          12 12 12 12 12 12
          12 12 12 12 12 12
          12 12 12 12 12 12
          12 12 12 12 12 12
          12 12 12 12 12 12
          12 12 12 12 12 12
          12 12 12 12 12 12
          12 12 12 12 12 12
          12 12 12 12 12 12
          12 12 12 12 12 12
          12 12 12 12 12 12
          12 12 12 12 12 12
          12 12 12 12 12 12
          12 12 12 12 12 12
          12 12 12 12 12 12
          12 12 12 12 12 12
          12 12 12 12 12 12
          12 12 12 12 12 12
          12 12 12 12 12 12
          12 12 12 12 12 12
          12 12 12 12 12 12
          12 12 12 12 12 12
          12 12 12 12 12 12
          12 12 12 12 12 12
          12 12 12 12 12 12
          12 12 12 12 12 12
          12 12 12 12 12 12
          12 12 12 12 12 12
          12 12 12 12 12 12
          12 12 12 12 12 12
          12 12 12 12 12 12
          12 12 12 12 12 12
          12 12 12 12 12 12
          12 12 12 12 12 12
          12 12 12 12 12 12
          12 12 12 12 12 12
          12 12 12 12 12 12
          12 12 12 12 12 12
          12 12 12 12 12 12
          12 12 12 12 12 12
          12 12 12 12 12 12
          12 12 12 12 12 12
          12 12 12 12 12 12
          12 12 12 12 12 12
          12 12 12 12 12 12
          12 12 12 12 12 12
          12 12 12 12 12 12
          12 12 12 12 12 12
          12 12 12 12 12 12
          12 12 12 12 12 12
          12 12 12 12 12 12
          12 12 12 12 12 12
          12 12 12 12 12 12
          12 12 12 12 12 12
          12 12 12 12 12 12
          12 12 12 12 12 12
          12 12 12 12 12 12
          12 12 12 12 12 12
          12 12
        </DataArray>
      </Cells>
    </Piece>
  </UnstructuredGrid>
</VTKFile>
