<?xml version="1.0"?>
<VTKFile type="UnstructuredGrid" version="0.1" byte_order="LittleEndian" header_type="UInt32" compressor="vtkZLibDataCompressor">
  <UnstructuredGrid>
    <Piece NumberOfPoints="774" NumberOfCells="452">
      <PointData>
        <DataArray type="Int32" Name="libmesh_node_id" format="ascii" RangeMin="2286" RangeMax="4991">
          2286 2287 2288 2289 2290 2291
          2292 2293 2294 2295 2296 2297
          2340 2341 2342 2343 2344 2345
          2346 2347 2348 2349 2350 2351
          2400 2401 2403 2404 2406 2407
          2412 2413 2414 2415 2416 2417
          2418 2419 2420 2421 2422 2423
          2487 2488 2489 2490 2491 2492
          2523 2524 2525 2526 2527 2528
          2529 2530 2531 2532 2533 2534
          2550 2551 2552 2553 2554 2555
          2556 2557 2558 2559 2560 2561
          2580 2581 2582 2583 2584 2585
          2685 2686 2687 2688 2689 2690
          2691 2692 2693 2694 2695 2696
          2698 2699 2700 2702 2703 2704
          2706 2707 2708 2796 2797 2798
          2799 2800 2801 2802 2803 2804
          2805 2806 2807 2838 2839 2840
          2841 2842 2843 2844 2845 2846
          2847 2848 2849 2881 2883 2885
          2949 2950 2951 2952 2953 2954
          2955 2956 2957 3054 3055 3056
          3057 3058 3059 3093 3094 3095
          3096 3097 3098 3099 3100 3101
          3102 3103 3104 3117 3118 3119
          3120 3121 3122 3123 3124 3125
          3126 3127 3128 3195 3196 3197
          3198 3199 3200 3201 3202 3203
          3210 3211 3212 3213 3214 3215
          3216 3217 3218 3219 3220 3221
          3222 3223 3224 3225 3226 3227
          3252 3253 3254 3255 3256 3257
          3300 3301 3302 3303 3304 3305
          3306 3307 3308 3309 3310 3311
          3318 3319 3320 3321 3322 3323
          3324 3325 3326 3327 3328 3329
          3330 3331 3332 3333 3334 3335
          3366 3367 3368 3378 3379 3380
          3381 3382 3383 3384 3385 3386
          3387 3388 3389 3390 3391 3392
          3453 3454 3455 3456 3457 3458
          3459 3460 3461 3483 3484 3485
          3492 3493 3494 3525 3526 3528
          3529 3531 3532 3543 3544 3545
          3564 3565 3566 3567 3568 3569
          3570 3571 3572 3588 3589 3590
          3591 3592 3593 3609 3610 3611
          3612 3613 3614 3615 3616 3617
          3618 3619 3620 3630 3631 3632
          3633 3634 3635 3636 3637 3638
          3639 3640 3641 3654 3655 3656
          3657 3658 3659 3660 3661 3662
          3684 3685 3686 3687 3689 3691
          3693 3694 3695 3696 3697 3698
          3708 3709 3710 3711 3712 3713
          3735 3736 3737 3738 3739 3740
          3741 3742 3743 3744 3745 3746
          3747 3748 3749 3762 3763 3764
          3771 3772 3773 3774 3775 3776
          3777 3778 3779 3786 3787 3788
          3795 3796 3797 3798 3799 3800
          3801 3802 3803 3804 3805 3806
          3807 3808 3809 3816 3817 3818
          3834 3835 3836 3837 3838 3839
          3846 3847 3848 3849 3850 3851
          3861 3862 3863 3882 3884 3885
          3887 3888 3890 3900 3901 3902
          3903 3904 3905 3906 3907 3908
          3924 3925 3926 3927 3928 3929
          3930 3931 3932 3939 3940 3941
          3942 3943 3944 3954 3955 3956
          3958 3959 3960 3962 3963 3964
          3969 3970 3971 3972 3973 3974
          3993 3994 3995 4032 4033 4034
          4035 4036 4037 4053 4054 4055
          4056 4057 4058 4059 4060 4061
          4062 4063 4064 4089 4090 4091
          4104 4105 4106 4107 4108 4109
          4116 4117 4118 4128 4129 4130
          4167 4168 4169 4170 4171 4172
          4185 4186 4187 4208 4209 4212
          4213 4216 4217 4233 4234 4235
          4236 4237 4238 4254 4255 4256
          4257 4258 4259 4269 4270 4271
          4272 4273 4274 4284 4285 4286
          4287 4288 4289 4290 4291 4292
          4293 4294 4295 4302 4303 4304
          4314 4315 4316 4317 4318 4319
          4320 4321 4322 4323 4324 4325
          4326 4327 4328 4338 4339 4340
          4344 4345 4346 4350 4351 4352
          4353 4354 4355 4365 4366 4367
          4368 4369 4370 4371 4372 4373
          4374 4375 4376 4377 4378 4379
          4380 4381 4382 4383 4384 4385
          4386 4387 4388 4389 4390 4391
          4398 4399 4400 4416 4417 4418
          4422 4423 4424 4425 4426 4427
          4428 4429 4430 4434 4435 4436
          4437 4438 4439 4440 4441 4442
          4443 4444 4445 4458 4459 4460
          4482 4483 4484 4485 4486 4487
          4488 4489 4490 4491 4492 4493
          4494 4495 4496 4497 4498 4499
          4500 4501 4502 4506 4507 4508
          4509 4510 4511 4518 4519 4520
          4521 4522 4523 4545 4546 4547
          4566 4567 4568 4569 4570 4571
          4572 4573 4574 4599 4600 4601
          4602 4603 4604 4605 4606 4607
          4611 4612 4613 4647 4648 4649
          4650 4651 4652 4653 4654 4655
          4656 4657 4658 4677 4678 4679
          4689 4690 4691 4692 4693 4694
          4695 4696 4697 4716 4717 4718
          4743 4744 4745 4746 4747 4748
          4749 4750 4751 4779 4780 4781
          4788 4789 4790 4800 4801 4802
          4803 4804 4805 4806 4807 4808
          4809 4810 4811 4830 4831 4832
          4872 4873 4874 4902 4903 4904
          4923 4924 4925 4968 4969 4970
          4986 4987 4988 4989 4990 4991
          2880 2882 2884 3883 3873 3886
          3876 3889 3879 3957 3961 3965
          3875 3878 3881 4119 4120 4121
          4206 4207 4210 4211 4214 4215
          4347 4348 4349 4251 4252 4253
        </DataArray>
        <DataArray type="Float64" Name="resid_x" format="ascii" RangeMin="-0.03250762290915077" RangeMax="0.0018620830502591446">
          -0.00009647614991470377 0.0003238109592444971 0.00032306905601675595 0.0009420671412989634 -0.0023149840345477735 -0.0010528423076126003
          -0.004341721288311895 -0.00302789077021437 -0.010911051210687805 -0.011557217912759654 -0.011965696950641203 -0.010599563740872675
          -0.003941449636815086 0.0008198551705511647 0.0006226146189739767 0.0018620830502591446 -0.010886421711640892 -0.0012545318219245871
          -0.002786059805533314 -0.0015453344096769683 -0.021520092365735266 -0.011926896599765868 -0.011065362903604714 -0.014078747801693936
          -0.011643179465434805 -0.0018248741454387485 -0.01632435227749518 -0.0027331604976899015 -0.011696052171636495 -0.005105568032195862
          -0.002360049690570243 0.00021276815394877246 0.0005489990899274488 -0.00204068398191648 -0.0070330905860434 -0.0022216529916780914
          -0.004765093847100665 -0.0109763268686498 -0.009859683599686697 -0.008083541830554708 -0.009421353873393379 -0.012203918858817886
          -0.0063570297800596975 -0.0043615164441881404 -0.004001502678807389 -0.0032023783873738054 -0.009548346197627566 -0.010457420331033696
          -0.0000871128366100038 0.0007378061295852945 -0.004862622127888905 -0.005121786593949906 -0.0001803391994306125 0.0009033861907856711
          -0.011752200473591046 -0.01402517338707554 -0.0005612495684834684 0.0005465375768900493 -0.004763653979271254 -0.008401226318346389
          0.0001069767123595966 0.0001709211023683821 0.0005314137590408663 0.0005886034562223585 -0.0010718274821006624 -0.0009364514024925441
          -0.0004623218774151283 -0.00403331871098267 -0.009903155697482457 -0.005904328855538932 -0.006392310453596117 -0.009814372206410127
          -0.0014486271824338814 -0.0015889259732189132 -0.0021783758498727934 -0.003476999561314642 -0.007209383972290873 -0.009504039218852789
          -0.00021291642708121117 -0.000009602757983451227 -8.016605077543204e-7 -0.00016508937738191065 -0.0011437865472574416 -0.0006299349879022031
          -0.0011611052255222631 -0.0011568117310636339 -0.007668394100335263 -0.008410589759535902 -0.008594490206522032 -0.008083559648817129
          -0.0067210722594666095 -0.008592296887317552 -0.003594181145889941 -0.012544875515459353 -0.005479319666431337 -0.001720223817441635
          -0.010863280881228121 -0.009836014261503934 -0.006011880655045765 0.000057620857860207764 0.000568844328570961 0.0005259095796361635
          0.0007975305749039485 -0.001544254121187194 -0.0019381578410806455 -0.0014536290556046438 -0.002958411459727195 -0.008015205162317685
          -0.00792367658587878 -0.006897533628115404 -0.00846853339472542 0.00010725111630005557 0.00018173687288314255 0.0004222980851560365
          0.00025605090485569804 -0.0010718641231566295 -0.0021624970960925083 -0.0007334045832658731 -0.00277587147260272 -0.0043316274011742095
          -0.005875607432751728 -0.004783938953065281 -0.004797614008095419 -0.010156696644679997 -0.01614043534812737 -0.013847179788799124
          -0.0021168748387179193 -0.0011167034434906853 -0.002599207699433226 -0.002114103221175334 -0.0014667476646597066 -0.0034591962959340528
          -0.002417970723554319 -0.0018781036541417606 -0.003528550148526044 -0.0014671247461217618 -0.003073802896379263 -0.001041125080150529
          -0.004670534731575415 -0.004936915035538725 -0.007759355096702336 -0.007920866370544566 -0.006583704677336932 0.00022228254200529207
          0.0007001674829227866 -0.0061899817873225516 -0.003836458162622236 -0.00034776366675437487 0.0008777853434871474 -0.008153771043625468
          -0.007216855667465438 -0.003544354790093518 -0.0031868322307184727 -0.0013335220019072835 -0.0017988570688443062 -0.0008114321514351985
          -0.00021448044574334801 -0.0013657740057881895 -0.001746216092224806 -0.001924907362901962 -0.0005086802186262673 -0.007250138482582713
          -0.006335710962229957 -0.004913149092333313 -0.005643481890649227 -0.0005943983395457764 -0.0016593676557716819 -0.0036495912922918095
          -0.002720584407752913 -0.0048122259536320655 -0.003125454465805255 -0.007840649865613614 -0.012567717488290775 -0.0066718343508833655
          0.00010250504935882532 -0.0004381001268782825 0.0002766157143980763 -0.00019562346244050843 -0.0031293547305688563 -0.0036018657078011884
          0.000025461478188937292 -0.0019850501161764456 -0.003803278501177676 0.0009425333498347399 -0.00022822275594691632 -0.002901518216975596
          -0.0042172051107356445 0.0005967927824723773 -0.0076943504009081565 -0.008236881998924694 -0.008731177388544786 -0.005597461300794748
          -0.005288415623995846 -0.009060485484036818 -0.0027397640828112912 -0.013566334792372459 -0.007734560375153521 -0.013998735604685564
          -0.0038853926245199233 -0.003468521773767108 -0.009672749317108043 -0.009150148720930673 -0.009268381197303555 -0.008596612325055375
          -0.005060026702249587 -0.005829796144723787 -0.002294840798953146 -0.002963923433876303 -0.00663307486587561 -0.007622509748051343
          -0.0013846311673129108 -0.002952338542478561 -0.0006884142339114163 0.00032953487398290626 -0.0030898909935848096 -0.005889910188008329
          -0.0032192371188557445 -0.002368081619742002 -0.007732586811027176 -0.006827889774055684 -0.005924757413580117 -0.007915008267311618
          -0.0025760519020631145 -0.0007081879066550556 -0.0014577615722156656 -0.0008791379252865994 -0.0022491480990822765 -0.002451203439415295
          -0.0024573951537707472 -0.007129443172477323 -0.00783671203281422 -0.0025891577779595387 -0.003202619309656818 -0.0023131105333917823
          -0.0032832605175387997 -0.004124436680969623 -0.006841698746333336 -0.0009326228700707873 -0.00047629879885580095 -0.0018688220628568786
          -0.0003940529640669155 0.0001159091356361941 -0.005232908057285712 -0.0030624490774657787 -0.0016564423570297748 -0.004968832981076865
          0.000022757914735827 0.00013130341285005898 -0.0019976527267875355 -0.00003558863061936535 0.00018465685975765922 -0.0055686602586852985
          -0.004381423816003149 -0.0038396209588613672 -0.00733420770650639 -0.005275306419010306 -0.0029957719946143158 -0.0021559022121167004
          -0.0008302099591706025 -0.00036369525706270167 -0.004322465387708085 -0.007455350923864401 -0.012212414722823084 -0.01692604611787729
          -0.02020354166836924 -0.013711254210470258 -0.013835484180411584 0.00013225776734060446 0.0011741719972571119 -0.003191409490818309
          -0.0002897630674736362 -0.002861647260696376 -0.004079900165098849 -0.0006879097056118333 -0.0025877517186629895 -0.0022397844443289294
          -0.0050896695666047265 -0.005546268746013716 -0.007588900592108594 -0.0027868212289252625 -0.0016095524600099331 -0.0033533422215414888
          -0.0014721647138102867 -0.007513224838892718 -0.00565312746380231 -0.0048666798439604975 -0.0004854143164799707 0.00014755846863945266
          0.000008060174055302127 -0.01021174000169367 -0.002486374802109337 -0.0009770609681645226 -0.004741982909622244 -0.01259484390985044
          -0.004844178752545725 -0.007147985116270128 -0.010680387424739202 -0.00010564834043425009 -0.0018232596674687684 -0.002416754029402668
          -0.0004303599953594528 -0.0011713196955707161 -0.00447014636894405 -0.0036211814413276144 -0.0023380336370797394 -0.00892472173780856
          -0.010634148519754305 -0.011866166169338221 -0.012008982675613566 -0.005682705029653512 -0.0001042470235184112 0.000588799647645466
          -0.012538194046980422 -0.000964668883867148 -0.0012725041401457915 -0.011403690357263407 -0.009233632815654591 -0.005907324516866375
          -0.004274975491785682 -0.0020545430182847824 -0.002657434157542049 -0.005462122695679916 -0.007870806696457677 -0.005209472837607088
          -0.01290082868161413 -0.010241110396953523 -0.018203202601964286 -0.013527464862892913 -0.010670710043527265 -0.01184753979763098
          -0.007684723241498048 -0.007886854214975259 -0.004764566878955101 -0.0035972558585042336 -0.009684203865671925 -0.009148076035145891
          -0.009415846775474357 -0.003992243287047614 -0.0030909210760423633 -0.008215009241965276 -0.002110597609064485 -0.004647700346412265
          -0.006935751707738191 -0.005133253994390685 -0.001019476127290031 -0.0019303052996830772 -0.00609525916031739 -0.013888411955923274
          -0.003975196046431706 -0.00749045257990133 -0.012041451222108535 -0.008921582420985175 -0.0041070268651459685 -0.00985889005294105
          -0.009295764973998422 -0.005938679177401651 -0.0135259789751776 -0.003681918555883845 -0.004120535734911002 -0.0015590597701338194
          -0.00325381793730406 -0.0067911773903768236 -0.007840092510323249 -0.00585981600950225 -0.0036001306942385902 -0.004469752381846881
          -0.006891579115334778 -0.0057329273458002206 -0.004904922307567006 -0.0032796675990747204 -0.007395968558590482 -0.007597530145957876
          -0.004069206260675529 -0.0021559334861604995 -0.0018204709736124869 -0.005524138397756451 -0.004141562908808183 -0.0049607818741535525
          -0.0033063077317301293 -0.009828966390719951 -0.009612718112212093 -0.009400689056333844 -0.004740866255400267 -0.01078717692143849
          -0.007197574638105664 -0.004268111540437047 -0.010781239952295074 -0.0070070990967300295 -0.0029982469181852878 -0.00831804821952109
          -0.0010917248692763337 -0.002378442362917621 -0.00016892019310166262 -0.0023574305279399077 -0.0014180941956576376 -0.0035640227853726003
          -0.009297923618666715 -0.0026107310897300617 -0.007434530009666873 -0.014922748333574098 -0.017915935884220247 -0.029867246277014203
          -0.027347415876919356 -0.017763521455035125 -0.021031194731785163 -0.0038747018313198822 -0.00375173659794914 -0.0036824076884753865
          -0.0025444866699286806 -0.003870371874950429 -0.0039979328543076065 -0.006442449227493707 -0.006624922725361415 -0.005410603454999219
          -0.0068597982865876705 -0.0016476406769090346 -0.007100552584159203 -0.004131973458773253 0.0008457860620367796 -0.004304123273048965
          -0.008483992403637508 -0.005564669228463437 -0.006896515327744268 -0.007634435253214278 -0.0066824909385680975 -0.011343057583633964
          -0.008023938340937065 -0.004953131779275477 -0.0026705690775097324 -0.011474958715028905 -0.006690007397385678 -0.020975795725063584
          -0.024883473796883493 -0.00976918875653876 -0.026377431188911338 -0.016434257889116566 -0.010852254446056975 -0.018716325181284965
          -0.01807814596853241 -0.017260405599100803 -0.012693849137178859 -0.006795717037832549 -0.008250978030501344 -0.009535556498504683
          -0.005913326570796684 -0.006061791146113826 -0.007031778049688242 -0.002056165021559586 -0.0033523930454766315 0.00007028026686306532
          -0.002392980447543991 -0.002567141379734572 -0.0049803242598560615 -0.0034513722520390644 -0.0018195662294875348 -0.0015565998841982065
          -0.0010594826879115615 -0.0037169627294035834 -0.0036279706710278248 -0.005174303240339739 -0.0008475325219725605 -0.005137732572721543
          -0.0006106456548424788 -0.007840637194870048 -0.004875050330032771 -0.007746015298450981 -0.005280723769650386 -0.00740943294740859
          -0.005453010961433691 -0.015177529024693825 -0.002962947081896594 -0.008118674503217349 -0.002836167066105233 -0.008237724633239907
          -0.005607325275387431 -0.0020839889612549456 -0.003444441865570802 -0.007832963920181513 -0.000291133514267905 -0.009156985139425977
          -0.004096600486734658 -0.0011711020225817492 -0.003973482347281454 -0.007706714165835571 -0.00045271285505066317 -0.009445352729816392
          -0.00785321634850411 -0.0010883813818129973 -0.009269051197904554 -0.019753985476701708 -0.010820996279984563 -0.026732007324143936
          -0.01479484846209278 -0.013208984997660433 -0.007104267281493826 -0.010114562026528717 -0.010842089665588084 -0.0035816954657893474
          -0.005361762495330602 -0.007368925494198875 -0.00988625249845132 -0.006487221517695652 -0.003395927801363996 -0.007286469996242495
          -0.004645070708688692 -0.0005831695385678515 -0.008005434700531389 -0.013788717738183465 -0.003965020213652082 -0.009971052723004803
          -0.006935781697811727 -0.003277098929943989 -0.003655039936186988 -0.00397274073463727 -0.003241822302364916 -0.0031993329320041397
          -0.006578959322001587 -0.008982388356916005 -0.006621452181065912 -0.005284370781450498 -0.005205957760897384 -0.001949963008112121
          -0.0011891279273257283 -0.005398217199924282 -0.005314990639567974 -0.006509449919467336 -0.0030281008802583997 -0.005962059406367182
          -0.003845168074117833 -0.007170757267701333 -0.0013198579464352989 -0.007859300172461392 -0.006937778095578384 -0.006922569961382852
          -0.0054451316929142735 -0.006950327394973144 -0.000644822468373718 -0.0023671791772370554 -0.01518411392983765 -0.0003667105586142583
          -0.007258349139341647 -0.012853200553459843 -0.006117611687979974 -0.0025310948740209227 -0.0029554698649283395 -0.006642213365426919
          -0.006466023240172092 -0.0026092115530795823 -0.00582745839092258 -0.0062483801913861825 -0.005574450055232383 -0.0006994383636582668
          -0.0003039789178105323 -0.010525651382596202 -0.007582946745553265 -0.010283426172533083 -0.0052765685579925226 -0.003440340503156669
          -0.0001980910723813345 -0.005872619646078547 -0.003983551740199154 -0.005229564982896617 0.00001709186107579086 -0.003969848165489065
          -0.010854142865901473 -0.00970537867981891 -0.004337021710191458 -0.004906314062816719 -0.005387543479190349 -0.004955721988021633
          -0.004890175983444323 -0.0013752546460961135 0.000017464130809052847 0.0005198646519284367 -0.009686160505673058 -0.0017509428359563373
          -0.002629930959307192 -0.0011201074995974558 -0.008417113810486931 -0.004130277069077426 -0.006078127092788321 -0.005005979686476536
          -0.007271000280755224 -0.0022905265917554374 -0.008860861328414238 -0.0068933908922579334 -0.004066334737159227 -0.006419970517386631
          -0.004601702763951998 -0.005501540673694905 -0.0035176442387951923 -0.003966763617905045 -0.004285725539004304 -0.002961403582179223
          -0.010371598200598159 -0.0016740045030788075 -0.005608647893773633 -0.012957684676713654 -0.002823292021454815 -0.026059763428627036
          -0.00007482365550393055 -0.018765487317001117 -0.00568180365317783 -0.0008912180961484495 -0.0017813028213229387 -0.00027303389900890096
          -0.004181015090416906 -0.00503541259633522 -0.006382716618359652 -0.0074434857551226585 -0.0145767173741298 -0.011813236873865485
          -0.006788045098952367 -0.006631333821013219 -0.0008887058213602472 -0.003713245904618079 -0.002665373189661757 -0.0033807672850253434
          -0.0004014168304591337 -0.005758378459915114 -0.00786160157739868 -0.0031975697683952475 -0.00025518029205962023 -0.0072013396595647095
          -0.004852862931376656 -0.002936238210486053 -0.004905963047209028 -0.010343055847286564 -0.009335935482098101 -0.006655463048497623
          -0.004560584572558035 -0.002924041446782155 -0.005600555015937481 -0.009314564778931889 -0.0023600257403808556 -0.0035408308045363768
          -0.0015967427498093656 -0.00913773842086929 -0.002746595785025896 -0.002980670602601876 -0.00470207032421488 -0.002302891011300545
          -0.0017246139246207548 -0.007892198404473305 -0.007581391205127019 -0.003535175257655787 -0.0011625443909073496 -0.008062185454217108
          -0.006145554126744779 0.0003860331549241369 -0.007436111450620508 -0.003364108200166527 -0.0022808224959609547 -0.00604182653082308
          -0.009515801156660064 -0.0071079155498177116 -0.008121901432143641 -0.011601152241489388 -0.019468091543442867 -0.010836422624119102
          -0.00378380111338128 -0.005730091785489222 -0.0019962558305239853 -0.002903920967236573 -0.006496385481790767 -0.006177534859668654
          -0.0066510426735897354 -0.0006512625629850888 -0.0066073232617709365 -0.006244787036068011 -0.0041285608031387255 -0.003156066249114353
          -0.007812318917935102 0.000589365975495415 -0.008513707104820911 -0.008973115862952241 -0.0029336676018143493 -0.005080252702455823
          -0.006601727749731445 -0.008784063089747107 -0.007353585133504481 -0.011381780624445503 -0.002576625379762998 -0.004445582006071924
          -0.0026015334738804796 -0.00689508434362196 -0.0014453700530916436 -0.0012801935342858783 -0.003104812297196169 -0.0004259061534561681
          -0.003506332283008895 -0.007729303071688065 -0.003816125166713924 -0.006138992065427118 0.00025153813237110967 -0.0033484579433578077
          -0.00571347658621324 -0.0064439833917084854 0.00033807883512082526 -0.0043981764623399755 -0.004615725324480735 -0.005764198690077826
          -0.008703218024579407 -0.0021116846808517664 -0.005937322832310521 -0.009328272815938732 -0.0072756533193878425 -0.008491752229579319
          -0.002152569574973562 -0.0013788310790010527 -0.00496165791728842 -0.007097788655578974 -0.0008808837226546018 -0.004827916392492249
          -0.005972955887487252 -0.0066034388586002635 -0.0015670526321791556 -0.004394445425574212 -0.005533698560356903 -0.00783059424266419
          -0.009937374340193372 -0.0037029341586065634 -0.006149325267244432 -0.011308375273457294 -0.014480045937050434 -0.009072823357811899
          -0.019761195823010835 -0.02605783699549602 -0.01304033304530483 -0.01820743759925847 -0.024430481075825128 -0.01524406089244934
          -0.009887032369699345 -0.004759829321758335 -0.004674541006883359 -0.011348013480476649 -0.015391061513188475 -0.00993120829628813
          -0.013069300598665734 -0.016545220440829844 -0.002844416138339856 -0.004834496906514385 -0.0053649417201069305 -0.009549233195434326
          -0.014275531596021018 -0.026865566518663897 -0.012131494462877868 -0.016997855550329177 -0.014891137155041534 -0.02613834283665284
          -0.02439095547260095 -0.014470568856804533 -0.0139906762099411 -0.016300819971458935 -0.024090138225179913 -0.012912606233646873
          -0.013515004762846061 -0.013052090335424538 -0.011547077362939362 -0.011728045957319466 -0.0137554983932624 -0.008887018974539806
          -0.007587184531153923 -0.01917079098442187 -0.016418121639386385 -0.03250762290915077 -0.009652450164821857 -0.02068442480709365
          -0.016941106123277372 -0.016980449072447 -0.009955649621019802 -0.02246037211475116 -0.029156066788932122 -0.015386406878940662
        </DataArray>
        <DataArray type="Float64" Name="resid_y" format="ascii" RangeMin="-0.7102765766407986" RangeMax="1.0880471729703267">
          0.00011540958446641658 -0.00016936788399402047 0.000008072295065331136 -0.0007448719633369183 0.0013636506397112225 0.0004729091649492423
          0.0025756771002794637 0.0008267603949147773 0.00428211180038645 0.00451090957078254 0.005461229633980477 0.004560587360166873
          0.002764212568413159 0.0004878467655161853 0.00007372104247685418 -0.00031258224841757 0.006015944922177621 0.0015999912102590969
          0.0001446566078481537 0.0019556409043897105 0.005427175359405664 0.0024074118679291434 0.002960317843084509 0.004587981173166278
          0.007095363247584377 0.004070058290474847 0.008513724847083085 0.007930223369325418 0.0062155551663537825 0.005369787075981597
          -0.001883937243207165 -0.00014166916754354553 0.0002080524716980836 -0.003510399211014148 -0.0031835239379207347 0.0008785640916475455
          0.0016165320068743383 -0.007635698365953375 -0.00010477694917404579 0.002009135310375637 0.0017423407774461719 -0.002401796800989564
          -0.0008646515311966918 -0.0018158036701395597 0.0010841356536454017 0.0017122899617119935 0.0035748335999942205 0.0038765497482804445
          0.0001678584882506412 -0.00016979746725176437 0.0038180747073036647 0.002193118147288571 0.00042362179084933643 0.0007586658957039472
          0.009780823240760794 0.004581933004528374 0.00149467559689008 0.0015759037441711032 0.0060054578307814355 0.002965988272921216
          -0.00020279401823489196 -0.00028942068001810983 -0.0003764225942449184 -0.0003025592510655095 -0.0002649812770207094 -0.000045345880736277766
          0.0004938285540077858 0.000959035903929123 0.0014861486959185655 0.0013358743655722122 0.0021146184887673725 0.0024032721594115514
          0.0013344040195526208 0.003140783462077336 0.001765369347935447 0.0032205829747192563 0.0034590887924123015 0.0038388466985189718
          -0.00015034688102172344 -0.0001749107631259239 -0.000057185210691035326 -0.0006447760575389316 -0.00007375314634515406 0.00016844126069281984
          0.0007326686638696733 -0.0009031799026075482 0.0008440837053658723 0.0007761118158798874 0.0010309493543660397 0.0007487785959012783
          -0.000866788635275853 0.004935033694670493 0.0028984017354547476 -0.00030211992712149416 0.002913230017021984 0.0013942205912632621
          0.0029241782020199975 0.0031879391633251875 0.001374882277775727 -0.00004331218997706554 -0.0000883588148002587 -0.0001992066863997638
          0.00009478099831788933 -0.0001250663306708033 -0.00011255640900510733 -0.000589736715957509 0.000006300825200006299 0.0004437783269826412
          0.0004236095987984554 0.0006581133706402981 0.00041871596713756454 -0.00011131850487887396 -0.0003682211328181473 -0.00040922606299625963
          -0.00026915247117892394 0.0004118819076973229 0.0004543242815981119 0.0007337162934868968 0.001014919544196441 0.002108973303457551
          0.0029488474006697796 0.003329675702041679 0.0024911918877666694 0.0021372669234368674 0.002415955861374733 0.002132785910808177
          0.0015815063914284104 0.0003282526024154797 0.0007548205182993373 0.0011790491678852488 0.0007207780678608611 0.0034742635024884727
          0.0017673354258290752 0.002615809496068766 0.00485526530521857 0.0020111199891523213 0.005058675207215903 0.0007349211676511286
          0.004041176759279168 0.0016822150855264895 0.0030001102095235307 0.0007958173198495122 0.0022583371217865245 0.000471575916978495
          -0.00006514586186617821 0.0017948727459712877 0.00147272211707411 0.0005411315344988343 -0.00033619256483274906 0.0019266838539045428
          0.0011939702137525043 0.0005669617293394547 0.000988640750250791 -0.00014950915613087812 0.0006115562162358461 0.0005826665096246575
          0.0004690129431439982 -0.0000588306550851625 0.0005095942437806054 0.001275596150528746 0.001122176279423126 0.0004193104622725041
          0.0007141439472155356 0.0008283623085155734 0.0007420131038990974 -0.0001609935619163172 0.0016906499575127798 -0.0001426482246505295
          0.000989248127191783 0.0003843916752434562 0.0033587453864152156 0.0023027106615957083 0.002650195137033462 0.0031075814934978935
          -0.09459808733259505 -0.21379089417083957 -0.25054818811952606 -0.484597303935932 -0.24642568292360886 -0.4146959554970991
          -0.00010827375525657157 -0.0009101008058339799 0.00027823943013938895 -0.0004950922111662537 0.00006327162157368504 -0.000858142529983702
          0.0019041026409002335 0.0008759239550844983 0.005511873353744645 0.004056550390552499 0.004969408320293807 0.0037710641358093613
          0.0006659841122944044 0.005537149632404023 -0.001424683766164836 0.0065419408118413125 0.0006541471356126816 0.0034998082683144333
          0.0024318208717149514 0.000199571835733936 0.002829611228781115 0.0005678149370808572 0.002692415471604148 0.0024504389278130756
          0.0029578478535929875 0.0020284900653857185 0.0017174256560604784 0.00042193927873715453 0.0030279086692082124 0.0038529863322452618
          0.0011016503025232105 0.0014466189195552481 -0.0001858551437780298 0.0000830470737546718 0.0003191353155011095 0.003494024696710507
          0.001402411667775133 0.0023338720202490393 0.001648923139470987 0.003457835729229114 0.0032783347649166517 0.0037043362456093964
          0.0004223681850692995 0.00019323040844748673 0.0015378481719464099 0.002727534943675558 0.00416914761583026 0.004245209737898492
          0.0008177868166470703 0.002416281427142619 0.002308571143017135 0.0032002014051842886 0.003589240959846418 0.0020357379952408716
          0.002089829405041571 0.00350039703391683 0.004320935676575155 0.0003442705866850901 0.00139020625609107 0.0005438172104057226
          0.00011906548460390715 0.0015733389833825773 0.0006492141150927222 0.0018161457144261317 0.0028848324416732296 0.0023580514859955493
          -0.00015530772318467223 -0.0002264339088902667 0.0003918569945632888 -0.00006825831135398586 0.000017191998084087334 0.0012694919883803335
          0.0009034513345664297 0.001438323345780812 0.001466749432190828 0.0033448180412672945 0.002080845077095328 0.003047364173154876
          -0.3385676693148352 -0.7102765766407986 -0.46879682987091176 -0.0007074288467633152 0.0034873494049054363 -0.000643787243836666
          0.0026335609174729276 0.0013994748723744413 0.0022311623484413505 0.0016354288115320859 0.00017100153963128806 0.0015907771879001553
          0.00011304304300213674 0.0033908108051438623 0.0034587679743200983 -0.000032472885401813034 -0.0001757241108700791 0.0053439860920521665
          0.0029336438796842557 0.0031567868188462356 0.006921047780772127 0.001113799634858359 0.0019290747461154084 -0.0001479856229676113
          0.0002896486878392335 0.0018842219228036305 0.0016628448156262438 0.004456867897911998 0.002117185095803692 -0.00009512945299387787
          -0.00012824461170741347 0.009570196834578826 0.005541060987669738 0.00001062091364784079 0.0011847731614387028 0.008679478868729273
          0.005150015274376356 0.003998268707276792 0.00407562011189129 0.00003853181702548336 0.0019629340124350664 0.004030620961527814
          0.0009116143134989957 0.00021429724116817095 0.0012054814210244874 0.0031850652232993104 0.002535256499737515 0.0031338721740712394
          0.0030957863511457406 0.004988896830762202 0.00566069891397554 -0.001058972654404286 0.000017336732071410177 0.0003440006426625383
          -0.0016458025212581565 0.0008608132624396414 0.0025812861342035184 0.00044253940306106243 0.003302028404873522 0.0031526679567900687
          0.00364126388687247 0.0020536895769768804 0.0028336187024530224 0.002823928867013995 0.004001364108853475 0.0025507745665227025
          0.008126225023892666 0.007005933684085697 0.011498699951074415 0.012003594134502749 0.006917206710838175 0.009268951234919831
          0.0073704141582760715 0.006239709199421045 0.004231183799069629 0.003445022732888686 0.005140904081367963 0.004929237843716877
          0.0070237727137447414 0.0030853283740000514 0.0034225815450869487 0.0017464165003911875 -0.0004214523795556431 0.0009311253746533965
          0.001561764595686646 0.000831685110653041 0.00046945057609495966 0.0007635444771432187 0.003061018348297029 0.004130767651333925
          0.0021754145488733848 0.0035103083440601313 0.005771992304650975 0.0016186500758508388 0.001644816652160097 0.00361788401625171
          0.003344449318666745 0.0016604126428987395 0.004180311005033931 0.0005104648121631028 0.0013085514042341095 0.0015427580371491223
          0.003434438465558992 0.004508027081449206 0.005541805677301392 0.004041937345260205 0.002309228197588553 0.0052523138977528805
          -0.00009537012964208613 -0.0004862058583219031 0.0015994185736735167 0.0029860695456752073 0.004804573764963432 0.005405638631280352
          0.0026245073169537947 0.001478685389651263 0.0021710685377961114 0.003231750713991288 0.0038621177931120326 0.0018857187950246102
          0.0021296102622293395 0.003002259836882376 0.003025365334905064 0.003174132771595742 0.0006076890965133752 0.0031119942934795357
          0.0029424101787635937 0.0013572070945801346 0.00360498264015692 0.0026793266986138986 0.000697755169304648 0.0027755243232271687
          0.0015550137563955096 0.0031127914972453874 0.000055981390592735325 0.0012153279778865517 0.0025575292332652433 0.0031220534422779223
          0.0031408108435252713 0.001500832229771265 0.0038877318412998407 0.00251008281301085 0.008137463678760365 0.004839762241645534
          0.009077597976321669 0.002283098829754443 0.00353834156771915 0.0012636063129908282 0.0036881557861083436 0.0019079655320283911
          0.0008566974578419206 0.0021798850112436097 0.0005287088150692718 0.0007645073718084983 0.0011829465049051913 0.00020603154041928806
          -0.0020507754481663837 -0.0008957971564609868 0.0002429250494412269 -0.0011113995814197863 0.00047281481356947763 0.0005486416800649999
          0.0012841479043737558 0.0018468210220017323 0.001521751562028809 0.010320416021026513 0.008575539750857786 0.01494829557840105
          0.01270514680175272 0.007989490976918479 0.006917846448727394 0.001989884721115269 0.0015612755640111373 0.0019433395704973044
          0.004228642950541574 0.0052248034886457455 0.005526549608641046 0.003566733089892464 0.004306696476486006 0.006035844250694963
          0.004290448648478315 0.003455632400485114 0.008798944475568353 0.0005993844305348939 0.00438562109400914 0.002068225838709567
          0.006210698966781308 0.008980505263774238 0.005099365278498552 0.4192333193822362 0.30533691049045075 0.85986237429001
          0.6285796615040381 0.4687848020364345 0.37052874940606984 0.09724542245283659 -0.07642848208180575 0.21666400109146017
          -0.12889210992234018 0.18552673319228025 0.01116923009627352 -0.00009688072113486941 0.0009375374445089804 -0.0005570413746937113
          -0.0002457759925606484 0.0016485703046169795 0.0010322258108329263 0.0038703120833745996 0.0020057018214840877 0.002464602332215654
          0.49680401469963964 -0.0006717054999824529 1.0084802849660612 0.0009148974571919349 0.5103646052119244 0.0018274781825531605
          0.5061244733198168 1.0188245142286385 0.46774634875834087 0.0028526155237500322 0.0011148241183442514 0.002818061876912581
          0.456729458939291 0.895323874873198 0.33141935219118435 0.0024625127468064223 -0.000022569978699871207 0.002150305168037797
          0.0035836692203347134 -0.00001759996449902934 0.001757714272521832 -0.003534854928465253 0.5722613681007164 -0.004845787166703308
          1.0880471729703267 -0.0016393529958344533 0.36305377403596656 0.005640453518435923 0.0075547539467244185 0.0013675330855318912
          0.0015430198456550248 0.0019486564162902176 0.001811381528034145 0.0031925182085028037 0.001045796433647217 0.003632032958723219
          0.003958415753904931 0.0016974026599598097 0.004449199890915828 0.006909036701632745 0.0017557988050606599 0.0025051180841339643
          0.004435079477982495 0.0015122214308785076 0.0023164902063250725 0.0028351527030138213 0.0013325517307656298 0.0030790466415886453
          0.00895070602528869 0.013006505100265686 0.009082249291651023 0.002177040303107544 0.002576394902121054 0.000004749519851493522
          0.0002525875347925699 0.0014246595170438747 0.002549546356990451 0.0014043465607699313 -0.0012908975898714148 0.0010872461633969766
          0.0006185296598762782 0.000831208908522266 -0.0009676721924865919 0.0014211795443893754 0.00041325035664271925 0.0016144827796933936
          0.0019814094217464884 0.0012767359888732621 -0.00003130143129638496 0.0005659490228950848 0.004360246465362885 0.0011674029894369192
          0.004020600726864623 0.00509626242399655 0.0036975249051896114 0.005207610384502667 0.006271632186442042 0.004342182029877573
          0.0025317965882608665 0.0009140863781718078 0.0012180068621432116 0.0023883450375630846 0.0021295569104939696 -0.0015615188594449297
          0.00007778387866046177 0.00031556559733979944 0.0018875888803478874 0.003383789334051257 0.0026670798027970677 0.0010212073930280993
          0.00006273347032237364 0.0003525729548423395 0.00040188963562531876 0.0018815588472370914 -0.00017300020671343064 0.0013197737863684111
          0.001799947757934503 0.001274179657887467 -0.0011136684380395473 0.0005524436802847588 0.0005548435681301256 0.001078808763886538
          0.0017850952495885863 0.00041582561507324395 0.00015026358523191272 -0.0001927724244655954 0.005290595576606438 0.0020210876511409445
          0.002075502410034992 0.0031765904828106734 0.006271026142956326 0.004089251798763294 0.0052040077122097045 0.005611692990317482
          0.0044568152986662335 0.0007023724029924239 0.004189731503014792 0.005476073681188964 0.0034907886686415535 0.005330972538084566
          0.001693802656093396 0.002238482875961066 0.0007234803401997419 0.0015628443635519323 0.0015238844787327094 0.0019417601271727557
          0.001979782063222385 -0.0005680202432137016 0.0025064938789822744 -0.001039783038969684 0.001416714723365152 -0.0008704071423001995
          0.00013293224550076782 0.0011842937536543363 0.0011666058640256802 0.001439213798626715 0.0010740984088197791 0.0006791938751185
          0.0011153003101165848 0.0007640537631586619 0.0009281293358878728 0.003959619288516958 0.00732728056456422 0.004491123467231989
          0.0028383919957566672 0.0014095329094022113 0.0007784383911453585 0.0018934725966905097 0.0013157482961169975 0.0012891732191270544
          0.00017304748648958035 0.0006888099372477224 0.0039083625832535135 0.0020066443143957682 0.0006385214674372863 0.0012755957911557009
          0.0033732116848045057 0.005236608871685943 0.0034808240888697384 0.0038252389267343645 0.005507446231303718 0.006629755676425781
          0.0016397878067330868 0.00016449797249788733 0.0017825611048793155 0.00440586722652464 0.001257330217960679 0.002050807539878935
          0.0015590915484170074 0.006334149826417945 0.0022763096143207304 -0.00023165885314813117 0.0003707415475006359 -0.0003851155781177118
          -0.00011733916648185017 0.0015358568741555279 0.0011244710001907798 0.0006270961573031641 0.00028419116969918834 0.0006775781931144809
          0.0019922028809892934 -0.000034646301850476194 0.0017301876626663205 0.0016828820494169672 0.00028760931310159443 0.0014045004384400372
          0.00700946505464 0.00698165439999382 0.006552580608514547 0.011055099551486258 0.01581603568445278 0.008941339767415957
          0.002457208159575397 0.0026236825806503217 0.0012647218493491708 0.0008392083402892769 0.0013644595995437325 0.0018763937964247912
          0.0068636805300645864 0.0020278786782694375 0.004509528534318841 0.00432574511702144 0.0021884706525416298 0.002686714177384919
          0.002312871824680804 0.0018325831848472751 0.0035085003666406323 0.0014660911715760417 -0.0008316815686611146 0.0001781971087550377
          0.006756784053489784 0.00806974744080452 0.0061680763853317055 0.002922724419474554 0.0011292912578968195 0.0018038893122889338
          -0.15379342749231303 0.000400964424475847 -0.2169886765533186 -0.2816739540790432 -0.0004989794442259721 -0.41278490379906135
          -0.08167154797934834 0.00014305181884499696 -0.1761406199135064 0.005319995391906085 0.0007973444770802418 0.0026711004737011157
          0.0030875806676714957 0.002014515469276513 -0.00029436175002192297 -0.0001815684948315039 0.0003448309810858141 0.00007586816799218764
          0.004287268990078086 -0.001229239077423283 0.002545109405155621 0.007506657577983647 0.0076374425291160855 0.0052843828880805785
          -0.30567159998863513 -0.6120854619123978 -0.3349334461745467 0.005890038255184429 -0.0005698359652879167 0.0023590542492354163
          0.003759461402054423 0.002544646521435781 0.0009103718627206381 0.0012407292896498556 0.003455184506364839 0.0034713300370518008
          0.008076171022212031 0.006349207614327029 0.005350646461679424 0.005795663063931825 0.006714036574473836 0.004210628564447302
          -0.002057882890398724 -0.004173130765514926 -0.002020117588961562 0.0014632759292071487 -0.002527657422704929 -0.000327495684259025
          0.00045609773171070844 0.0006078898197790505 0.0006006400369918119 0.003377708026138501 0.004149762600719392 0.0024796829553292137
          0.0026280627610472326 0.002074281324381408 -0.0010291222906678305 -0.0012314948712362078 -0.000014183866873143658 0.00017601526787269783
          0.0019351413898363798 0.0016264629982997991 -0.00022089201290962507 0.0024509666708586175 0.003526332402240734 0.005631821439705614
          0.005839052568574421 0.0019640182799545713 0.0011860224914979622 0.0034001909048118617 0.004397685393103534 0.0026792941967815898
          0.004852948520002655 0.004349727830716438 0.001158313877478557 0.008380615551731557 0.012726518194971392 0.00563333341154354
          0.5307372498738187 -0.008542288705891885 1.0382067834357789 -0.01224236806940162 0.43545190926478733 -0.0037358159206213534
          0.0040032288380307535 0.007067244965022201 0.0033479366673990485 -0.008493146685231656 -0.016420985366394913 -0.007008009385917391
        </DataArray>
        <DataArray type="Float64" Name="resid_z" format="ascii" RangeMin="0" RangeMax="0">
          0 0 0 0 0 0
          0 0 0 0 0 0
          0 0 0 0 0 0
          0 0 0 0 0 0
          0 0 0 0 0 0
          0 0 0 0 0 0
          0 0 0 0 0 0
          0 0 0 0 0 0
          0 0 0 0 0 0
          0 0 0 0 0 0
          0 0 0 0 0 0
          0 0 0 0 0 0
          0 0 0 0 0 0
          0 0 0 0 0 0
          0 0 0 0 0 0
          0 0 0 0 0 0
          0 0 0 0 0 0
          0 0 0 0 0 0
          0 0 0 0 0 0
          0 0 0 0 0 0
          0 0 0 0 0 0
          0 0 0 0 0 0
          0 0 0 0 0 0
          0 0 0 0 0 0
          0 0 0 0 0 0
          0 0 0 0 0 0
          0 0 0 0 0 0
          0 0 0 0 0 0
          0 0 0 0 0 0
          0 0 0 0 0 0
          0 0 0 0 0 0
          0 0 0 0 0 0
          0 0 0 0 0 0
          0 0 0 0 0 0
          0 0 0 0 0 0
          0 0 0 0 0 0
          0 0 0 0 0 0
          0 0 0 0 0 0
          0 0 0 0 0 0
          0 0 0 0 0 0
          0 0 0 0 0 0
          0 0 0 0 0 0
          0 0 0 0 0 0
          0 0 0 0 0 0
          0 0 0 0 0 0
          0 0 0 0 0 0
          0 0 0 0 0 0
          0 0 0 0 0 0
          0 0 0 0 0 0
          0 0 0 0 0 0
          0 0 0 0 0 0
          0 0 0 0 0 0
          0 0 0 0 0 0
          0 0 0 0 0 0
          0 0 0 0 0 0
          0 0 0 0 0 0
          0 0 0 0 0 0
          0 0 0 0 0 0
          0 0 0 0 0 0
          0 0 0 0 0 0
          0 0 0 0 0 0
          0 0 0 0 0 0
          0 0 0 0 0 0
          0 0 0 0 0 0
          0 0 0 0 0 0
          0 0 0 0 0 0
          0 0 0 0 0 0
          0 0 0 0 0 0
          0 0 0 0 0 0
          0 0 0 0 0 0
          0 0 0 0 0 0
          0 0 0 0 0 0
          0 0 0 0 0 0
          0 0 0 0 0 0
          0 0 0 0 0 0
          0 0 0 0 0 0
          0 0 0 0 0 0
          0 0 0 0 0 0
          0 0 0 0 0 0
          0 0 0 0 0 0
          0 0 0 0 0 0
          0 0 0 0 0 0
          0 0 0 0 0 0
          0 0 0 0 0 0
          0 0 0 0 0 0
          0 0 0 0 0 0
          0 0 0 0 0 0
          0 0 0 0 0 0
          0 0 0 0 0 0
          0 0 0 0 0 0
          0 0 0 0 0 0
          0 0 0 0 0 0
          0 0 0 0 0 0
          0 0 0 0 0 0
          0 0 0 0 0 0
          0 0 0 0 0 0
          0 0 0 0 0 0
          0 0 0 0 0 0
          0 0 0 0 0 0
          0 0 0 0 0 0
          0 0 0 0 0 0
          0 0 0 0 0 0
          0 0 0 0 0 0
          0 0 0 0 0 0
          0 0 0 0 0 0
          0 0 0 0 0 0
          0 0 0 0 0 0
          0 0 0 0 0 0
          0 0 0 0 0 0
          0 0 0 0 0 0
          0 0 0 0 0 0
          0 0 0 0 0 0
          0 0 0 0 0 0
          0 0 0 0 0 0
          0 0 0 0 0 0
          0 0 0 0 0 0
          0 0 0 0 0 0
          0 0 0 0 0 0
          0 0 0 0 0 0
          0 0 0 0 0 0
          0 0 0 0 0 0
          0 0 0 0 0 0
          0 0 0 0 0 0
          0 0 0 0 0 0
          0 0 0 0 0 0
          0 0 0 0 0 0
          0 0 0 0 0 0
          0 0 0 0 0 0
          0 0 0 0 0 0
        </DataArray>
        <DataArray type="Float64" Name="stress_zz" format="ascii" RangeMin="-3902589.6087108753" RangeMax="3701721.590044515">
          -1131915.4136288504 -646842.3654176644 -760317.2417817151 -1288166.2051711953 -1178898.7512031964 -690225.1640895521
          -783459.4719813073 -1297004.515191156 -1225882.088777542 -733607.9627614397 -806601.7021808994 -1305842.8252111166
          328649.3636452677 207063.96846153607 230834.62169646972 728172.2443504797 348894.72742690006 152191.78540556913
          203509.69955257612 734983.643832729 369140.09120853234 97319.60234960217 176184.7774086825 741795.0433149785
          -587241.5977860596 -493977.1230701271 -604044.811962237 -478806.86072848854 -620848.0261384144 -463636.59838684986
          -1035780.6903218784 -152308.9808077977 -488811.87404957134 -2005592.1682264118 -992901.6238637699 -138469.42637741895
          -609574.1358076746 -2183804.3759068456 -950022.5574056614 -124629.8719470402 -730336.3975657776 -2362016.58358728
          612163.1391736467 1509550.9505486158 587722.9873275699 1475710.2546164468 563282.8354814934 1441869.5586842778
          1532739.096601103 2825292.6086240695 2567803.2407293385 1032419.6869165865 1560679.272985909 2996838.1343293376
          2516888.323005823 879678.8195917786 1588619.449370715 3168383.6600346044 2465973.4052823083 726937.9522669705
          1339685.4745517555 1536179.183807707 797743.8577919296 1098685.4776428302 1414773.324803857 1527377.5186893332
          862314.2760968767 1197286.4084169418 1489861.1750559588 1518575.8535709595 926884.6944018234 1295887.3391910533
          -1887555.0001252391 -1332205.8560019648 -1898239.8294201442 -1381281.3280644221 -1908924.6587150493 -1430356.8001268795
          -1095688.6363086323 43646.49514217628 1752519.488029347 967296.6283662484 -1132632.9151284555 76770.82777661063
          1688593.632685531 932256.6531599949 -1169577.1939482791 109895.16041104496 1624667.777341715 897216.677953741
          350521.25375637633 433768.8383333576 978287.5916630914 322635.780412821 397852.81247260794 1055426.2159375704
          294750.3070692657 361936.7866118583 1132564.8402120494 1875222.7208451685 1729752.8199350531 1039016.0206354082
          1934096.7329588288 1825752.8807728563 1758755.6936693578 1101157.956693463 1823086.9259155213 1776283.0407005441
          1787758.567403662 1163299.892751518 1712077.1188722139 282118.14446570165 547697.1552891248 1117138.4933028598
          963242.4905808057 246245.98811901413 615920.4165886 1183100.400366724 932900.3992055425 210373.83177232655
          684143.6778880751 1249062.3074305882 902558.3078302793 419552.5721681374 497274.2073874271 574995.8426067169
          1745012.0929214638 2614763.6696634716 1530431.55168063 1762790.4536236005 2628844.1882919646 1600505.6759759663
          1780568.8143257378 2642924.706920457 1670579.800271303 441652.65788550937 345122.8557207194 407351.8103396639
          405541.7092497664 373050.9627938184 465960.5627788135 814202.2898999407 1434194.372860086 1977138.4839184324
          1889107.332673937 813376.1408835178 1461761.472306836 1963825.1159407995 1877001.6111883654 812549.9918670948
          1489328.5717535862 1950511.7479631666 1864895.8897027937 -1928886.9808102231 -2697674.1302798996 -2627172.822070188
          -2487514.0767827528 -1949875.43173725 -2753530.075876792 -2643063.382092934 -2539327.2020061696 -1970863.882664277
          -2809386.0214736853 -2658953.9421156803 -2591140.3272295864 2779686.606690638 1618985.9772063831 2699328.214010127
          2790506.6030716645 1639006.9166970516 2726037.814896394 2801326.599452691 1659027.8561877203 2752747.415782662
          -2793195.843284095 -505390.1293614968 -2711326.4238971267 -455901.1591368532 -2629457.004510158 -406412.18891220953
          68814.91965592346 1061710.094680099 -518542.79659878387 -808019.6942493485 45599.13187240097 1094022.4106243104
          -505447.00853383925 -894213.5704437874 22383.344088878483 1126334.726568522 -492351.22046889475 -980407.4466382263
          2014656.2016266077 1393755.0826560375 2008904.3096598843 1440490.716303432 2003152.4176931605 1487226.3499508267
          354116.3935685467 -98735.94229410966 410225.5037404938 -60258.00185017777 466334.61391244084 -21780.061406245735
          476707.91539713 1001929.1185594513 434766.17637761135 1031562.2302382049 392824.43735809287 1061195.3419169583
          -1578724.708413449 -2169770.929432599 -2296479.614408895 -1502587.656454011 -1611902.9570479388 -2198163.3721950753
          -2282447.076532415 -1474440.1338382564 -1645081.205682429 -2226555.8149575517 -2268414.538655936 -1446292.6112225018
          1386755.0689379694 -1671103.634879149 1386754.3319661745 -1941413.0443629394 1386753.5949943797 -2211722.45384673
          -80166.38062918236 -57576.33588334924 -34986.29113751615 1379358.1634076051 1670240.1747681317 1402041.7362891524
          1670824.1689389434 1424725.3091706997 1671408.1631097554 669987.4472019651 852839.1714580293 519896.8359185052
          647209.9868483224 820500.1711517129 464480.3747038701 624432.5264946797 788161.1708453966 409063.9134892351
          -1010617.6889691292 -564053.1226584384 -963729.7740039036 -1003551.0597265998 -532890.5445267904 -953277.5246274367
          -996484.4304840702 -501727.9663951423 -942825.2752509698 2142330.6508611343 2297846.4971926636 2453362.343524193
          831924.3862625755 962719.0776668349 1093513.7690710945 223030.2999829657 368924.07381949667 199504.05934027358
          368064.9679320641 175977.81869758142 367205.8620446314 -142018.00414604333 -91459.5546224486 -40901.10509885382
          -1627620.867587814 721001.088540962 -188979.22305156116 -1647476.9303770147 771668.8594268493 -224448.41788752808
          -1667332.9931662153 822336.6303127366 -259917.61272349526 -642982.9938923925 86505.50070066442 -737793.6386606431
          11020.328133222327 -832604.2834288941 -64464.8444342197 -521163.0010711051 -49421.68635991227 -307189.3903585825
          -623066.5337476576 -533974.1525193397 -30162.29965278289 -311243.60584843735 -633665.0532056921 -546785.303967574
          -10902.912945653554 -315297.8213382922 -644263.5726637266 -94735.32195818998 -543147.3276159003 -459396.81459425786
          84157.0582099858 -106573.92676175144 -538652.2921091242 -472650.60960397735 46946.80057854716 -118412.53156531291
          -534157.2566023481 -485904.40461369697 9736.542947108537 824101.8281719984 127475.84068219058 285864.7526232673
          854530.9665776975 136647.16279694345 291791.350223196 884960.1049833968 145818.48491169635 297717.94782312476
          2165975.2086074916 2162213.667295681 2158452.1259838697 845373.2108117286 770460.2619944408 695547.313177153
          -194221.80703804264 -402246.1016686147 -181655.35792396194 -394865.9442194103 -169088.90880988128 -387485.78677020594
          -428334.30027839274 -718164.9338599134 -419234.2362161255 -700258.1734220079 -410134.1721538583 -682351.4129841025
          2804707.403545576 2872869.3696202943 2941031.3356950125 -334346.5409181096 -1092713.1592605049 -145403.20869462806
          254247.99515675288 -307524.0329127299 -1147630.3086941019 -172433.9753621042 296457.44226595527 -280701.5249073501
          -1202547.4581276986 -199464.7420295803 338666.8893751577 -506225.87854320824 -542811.8488471358 -579397.8191510632
          -288997.19692285615 -264655.32100104 -240313.445079224 -1738326.7384185973 -2833355.732012621 -1729840.7332730843
          -2854114.3068977306 -1721354.7281275718 -2874872.8817828405 -624829.3408094104 -613948.906062897 -603068.471316383
          -2798494.5251501775 -1978100.4670700815 -2775265.942758492 -1924080.4499101813 -2752037.3603668073 -1870060.432750281
          -3071694.7469839067 -3487142.177847391 -3902589.6087108753 -728979.0624009499 -705273.5760753534 -703124.3474296879
          -664438.1428377363 -677269.632458426 -623602.7096001192 -569080.2386105771 -568143.8549474918 -567207.4712844067
          29067.173101270353 26508.44366001888 23949.71421876738 -907252.505848981 -886269.3849118095 -865286.2639746376
          -2179122.576013593 -1432385.7161868815 -2420133.256478519 -1640862.2370846823 -2661143.9369434454 -1849338.7579824827
          -47863.567059663765 -15425.354732781241 17012.8575941014 -1959486.592753435 -200171.23189998278 -2042457.303536037
          -184124.56108821748 -2125428.0143186385 -168077.89027645224 2353668.5972097754 1293040.4290022713 1621397.3713905567
          2293784.6203035023 1170733.994196806 1458153.4920426102 2233900.6433972297 1048427.5593913413 1294909.6126946635
          1508192.3473830991 1504658.2454608888 1560537.0564162943 1515373.7991719546 1475908.4982927882 1534499.3860722133
          1522555.2509608099 1447158.7511246875 1508461.715728132 1124456.2691755267 2749591.603556154 1165348.3370850692
          2845222.4455785602 1206240.4049946114 2940853.287600968 216179.25085548332 415757.7235854583 69860.36688811872
          248291.56409261617 424413.33085194184 53109.200109905214 280403.87732974906 433068.93811842526 36358.0333316917
          -519549.9099159857 344288.6082710274 -527068.9738672312 401426.46251856204 -534588.0378184766 458564.31676609657
          -354439.3885474927 -353867.2209580017 -353295.0533685107 1141695.9214277116 1534513.7518366505 1118611.183506853
          1551220.536898064 1095526.4455859943 1567927.321959477 1660106.5778815162 1395750.772927883 1637957.9706199616
          1327115.9261305253 1615809.3633584073 1258481.0793331675 -514092.8824166792 -22953.097623688227 -639351.708371775
          -100299.02479355402 -764610.5343268709 -177644.9519634198 -597273.0646551512 -553524.065925486 -509775.06719582085
          1135271.0274245352 713622.3873003967 1176752.127215753 705147.4438955954 1218233.2270069714 696672.5004907942
          1160946.7700799864 1229808.3694748892 1298669.9688697923 500247.6033044023 530247.6271965781 560247.6510887536
          1402345.662538057 1464750.3574170219 1527155.0522959866 1014873.7850893524 1063939.1288241684 1113004.4725589843
          177502.83286359918 172399.08649822618 167295.3401328532 -1045399.9070196125 1643664.803127035 -1122671.4866511133
          1853424.1631266344 -1199943.0662826144 2063183.5231262338 -154861.01686739945 -317721.8487845406 -158836.6753854321
          -302031.7648631394 -162812.33390346475 -286341.68094173836 -2470354.951085126 -2479272.4882174204 -2488190.0253497157
          -356474.68562508974 -345532.80470562004 -334590.92378615023 -202487.5814926227 -209824.28678079476 -217160.99206896688
          1604608.6660846141 1577315.357100458 1550022.0481163024 572628.9095622429 831670.7659207134 1090712.6222791844
          -788100.7477222806 -792705.3940305344 -797310.0403387884 1624477.50724218 1455025.7330182402 1648880.6038773044
          1490432.5140470252 1673283.7005124292 1525839.2950758103 1201283.121860505 1220117.618435095 1238952.115009685
          585229.6599096556 436673.5265681282 573722.7791093735 325727.6060336276 562215.8983090913 214781.68549912702
          32818.15765316841 25056.22150080836 -96740.04879913876 15357.882983790952 29608.642675065268 -102483.53627571766
          -2102.3916855865027 34161.06384932217 -108227.02375229663 -144818.74265978634 -155775.37258386303 -166732.00250793973
          1205344.8428090976 1226756.6896883105 1248168.5365675231 790442.3278112884 1541444.2583144598 763421.9315578728
          1554702.7480350952 736401.5353044571 1567961.2377557303 1767926.8196147908 2115538.1169953006 1780090.7443218261
          2129472.5191610395 1792254.6690288612 2143406.921326778 2584274.6164443623 2620698.471357748 2657122.3262711335
          2286435.9008801905 3085616.205995977 2262071.2567750183 3137123.4811671227 2237706.612669846 3188630.7563382685
          -2427209.495796105 910400.2914851294 -1305178.8649954987 -2459947.200212089 -2452043.2191828187 1122120.575703409
          -1293599.682829703 -2420859.470786259 -2476876.942569532 1333840.8599216887 -1282020.5006639075 -2381771.741360429
          -724765.2579990528 -694434.6963785873 -664104.1347581218 -1157380.165845239 -1136976.761168324 -1116573.3564914092
          -414823.2370425208 182638.02882205773 -491699.45934686065 72369.68744516141 -568575.6816512005 -37898.65393173489
          537390.9896450406 541827.9229456139 546264.8562461872 63555.61735684068 289549.3907258739 111273.83984292753
          250452.74154532418 158992.06232901436 211356.09236477443 -1654820.4598023165 -1843942.9544216546 -1657081.7944326096
          -1848600.310752831 -1659343.1290629024 -1853257.6670840073 201947.38035879345 235527.6599681082 269107.93957742286
          2553406.519600937 3478910.419207284 2603034.1652722764 3590316.0046258993 2652661.8109436166 3701721.590044515
          -2410618.2391326055 -1818655.490480327 -1379009.43394016 -1812795.6795311468 -2389751.1312425123 -1791417.0348339137
          -1355983.6938740488 -1818839.8327945508 -2368884.0233524195 -1764178.5791875008 -1332957.9538079374 -1824883.9860579548
          -271971.8986247744 -286191.986418239 -300412.07421170356 -1450285.8892954658 -2125316.0078920545 -1455457.2974659218
          -2092890.0490587011 -1460628.7056363777 -2060464.0902253482 14281.795804582216 1961404.3434495989 -9921.59161593701
          2080145.6828241157 -34124.97903645621 2198887.0221986324 2128131.418018722 2175946.428832933 2223761.4396471432
          1538238.2678510812 1538684.563789005 1539130.859726929 -554916.2512845905 -584886.4724021647 -614856.6935197391
          -896042.8227170103 -947909.0390690842 -999775.2554211584 -2094084.9801653 -2149725.0049345363 -2205365.029703772
          -1066311.802007897 83777.05668336008 -1100776.7635640441 25688.27636075823 -1135241.7251201915 -32400.503961843555
          -753706.3329303397 -782989.2302037331 -812272.1274771265 1677227.2795054188 2069006.238556967 2460785.197608515
          896471.0223783944 890144.175370656 883817.3283629175 842040.3176577736 814716.0839869762 787391.8503161788
          -1802654.7559219892 -1811424.8302381495 -1820194.9045543103 1600202.2122293543 1600484.877502448 1600767.5427755415
          1946977.4615323315 1939209.2480149432 2459323.518415842 1906525.9391609686 1948158.7898085874 2444328.144481643
          1866074.4167896053 1957108.331602232 2429332.770547445 1043969.7198384516 1233713.9392193118 1423458.1586001723
          455076.9962613384 1251991.5003189407 381271.0283621786 1161291.2773057388 307465.0604630185 1070591.0542925368
          -2089063.5591048305 -2124686.70403719 -2160309.848969549 -2243364.1262399736 -2226843.712282549 -2210323.298325125
          2066875.7436567089 2035865.5359294638 2004855.3282022192 -1441686.4310826557 -1436701.2933051751 -1431716.1555276944
          -513019.9429963661 -349618.78323359374 -490446.838353304 -332663.83734549046 -467873.73371024197 -315708.89145738736
          -2853998.723751241 -2845058.4306587065 -2836118.137566171 -825641.8208878622 -875381.6653135773 -925121.5097392926
          -2991835.46182449 -3319838.7282098406 -3647841.99459519 99334.70196828475 111871.03460756378 124407.36724684283
          665258.3924861671 663866.3231907975 662474.2538954274 1290377.8760681124 1426827.5306344626 1563277.1852008123
          1078900.4404614836 716523.6308146308 1031325.686898786 723316.0247025089 983750.9333360884 730108.4185903872
          -464036.7360759467 -532342.7591348288 -600648.7821937107 -628482.3997866975 26348.090325962985 -668601.7226796898
          -13378.752373332438 -708721.0455726818 -53105.59507262786 -78479.8504282547 -113783.87591516468 -149087.90140207467
          145160.51410924678 112547.04276610725 79933.57142296768 -869889.7324773071 -952527.8458381952 -1035165.9591990835
          104627.54427740688 -1438910.7598891393 202567.91193789802 -1370155.0862379293 300508.27959838905 -1301399.4125867195
          -499517.399082179 -512032.1134595621 -524546.8278369451 -1126214.70547223 -1178213.837291557 -1230212.969110884
        </DataArray>
        <DataArray type="Float64" Name="peeq" format="ascii" RangeMin="0.0000718672438644369" RangeMax="0.003729230487465999">
          0.0010466252828709639 0.0009372624358202053 0.000736706909821369 0.0008663118396944785 0.001046282917324053 0.0009369943642460424
          0.0007368741165415568 0.0008665885059723651 0.0010459405517771424 0.0009367262926718793 0.0007370413232617443 0.0008668651722502519
          0.0018670270990015533 0.0017823726679941968 0.0018687449798052117 0.001996187309730098 0.0018665144951357804 0.0017818481307460036
          0.0018684600790872814 0.0019958643064752397 0.0018660018912700072 0.0017813235934978102 0.001868175178369351 0.001995541303220383
          0.00014432154149509487 0.000263477364819121 0.00014499386747183324 0.0002642441727738125 0.00014566619344857159 0.0002650109807285041
          0.002782546159075795 0.0028532524670334455 0.0024160317629846953 0.0024413095773266687 0.002782422383862361 0.0028525687277138907
          0.002415111094453926 0.0024400178110883532 0.002782298608648927 0.0028518849883943354 0.002414190425923157 0.0024387260448500377
          0.0019901642550805266 0.002147560725620409 0.0019905453374472657 0.0021474904374744067 0.0019909264198140044 0.0021474201493284044
          0.0022245725001197227 0.002105825139722215 0.0021616300938454578 0.0023266132199973874 0.0022230394282219323 0.0021058825174399922
          0.002159447358300772 0.0023218730894148305 0.002221506356324142 0.0021059398951577693 0.002157264622756086 0.0023171329588322735
          0.0027726997525619017 0.0030690499939353784 0.0028808557523405 0.0026535713050390595 0.0027719090138782626 0.0030662486847895603
          0.002879310240741598 0.0026535160595858925 0.0027711182751946235 0.003063447375643743 0.0028777647291426964 0.0026534608141327255
          0.000990068353200978 0.0011439030866947303 0.0009906960822490354 0.0011437902415557374 0.000991323811297093 0.0011436773964167445
          0.0017023166484443747 0.0015147823335305494 0.0021274893068821696 0.002216950160142542 0.0017011798581169364 0.0015146619938181459
          0.0021260406156418973 0.0022156389815660583 0.001700043067789498 0.0015145416541057423 0.002124591924401625 0.002214327802989574
          0.001035134380704912 0.0011260962321809132 0.00130753558438851 0.0010348687157642233 0.0011257540912576526 0.0013074775100668967
          0.0010346030508235344 0.0011254119503343921 0.0013074194357452832 0.0034867674963022476 0.003671985569275563 0.0035705757080944835
          0.0034121261018875077 0.003482221005243248 0.0036681711297727035 0.0035664785749026126 0.003407366361429359 0.003477674514184248
          0.0036643566902698444 0.003562381441710742 0.00340260662097121 0.0023656207014230604 0.0024466688608100603 0.002282526678559781
          0.0023124553762191337 0.002364924945545371 0.0024470201729117 0.0022830920091241763 0.002311892545299496 0.002364229189667682
          0.0024473714850133397 0.0022836573396885717 0.002311329714379859 0.0026371315735054836 0.0026371968154808648 0.002637262057456246
          0.002220521075689715 0.002070208759264802 0.0019837657233934677 0.0022195175587430625 0.002069402788813816 0.0019837953197825837
          0.00221851404179641 0.00206859681836283 0.0019838249161716996 0.002383367737915883 0.0025702604508275866 0.0023823617114860046
          0.0025703894703863125 0.0023813556850561263 0.0025705184899450393 0.0031194737661004806 0.002916607304924484 0.0031388058447612134
          0.0033795087992071504 0.003119215419303705 0.002916900845796814 0.0031383876377515524 0.003378243734524064 0.0031189570725069296
          0.0029171943866691443 0.003137969430741891 0.0033769786698409775 0.0009543263366136373 0.0012172998722981766 0.0008363067638720964
          0.0005018701184814511 0.0009556358170290703 0.0012171918190707655 0.0008374419607672675 0.0005052271703414616 0.0009569452974445031
          0.0012170837658433543 0.0008385771576624386 0.000508584222201472 0.0024805873945031127 0.002293503962030907 0.0023086147916655756
          0.0024809110800861752 0.002293613201685109 0.002309184464527842 0.0024812347656692373 0.0022937224413393112 0.0023097541373901078
          0.00028757319716913557 0.0008295870906333504 0.0002922350502074887 0.0008314551025533597 0.0002968969032458418 0.0008333231144733691
          0.0020402893455658097 0.0021986520505995048 0.002479662016200541 0.0025146457412094404 0.002039393885810767 0.0021985356255064667
          0.0024788677239019037 0.0025120798596196146 0.0020384984260557243 0.0021984192004134285 0.0024780734316032674 0.0025095139780297896
          0.002690223900916191 0.0024612995565139865 0.0026907018280355236 0.002461572821852821 0.002691179755154857 0.002461846087191655
          0.0019106532860179927 0.002126581297620657 0.001907625305622126 0.0021228044171426002 0.001904597325226259 0.002119027536664543
          0.0025778548561455105 0.0021816992486882354 0.002575873413024143 0.0021815270180286254 0.0025738919699027753 0.002181354787369016
          0.0012130029013483787 0.0010807273620669494 0.001084504389982591 0.001272187676975242 0.0012135319126550814 0.0010817138598136083
          0.0010860635500488916 0.0012734693267852876 0.0012140609239617841 0.001082700357560267 0.0010876227101151922 0.0012747509765953327
          0.0017877374929176275 0.001682253560134328 0.001787641082403237 0.001681474109533377 0.001787544671888847 0.001680694658932426
          0.0016553677379817072 0.001652905047551765 0.0016504423571218224 0.0020958459770878323 0.0019047219928323255 0.0020966975176450707
          0.0019055773216859423 0.0020975490582023086 0.001906432650539559 0.002233789904253969 0.0022576371408588457 0.0022928299392588453
          0.002231862081610637 0.0022558987206229447 0.00228947525608046 0.0022299342589673053 0.0022541603003870436 0.0022861205729020747
          0.001691512829918145 0.0018965659070252295 0.0013816603216281228 0.0016898729051576602 0.001894876500042515 0.0013800460785145898
          0.0016882329803971753 0.0018931870930598005 0.001378431835401057 0.0018629736300864242 0.001864203524536702 0.0018654334189869798
          0.0014272397227710898 0.0014275331034437114 0.001427826484116333 0.0017173430523258495 0.001799121699095906 0.00171624125391442
          0.0017976081381254503 0.0017151394555029904 0.001796094577154995 0.002081391188549107 0.0020795056140640784 0.00207762003957905
          0.0013095213946512276 0.0016103307223342977 0.0016483665368491258 0.001311079155864207 0.0016120902643341796 0.001648676200389717
          0.0013126369170771868 0.001613849806334062 0.0016489858639303083 0.0028365722789340446 0.0029341358531316214 0.0028328561407314776
          0.002930463391579982 0.002829140002528912 0.0029267909300283424 0.0001762741188620134 0.0001293030038258077 0.00016069262662347526
          0.00026102591377625433 0.00017693762815954318 0.00013004578607904503 0.0001615637394904244 0.00026177708433995937 0.00017760113745707298
          0.00013078856833228237 0.00016243485235737352 0.0002625282549036644 0.0007034960319946236 0.0005015513001476082 0.0006131153055886544
          0.0008213910265793557 0.0007037639990756592 0.0005021310622731451 0.0006134195110190702 0.0008213259838962018 0.0007040319661566946
          0.000502710824398682 0.0006137237164494857 0.0008212609412130479 0.0015780254152760092 0.001443648820649956 0.0016344011563623956
          0.0015775378384739742 0.001443438706531161 0.0016338201749970466 0.0015770502616719393 0.0014432285924123659 0.0016332391936316976
          0.0021434576795862966 0.0021427628134086094 0.0021420679472309214 0.002296080386415666 0.0022910303348374953 0.0022859802832593244
          0.0000718672438644369 0.00008260392761288849 0.00007268737613658988 0.00008348282000320974 0.00007350750840874285 0.000084361712393531
          0.00033628893111520503 0.00040247802016318433 0.0003371148592225917 0.0004032683576130855 0.00033794078732997835 0.00040405869506298666
          0.001916097337039682 0.0019168900012934585 0.0019176826655472345 0.0011796738365615425 0.0012748525765160074 0.0012074969542057836
          0.0010180722027003954 0.0011799321814752017 0.0012749976888129946 0.0012073519885103165 0.0010181589490166599 0.0011801905263888611
          0.0012751428011099821 0.0012072070228148495 0.001018245695332924 0.0014552475670911377 0.0014549844433856664 0.001454721319680195
          0.0012565161336862403 0.0012565426755258384 0.001256569217365437 0.0016198410051842063 0.0013630812965753144 0.0016205003751595872
          0.0013637524995503856 0.0016211597451349683 0.001364423702525457 0.0013213941565219847 0.0013235726126267708 0.0013257510687315567
          0.0011628687752637547 0.0013818110428920922 0.0011643398544247646 0.001383390964166442 0.0011658109335857744 0.0013849708854407918
          0.001391040720676668 0.0013912941316048281 0.0013915475425329883 0.0014072189531030422 0.0014779624134726743 0.0014074099421687311
          0.0014788246855193233 0.00140760093123442 0.0014796869575659723 0.0013388021954238338 0.0013386234565338352 0.0013384447176438361
          0.0009176884339339706 0.0009176167693959018 0.0009175451048578331 0.0015963547621449645 0.0015978142983499061 0.0015992738345548476
          0.001171680266801273 0.0014972921194106293 0.0011718891739656778 0.0014971894418454913 0.0011720980811300828 0.0014970867642803533
          0.0018268546069791602 0.001828025940014665 0.0018291972730501698 0.0019830783521290157 0.0019356083567852616 0.001981871481476136
          0.001934820837607048 0.0019806646108232557 0.0019340333184288344 0.0031086432077737204 0.0032757502601060188 0.0030891595356428267
          0.003105492681092771 0.0032714718970811 0.00308650676528674 0.0031023421544118203 0.00326719353405618 0.003083853994930653
          0.003671563686710639 0.0035335364874139823 0.003504922521624642 0.0036687542870236694 0.0035317068220318457 0.0035026513210405052
          0.003665944887336699 0.0035298771566497095 0.003500380120456369 0.001266342005315584 0.0017445758371370545 0.0012676465601549943
          0.0017460929224664126 0.0012689511149944048 0.0017476100077957707 0.0017944499789161704 0.0018120684774024483 0.0018074694907903425
          0.001793272713920949 0.001810893966168956 0.0018063581347512693 0.0017920954489257278 0.0018097194549354639 0.0018052467787121962
          0.0022126875282760367 0.0020982024781961285 0.0022119440428807935 0.0020979991173851915 0.0022112005574855503 0.002097795756574255
          0.00042156073568816644 0.0004221708023384002 0.0004227808689886339 0.0035797428485515844 0.003729230487465999 0.0035777306726208335
          0.0037265943069963664 0.0035757184966900826 0.003723958126526734 0.003707884271903037 0.003517010088473093 0.0037042515295461426
          0.0035126802396163266 0.003700618787189248 0.0035083503907595596 0.0030680288471680184 0.0032166667653533623 0.003063684586856467
          0.0032120879812753233 0.0030593403265449168 0.003207509197197283 0.0027131030323794976 0.0027119350031762973 0.002710766973973098
          0.0032811027805068147 0.0032452547420080457 0.0032798158454301974 0.003244333039763788 0.00327852891035358 0.0032434113375195304
          0.002861452328778524 0.0028602358365352656 0.002859019344292007 0.0014531982286320783 0.0014533060641279596 0.0014534138996238407
          0.0023725662270613593 0.002371534613409423 0.002370502999757486 0.0014808971634958994 0.0014811182928693013 0.0014813394222427034
          0.0015458596680860389 0.0015456520892387635 0.0015454445103914882 0.0019657741003157097 0.0018655688222974317 0.001966558922859854
          0.0018667486557415562 0.0019673437454039984 0.0018679284891856807 0.0018042203951866066 0.001687357458067312 0.0018052643248133056
          0.0016876967109911236 0.0018063082544400044 0.0016880359639149353 0.0010707596114310203 0.001072001722072559 0.001073243832714098
          0.0005948616436020504 0.0005954189099441832 0.0005959761762863159 0.0016130497391464837 0.0016127941491915839 0.0016125385592366836
          0.0022303375217533825 0.0022298301421267057 0.002229322762500028 0.000923281720350551 0.0009262298830795498 0.0009291780458085485
          0.0007925987017568019 0.0007936099494304695 0.0007946211971041371 0.002638898305281701 0.0022915644092647677 0.0026388211329637337
          0.0022926924215682875 0.002638743960645766 0.0022938204338718068 0.002985441755381131 0.0029838736856445816 0.0029823056159080322
          0.0033917084654806516 0.0031992947952858767 0.003387063358690056 0.0031945477410712793 0.0033824182518994604 0.0031898006868566822
          0.0008152951744820491 0.0009393594863802074 0.0007115973109503308 0.0008153164119604755 0.0009392942221120178 0.0007118719319776614
          0.0008153376494389021 0.000939228957843828 0.0007121465530049919 0.0006158190043556026 0.0006163381940255577 0.0006168573836955128
          0.0032900253634276433 0.003287251247982718 0.0032844771325377933 0.0017162652498501612 0.0016686120767437076 0.001715948141427958
          0.0016683920964666594 0.0017156310330057546 0.0016681721161896116 0.003265254908289908 0.002969802736282227 0.0032640104814181388
          0.0029697610654811205 0.003262766054546369 0.0029697193946800144 0.002663557558740225 0.002664519074770748 0.0026654805908012708
          0.0028683279302441906 0.0026139530071831035 0.002868725562293928 0.002614846485620845 0.0028691231943436648 0.0026157399640585857
          0.00037969779757063575 0.0005008623388553028 0.00034886619367172463 0.00022476252243442942 0.0003819834658414135 0.0005040873317530131
          0.0003512874861475287 0.000227215399894133 0.0003842691341121913 0.0005073123246507234 0.0003537087786233328 0.00022966827735383663
          0.0004347266188287019 0.00043562521000674965 0.0004365238011847973 0.0009888214197471936 0.0009915272442394686 0.0009942330687317434
          0.0022350519681072836 0.002281570290684523 0.0022332809488223946 0.0022798384686019296 0.0022315099295375056 0.002278106646519336
          0.0020017358091496233 0.002003173148885956 0.0020046104886222884 0.001823694216381423 0.0018135867574974904 0.001822586194248302
          0.0018120868934346063 0.0018214781721151807 0.001810587029371722 0.0014695343281647772 0.0011084660835282822 0.001468266762879407
          0.0011080742970432872 0.0014669991975940371 0.0011076825105582927 0.0008376998466755198 0.0008380727721787971 0.0008384456976820744
          0.0023851138297520617 0.0024366873181794813 0.002386591803104805 0.0024378553171053147 0.0023880697764575476 0.002439023316031148
          0.0006978750201152291 0.0007366078798589427 0.0005706668399427642 0.0004914047692434704 0.0006992111818872678 0.0007377744561907011
          0.000571698892884415 0.0004926564335798495 0.0007005473436593065 0.0007389410325224593 0.0005727309458260657 0.0004939080979162283
          0.002148190511001697 0.002146427009326216 0.0021446635076507346 0.00030117338841902287 0.00018519071777846327 0.0003024434432134109
          0.00018697511744033947 0.000303713498007799 0.0001887595171022156 0.0023069203533911506 0.0026939204495675002 0.0023057225243665997
          0.0026927124173313907 0.0023045246953420496 0.002691504385095282 0.002692819566865334 0.002690637754248185 0.0026884559416310363
          0.0016562329914744428 0.0016555325608360464 0.0016548321301976501 0.0020323954854729754 0.002030536542975543 0.00202867760047811
          0.0005385025400900388 0.0005404210756790067 0.0005423396112679746 0.00027041962911915444 0.00027164935558859524 0.00027287908205803605
          0.0018850217426870416 0.0023658139925678365 0.0018831934301247204 0.00236466157538483 0.001881365117562399 0.0023635091582018242
          0.00021094293134752565 0.0002119031401812412 0.00021286334901495676 0.0007140408061178652 0.0007164912168279436 0.0007189416275380218
          0.0016851197602034472 0.0016840443555943996 0.0016829689509853518 0.003505434292482984 0.00350204582520411 0.0034986573579252364
          0.00014880985105172005 0.0001503145156104462 0.00015181918016917234 0.0021589817132164476 0.002160162485740428 0.002161343258264408
          0.003179276721695882 0.003154381776284921 0.0026958298450891283 0.0031756298591130855 0.0031507983601096025 0.0026932274465041066
          0.00317198299653029 0.0031472149439342838 0.002690625047919084 0.000703733162916716 0.0007071313651747472 0.0007105295674327782
          0.0017952329677690237 0.0017602080407500928 0.0017936160308573356 0.0017588083640566494 0.0017919990939456476 0.0017574086873632059
          0.0007839028145460421 0.000785553012103024 0.0007872032096600057 0.0009098157907725371 0.0009112079785658673 0.0009126001663591974
          0.002087087802361998 0.002085557984845515 0.002084028167329032 0.00013869467174605475 0.00014011361528619786 0.000141532558826341
          0.0003214138212947747 0.0004985053503673466 0.0003222577936848836 0.0004991872636484334 0.0003231017660749924 0.0004998691769295201
          0.0009304156403103197 0.0009318098985161675 0.0009332041567220153 0.0000833972200868356 0.00008404546831298014 0.00008469371653912468
          0.0021392025768901014 0.0021385285762019735 0.0021378545755138447 0.0018299878755064728 0.0018286615154421164 0.0018273351553777602
          0.0036168620141953886 0.0036134279817063527 0.003609993949217317 0.0014444648595332045 0.001444330741670937 0.0014441966238086697
          0.0017736018257489736 0.0017982866440309283 0.0017724854593952795 0.0017975930631628026 0.001771369093041585 0.0017968994822946762
          0.002277199667403871 0.0022756888802540473 0.0022741780931042235 0.0017776493180031157 0.0017469045365341045 0.0017774089581089254
          0.0017459799599705192 0.001777168598214735 0.0017450553834069335 0.0017383022321085784 0.0017370564506183188 0.0017358106691280591
          0.0016109006301054099 0.0016102453561537954 0.001609590082202181 0.001938651775231696 0.0019379179871490356 0.0019371841990663754
          0.0014220022091977016 0.0014885908548823445 0.0014242340075640307 0.0014909244628155474 0.0014264658059303596 0.0014932580707487507
          0.001772592480105004 0.001773251981998582 0.0017739114838921596 0.0019224047783528194 0.0019225328546855693 0.0019226609310183194
        </DataArray>
        <DataArray type="Float64" Name="pe11" format="ascii" RangeMin="0.00007186081412656001" RangeMax="0.0037283918090735228">
          0.0010462855175989787 0.0009369818612181719 0.0007364665930688725 0.000865950712290743 0.001045940144987196 0.000936711758278365
          0.0007366332906301507 0.0008662236110268121 0.0010455947723754131 0.0009364416553385586 0.0007367999881914289 0.0008664965097628813
          0.0018664570066950208 0.0017817207848968885 0.0018677348641608135 0.0019951726327661606 0.001865924837631805 0.0017811698790861303
          0.0018674167639008967 0.0019948217567244938 0.0018653926685685885 0.001780618973275372 0.0018670986636409798 0.001994470880682827
          0.0001443109952429379 0.00026345488086269094 0.00014498387765554403 0.0002642225041596958 0.00014565676006815019 0.0002649901274567006
          0.0027805749744795475 0.0028512314330909772 0.0024143401834589395 0.0024397000122338957 0.0027803956218940026 0.002850493870243982
          0.0024134010270968056 0.0024383552272613956 0.0027802162693084573 0.002849756307396986 0.0024124618707346717 0.0024370104422888955
          0.0019885561146167473 0.002145958730979753 0.001988901969394351 0.002145853287551217 0.0019892478241719546 0.00214574784412268
          0.002223676030227204 0.002104450752349265 0.0021603111172736993 0.002326146935923183 0.0022221366840695774 0.0021045101286504297
          0.002158124825479501 0.0023214006650401353 0.002220597337911951 0.002104569504951595 0.002155938533685304 0.0023166543941570876
          0.0027720214368170196 0.0030680092703918678 0.0028795609421709703 0.002652901029811953 0.0027712500493791174 0.0030652263262062065
          0.0028780539691808074 0.002652877657291342 0.0027704786619412156 0.003062443382020546 0.0028765469961906445 0.002652854284770731
          0.0009895333906590825 0.0011434270311119895 0.0009901509326102043 0.0011433078078255984 0.0009907684745613264 0.0011431885845392072
          0.001701206319716552 0.0015136962277759003 0.0021265803102868274 0.0022161703739734724 0.0017000595176583622 0.0015135524754201846
          0.0021251248553658705 0.002214856398228438 0.001698912715600172 0.0015134087230644683 0.0021236694004449132 0.0022135424224834035
          0.001034966093689459 0.0011258682505673396 0.0013072608770294805 0.0010346991116812938 0.0011255256336819334 0.0013072014705870442
          0.0010344321296731286 0.001125183016796527 0.001307142064144608 0.003486445091520048 0.003671516019196911 0.0035697766042008597
          0.0034115353052739314 0.003481906442742352 0.0036676836607513253 0.0035656675634595596 0.0034067784401934035 0.003477367793964655
          0.0036638513023057396 0.0035615585227182587 0.0034020215751128756 0.0023650640520056416 0.0024454484221056046 0.0022809144063912976
          0.002311675047784096 0.0023643905571173107 0.0024458383661610864 0.0022815190117217448 0.0023111297246423326 0.00236371706222898
          0.0024462283102165677 0.002282123617052192 0.0023105844015005685 0.002635122082127655 0.0026351479276906123 0.002635173773253569
          0.002219583602710317 0.002068783760298297 0.0019820120343939118 0.0022185686919974027 0.0020679681802279128 0.001982026088537099
          0.0022175537812844886 0.0020671526001575283 0.001982040142680286 0.0023829809543508967 0.002569435534324228 0.0023819906388947995
          0.0025695972526122383 0.0023810003234387023 0.0025697589709002483 0.003117233813740715 0.0029141752055857643 0.0031362045535807876
          0.0033772776047496576 0.0031169200204114963 0.0029144272435748216 0.0031357414607648157 0.003375959298321685 0.003116606227082277
          0.002914679281563879 0.0031352783679488433 0.003374640991893712 0.0009534295373969875 0.0012161794638500308 0.0008353640078209859
          0.0005013538904813973 0.0009547183630726733 0.0012160577073975964 0.000836479615330561 0.0005046984990601265 0.000956007188748359
          0.001215935950945162 0.0008375952228401361 0.0005080431076388559 0.002478228914287358 0.0022918054901485507 0.00230633652090921
          0.0024785138808602445 0.002291885519588128 0.0023068690232733507 0.0024787988474331306 0.002291965549027706 0.0023074015256374925
          0.00028735705828180524 0.0008289152307005957 0.00029201022571809536 0.0008307535504055582 0.00029666339315438553 0.0008325918701105209
          0.002037259755214528 0.0021962768903716562 0.0024775559935906596 0.002511525929028374 0.0020363688915124582 0.0021962008238328736
          0.0024768055732901223 0.0025089820453497694 0.002035478027810389 0.002196124757294091 0.002476055152989585 0.0025064381616711658
          0.002687760423118012 0.0024594462422185834 0.0026881998507160354 0.0024596926219950434 0.002688639278314059 0.0024599390017715043
          0.0019099171132754428 0.002126134788611886 0.0019068701501769407 0.002122351948045209 0.0019038231870784387 0.002118569107478532
          0.002574324437032386 0.0021783675094055473 0.0025723270701953236 0.0021781695096385343 0.0025703297033582615 0.0021779715098715208
          0.0012122870408083693 0.0010800194493632029 0.0010834625022972623 0.0012710041308654455 0.0012128025725032568 0.001080989368680034
          0.001084997416456983 0.001272263214195205 0.0012133181041981444 0.0010819592879968648 0.001086532330616704 0.0012735222975249643
          0.0017852483152639765 0.0016793035981100576 0.0017851728235905755 0.001678500932583457 0.0017850973319171752 0.0016776982670568565
          0.001654359855611373 0.0016518713152460257 0.0016493827748806785 0.002093968204576613 0.0019022884101881068 0.002094860446232426
          0.0019031840162252911 0.002095752687888239 0.0019040796222624754 0.002233368944771087 0.0022569226704890664 0.002292436568726422
          0.002231440404561803 0.0022551809905028922 0.0022890735348494815 0.0022295118643525175 0.0022534393105167172 0.0022857105009725406
          0.001690575393882011 0.0018958642777888181 0.0013805352336493117 0.0016889136851104274 0.00189415542274557 0.0013788947191154836
          0.0016872519763388434 0.0018924465677023212 0.0013772542045816557 0.0018607381972833056 0.0018619766803679928 0.00186321516345268
          0.0014262790209270254 0.0014265384709159655 0.0014267979209049058 0.0017171201523612277 0.0017989091958288802 0.001716010434679464
          0.0017973845287224317 0.0017149007169977005 0.0017958598616159833 0.002080947305013494 0.0020790519711642585 0.002077156637315023
          0.0013070667913212155 0.0016077687459760295 0.0016457097921456117 0.0013086499688790244 0.00160957999408549 0.0016460334329806646
          0.0013102331464368334 0.0016113912421949507 0.0016463570738157176 0.00283410805021138 0.0029313389427991273 0.0028304226229811645
          0.002927663136141288 0.002826737195750949 0.0029239873294834486 0.00017625412663123754 0.00012928831891699652 0.00016067107910533365
          0.0002609865795241159 0.00017691861660451056 0.00013003189643716142 0.000161543434540244 0.0002617395649984578 0.00017758310657778358
          0.00013077547395732626 0.00016241578997515437 0.0002624925504727996 0.0007033167087103736 0.0005014430199206157 0.00061295357540268
          0.0008211433422041486 0.0007035847081939761 0.0005020251381846101 0.0006132591654848208 0.0008210767900929505 0.0007038527076775786
          0.0005026072564486045 0.0006135647555669617 0.0008210102379817524 0.0015777482060369066 0.001443353990707098 0.0016341163774908861
          0.0015772560091508005 0.0014431416187754924 0.0016335274912429908 0.0015767638122646944 0.0014429292468438864 0.0016329386049950955
          0.0021421592026500467 0.002141478487317529 0.0021407977719850113 0.002295865281171267 0.002290807940796862 0.002285750600422457
          0.00007186081412656001 0.00008259364389901989 0.0000726813152079687 0.00008347310514346265 0.0000735018162893774 0.00008435256638790544
          0.0003362248391652283 0.0004024062514512601 0.0003370531547818557 0.00040319875573053616 0.00033788147039848324 0.0004039912600098123
          0.0019140746301001422 0.00191490995724568 0.001915745284391218 0.0011793480587101366 0.0012745724157367444 0.0012072048277383266
          0.0010177596629049178 0.0011796033439583561 0.00127471641597329 0.0012070596792907447 0.0010178437402443361 0.001179858629206576
          0.001274860416209836 0.0012069145308431625 0.0010179278175837545 0.0014549548362053416 0.0014546886786933081 0.001454422521181275
          0.0012561271012861306 0.001256150230076407 0.0012561733588666837 0.001617371159059066 0.0013607704182452469 0.0016180079921475396
          0.0013614243007864443 0.001618644825236013 0.0013620781833276422 0.001318783793680379 0.0013210018108094387 0.0013232198279384986
          0.0011612836030358955 0.0013799617487783031 0.0011627240946646409 0.0013815128944583144 0.0011641645862933865 0.0013830640401383256
          0.0013880706578178888 0.0013883116506940285 0.0013885526435701678 0.0014065081808125666 0.0014768116374037242 0.0014066897561057343
          0.0014776553631812525 0.0014068713313989015 0.0014784990889587805 0.0013382908345170757 0.0013381081158852233 0.0013379253972533708
          0.0009174781714650529 0.0009174051434131257 0.0009173321153611985 0.0015944800780410108 0.0015959140695805956 0.0015973480611201805
          0.001168806770440102 0.001494139924660643 0.0011689785095737922 0.001494016378988529 0.0011691502487074822 0.0014938928333164147
          0.0018243529378886248 0.0018254984366222445 0.0018266439353558646 0.001982263370298925 0.0019349158208504936 0.0019810214921270274
          0.0019341043229441717 0.00197977961395513 0.0019332928250378495 0.0031080467806739493 0.0032749015177310973 0.0030884044678111816
          0.0031049094356955 0.003270625796054062 0.00308576402926033 0.0031017720907170507 0.003266350074377027 0.003083123590709478
          0.003670438843859729 0.0035317815813574373 0.003502967253899729 0.003667586254533028 0.003529884563025271 0.003500656480837673
          0.0036647336652063265 0.0035279875446931046 0.0034983457077756176 0.0012631635576639912 0.0017417553909433248 0.0012644830671787815
          0.0017432937241563995 0.0012658025766935717 0.0017448320573694742 0.0017942121048886606 0.0018118132989518318 0.001807102903643872
          0.0017930263683713856 0.0018106275069660989 0.0018059798345216574 0.00179184063185411 0.001809441714980366 0.001804856765399443
          0.002211504551885778 0.0020971301039446545 0.002210732650125903 0.0020969043154031057 0.0022099607483660284 0.0020966785268615564
          0.0004215207672774763 0.00042213168575879205 0.00042274260424010786 0.0035782327139509884 0.0037283918090735228 0.0035761449927404557
          0.003725700965185838 0.003574057271529924 0.003723010121298153 0.00370755269080069 0.0035167726182184812 0.0037038987823930854
          0.0035124536572400736 0.0037002448739854804 0.003508134696261667 0.0030661956910669396 0.003214522045799977 0.003061872770181198
          0.0032099426063563643 0.0030575498492954566 0.003205363166912751 0.0027114146367036266 0.0027102914060351505 0.002709168175366674
          0.0032789986850814924 0.003243157397680031 0.003277636665103779 0.0032421654182892682 0.003276274645126066 0.0032411734388985048
          0.002859260014094176 0.0028579962703961844 0.0028567325266981927 0.0014528343743235761 0.001452936949568284 0.0014530395248129916
          0.00237053023777884 0.0023695082224039887 0.0023684862070291373 0.0014804493355222237 0.0014806625122107853 0.0014808756888993464
          0.0015453382685663942 0.0015451200104264467 0.0015449017522864992 0.001964145012035949 0.0018636690094003764 0.0019649425381990187
          0.0018649009730302487 0.0019657400643620883 0.001866132936660121 0.0018025191705124326 0.001686318327139788 0.0018035344111784262
          0.0016866329901797218 0.00180454965184442 0.0016869476532196562 0.0010689368747897926 0.0010701694045267827 0.0010714019342637732
          0.0005947414026785513 0.0005953002008968573 0.0005958589991151634 0.001612390787849505 0.0016121181446697673 0.0016118455014900298
          0.0022293000356166464 0.0022288105444492282 0.00222832105328181 0.0009212826626081971 0.0009242382497876166 0.0009271938369670362
          0.0007905665009497994 0.0007915576743819103 0.0007925488478140212 0.0026355194362119166 0.002288417110721937 0.00263541036652655
          0.0022895081160485076 0.002635301296841184 0.0022905991213750783 0.0029824326016867925 0.0029808430156363515 0.0029792534295859105
          0.0033903639331889293 0.003197944443241408 0.0033857152723788947 0.0031932050572611517 0.00338106661156886 0.0031884656712808956
          0.000815142007635499 0.000939223987962397 0.0007114901298288614 0.0008151635534980475 0.0009391585329405989 0.0007117658342825177
          0.0008151850993605961 0.000939093077918801 0.000712041538736174 0.0006157496260527708 0.0006162698293441656 0.0006167900326355605
          0.003287584492702037 0.0032847929428453503 0.003282001392988663 0.0017157807118903371 0.0016681730705834963 0.0017154429399854091
          0.0016679357537805095 0.0017151051680804811 0.0016676984369775232 0.0032626450685351383 0.002966729031258564 0.00326136543360435
          0.002966658848491876 0.0032600857986735616 0.0029665886657251886 0.002660293704283804 0.0026612273524299563 0.0026621610005761083
          0.0028654824413300397 0.002611040251939918 0.0028658405356219315 0.0026118994919437184 0.0028661986299138237 0.0026127587319475184
          0.0003792004452980529 0.0005001567241183295 0.00034851119909318185 0.0002245894275499394 0.0003814786396506551 0.0005033951511149033
          0.0003509423005241951 0.00022704494698669872 0.0003837568340032573 0.0005066335781114769 0.0003533734019552083 0.00022950046642345807
          0.0004345996114462986 0.00043550029893329794 0.0004364009864202972 0.000986734946991817 0.0009894721687070864 0.000992209390422356
          0.002234747093603705 0.0022812140180814033 0.0022329839002833336 0.002279489969609517 0.002231220706962962 0.0022777659211376303
          0.001999268381889964 0.0020006738637027913 0.0020020793455156186 0.0018234948222448839 0.001813355813933435 0.0018223777735361336
          0.001811842777428785 0.0018212607248273833 0.0018103297409241357 0.0014684582512537931 0.001107422399928657 0.0014671719812236921
          0.0011070052977084372 0.001465885711193591 0.0011065881954882171 0.0008375968875558951 0.0008379703748371218 0.0008383438621183487
          0.0023821588422932964 0.0024339008424476643 0.002383603869494083 0.002435035916040659 0.0023850488966948697 0.002436170989633654
          0.0006971174255463942 0.0007361368682385307 0.0005704139976446942 0.0004910388320063291 0.0006984452362613014 0.0007372985649241721
          0.0005714464279333504 0.0004922901089212836 0.0006997730469762087 0.0007384602616098135 0.0005724788582220069 0.0004935413858362381
          0.002147796766635075 0.0021460315896387684 0.002144266412642462 0.0003010385176338809 0.00018512247433745196 0.0003023107980280956
          0.00018690905174815496 0.00030358307842231027 0.00018869562915885794 0.0023063378890242317 0.0026933276850485805 0.0023051461589455474
          0.0026921275392722153 0.0023039544288668634 0.0026909273934958506 0.002692231822410805 0.002690062622194754 0.002687893421978703
          0.0016558187021184095 0.0016551048043257992 0.0016543909065331887 0.002031791032486389 0.00202992613327988 0.0020280612340733703
          0.0005377780751991928 0.0005397062731299095 0.0005416344710606259 0.00027004681144519947 0.00027126714413872434 0.00027248747683224916
          0.001884151157287856 0.0023653850334354387 0.0018823159657818246 0.002364244658975802 0.001880480774275793 0.002363104284516165
          0.00021090894767261003 0.00021187088013102456 0.00021283281258943908 0.0007124580408785919 0.0007148994918818832 0.0007173409428851744
          0.0016847874998783918 0.0016837007191059922 0.0016826139383335922 0.003503745918642695 0.0035003403060004335 0.0034969346933581722
          0.00014874524558072612 0.0001502494117166327 0.00015175357785253925 0.0021566652077037634 0.0021578106070690023 0.002158956006434242
          0.0031788831404978507 0.0031539789280668525 0.0026952071987722034 0.0031752608260350395 0.003150414285526291 0.0026926222938807604
          0.0031716385115722287 0.003146849642985728 0.0026900373889893175 0.0007023858378096959 0.0007058142604769929 0.0007092426831442897
          0.0017949693481901178 0.0017598638461924923 0.0017933365775236118 0.0017584447313630524 0.0017917038068571065 0.001757025616533613
          0.0007826272872668729 0.0007842768175016307 0.0007859263477363885 0.0009090418159214994 0.0009104178381831878 0.0009117938604448765
          0.002086180817782688 0.0020846418084029383 0.0020831027990231886 0.00013867146787731902 0.00014009178073795433 0.00014151209359858965
          0.00032137065075645043 0.0004984325462522108 0.0003222161903441635 0.0004991160198649613 0.0003230617299318765 0.0004997994934777116
          0.0009291883086550846 0.0009305606013825593 0.000931932894110034 0.0000833698103257314 0.00008401792340628895 0.00008466603648684651
          0.002137692304465107 0.0021369797952050626 0.002136267285945019 0.0018297993211273255 0.0018284625935251848 0.001827125865923044
          0.0036157926383025463 0.003612337345134397 0.003608882051966248 0.0014441727940499955 0.0014440350973558766 0.0014438974006617577
          0.0017732670180964625 0.001797917197531852 0.00177213091642848 0.0017972051161627273 0.001770994814760497 0.0017964930347936026
          0.0022757390336937545 0.002274191155275732 0.002272643276857709 0.0017768671631502825 0.0017463125772282557 0.001776606984836894
          0.0017453748164076514 0.0017763468065235051 0.0017444370555870473 0.0017379387240937113 0.0017366864193765876 0.0017354341146594635
          0.0016103507731822816 0.0016096952038983899 0.0016090396346144981 0.0019376347357484786 0.001936884051328065 0.0019361333669076519
          0.0014206034451195618 0.001487455391386091 0.0014228799356082581 0.0014898116497749502 0.0014251564260969543 0.001492167908163809
          0.001771608514128109 0.0017722587176379606 0.001772908921147812 0.0019210797509118238 0.0019211935317458063 0.001921307312579789
        </DataArray>
        <DataArray type="Float64" Name="pe22" format="ascii" RangeMin="-0.0019241335542976856" RangeMax="-0.000036578571830845324">
          -0.0005261135486016504 -0.00047131899265809177 -0.0003717418158062326 -0.00043747815020886405 -0.0005258935028614019 -0.00047114452691212147
          -0.00037169359045265355 -0.0004374365384495346 -0.0005256734571211532 -0.0004709700611661511 -0.00037164536509907465 -0.0004373949266902051
          -0.0009618651854054856 -0.0009149954913481598 -0.0009645089760807995 -0.001035088929775613 -0.0009618772715109583 -0.0009150299700936463
          -0.0009644944217170664 -0.0010350274268006302 -0.0009618893576164312 -0.0009150644488391329 -0.0009644798673533332 -0.0010349659238256474
          -0.00007294449625352394 -0.000132667739638106 -0.00007322538721658438 -0.00013294069183481796 -0.00007350627817964482 -0.00013321364403152996
          -0.0014709029806274582 -0.0015123850553761967 -0.001277089911145772 -0.001288726566784903 -0.0014717534825328341 -0.0015129965768652064
          -0.0012769260434128864 -0.0012890467136062317 -0.0014726039844382103 -0.001513608098354216 -0.0012767621756800008 -0.00128936686042756
          -0.0010338463330379212 -0.0011209061944062793 -0.001033944641953891 -0.0011208583586954938 -0.001034042950869861 -0.0011208105229847081
          -0.0011437028155448139 -0.0010938622418329965 -0.0011149097035000111 -0.001177098040048344 -0.0011443043543670798 -0.0010947412737489029
          -0.0011153475765627394 -0.0011769816206368441 -0.0011449058931893455 -0.0010956203056648095 -0.001115785449625468 -0.0011768652012253441
          -0.0013734587513893912 -0.0015332842981229966 -0.0014440719283923414 -0.0013255531295767403 -0.0013737345249633323 -0.0015334198641589625
          -0.0014444938914763435 -0.0013260700323274785 -0.0013740102985372734 -0.0015335554301949288 -0.0014449158545603454 -0.0013265869350782172
          -0.0005003541843489486 -0.0005762358105339506 -0.0005003791401066961 -0.0005760450961918325 -0.0005004040958644437 -0.0005758543818497145
          -0.0008126881344974436 -0.0007209490079833831 -0.0010229548942656402 -0.0010711494337658093 -0.0008121515496197628 -0.0007202951656601075
          -0.0010223484940035579 -0.001070715263191275 -0.0008116149647420821 -0.000719641323336832 -0.0010217420937414757 -0.0010702810926167404
          -0.0005190072531770225 -0.0005653324246359649 -0.0006538203708419783 -0.0005189542449773662 -0.0005651847892008369 -0.0006537366574148379
          -0.0005189012367777096 -0.0005650371537657089 -0.0006536529439876974 -0.0017291903121208103 -0.0018530753994817572 -0.0017991480995484008
          -0.0016991790115473858 -0.0017293104291332914 -0.0018535839429537268 -0.0017995815335387219 -0.001699179038523211 -0.001729430546145772
          -0.001854092486425696 -0.0018000149675290427 -0.001699179065499036 -0.0011949167652328986 -0.001247962590952783 -0.0011769313869827126
          -0.001180768113265349 -0.00119536170259588 -0.0012487881537676842 -0.0011776779120982333 -0.0011813285562957093 -0.0011958066399588617
          -0.001249613716582585 -0.0011784244372137543 -0.0011818889993260695 -0.001392540788293105 -0.0013930138029485445 -0.0013934868176039834
          -0.001146336181830207 -0.001077872996734276 -0.0010372626346663296 -0.0011471312190064903 -0.0010782193184070634 -0.0010380035950810912
          -0.0011479262561827736 -0.0010785656400798507 -0.001038744555495853 -0.0011900413117752345 -0.0012980229016390146 -0.0011902454344038266
          -0.0012987440743591184 -0.0011904495570324188 -0.001299465247079222 -0.0016454935846520235 -0.0015368573446663224 -0.001643936887113563
          -0.0017686036917075381 -0.0016464488026595816 -0.001537476185008582 -0.0016446441337911503 -0.0017695407637191571 -0.0016474040206671402
          -0.0015380950253508423 -0.0016453513804687374 -0.0017704778357307762 -0.00045452788336167583 -0.0005791696515807934 -0.00039928782621094717
          -0.00024203735463062685 -0.000454375580603861 -0.0005788318785912 -0.0003992260812848385 -0.0002429772096839272 -0.0004542232778460463
          -0.0005784941056016067 -0.00039916433635872974 -0.00024391706473722753 -0.0013049176509207702 -0.0012016381413806508 -0.0012127843597412933
          -0.001304941561593446 -0.0012016461655036087 -0.001212847041295544 -0.0013049654722661218 -0.0012016541896265668 -0.0012129097228497942
          -0.0001404407832617965 -0.00039736940190972215 -0.00014219850578284904 -0.0003972015155440543 -0.00014395622830390157 -0.00039703362917838634
          -0.001048858573295586 -0.0011351193264310853 -0.0012643605422585386 -0.0012797735702809693 -0.0010484179570327584 -0.001135314720692229
          -0.0012647699802559587 -0.0012794915021352026 -0.001047977340769931 -0.0011355101149533734 -0.001265179418253379 -0.0012792094339894359
          -0.0014161538391441238 -0.0012951901729005013 -0.001416477630900478 -0.001295399333093058 -0.0014168014226568321 -0.0012956084932856144
          -0.0009352411488192191 -0.00105093946415073 -0.0009349985491453694 -0.0010510408034379326 -0.0009347559494715197 -0.0010511421427251348
          -0.0013200451079296883 -0.0011252523079238398 -0.0013198810190956987 -0.0011249756280581557 -0.001319716930261709 -0.0011246989481924715
          -0.0006129444892435597 -0.0005460786338882622 -0.0005503575712760843 -0.000646184438585234 -0.0006128245739517364 -0.0005461473032476945
          -0.0005505136689987111 -0.000646153736910996 -0.000612704658659913 -0.0005462159726071267 -0.0005506697667213378 -0.0006461230352367579
          -0.0009388308198868112 -0.0008830856040954536 -0.0009389701631760952 -0.0008833519240078345 -0.000939109506465379 -0.0008836182439202157
          -0.0008027079754566041 -0.0008022503358380928 -0.0008017926962195815 -0.0010899088550293094 -0.0009937270782639674 -0.0010905090245682957
          -0.0009939752854375519 -0.0010911091941072822 -0.0009942234926111364 -0.0011254175614784678 -0.001154011168698462 -0.0011578321606422945
          -0.0011258157449735707 -0.0011547194519925398 -0.0011582798884177852 -0.001126213928468674 -0.0011554277352866177 -0.0011587276161932757
          -0.0008168583154353493 -0.0009252078098747405 -0.0006647749714950557 -0.0008164676846095541 -0.0009250956423038852 -0.0006642306514347474
          -0.0008160770537837587 -0.0009249834747330299 -0.0006636863313744393 -0.0009781203454638722 -0.0009793192202402737 -0.0009805180950166754
          -0.0006813630823950189 -0.0006805453035455221 -0.0006797275246960251 -0.0008652857107301598 -0.0009080742107998705 -0.0008653587774248696
          -0.0009080641946675946 -0.0008654318441195794 -0.0009080541785353185 -0.001027917251153709 -0.00102801745815368 -0.0010281176651536507
          -0.0006800789867779609 -0.0008437394390639273 -0.0008525784832499874 -0.0006803844361182006 -0.0008442212803163396 -0.0008524774622687972
          -0.0006806898854584403 -0.0008447031215687522 -0.0008523764412876068 -0.001430693900623294 -0.0014898008394483133 -0.001430678782733014
          -0.0014898881377562057 -0.001430663664842734 -0.0014899754360640982 -0.0000892671642663343 -0.000065840958597976 -0.00008173317948571306
          -0.0001320292945496219 -0.00008952911373444748 -0.00006616186066797648 -0.00008208593992391233 -0.0001322847117724908 -0.00008979106320256065
          -0.00006648276273797696 -0.00008243870036211158 -0.00013254012899535972 -0.0003546253622057486 -0.00025290368591821693 -0.000309301883089776
          -0.00041403195541537673 -0.00035470029959419066 -0.0002530490778905281 -0.00030932464042635337 -0.0004139598236613909 -0.0003547752369826327
          -0.00025319446986283927 -0.00030934739776293074 -0.0004138876919074051 -0.000792678675216486 -0.0007258740738243947 -0.0008259459245266906
          -0.0007926828424137756 -0.0007259229611027187 -0.0008261261697705531 -0.0007926870096110652 -0.0007259718483810429 -0.0008263064150144157
          -0.0011089974959273934 -0.001109418438042566 -0.0011098393801577389 -0.00114773382434616 -0.0011476663689643219 -0.0011475989135824836
          -0.000036578571830845324 -0.000042200320056597174 -0.00003696526063014733 -0.00004259610106424135 -0.00003735194942944933 -0.00004299188207188551
          -0.00017007119050005957 -0.0002028826172918502 -0.00017032316052036385 -0.0002031268363807569 -0.00017057513054066813 -0.00020337105546966363
          -0.0010022076617315285 -0.0010025686946660884 -0.0010029297276006486 -0.0005935774668464224 -0.0006394330353140699 -0.0006050693581053181
          -0.0005120863239415129 -0.0005936407841339176 -0.0006394939834620668 -0.0006050064103010127 -0.0005121283796246615 -0.0005937041014214128
          -0.0006395549316100635 -0.0006049434624967072 -0.0005121704353078102 -0.0007341710751627494 -0.0007342159456341264 -0.0007342608161055032
          -0.000633638245704636 -0.000633587641680215 -0.0006335370376557939 -0.0008277027074224807 -0.0006967878232478821 -0.0008275295705785883
          -0.0006966809471405993 -0.0008273564337346961 -0.0006965740710333165 -0.0006934486349387377 -0.0006941263904435993 -0.000694804145948461
          -0.0005919241212164847 -0.0007036702540557853 -0.0005919991135792149 -0.0007037565974747936 -0.0005920741059419453 -0.000703842940893802
          -0.0007269151191271261 -0.0007272096988483306 -0.0007275042785695349 -0.000714285347729918 -0.0007540570115068237 -0.0007141290218267988
          -0.000753963195338772 -0.0007139726959236795 -0.0007538693791707204 -0.0006768615928825373 -0.0006767034389213716 -0.0006765452849602059
          -0.00046219781347789954 -0.00046221644749394104 -0.00046223508150998243 -0.000817552586278951 -0.0008176410737316524 -0.0008177295611843537
          -0.0006154275418200157 -0.0007865566776615696 -0.0006154522321080147 -0.0007869932418942131 -0.0006154769223960138 -0.0007874298061268565
          -0.0009402581006224439 -0.0009402288127793028 -0.0009401995249361616 -0.0010338398777646701 -0.0010036139157895418 -0.0010338024142190207
          -0.0010035746326294262 -0.0010337649506733716 -0.0010035353494693105 -0.0015333612427202879 -0.0016366704369429072 -0.0015345035906894264
          -0.0015334081299464531 -0.0016366559362248317 -0.001534615398495658 -0.0015334550171726181 -0.0016366414355067562 -0.0015347272063018893
          -0.0018872702942726027 -0.0018484143476154163 -0.0018116639458575247 -0.001888168295662834 -0.001849555542053747 -0.0018125685186034552
          -0.0018890662970530649 -0.001850696736492078 -0.0018134730913493859 -0.0006716701947815735 -0.0009214483612258845 -0.0006720917374769146
          -0.0009225813706571885 -0.0006725132801722557 -0.0009237143800884925 -0.0009161722831164154 -0.000925068420576352 -0.0009293162874161951
          -0.000916160856411024 -0.0009249602457078865 -0.0009292294323073345 -0.0009161494297056325 -0.0009248520708394207 -0.0009291425771984737
          -0.0011579869308754084 -0.0010918679114590081 -0.0011579667880568243 -0.0010918702793787055 -0.0011579466452382402 -0.001091872647298403
          -0.0002114737322233604 -0.00021161365226813082 -0.00021175357231290122 -0.0018730087709091926 -0.0019220064017390613 -0.0018742047092191534
          -0.0019230699780183734 -0.0018754006475291138 -0.0019241335542976856 -0.0018723237134616012 -0.0017404079901156603 -0.0018729991435151713
          -0.0017407211986944396 -0.0018736745735687412 -0.0017410344072732189 -0.0015392364274173773 -0.0016265935010570977 -0.0015393162229489035
          -0.0016268505361106452 -0.00153939601848043 -0.0016271075711641928 -0.0013718312819707991 -0.0013723579599570562 -0.0013728846379433132
          -0.001736993037822849 -0.0017153258507844734 -0.0017380186462584311 -0.0017164263998837063 -0.0017390442546940132 -0.0017175269489829391
          -0.001520833583186124 -0.0015209841631238859 -0.0015211347430616477 -0.0007361508653617612 -0.0007362152678188014 -0.0007362796702758418
          -0.0012615361747443919 -0.00126056202049214 -0.001259587866239888 -0.0007524444567720958 -0.000752515277995831 -0.0007525860992195664
          -0.0007868353230432179 -0.0007868162274572009 -0.0007867971318711839 -0.001041179203736687 -0.000994935158262522 -0.0010413993783456616
          -0.0009944107703325129 -0.0010416195529546362 -0.000993886382402504 -0.0009312169527015143 -0.0008657470654133655 -0.0009313598539369508
          -0.0008657741476863615 -0.0009315027551723875 -0.0008658012299593574 -0.0005501758332217837 -0.0005502281583676388 -0.0005502804835134939
          -0.00029943770649502345 -0.00029959604742798744 -0.0002997543883609514 -0.0008233803651460532 -0.0008233336703305251 -0.0008232869755149971
          -0.001146362134087435 -0.0011469596784162229 -0.0011475572227450108 -0.000488287721201176 -0.0004890498529400221 -0.000489811984678868
          -0.0004201706476871651 -0.00042024438270310115 -0.0004203181177190372 -0.0013670444996582397 -0.0011920931632728115 -0.0013672774825686206
          -0.0011922462229789405 -0.0013675104654790016 -0.0011923992826850694 -0.0015368623320172643 -0.0015373013750040734 -0.0015377404179908827
          -0.0017067410438009148 -0.00159943211925027 -0.0017070110536448317 -0.0015994214339996508 -0.0017072810634887487 -0.0015994107487490316
          -0.0004097116353838688 -0.0004705298171487678 -0.0003570622301449069 -0.00040972743013992046 -0.00047058769267686775 -0.0003571124731225644
          -0.00040974322489597214 -0.0004706455682049677 -0.0003571627161002219 -0.00030875206794943365 -0.000308841396755371 -0.0003089307255613083
          -0.0016862509950167047 -0.0016868641320313864 -0.001687477269046068 -0.0008780470953864592 -0.0008518161072816778 -0.0008781951502911082
          -0.0008519571596071746 -0.0008783432051957573 -0.0008520982119326714 -0.0016945007548343975 -0.0015466233311259492 -0.001695297106727072
          -0.001547183881114426 -0.0016960934586197462 -0.0015477444311029034 -0.001393734011767715 -0.0013940254802018118 -0.0013943169486359082
          -0.0015039687062582759 -0.0013746368898986286 -0.0015044555016575712 -0.0013748360506466951 -0.0015049422970568665 -0.0013750352113947617
          -0.00019822133053133806 -0.0002638010970966659 -0.00018066130898181736 -0.00011603044965716137 -0.00019899808898733907 -0.0002647373568504123
          -0.00018137643034873968 -0.00011697617562943795 -0.00019977484744334017 -0.0002656736166041587 -0.00018209155171566204 -0.00011792190160171454
          -0.00022009801509147734 -0.00022033098394709023 -0.00022056395280270312 -0.0005171600558272109 -0.0005177521313502884 -0.000518344206873366
          -0.0011146802053130073 -0.0011512913871029856 -0.001114768961591942 -0.001151492844559134 -0.0011148577178708766 -0.0011516943020152826
          -0.0010392215522191251 -0.0010393909550330026 -0.00103956035784688 -0.0009271448662334766 -0.0009218367178607263 -0.0009271808812870138
          -0.0009217420353968323 -0.0009272168963405511 -0.0009216473529329383 -0.0007037374457076002 -0.0005305778500974954 -0.0007032088546444893
          -0.0005300860772016972 -0.0007026802635813782 -0.0005295943043058991 -0.000419712797558935 -0.00041985038052258223 -0.0004199879634862295
          -0.0012513578505089105 -0.0012837035231587637 -0.0012516034678370061 -0.001283852123575405 -0.0012518490851651017 -0.0012840007239920462
          -0.0003566680099855384 -0.00037446437204399525 -0.00028948190166854816 -0.0002509658705876727 -0.00035675772379936525 -0.00037463941506580954
          -0.00028969918253220856 -0.0002511565756289097 -0.0003568474376131921 -0.0003748144580876238 -0.0002899164633958689 -0.00025134728067014676
          -0.001058272076678344 -0.0010581865252195927 -0.0010581009737608415 -0.00015341172752517059 -0.00009445261702512562 -0.00015377397280774978
          -0.00009513287268435884 -0.000154136218090329 -0.00009581312834359205 -0.001125977882788432 -0.0013185896323729385 -0.0011257515576453083
          -0.0013186909677221483 -0.001125525232502185 -0.0013187923030713576 -0.001311003244466083 -0.001311006042801198 -0.001311008841136313
          -0.0008430553581035436 -0.0008430379787779271 -0.0008430205994523108 -0.0009904091461660582 -0.0009901096857343077 -0.0009898102253025572
          -0.0002793575519478673 -0.0002796187259021752 -0.0002798798998564832 -0.0001407858978375184 -0.00014115344919809155 -0.00014152100055866466
          -0.0009091758533652362 -0.0011681772106947393 -0.0009086859984268184 -0.0011681692713216402 -0.0009081961434884009 -0.0011681613319485416
          -0.0001069838787615249 -0.00010732028969114802 -0.00010765670062077114 -0.00038112866704271956 -0.0003817066102531817 -0.0003822845534636441
          -0.0008538162185295573 -0.0008537987630724053 -0.0008537813076152534 -0.0017873129498878096 -0.001788002407234126 -0.0017886918645804433
          -0.0000768143221170057 -0.00007741829826402804 -0.00007802227441105037 -0.0011289656919061797 -0.0011292217675372652 -0.0011294778431683507
          -0.0015556074193896852 -0.0015479918444692218 -0.001308680778454426 -0.001555876326119933 -0.0015481067628485658 -0.001308689182223675
          -0.0015561452328501806 -0.0015482216812279098 -0.0013086975859929236 -0.0003713386237836912 -0.00037212160254432373 -0.0003729045813049563
          -0.0009113855482611879 -0.0008959482196008286 -0.000911306234819269 -0.0008959034777916288 -0.0009112269213773503 -0.0008958587359824292
          -0.00040501998091329455 -0.00040511808944135926 -0.00040521619796942397 -0.0004624492992046801 -0.0004626220457547372 -0.00046279479230479435
          -0.0010031035354948242 -0.0010023835383672491 -0.001001663541239674 -0.00007079946855045607 -0.00007138592458838064 -0.00007197238062630521
          -0.0001620128665317246 -0.00025051361026322505 -0.00016229545847641898 -0.00025068531355967866 -0.00016257805042111336 -0.0002508570168561322
          -0.00047481381371516473 -0.00047487433023811053 -0.00047493484676105634 -0.000042881655215994476 -0.000043136891184138274 -0.00004339212715228207
          -0.0011300314854798491 -0.0011305191572139439 -0.0011310068289480384 -0.0009268755092912222 -0.0009269061341348975 -0.0009269367589785729
          -0.001837460286290048 -0.0018381311205754875 -0.0018388019548609272 -0.0007218574251749366 -0.000721778167450727 -0.0007216989097265174
          -0.0009038728064207939 -0.0009198587150343976 -0.000903908613072234 -0.0009199401986468201 -0.0009039444197236741 -0.0009200216822592422
          -0.0012007557168044302 -0.0012005293029747645 -0.0012003028891450988 -0.0009306404042692729 -0.000907007102817629 -0.0009309143864283864
          -0.0009069919858123653 -0.0009311883685874998 -0.0009069768688071015 -0.0008930460756741813 -0.0008930270019905911 -0.0008930079283070008
          -0.0008335199750253205 -0.0008335351266970691 -0.0008335502783688179 -0.001017525424427968 -0.0010173072843969277 -0.0010170891443658874
          -0.0007581609416148287 -0.0007869062342430667 -0.0007583682250956624 -0.0007875291597708644 -0.0007585755085764961 -0.0007881520852986625
          -0.0009330750605127442 -0.0009334272461549619 -0.0009337794317971793 -0.0010148448751209787 -0.0010150473884504697 -0.0010152499017799608
        </DataArray>
        <DataArray type="Float64" Name="pe33" format="ascii" RangeMin="-0.001835228977339089" RangeMax="-0.00003528224229571468">
          -0.0005201719689973284 -0.00046566286856008 -0.0003647247772626401 -0.0004284725620818789 -0.0005200466421257942 -0.00046556723136624366
          -0.0003649397001774971 -0.00042878707257727755 -0.00051992131525426 -0.0004654715941724074 -0.000365154623092354 -0.00042910158307267606
          -0.0009045918212895355 -0.0008667252935487287 -0.0009032258880800141 -0.0009600837029905473 -0.0009040475661208464 -0.0008661399089924836
          -0.0009029223421838301 -0.0009597943299238633 -0.0009035033109521574 -0.0008655545244362386 -0.0009026187962876463 -0.0009595049568571793
          -0.00007136649898941392 -0.00013078714122458492 -0.00007175849043895963 -0.0001312818123248778 -0.00007215048188850533 -0.00013177648342517067
          -0.0013096719938520888 -0.0013388463777147808 -0.0011372502723131673 -0.0011509734454489926 -0.001308642139361168 -0.0013374972933787753
          -0.001136474983683919 -0.0011493085136551637 -0.001307612284870247 -0.0013361482090427702 -0.0011356996950546707 -0.0011476435818613352
          -0.0009547097815788262 -0.0010250525365734738 -0.00095495732744046 -0.0010249949288557226 -0.0009552048733020937 -0.0010249373211379715
          -0.0010799732146823903 -0.0010105885105162686 -0.001045401413773688 -0.0011490488958748385 -0.0010778323297024976 -0.0010097688549015273
          -0.0010427772489167617 -0.0011444190444032908 -0.0010756914447226052 -0.0010089491992867855 -0.0010401530840598357 -0.0011397891929317435
          -0.0013985626854276275 -0.001534724972268871 -0.0014354890137786291 -0.0013273479002352119 -0.0013975155244157845 -0.0015318064620472437
          -0.001433560077704464 -0.0013268076249638625 -0.0013964683634039414 -0.0015288879518256164 -0.0014316311416302991 -0.0013262673496925131
          -0.0004891792063101339 -0.000567191220578039 -0.0004897717925035082 -0.0005672627116337657 -0.0004903643786968825 -0.0005673342026894924
          -0.0008885181852191084 -0.0007927472197925172 -0.0011036254160211867 -0.0011450209402076627 -0.0008879079680385989 -0.0007932573097600766
          -0.001102776361362312 -0.0011441411350371627 -0.0008872977508580896 -0.0007937673997276361 -0.0011019273067034375 -0.0011432613298666629
          -0.0005159588405124363 -0.0005605358259313744 -0.000653440506187502 -0.0005157448667039275 -0.000560340844481096 -0.0006534648131722061
          -0.0005155308928954188 -0.0005601458630308179 -0.0006534891201569105 -0.0017572547793992376 -0.0018184406197151535 -0.0017706285046524583
          -0.001712356293726545 -0.0017525960136090602 -0.0018140997177975983 -0.001766086029920837 -0.001707599401670192 -0.0017479372478188828
          -0.001809758815880043 -0.0017615435551892157 -0.0017028425096138394 -0.001170147286772743 -0.0011974858311528211 -0.0011039830194085848
          -0.001130906934518747 -0.0011690288545214305 -0.0011970502123934015 -0.0011038410996235112 -0.001129801168346623 -0.001167910422270118
          -0.0011966145936339824 -0.0011036991798384376 -0.001128695402174499 -0.0012425812938345496 -0.0012421341247420676 -0.0012416869556495856
          -0.00107324742088011 -0.0009909107635640206 -0.0009447493997275821 -0.0010714374729909124 -0.000989748861820849 -0.0009440224934560077
          -0.0010696275251017146 -0.0009885869600776774 -0.0009432955871844333 -0.0011929396425756624 -0.0012714126326852132 -0.001191745204490973
          -0.0012708531782531197 -0.0011905507664062833 -0.0012702937238210261 -0.0014717402290886912 -0.0013773178609194417 -0.0014922676664672243
          -0.0016086739130421188 -0.0014704712177519138 -0.0013769510585662388 -0.0014910973269736652 -0.001606418534602527 -0.0014692022064151367
          -0.0013765842562130362 -0.001489926987480106 -0.0016041631561629355 -0.0004989016540353115 -0.0006370098122692373 -0.0004360761816100386
          -0.00025931653585077043 -0.0005003427824688119 -0.0006372258288063963 -0.00043725353404572244 -0.00026172128937619935 -0.0005017839109023127
          -0.0006374418453435553 -0.0004384308864814063 -0.0002641260429016282 -0.001173311263366587 -0.0010901673487678995 -0.0010935521611679156
          -0.0011735723192667978 -0.001090239354084519 -0.0010940219819778065 -0.0011738333751670086 -0.0010903113594011391 -0.0010944918027876974
          -0.00014691627502000867 -0.00043154582879087336 -0.00014981171993524629 -0.00043355203486150385 -0.0001527071648504839 -0.00043555824093213433
          -0.000988401181918942 -0.0010611575639405712 -0.0012131954513321212 -0.0012317523587474046 -0.0009879509344796996 -0.001060886103140644
          -0.001212035593034163 -0.001229490543214567 -0.0009875006870404576 -0.001060614642340717 -0.0012108757347362052 -0.0012272287276817295
          -0.001271606583973888 -0.0011642560693180812 -0.001271722219815557 -0.0011642932889019855 -0.0012718378556572261 -0.00116433050848589
          -0.0009746759644562233 -0.0010751953244611556 -0.000971871601031571 -0.0010713111446072764 -0.0009690672376069186 -0.0010674269647533972
          -0.0012542793291026974 -0.001053115201481707 -0.0012524460510996247 -0.0010531938815803782 -0.0012506127730965522 -0.0010532725616790493
          -0.0005993425515648096 -0.0005339408154749408 -0.0005331049310211779 -0.0006248196922802112 -0.0005999779985515204 -0.0005348420654323395
          -0.0005344837474582717 -0.0006261094772842088 -0.0006006134455382313 -0.000535743315389738 -0.0005358625638953659 -0.0006273992622882064
          -0.000846417495377165 -0.0007962179940146037 -0.0008462026604144806 -0.0007951490085756223 -0.000845987825451796 -0.0007940800231366408
          -0.0008516518801547687 -0.0008496209794079327 -0.000847590078661097 -0.001004059349547303 -0.0009085613319241394 -0.0010043514216641302
          -0.0009092087307877392 -0.0010046434937809573 -0.0009098561296513393 -0.0011079513832926195 -0.0011029115017906045 -0.0011346044080841272
          -0.0011056246595882312 -0.001100461538510352 -0.001130793646431696 -0.0011032979358838433 -0.0010980115752300995 -0.001126982884779265
          -0.0008737170784466615 -0.0009706564679140776 -0.0007157602621542562 -0.0008724460005008732 -0.0009690597804416845 -0.0007146640676807363
          -0.0008711749225550848 -0.0009674630929692913 -0.0007135678732072164 -0.0008826178518194334 -0.000882657460127719 -0.0008826970684360047
          -0.0007449159385320064 -0.0007459931673704434 -0.0007470703962088804 -0.0008518344416310678 -0.0008908349850290097 -0.0008506516572545943
          -0.0008893203340548372 -0.0008494688728781208 -0.0008878056830806646 -0.0010530300538597846 -0.0010510345130105786 -0.0010490389721613724
          -0.0006269878045432547 -0.0007640293069121021 -0.0007931313088956241 -0.0006282655327608239 -0.0007653587137691504 -0.0007935559707118675
          -0.0006295432609783932 -0.0007666881206261988 -0.0007939806325281108 -0.0014034141495880858 -0.0014415381033508136 -0.0013997438402481503
          -0.0014377749983850822 -0.0013960735309082144 -0.0014340118934193509 -0.00008698696236490322 -0.0000634473603190205 -0.00007893789961962056
          -0.00012895728497449397 -0.00008738950287006305 -0.00006387003576918488 -0.00007945749461633165 -0.00012945485322596691 -0.00008779204337522292
          -0.00006429271121934924 -0.00007997708961304275 -0.00012995242147743986 -0.00034869134650462495 -0.00024853933400239875 -0.00030365169231290394
          -0.00040711138678877184 -0.00034888440859978534 -0.000248976060294082 -0.0003039345250584674 -0.00040711696643155946 -0.00034907747069494574
          -0.00024941278658576523 -0.00030421735780403083 -0.0004071225460743472 -0.0007850695308204204 -0.0007174799168827035 -0.0008081704529641952
          -0.0007845731667370246 -0.0007172186576727735 -0.0008074013214724374 -0.0007840768026536289 -0.0007169573984628435 -0.0008066321899806799
          -0.0010331617067226534 -0.001032060049274963 -0.0010309583918272727 -0.0011481314568251068 -0.00114314157183254 -0.0011381516868399734
          -0.00003528224229571468 -0.000040393323842422704 -0.00003571605457782136 -0.000040877004079221304 -0.000036149866859928046 -0.00004136068431601992
          -0.00016615364866516866 -0.0001995236341594099 -0.00016672999426149189 -0.0002000719193497793 -0.0001673063398578151 -0.00020062020454014864
          -0.0009118669683686137 -0.0009123412625795915 -0.0009128155567905694 -0.000585770591863714 -0.0006351393804226742 -0.0006021354696330084
          -0.0005056733389634049 -0.0005859625598244384 -0.0006352224325112233 -0.0006020532689897319 -0.0005057153606196744 -0.0005861545277851629
          -0.0006353054845997724 -0.0006019710683464552 -0.0005057573822759439 -0.0007207837610425919 -0.0007204727330591818 -0.0007201617050757717
          -0.0006224888555814948 -0.0006225625883961921 -0.0006226363212108894 -0.0007896684516365854 -0.0006639825949973647 -0.0007904784215689509
          -0.0006647433536458452 -0.0007912883915013167 -0.0006655041122943256 -0.000625335158741641 -0.0006268754203658394 -0.0006284156819900377
          -0.0005693594818194105 -0.0006762914947225176 -0.000570724981085426 -0.0006777562969835207 -0.0005720904803514413 -0.0006792210992445238
          -0.0006611555386907623 -0.0006611019518456976 -0.000661048365000633 -0.0006922228330826485 -0.0007227546258969004 -0.0006925607342789352
          -0.0007236921678424802 -0.0006928986354752219 -0.00072462970978806 -0.0006614292416345384 -0.0006614046769638514 -0.0006613801122931646
          -0.0004552803579871532 -0.00045518869591918467 -0.00045509703385121606 -0.0007769274917620594 -0.000778272995848943 -0.0007796184999358269
          -0.0005533792286200861 -0.0007075832469990732 -0.0005535262774657771 -0.0007070231370943158 -0.0005536733263114682 -0.0007064630271895582
          -0.0008840948372661805 -0.0008852696238429417 -0.0008864444104197031 -0.0009484234925342548 -0.0009313019050609517 -0.0009472190779080062
          -0.0009305296903147453 -0.0009460146632817578 -0.0009297574755685388 -0.0015746855379536607 -0.0016382310807881893 -0.0015539008771217548
          -0.0015715013057490466 -0.00163396985982923 -0.0015511486307646716 -0.0015683170735444323 -0.0016297086388702706 -0.0015483963844075887
          -0.0017831685495871257 -0.0016833672337420206 -0.0016913033080422036 -0.0017794179588701935 -0.0016803290209715233 -0.0016880879622342174
          -0.0017756673681532617 -0.001677290808201026 -0.0016848726164262313 -0.0005914933628824179 -0.0008203070297174403 -0.0005923913297018669
          -0.0008207123534992108 -0.0005932892965213158 -0.0008211176772809814 -0.0008780398217722448 -0.0008867448783754794 -0.0008777866162276767
          -0.0008768655119603613 -0.0008856672612582123 -0.0008767504022143229 -0.0008756912021484777 -0.0008845896441409452 -0.000875714188200969
          -0.0010535176210103691 -0.001005262192485646 -0.0010527658620690787 -0.0010050340360243995 -0.0010520141031277882 -0.0010048058795631533
          -0.00021004703505411585 -0.00021051803349066123 -0.00021098903192720667 -0.001705223943041795 -0.0018063854073344615 -0.001701940283521302
          -0.001802630987167464 -0.0016986566240008091 -0.0017988765670004666 -0.001835228977339089 -0.0017763646281028207 -0.0018308996388779139
          -0.0017717324585456342 -0.0018265703004167388 -0.001767100288988448 -0.0015269592636495623 -0.0015879285447428794 -0.0015225565472322942
          -0.0015830920702457187 -0.0015181538308150259 -0.001578255595748558 -0.0013395833547328272 -0.0013379334460780934 -0.00133628353742336
          -0.0015420056472586429 -0.0015278315468955572 -0.0015396180188453478 -0.0015257390184055613 -0.0015372303904320527 -0.0015236464899155652
          -0.0013384264309080518 -0.001337012107272298 -0.0013355977836365445 -0.0007166835089618148 -0.0007167216817494823 -0.0007167598545371498
          -0.0011089940630344482 -0.0011089462019118488 -0.0011088983407892491 -0.0007280048787501275 -0.0007281472342149536 -0.0007282895896797796
          -0.0007585029455231762 -0.0007583037829692455 -0.0007581046204153149 -0.0009229658082992619 -0.0008687338511378541 -0.000923543159853357
          -0.0008704902026977355 -0.0009241205114074519 -0.0008722465542576169 -0.0008713022178109181 -0.0008205712617264223 -0.0008721745572414753
          -0.0008208588424933603 -0.0008730468966720323 -0.0008211464232602984 -0.0005187610415680088 -0.0005199412461591439 -0.000521121450750279
          -0.00029530369618352783 -0.0002957041534688699 -0.000296104610754212 -0.0007890104227034518 -0.0007887844743392422 -0.0007885585259750325
          -0.001082937901529211 -0.0010818508660330054 -0.0010807638305367993 -0.000432994941407021 -0.0004351883968475945 -0.00043738185228816813
          -0.0003703958532626342 -0.000371313291678809 -0.00037223073009498385 -0.0012684749365536765 -0.0010963239474491254 -0.0012681328839579296
          -0.0010972618930695673 -0.0012677908313621824 -0.0010981998386900092 -0.0014455702696695286 -0.001443541640632278 -0.0014415130115950276
          -0.0016836228893880145 -0.0015985123239911376 -0.0016787042187340624 -0.0015937836232615004 -0.0016737855480801103 -0.001589054922531863
          -0.0004054303722516301 -0.0004686941708136291 -0.00035442789968395444 -0.00040543612335812706 -0.00046857084026373107 -0.00035465336115995326
          -0.00040544187446462407 -0.0004684475097138331 -0.0003548788226359521 -0.0003069975581033372 -0.00030742843258879464 -0.00030785930707425205
          -0.0016013334976853315 -0.001597928810813963 -0.001594524123942595 -0.0008377336165038781 -0.0008163569633018183 -0.0008372477896943007
          -0.0008159785941733349 -0.0008367619628847236 -0.0008156002250448516 -0.00156814431370074 -0.0014201057001326147 -0.0015660683268772775
          -0.0014194749673774498 -0.0015639923400538153 -0.0014188442346222852 -0.0012665596925160887 -0.0012672018722281447 -0.0012678440519402001
          -0.0013615137350717636 -0.0012364033620412894 -0.0013613850339643603 -0.0012370634412970226 -0.0013612563328569572 -0.001237723520552756
          -0.00018097911476671485 -0.00023635562702166354 -0.00016784989011136444 -0.00010855897789277801 -0.000182480550663316 -0.00023865779426449085
          -0.00016956587017545537 -0.00011006877135726077 -0.00018398198655991717 -0.0002409599615073182 -0.00017128185023954626 -0.00011157856482174349
          -0.00021450159635482124 -0.00021516931498620766 -0.00021583703361759403 -0.00046957489116460603 -0.0004717200373567981 -0.0004738651835489902
          -0.0011200668882906976 -0.001129922630978418 -0.0011182149386913915 -0.0011279971250503827 -0.0011163629890920852 -0.0011260716191223475
          -0.0009600468296708385 -0.0009612829086697884 -0.0009625189876687387 -0.000896349956011407 -0.0008915190960727084 -0.0008951968922491197
          -0.0008901007420319526 -0.0008940438284868323 -0.000888682387991197 -0.0007647208055461927 -0.0005768445498311615 -0.0007639631265792027
          -0.0005769192205067397 -0.0007632054476122128 -0.0005769938911823179 -0.00041788408999696007 -0.00041811999431453956 -0.000418355898632119
          -0.001130800991784386 -0.0011501973192889002 -0.001132000401657077 -0.0011511837924652539 -0.0011331998115297677 -0.0011521702656416073
          -0.00034044941556085574 -0.0003616724961945355 -0.000280932095976146 -0.00024007296141865636 -0.00034168751246193614 -0.00036265914985836247
          -0.0002817472454011419 -0.0002411335332923739 -0.0003429256093630166 -0.00036364580352218955 -0.0002825623948261378 -0.00024219410516609135
          -0.0010895246899567306 -0.0010878450644191758 -0.0010861654388816203 -0.00014762679010871027 -0.00009066985731232636 -0.00014853682522034578
          -0.00009177617906379612 -0.00014944686033198127 -0.00009288250081526587 -0.001180360006235799 -0.0013747380526756415 -0.0011793946013002384
          -0.001373436571550067 -0.001178429196364678 -0.0013721350904244926 -0.0013812285779447218 -0.0013790565793935562 -0.0013768845808423901
          -0.0008127633440148658 -0.000812066825547872 -0.0008113703070808781 -0.0010413818863203304 -0.0010398164475455716 -0.0010382510087708129
          -0.00025842052325132555 -0.00026008754722773415 -0.0002617545712041427 -0.00012926091360768106 -0.00013011369494063277 -0.00013096647627358447
          -0.0009749753039226196 -0.0011972078227406994 -0.0009736299673550057 -0.0011960753876541614 -0.000972284630787392 -0.0011949429525676234
          -0.00010392506891108514 -0.00010455059043987652 -0.00010517611196866791 -0.0003313293738358724 -0.00033319288162870125 -0.00033505638942153026
          -0.0008309712813488349 -0.0008299019560335868 -0.0008288326307183387 -0.0017164329687548848 -0.0017123378987663068 -0.0017082428287777285
          -0.0000719309234637204 -0.00007283111345260463 -0.00007373130344148887 -0.0010276995157975837 -0.0010285888395317375 -0.0010294781632658912
          -0.0016232757211081653 -0.0016059870835976311 -0.0013865264203177777 -0.0016193844999151067 -0.0016023075226777247 -0.0013839331116570859
          -0.001615493278722048 -0.0015986279617578182 -0.0013813398029963939 -0.0003310472140260047 -0.00033369265793266914 -0.0003363381018393335
          -0.0008835837999289299 -0.0008639156265916634 -0.000882030342704343 -0.0008625412535714235 -0.0008804768854797562 -0.0008611668805511836
          -0.0003776073063535783 -0.00037915872806027135 -0.00038071014976696443 -0.0004465925167168192 -0.0004477957924284505 -0.0004489990681400819
          -0.0010830772822878632 -0.001082258270035689 -0.0010814392577835146 -0.00006787199932686295 -0.00006870585614957368 -0.00006953971297228441
          -0.0001593577842247258 -0.0002479189359889857 -0.00015992073186774444 -0.00024843070630528255 -0.0001604836795107631 -0.0002489424766215794
          -0.0004543744949399199 -0.00045568627114444865 -0.0004569980473489774 -0.00004048815510973691 -0.00004088103222215068 -0.00004127390933456444
          -0.0010076608189852577 -0.0010064606379911187 -0.0010052604569969798 -0.0009029238118361031 -0.0009015564593902871 -0.0009001891069444709
          -0.0017783323520124971 -0.001774206224558909 -0.0017700800971053206 -0.0007223153688750587 -0.0007222569299051494 -0.0007221984909352401
          -0.000869394211675668 -0.000878058482497454 -0.0008682223033562455 -0.0008772649175159071 -0.0008670503950368231 -0.0008764713525343601
          -0.0010749833168893243 -0.001073661852300967 -0.0010723403877126096 -0.0008462267588810094 -0.0008393054744106265 -0.0008456925984085072
          -0.000838382830595286 -0.0008451584379360049 -0.0008374601867799456 -0.0008448926484195297 -0.0008436594173859963 -0.0008424261863524626
          -0.0007768307981569607 -0.0007761600772013203 -0.0007754893562456801 -0.0009201093113205105 -0.0009195767669311372 -0.000919044222541764
          -0.0006624425035047332 -0.0007005491571430243 -0.0006645117105125956 -0.0007022824900040854 -0.0006665809175204582 -0.0007040158228651465
          -0.0008385334536153647 -0.0008388314714829984 -0.0008391294893506325 -0.0009062348757908449 -0.0009061461432953364 -0.0009060574107998278
        </DataArray>
        <DataArray type="Float64" Name="disp_x" format="ascii" RangeMin="0.000006919372349382623" RangeMax="0.00003458873227619111">
          0.000024777405510258602 0.000024729991650218087 0.000023691586787138116 0.00002374400946155721 0.000024779336972608394 0.00002473210931294405
          0.000023693888335385637 0.00002374616245638282 0.000024785291142033642 0.00002473816670019095 0.00002370130443822589 0.000023752934032275347
          0.000030077536894397806 0.000028154847006342866 0.000027370843747882736 0.000028561025542218568 0.000030077166121520996 0.000028155287242241393
          0.000027371107042025975 0.00002856030490787451 0.000030076136848673135 0.00002815669708998892 0.000027372234852325993 0.000028558214648072408
          0.000023161625020303356 0.00002388419435666793 0.00002316274043290791 0.000023885740348363875 0.00002316590544880531 0.00002389037438783341
          0.000028851267602916913 0.00002905917951608475 0.000030976961287734644 0.000030661467323256966 0.000028847688418666128 0.000029054525638687992
          0.00003097167841491023 0.000030657098849473076 0.00002883635627035675 0.000029041320142949397 0.00003095631230928266 0.00003064599416071304
          0.0000262669652452193 0.00002729511707962886 0.000026266974080589954 0.00002729447330371198 0.000026266814093311137 0.000027292061940262058
          0.000013457891928821233 0.000014655392244683372 0.000014275383656469202 0.000012651964135002556 0.00001345527353794383 0.00001465160527258605
          0.000014270992780592234 0.000012650075806907983 0.000013446412953943638 0.000014639730683443152 0.00001425766965286008 0.000012643636811436698
          0.000013802444000737865 0.000015877817107797572 0.000016039863847024976 0.000014237466919502256 0.000013806843856026993 0.000015881344199951347
          0.00001604281734030708 0.000014240612451595728 0.000013820672492657052 0.000015893359462165595 0.000016052914846379046 0.000014249018286492978
          0.000023800867020728296 0.00002472335256825166 0.000023802728719668847 0.000024725202012932577 0.00002380855339056193 0.000024730766851990778
          0.000009756478228850735 0.000009319863329094718 0.000010793633108660532 0.000011212150692943238 0.000009762974368590578 0.000009327295747051891
          0.000010800676446372701 0.000011217968798703212 0.000009783150878471706 0.000009350450123202072 0.000010821720948424483 0.00001123500580786458
          0.00002654228936482004 0.00002666870298520903 0.000027855680652650294 0.000026544690731114116 0.0000266709636547158 0.000027857962166098146
          0.00002655201115609228 0.000026677541955761114 0.0000278635412407089 0.000016637458159598337 0.000018931289992632167 0.000018420803740075417
          0.000016421316668967088 0.000016639944145373632 0.00001893148921719253 0.000018421477351716252 0.00001642413750977838 0.00001664735799873989
          0.000018932338951842533 0.000018423576487552746 0.000016432106793621937 0.000013858745506247643 0.000015495667969082532 0.000016027219058951708
          0.000014384914556784484 0.000013859822984635051 0.000015496565152466914 0.000016026889525914538 0.000014384697705209472 0.000013862629126292334
          0.00001549911971261653 0.0000160260851965768 0.000014383827628775447 0.00002870526469027004 0.000028702445781703425 0.000028694075511605713
          0.000014189373438946037 0.00001537722970548916 0.000015618185651835812 0.0000141871582507718 0.00001537458309282646 0.000015615371625369457
          0.000014180675297410938 0.00001536643715846084 0.000015607371624815893 0.00001314866010697843 0.00001484174499106598 0.000013150966778933836
          0.000014843823310899284 0.000013157960535379962 0.000014850045904292776 0.000026820752623791476 0.000026743686108805795 0.00002485639325110497
          0.000024614657465333676 0.000026817044258934375 0.000026740570139696696 0.000024853141563907658 0.00002461130388536938 0.000026805330226793205
          0.000026730672110560512 0.000024843551822604093 0.00002460165990628755 0.00000817253087286623 0.000008623865819599584 0.000007823143557694704
          0.000007289723084202398 0.000008179536500981976 0.000008631048621454855 0.000007829917083937417 0.000007295848032976853 0.000008200038251423673
          0.000008651805958514434 0.000007851200608030406 0.000007314428709413264 0.000026518165978545757 0.00002798673755337089 0.000026040971027905813
          0.000026516343189111063 0.000027985101610448202 0.00002603989425531557 0.000026511282877740208 0.000027980216360679084 0.000026037137951112507
          0.000006919372349382623 0.00000782463581601334 0.000006924045814296622 0.000007831377582341033 0.000006938550543429472 0.000007850451637205405
          0.000020074592864735442 0.000017849194387678085 0.000017307662182371275 0.000019121153728443504 0.000020073548539141412 0.000017848943705504755
          0.000017308554114214854 0.000019120789618509497 0.000020070387409341487 0.000017848185457564073 0.0000173115803126873 0.000019120078715356664
          0.000026701228136257167 0.00002842636946532871 0.000026698744379942557 0.000028424213101055554 0.00002669072881661428 0.000028417468380597622
          0.000010096340963053679 0.000010921920993077547 0.000010099088726182833 0.000010923102228227016 0.000010106802293535881 0.000010926770551874108
          0.000020794797131129507 0.000021706631711039234 0.0000207930191296829 0.00002170494385268481 0.00002078669093676162 0.000021699472215996666
          0.000024463030432942763 0.000023823096146079883 0.00002323938325898784 0.000023847823914917714 0.000024464612816575376 0.000023824662605969907
          0.000023240279474345817 0.000023848713429979626 0.00002446935981394405 0.000023829425103300802 0.000023243298349097527 0.00002385179257138822
          0.00001695993270889336 0.000017126484521161364 0.000016956546086673848 0.000017122941043713013 0.000016945491389518754 0.00001711367839429478
          0.000009333662607625706 0.000009337887200238694 0.00000935085277552655 0.000016429217097240275 0.000018155169021311065 0.00001642772529202404
          0.000018154143400837672 0.0000164230935107756 0.000018150741339090106 0.000012733803626911825 0.00001358756212391106 0.000012365184810366877
          0.000012733872740423768 0.000013585980000226207 0.000012364394045850176 0.000012734651234231155 0.000013580819690808527 0.000012362459599140671
          0.000009670090038708937 0.000010372448361111891 0.000008712739380860373 0.000009675361328412384 0.000010376243350704752 0.000008718282738616496
          0.000009691015090722497 0.000010387509995444153 0.00000873529558474111 0.000015943363265940003 0.00001594010720996779 0.000015930726157880325
          0.000009008167180004255 0.000009015813850331485 0.000009039713141965078 0.000030229978013272647 0.00003098309257366017 0.00003023179558404733
          0.000030984195353473415 0.000030237184518714105 0.00003098751869864187 0.000011274221503884547 0.000011276560024566663 0.000011283977679481732
          0.00001984361749050383 0.00001836837267712959 0.00001980387863014531 0.000019842426460677106 0.000018366412433724397 0.00001980308080082938
          0.00001983851189694802 0.00001836136280135689 0.00001980074709858737 0.000018370760978574163 0.000020054729779270432 0.000018371545687496157
          0.000020053427238136067 0.000018373873166681325 0.000020049597707783486 0.000022869770382803754 0.000022328313021570195 0.00002224373527487803
          0.00002292316080671479 0.00002287096181562851 0.000022329344682969455 0.000022244864587540368 0.000022924666643785892 0.00002287459008193459
          0.000022332591101272668 0.000022248324872598046 0.000022929342742685257 0.000024550774653772014 0.000023660542261237246 0.00002365135343562035
          0.000024617474534087238 0.00002455324983778527 0.000023662756224317892 0.000023653764872522888 0.00002461978526855073 0.000024560754399363198
          0.00002366961866476493 0.000023661473005935993 0.000024626499148726916 0.000029391365052103516 0.000028236575132377892 0.00002934133599118439
          0.000029393491177834196 0.000028238668072764728 0.000029343307636672572 0.000029400589775342156 0.00002824507500762159 0.000029349201344804676
          0.000015086378161220882 0.00001508406296952625 0.000015076633249536261 0.000011433294496131466 0.000011433576581627834 0.000011435533971973905
          0.000021967532964119687 0.000021536769399182967 0.000021968334334242963 0.00002153721532348486 0.000021970390942462567 0.000021538616526914746
          0.000022848911826643015 0.000023691614162913154 0.00002285076645145587 0.000023693687295007607 0.00002285613457451584 0.00002369960342272042
          0.000016733307435557718 0.00001673086527848798 0.000016723155950504994 0.00002613348534305441 0.00002696184299174114 0.000026800866802602227
          0.000025683647699543137 0.000026135564945600737 0.000026964169911856515 0.000026803252097378333 0.00002568598469944133 0.00002614192090797539
          0.00002697166459892815 0.00002681056940963219 0.000025692664725588396 0.000027923342901656295 0.000027925790147591434 0.000027932183739274636
          0.000026024483145140354 0.00002602620718661805 0.0000260307749256757 0.000021793278104258243 0.000021229352287836872 0.00002179211616687242
          0.00002122857209071684 0.000021788279531576507 0.00002122616622508415 0.000018685696856000636 0.000018682469130838667 0.00001867201556557959
          0.00002237588927996448 0.00002294086615238335 0.000022375869420320183 0.000022940817344578863 0.000022375295860409707 0.00002294034408537483
          0.000018133325097267886 0.000018129558378341074 0.000018116091590957282 0.000025533606500483815 0.000024855888038674394 0.00002553511646009285
          0.000024856871344717568 0.000025539492986736473 0.000024859680966585 0.000025892712187605295 0.00002589443683566337 0.00002589918702423861
          0.000025540009651568013 0.000025542598508364587 0.000025550376990849895 0.000023905449872600532 0.000023905663108083182 0.000023906115639228456
          0.000018590109522007023 0.00001744542535201867 0.000018586008562625006 0.00001744208926592865 0.000018572338234101833 0.000017433380661654874
          0.000022799825454471215 0.00002279891723411883 0.000022796086496770043 0.00003155045541209112 0.0000310328922495189 0.00003154795928225969
          0.00003103178160654098 0.00003154087811546953 0.00003102857096361615 0.000014575916338639316 0.00001613902069312455 0.000014848784835653273
          0.000014580568847254295 0.00001614267395796037 0.000014853265159802806 0.000014596315508262693 0.00001615151395493426 0.000014867821265009495
          0.000021563044897052778 0.000024510457098508327 0.00002246358460149509 0.00002156155373513729 0.000024507305068534234 0.000022461379772144658
          0.000021557019219585495 0.000024498339978787783 0.000022453787617559433 0.00001784352572534693 0.0000162632434216364 0.000017839983875208267
          0.000016258742979593287 0.000017829915451028098 0.000016244067036118195 0.00003284468741347288 0.000031495602308304444 0.00003204254078187863
          0.000032844174750536164 0.00003149551869686548 0.00003204214365513256 0.000032842490965454 0.000031495492156692254 0.00003204089758358383
          0.00003004940603898127 0.000029475447932759184 0.000030047645953812584 0.000029474486102295927 0.00003004229538375654 0.000029470718176006546
          0.000024679956012723398 0.00002468207930540099 0.00002468839665525618 0.000024792376213199414 0.000022221414263642388 0.00002478919636725442
          0.00002221962229249097 0.00002477950869144932 0.000022214114978507344 0.000019618963305610028 0.000017067903063977785 0.00001961894243517467
          0.00001707005008425774 0.000019617996367921036 0.000017076542234067827 0.000017704388156073017 0.000019329797199209018 0.000017706247022683978
          0.00001932950785895639 0.00001771221971896178 0.000019327788175763757 0.000016636140419834768 0.000016638272326102792 0.000016644300008579965
          0.000027234752755759564 0.000026934003603677642 0.00002723057734433673 0.000026930273267658845 0.000027216985303060517 0.000026917719624618172
          0.000029476009770264693 0.000029471228048972528 0.000029456252627314705 0.000027585103258927034 0.000027587381417587407 0.000027594163408069493
          0.00003145860822618139 0.000031453017090214015 0.00003143471073180364 0.000027364103080567954 0.000027365930508228317 0.000027371234087722313
          0.000027187359573104706 0.000027188779156826723 0.0000271930155882896 0.00003254016445627084 0.00003315803250470021 0.00003253455601323277
          0.00003315296087761183 0.000032516010913741656 0.00003313773864672913 0.000025098974816187684 0.000026086739640324405 0.000025099265731562407
          0.00002608774279713152 0.00002509974964712419 0.00002609040382937624 0.000021072744602406816 0.00002107227243949569 0.000021070705485249856
          0.000024542512814197055 0.000024545032173221955 0.00002455266386687032 0.00002676263222611854 0.000026764095879375647 0.000026768374743032024
          0.000014718049728586804 0.000014716970635898502 0.000014713063154263657 0.0000194529854874493 0.00001944956563087259 0.000019438237995130554
          0.0000193018850045837 0.000019298900261398016 0.000019289828654365003 0.00002233052791668464 0.00002309426605663756 0.000022328091018480252
          0.00002309249296481922 0.00002232033471976516 0.000023087491321859785 0.000021696959943730652 0.000021694550320296497 0.00002168690316028213
          0.000018224179573355254 0.000017209934009410244 0.000018224976442020667 0.00001721243595874389 0.000018227772095386053 0.000017218946921732998
          0.000025485939905344165 0.000026468683881644258 0.000025476353753024935 0.0000254886590415873 0.0000264713672886674 0.00002547897818330345
          0.000025496588323814437 0.000026479602560972806 0.000025486840591666538 0.000025522549226013604 0.000025524941066964936 0.000025532214027444133
          0.000021080131632868713 0.00002107815460354362 0.000021071710315722116 0.000028570300593459475 0.000028667853693034025 0.00002857132627253411
          0.000028669536477906494 0.000028573910400139592 0.00002867462297009491 0.000022934878045805972 0.000023353123552702267 0.000022932315328628287
          0.000023350433368953894 0.000022924296618634944 0.000023342076554245966 0.00002377168097890787 0.000023769387719849962 0.000023762146772781666
          0.000025017429979442233 0.000025141071536876688 0.000025014946351751315 0.000025139267449719737 0.000025006738228787813 0.000025132986138071886
          0.000020318624040122082 0.00002037722828736464 0.000021105331756517103 0.0000210101497193479 0.000020316804132026466 0.000020375609084274147
          0.00002110564100641388 0.000021009960515571683 0.00002031064453254823 0.000020371773934879283 0.000021106627921829656 0.000021009121179065454
          0.00002278126269193216 0.00002278327364233455 0.000022788976521199917 0.000020058515328236484 0.000020057098393222848 0.00002005323070402126
          0.000012471688205669115 0.00001319670228635176 0.000012473491290456936 0.000013197394328523911 0.000012479408751514813 0.000013198601658389232
          0.000024060062000984296 0.0000240594661719898 0.000024057180621016618 0.00003230220023380104 0.000031070691031934175 0.0000323020250611322
          0.00003107111754660939 0.000032301747891160346 0.000031071945560121895 0.000009105487568070638 0.000008234051532612112 0.000009111894416414087
          0.000008240542898258295 0.000009130984023198082 0.000008260422832704202 0.000026443918189559874 0.000026446617392372903 0.000026454698873616338
          0.000024354670222143274 0.000025190528853414868 0.000024353339187148758 0.000025189293952909013 0.00002434820915535173 0.000025184737290349912
          0.000021985532099860108 0.000022841258223630297 0.00002278568283989221 0.00002195072022605297 0.000021986299826526063 0.000022842995167762398
          0.0000227877329403717 0.000021951806181466433 0.000021988984690414873 0.000022848163157326468 0.00002279354563889607 0.000021955259885600774
          0.000011634195175148876 0.000011637427952783071 0.00001164677547199588 0.000021872672111023287 0.00002145570544591063 0.00002187396654227137
          0.000021456433890706275 0.000021877847031235568 0.00002145899244985804 0.000011775306439379868 0.00001286872935265154 0.000011780049383002213
          0.000012874338672129106 0.000011793447906291369 0.000012890451933176156 0.000012540186507110828 0.000012546196174495675 0.00001256404020539351
          0.000028856582104556014 0.00002885863154881012 0.000028864579663776374 0.000010884149879826743 0.00001088861658844284 0.000010902421630708972
          0.00002113719265150572 0.000021137640216309082 0.00002113856120767733 0.00002027396038276403 0.000020272851948230843 0.000020269447662827653
          0.000010284571174895716 0.00001242817758839924 0.000010290109725713714 0.000012431662845946322 0.000010307037427409487 0.000012441930180826298
          0.000022124117593211268 0.000022125462256109325 0.000022129318063828192 0.00001977065197366864 0.00001976799683439758 0.000019758054607489974
          0.000029471651769080085 0.000029473519781244 0.000029479235522087588 0.000020461171564934923 0.000020460220163832312 0.00002045704618149643
          0.000020927167477421774 0.000020926868259009648 0.000020926015080233007 0.000025198569145340233 0.00002519808658394908 0.00002519594822449776
          0.00001465009300703525 0.000014520323488318172 0.000012448410896278657 0.000014654606697665663 0.000014525147851022424 0.000012454744438209603
          0.000014668327975515062 0.0000145390352165516 0.000012473884454273963 0.000020285837935458494 0.000020284588849687843 0.000020281613205009466
          0.000030501896277209803 0.00002973628323579674 0.000030503029469415947 0.000029737756305741782 0.000030505661008864503 0.000029742627038323212
          0.000021094562177151915 0.00002109467622862555 0.000021094239283045792 0.000022974532919993695 0.000022975975803032377 0.00002297987054723649
          0.00001054785022828854 0.000010555572776830358 0.000010578763904874635 0.00002150523741547864 0.000021506016506922443 0.00002150813191782728
          0.000023751916153866065 0.000024581932682293747 0.000023753678322506723 0.000024584264030932507 0.000023758677040534478 0.000024591364698292913
          0.000022099393449533705 0.000022099892635721544 0.000022101142531165578 0.000020805447135449043 0.000020805493397711923 0.000020805286711389095
          0.000031991738896316405 0.00003198673463993159 0.00003197085678055674 0.000031685276295940444 0.00003168572342332001 0.00003168644535844909
          0.000020028610322955408 0.000020028229777064545 0.000020026777506097104 0.000028789499598332934 0.000028791841804321778 0.000028799366104850964
          0.00002987016457599983 0.000030020458873172465 0.00002987154993401134 0.000030021228500898347 0.000029874977119611205 0.000030022734419324375
          0.000030873958124414586 0.00003087042803056946 0.00003086020114397357 0.00003290389614923078 0.00003300972834225018 0.000032901013233976885
          0.000033007772085911444 0.00003289222187803702 0.00003300210993846338 0.000033467453788803195 0.00003346631566836307 0.00003346284586615369
          0.000034331992161188514 0.00003432981775204854 0.000034322797500931844 0.0000322159441888706 0.00003221198537065603 0.00003219931979573018
          0.00003458873227619111 0.00003415270302379916 0.00003458542401582635 0.00003414844402125571 0.00003457693200989972 0.00003413565928412974
          0.00003298679272396555 0.00003298354120000783 0.000032971628619479224 0.000032650064829550766 0.00003264488049827498 0.00003262713761146224
        </DataArray>
        <DataArray type="Float64" Name="disp_y" format="ascii" RangeMin="-0.000010701932950551606" RangeMax="0">
          -0.000008583230372160029 -0.000008963253767461208 -0.000009195489113790386 -0.000008859268286616917 -0.000008584871759308796 -0.000008964843330342052
          -0.000009197179456519618 -0.000008861152216439218 -0.00000858985870850417 -0.000008969561242897751 -0.000009202364050543254 -0.000008866831136862597
          -0.000005031976550359769 -0.000006109059855656578 -0.000005984482250547654 -0.0000051410784235588156 -0.000005032446782000572 -0.000006110284914389452
          -0.000005986149177719907 -0.000005142397373513466 -0.000005033754265220727 -0.00000611384547514829 -0.0000059910550437454235 -0.000005146140298968733
          -0.000010699495956178336 -0.00001069261657933763 -0.00001070011408196666 -0.000010693347701231147 -0.000010701932950551606 -0.000010695502604600942
          -0.0000017916715664980102 -8.857406149266505e-7 -7.52274393433934e-7 -0.0000015074246337674483 -0.0000017928378833593602 -8.862510850594219e-7
          -7.5208526008791e-7 -0.0000015076935386900572 -0.0000017967311903414707 -8.874811610289507e-7 -7.504225974578007e-7 -0.000001509482525750886
          -0.000005984398028887775 -0.0000052205361456924126 -0.000005986682542060164 -0.0000052224666711574646 -0.000005993916515778213 -0.000005228527868478488
          -0.00000564928703410062 -0.0000065449312030687626 -0.0000065792442367217115 -0.0000054315460295519 -0.000005650302712588313 -0.000006546875939564486
          -0.000006581074920283961 -0.000005431980892393742 -0.000005654567075960969 -0.000006552313898005117 -0.000006586496204887268 -0.000005433490031411463
          -0.0000025173758887242386 -0.000003241993850747743 -0.00000397615862335018 -0.000003417155449942816 -0.0000025184289274634146 -0.0000032439778178151096
          -0.000003978517950198534 -0.0000034184087877076397 -0.0000025217488421537834 -0.000003250680759839157 -0.000003985703970518236 -0.000003421945309624727
          -0.000008529378497446353 -0.000008247320742186851 -0.000008531452351787537 -0.000008249164241675077 -0.000008537729840319534 -0.000008254458037282474
          -0.000001028260870299036 -4.7607991339625595e-7 -6.221812108740407e-7 -0.000001289878099258019 -0.0000010270516694314447 -4.7513927998986016e-7
          -6.220367570240105e-7 -0.0000012897191428760223 -0.0000010237841136674077 -4.7194897063354545e-7 -6.211931872853832e-7 -0.0000012893727190896395
          -0.000009649343213384207 -0.00000923042272023905 -0.000008898026902964186 -0.000009650618173845126 -0.000009231747366115489 -0.000008899260410345796
          -0.000009654809281938404 -0.000009235372593766447 -0.000008902781601612325 -9.312429880800861e-7 -0.0000010454182621624249 -0.000002009734469953347
          -0.0000018195482875578248 -9.318945112967993e-7 -0.000001046117991393656 -0.0000020110312762080692 -0.0000018207320321639838 -9.337667033727752e-7
          -0.0000010488865855222074 -0.0000020150360802525854 -0.000001824003745160598 -0.0000043516581038014375 -0.000005016027052547104 -0.000005709914561733927
          -0.000004968567451415284 -0.000004352678443492708 -0.0000050182774269807455 -0.000005712639514392709 -0.0000049699358086349765 -0.000004355865941707996
          -0.000005025185727047959 -0.000005720701872750639 -0.000004974357564817169 -0.0000027080934924487505 -0.0000027098194404302827 -0.0000027149435840098855
          -0.000005798830176615102 -0.0000064247187339444466 -0.000006832009095306074 -0.000005800173190458776 -0.000006427024290820709 -0.000006834382915387991
          -0.000005804934171227824 -0.000006433281452177494 -0.000006842007169106479 -0.0000036150732855093166 -0.000004242987372961807 -0.000003615717516851062
          -0.000004244702730177544 -0.0000036176685310233654 -0.000004249569631161899 -0.0000020003231347082623 -0.000002938598926944013 -0.0000032000595412581135
          -0.00000219865410789596 -0.000002002090805346634 -0.0000029410523785324724 -0.000003202841622121846 -0.0000022007882839042544 -0.000002008235631396512
          -0.0000029481819217333526 -0.0000032112247596605887 -0.00000220741223335398 -3.8678512262101266e-7 -8.379289422836019e-7 -7.472780427737394e-7
          -3.79840009513007e-7 -3.8559283728068456e-7 -8.36290058955316e-7 -7.453761346618143e-7 -3.7858331945254145e-7 -3.807306237831492e-7
          -8.309056398338229e-7 -7.402183215317489e-7 -3.7515933501552495e-7 -0.000004594119776867043 -0.000004442946072616283 -0.000005267644585350176
          -0.000004596688630231465 -0.000004444880848839763 -0.000005270259002797871 -0.000004604637648257591 -0.0000044501340891799245 -0.0000052779747745959625
          0 0 0 0 0 0
          -0.00000703115184095552 -0.000006417190906858837 -0.0000056450402461077085 -0.000005975411019761733 -0.000007035661983968305 -0.000006421078590644992
          -0.000005648513579824749 -0.00000597972144826246 -0.000007049403630093683 -0.0000064331257288399785 -0.0000056593399628704925 -0.000005993250368234643
          -0.0000038120007131676846 -0.000003616572256072428 -0.0000038146289115609656 -0.000003618383149299883 -0.000003822411078879176 -0.000003623980969172585
          -0.000002912883739694798 -0.0000037566671376798097 -0.0000029107405041977317 -0.0000037550977978433723 -0.0000029041903351298517 -0.000003750196515755473
          -0.000005951591287127185 -0.000006682031437450814 -0.000005956212521838406 -0.000006686466030629043 -0.000005970327915540557 -0.000006700148256743865
          -0.000008021140537331055 -0.000008300789796553438 -0.000008311398879034083 -0.000007918160870011617 -0.000008023242106924916 -0.000008303030372237145
          -0.000008314074926072749 -0.00000792077583482029 -0.000008029263644668655 -0.000008309751295116627 -0.000008322038328503871 -0.000007928514002254292
          -0.000007238855371496348 -0.000007596398675176547 -0.000007241435026192954 -0.00000759923703237577 -0.0000072484482730840325 -0.000007607047332399555
          -0.000002203566989133971 -0.000002201083168944601 -0.000002193751321837346 -0.0000063059876886328264 -0.0000070530714278686595 -0.000006308947911182984
          -0.000007057009911493757 -0.000006318048341087139 -0.000007068541266203873 -0.00000444613411222007 -0.000005275842630302361 -0.000004813649689941627
          -0.000004446060669426327 -0.000005276622207136847 -0.000004813783749537702 -0.00000444546791406311 -0.000005279213357679131 -0.00000481389536384387
          -0.0000018897910450500526 -0.0000025515366737893915 -0.000001611697462425825 -0.0000018880635582412737 -0.0000025499825980056674 -0.0000016091140917886016
          -0.0000018827479178545811 -0.000002545552232154454 -0.0000016010628422598266 -0.000007257967504578743 -0.000007260638390395913 -0.000007268412242561309
          0 0 0 -0.000007517840285135298 -0.000006833124715215183 -0.000007518759339105738
          -0.000006833539938984032 -0.000007521416896593797 -0.000006834713988276465 -0.0000033450864346645216 -0.0000033440034285519858 -0.00000334084340364435
          -0.000008146416541606437 -0.000007582002069161064 -0.000007659972037054313 -0.000008150592241036093 -0.000007585591837787636 -0.000007664185238638869
          -0.000008163307852033141 -0.0000075968091983714514 -0.000007676770226643937 -0.0000051037387554441705 -0.0000050902996442657805 -0.000005107497513100074
          -0.000005094361751129799 -0.00000511873487470342 -0.000005106518634344287 -0.00001041172069192742 -0.000010273561978784143 -0.000010117590425410179
          -0.00001012944538447317 -0.000010412370662258446 -0.00001027412813902619 -0.00001011826227099745 -0.000010130312422859184 -0.000010414325987261335
          -0.000010275641283758803 -0.000010120444305980053 -0.000010132933262826578 -0.000009722748013289566 -0.000009835041309200403 -0.000009529225105078439
          -0.000009367914978891912 -0.000009724254896785911 -0.000009836447880590451 -0.000009530820224217536 -0.000009369442371196941 -0.000009729025044072879
          -0.000009840816610519527 -0.000009535644971375447 -0.000009374135137666908 -0.00000817178984179274 -0.000008323590903706265 -0.000007689144502010305
          -0.000008172957224500028 -0.000008324858944472144 -0.000007690113114698864 -0.000008177011445581367 -0.000008329042494079295 -0.000007693222959398146
          -0.000005985742172232799 -0.000005987686535298558 -0.000005993798109085057 -0.000004546529796442739 -0.000004546058689193987 -0.0000045431072557991065
          -0.000010329805248902523 -0.000010110930541152749 -0.000010330256903768044 -0.000010111422088366871 -0.000010331461457550365 -0.000010112844220422787
          -0.000009878709080982562 -0.00001012496804124312 -0.000009879904051426473 -0.000010126235513899079 -0.000009883155037246858 -0.000010129983096498345
          -0.000006811483772718329 -0.0000068143409085427904 -0.000006822995507856536 -0.000008524985686458622 -0.000008452742315259754 -0.000008803897302902733
          -0.000009111726220266233 -0.000008526341344647673 -0.000008453933631775969 -0.000008805124820383558 -0.000009113011866748348 -0.000008530375295454415
          -0.000008457564045695825 -0.000008809007329718358 -0.00000911666570266831 -0.000007999093612873312 -0.000008000282865287657 -0.000008003450419781952
          -0.000008095241147848228 -0.00000809678279585093 -0.000008101362307653069 -0.000007623220797368754 -0.000008063781360697763 -0.000007627221593964656
          -0.000008067823780641958 -0.000007639171549723968 -0.000008080407905988286 -0.000008123923668660141 -0.000008127527879934277 -0.000008137934220665768
          -0.000008257819533084017 -0.000007833849150969872 -0.000008261253307910557 -0.000007837202852835967 -0.000008271364501925541 -0.000007847673695746357
          -0.000008065113269691202 -0.000008068720283293775 -0.000008077315775125148 -0.000007509844964089848 -0.000007394783894946849 -0.000007511901933281382
          -0.000007397354375559007 -0.000007517696545076816 -0.000007404940590812438 -0.000007744797394071131 -0.000007746566489978467 -0.000007751648738240112
          -0.000009520675903904103 -0.000009522064734923947 -0.000009525927277221648 -0.0000073215513441332154 -0.000007324739414576593 -0.000007334552734074374
          -0.000008448034125266058 -0.000008010414254693128 -0.000008451451982206622 -0.00000801401466800045 -0.000008463014008878628 -0.000008025986191677838
          -0.0000071393449975584565 -0.000007143173651175661 -0.000007154186162141371 -0.0000031830040542324203 -0.000003968989685203573 -0.0000031830938793520358
          -0.000003969467972498531 -0.0000031838585498313264 -0.000003971079253848584 -0.0000016595240469813804 -0.000002591500268444263 -0.0000022460142703256703
          -0.000001660787824127457 -0.000002593147781240694 -0.0000022473797442676934 -0.000001663259107657497 -0.000002598717018177796 -0.0000022518702843055927
          -0.0000013803271801722118 -0.0000011079525363499839 -0.000002524673838638243 -0.0000013814413958875825 -0.000001109107902013286 -0.0000025268338164049694
          -0.0000013846070493237653 -0.0000011128719698367265 -0.0000025332990865550597 -0.000008444850963838654 -0.000007670228124876725 -0.000008448746339153988
          -0.000007673532761852334 -0.00000846164422209365 -0.000007682639799553627 -0.000004790342240819815 -0.000005158518091131769 -0.000004427076991400146
          -0.000004789767699575461 -0.000005158345873420879 -0.000004426753612772241 -0.000004788280737961287 -0.000005157920058593295 -0.000004425947996420436
          -0.0000034188511714683525 -0.000004265411989176354 -0.0000034199479707457416 -0.000004266661196816384 -0.000003423758685030754 -0.000004270239898077638
          -0.000010670039930080665 -0.000010671069135554627 -0.000010674033905068164 0 0 0
          0 0 0 0 0 0
          0 0 0 -0.000004258600145414901 -0.000004171983184715301 -0.000004261376431893206
          -0.000004175093505190518 -0.0000042706672595643446 -0.000004184027739889566 -0.000004809619256137381 -0.000004812565002310334 -0.000004820810290750006
          0 -9.969752326071599e-7 0 -9.97945569575641e-7 0 -0.0000010006446870549752
          0 0 0 -0.000007747402076603414 -0.000007748567738766633 -0.000007751739286275873
          0 0 0 -0.000007437637738549895 -0.000007439003800999264 -0.000007443188375391086
          -0.000007099783142133006 -0.000007101346673216316 -0.0000071062578100767294 -6.93438754644635e-7 0 -6.927091905522392e-7
          0 -6.876976255837863e-7 0 -0.000006692090686927724 -0.00000674089029891734 -0.000006695024524685808
          -0.0000067431715759990415 -0.000006703600031141259 -0.000006749915319555888 -0.000008487104159835676 -0.000008491103594243314 -0.000008503472639738021
          -0.000010047940163588276 -0.00001004942764272745 -0.00001005386418689542 -0.000006871904341637493 -0.0000068737718686357916 -0.00000687931359284676
          -0.0000054809612508398175 -0.000005482745751159229 -0.000005487769668118456 -0.000008712055886429801 -0.000008715327359307287 -0.000008726219442297772
          -0.000009029600192492217 -0.000009032861827431076 -0.000009042239050902468 -0.000005577731519224075 -0.000006195922381239222 -0.000005581834557348494
          -0.000006199847255224141 -0.000005594158698066771 -0.00000621180735275543 -0.000004771114138410352 -0.000004774969140988949 -0.000004786535278878414
          -0.0000031094682241261753 -0.0000036011068689627652 -0.000003111615095882274 -0.0000036035187187692446 -0.0000031173372364864508 -0.0000036098441621666644
          -0.0000098890049967661 -0.00001004857581050365 -0.000010246014347414204 -0.00000989049068348814 -0.00001005004815519966 -0.000010247472527016796
          -0.000009895051438045347 -0.000010054421191403538 -0.000010251949348283222 -0.00001059486296278018 -0.000010596254985748219 -0.000010600381027706326
          -0.000003862176435981246 -0.000003865348861521954 -0.000003874799931353318 -0.0000063825009797713105 -0.000006762368053221924 -0.0000063836752632438245
          -0.000006763445916828977 -0.000006387226516811749 -0.000006766813754752339 -0.000003488304789611243 -0.000004374836021472732 -0.000003491379380344219
          -0.000004378435047596579 -0.000003500710208213638 -0.000004389280703133744 -0.000005126507114216698 -0.000005130200397186314 -0.000005141548403533046
          -0.000004048083534257144 -0.000004781927056626526 -0.00000405133354334741 -0.000004785134144826239 -0.0000040612046130191115 -0.000004795330555505706
          -0.000009428504302251678 -0.000009228289450863503 -0.00000943050540467696 -0.000009609749226052375 -0.00000943046525455011 -0.000009230594374486266
          -0.000009432374423674708 -0.000009611157622091935 -0.00000943608962110307 -0.000009236973386985846 -0.000009438200717327123 -0.0000096152429286593
          -0.000009605220397431278 -0.000009606730272494971 -0.000009611134735516594 -0.000008592870962876676 -0.000008596896308517055 -0.00000860950752013126
          -0.0000037861900739853244 -0.000004379525733399425 -0.0000037862366895202593 -0.000004379946438462856 -0.0000037858267369464757 -0.000004381398050792458
          -0.000006541883969295449 -0.000006545337260605132 -0.000006555696611797516 -0.000005450753452703732 -0.0000057816981663298825 -0.000005450351350048624
          -0.000005781722516646002 -0.000005449174381618788 -0.000005781254492441196 -0.000001328682237794341 -0.0000011369009194088913 -0.0000013269345846132494
          -0.0000011345593158490783 -0.0000013216737198357315 -0.0000011273630838923693 -0.000010443198110889818 -0.000010444784025877651 -0.000010449916885666655
          -0.000005650118601291528 -0.000005251990107310026 -0.00000565366448144275 -0.0000052551048197473665 -0.000005663713042219662 -0.000005264385786327182
          -0.000008987710496603592 -0.00000898964539437355 -0.000009309470888836563 -0.000009299082942137684 -0.000008990398846440433 -0.00000899186784709869
          -0.000009311365377784195 -0.000009301170487320035 -0.000008998558334240304 -0.000008998454815135565 -0.000009317069238693974 -0.000009307341606488623
          -0.000003026481680749853 -0.000003026009172461939 -0.0000030243160143621365 -0.000009617534682494741 -0.000009706666902207034 -0.000009619005921368256
          -0.000009707848351124478 -0.00000962339585479078 -0.000009711313838675478 -0.000002043493828011315 -0.0000015396190272915482 -0.000002043493593344748
          -0.000001540289160851127 -0.0000020430387643203468 -0.0000015429470338804284 -7.569855403741662e-7 -7.574491285932941e-7 -7.595192439136273e-7
          -0.0000070646789111903755 -0.000007065621728957578 -0.000007068480267067238 -0.000002290677196622884 -0.0000022898676058882254 -0.0000022876443023347465
          -0.000009182548762339543 -0.00000918524790746387 -0.00000919342039722024 -0.000009630391057343369 -0.000009632253691178257 -0.000009638028344223004
          -0.000001637158793907456 -0.0000028292787689151626 -0.0000016362161418967096 -0.000002829520913929852 -0.00000163311975178795 -0.000002830354784259621
          -0.000009893297057182321 -0.00000989428706069338 -0.000009897125726840878 -0.000009003704121740135 -0.000009006905484627843 -0.000009014197312191127
          -0.0000072368932784786605 -0.000007237707559214043 -0.000007240325251333377 -0.0000028854860913918707 -0.000002887680981864111 -0.000002894823012671794
          -0.000009784316934215442 -0.000009785343358720529 -0.000009787995637862196 -0.000005905441818401802 -0.000005908457258051416 -0.000005917191707144396
          0 -8.504311109619192e-7 0 0 -8.509490703439702e-7 0
          0 -8.529850564159783e-7 0 -0.000008971320555739917 -0.000008974527811629805 -0.000008984659805062927
          -0.000006402531904479875 -0.000006566369443230662 -0.000006402942832984166 -0.00000656701513154646 -0.000006404155631207923 -0.000006569020843613323
          -0.000008864479928002833 -0.000008868033285229386 -0.000008878437740028756 -0.000008648543180761523 -0.000008651114034847924 -0.000008658627507396004
          0 0 0 -0.000009866777154603881 -0.000009867661758582906 -0.000009869819880425985
          -0.000010413967251451072 -0.000010363668289021693 -0.00001041498015145758 -0.00001036493111796764 -0.000010417867476114615 -0.00001036883119573704
          -0.000008639623432175426 -0.000008642855627564447 -0.000008652535788142885 -0.000009959494135298459 -0.00000996018713304364 -0.000009962197162096432
          -0.0000012319712582022255 -0.0000012315883349304676 -0.000001231289964224805 -0.0000061328774084824585 -0.000006132903482281487 -0.000006132615496805651
          -0.0000021468457628127126 -0.000002148596043070948 -0.000002152727343882477 -0.000008633335445273243 -0.000008634536770249926 -0.000008638058433764698
          -0.000006210188257445987 -0.00000570391684724443 -0.0000062107159814040855 -0.000005704288934228776 -0.000006211730242984845 -0.0000057051536236744085
          -0.000002359792868872655 -0.000002360576057868031 -0.0000023626352469746086 -0.0000028068878086255508 -0.000003421787379828445 -0.0000028060440628994887
          -0.0000034209930533423877 -0.000002803076465862032 -0.000003418655878424688 -0.000004100766212358855 -0.00000409979466784716 -0.000004096950059534834
          -0.0000033679978151755967 -0.0000033665777176458576 -0.0000033618610660559075 -0.00000245387015790611 -0.00000245340075965937 -0.000002451487810951835
          0 -7.489563026674349e-7 0 -7.483654343463811e-7 0 -7.469162748542219e-7
          -0.0000024166253772367765 -0.000002415765657199212 -0.0000024127212387465557 -0.0000014899231895736885 -0.0000014896972712126805 -0.0000014900124627258115
        </DataArray>
        <DataArray type="Float64" Name="disp_z" format="ascii" RangeMin="-6.748066083228637e-7" RangeMax="0">
          0 0 0 0 -1.367077757050974e-7 -1.2812824004551263e-7
          -1.1178718057402733e-7 -1.208768024426755e-7 -2.7333768160923945e-7 -2.5626777567766535e-7 -2.2359024599951142e-7 -2.417876080308504e-7
          0 0 0 0 -1.9141236770654798e-7 -1.889322016176829e-7
          -1.9190913168331291e-7 -1.9893211321384645e-7 -3.827860783931247e-7 -3.7760329109496893e-7 -3.835693576758811e-7 -3.9772673717164956e-7
          0 0 -6.746251947750208e-8 -7.615720690704952e-8 -1.351186088579974e-7 -1.526113270849832e-7
          0 0 0 0 -2.5007905960682473e-7 -2.5819644323677396e-7
          -2.306908855640202e-7 -2.3018795585616557e-7 -4.997015811261739e-7 -5.16086604738975e-7 -4.613459513349206e-7 -4.5913264138799314e-7
          0 0 -1.980235251883975e-7 -2.0881322780579428e-7 -3.9617971691880816e-7 -4.1749164170883723e-7
          0 0 0 0 -2.2127788408935624e-7 -2.015436858462427e-7
          -2.149077422911619e-7 -2.3642548834899022e-7 -4.41790135354811e-7 -4.0233098786978866e-7 -4.2865653021386834e-7 -4.7133359627365215e-7
          0 0 0 0 -2.657505091906863e-7 -2.9001947132009543e-7
          -2.712632858402153e-7 -2.556536196157738e-7 -5.312170771842387e-7 -5.792976122684805e-7 -5.420036359744361e-7 -5.113376833586897e-7
          0 0 -1.3049803670907357e-7 -1.4331979901090028e-7 -2.6120417369543505e-7 -2.8666180570436537e-7
          0 0 0 0 -1.9443824436226646e-7 -1.7959872672536974e-7
          -2.2757351250950027e-7 -2.332127667864217e-7 -3.882898592828705e-7 -3.60014536307531e-7 -4.5476607650451945e-7 -4.662778659252992e-7
          0 0 0 -1.3568720627352824e-7 -1.4323006750656898e-7 -1.544346842153618e-7
          -2.7116764744365913e-7 -2.864250340137533e-7 -3.090997847993299e-7 0 0 0
          0 -3.243081364859906e-7 -3.325721455289772e-7 -3.242933043909793e-7 -3.1935326475827543e-7 -6.467244749590914e-7
          -6.636217318432793e-7 -6.470569906441684e-7 -6.371953328913546e-7 0 0 0
          0 -2.3416040210210125e-7 -2.3606705410837834e-7 -2.209972995712443e-7 -2.2540309774845912e-7 -4.679922583988697e-7
          -4.720698512292621e-7 -4.421025675589208e-7 -4.501459264500397e-7 0 -2.413345401290763e-7 -4.82766952538547e-7
          0 0 0 -2.1515699658746463e-7 -2.0372273192200741e-7 -1.971191184335238e-7
          -4.295591236197161e-7 -4.066151582478553e-7 -3.9483931893736427e-7 0 0 -2.3772195086966156e-7
          -2.483781905339142e-7 -4.749250573298248e-7 -4.966365236663231e-7 0 0 0
          0 -2.7662210390144306e-7 -2.608938639728758e-7 -2.798064606240341e-7 -2.976853103922809e-7 -5.528108487781572e-7
          -5.217629381567287e-7 -5.592470535069669e-7 -5.94454939304503e-7 0 0 0
          0 -1.3255878673158162e-7 -1.5677085462014953e-7 -1.2542043352768186e-7 -9.760565834935822e-8 -2.655603394089235e-7
          -3.1337242065202987e-7 -2.5186479315945697e-7 -1.9673320704820759e-7 0 0 0
          -2.285441638987693e-7 -2.1754104850856752e-7 -2.1711148505337417e-7 -4.570388141680154e-7 -4.3524194714745805e-7 -4.3442914333010226e-7
          0 0 -7.52737127537661e-8 -1.1186689819218895e-7 -1.5267920613569782e-7 -2.2428553943522474e-7
          0 0 0 0 -2.0439210959579664e-7 -2.1417785068984265e-7
          -2.3974876005840474e-7 -2.4628636965051815e-7 -4.0853130235614186e-7 -4.2820665781645023e-7 -4.78936052625124e-7 -4.916926722688303e-7
          0 0 -2.447723306262322e-7 -2.2705034471601666e-7 -4.896525825261846e-7 -4.5417041558665853e-7
          0 0 -2.05281691472718e-7 -2.2245641276030162e-7 -4.097694389766304e-7 -4.4368940905191634e-7
          0 0 -2.464763143221001e-7 -2.101499592836416e-7 -4.923087374273414e-7 -4.202086256211459e-7
          0 0 0 0 -1.4727865100182767e-7 -1.3731699992632937e-7
          -1.358971326005735e-7 -1.492169173384798e-7 -2.9481205588583703e-7 -2.750110704933619e-7 -2.725163143897861e-7 -2.9901491976391305e-7
          0 0 -1.8085507490177686e-7 -1.7640899262147376e-7 -3.615379401683641e-7 -3.5119885282553174e-7
          0 -1.877204586366927e-7 -3.747057844873499e-7 0 0 -2.048914902501891e-7
          -1.8935387179853065e-7 -4.099491631020268e-7 -3.789717926185571e-7 0 0 0
          -2.2597259824534257e-7 -2.2416021280395793e-7 -2.3063355641450053e-7 -4.5094242917550015e-7 -4.4743752099432996e-7 -4.5966647331380305e-7
          0 0 0 -1.908541311701023e-7 -2.0540206299979302e-7 -1.6656973807655144e-7
          -3.81267959675356e-7 -4.1038515806141775e-7 -3.328100390226974e-7 0 -1.847383975533168e-7 -3.6998883164751565e-7
          0 -1.6315822429901608e-7 -3.270675750815849e-7 0 0 -1.864574796129122e-7
          -1.9366720921142112e-7 -3.7211110945821297e-7 -3.867686773177161e-7 0 -2.1586681961486113e-7 -4.310359069815136e-7
          0 0 0 -1.4940168961537617e-7 -1.6811324407075362e-7 -1.7357327998160535e-7
          -2.9921116597119266e-7 -3.370507794067375e-7 -3.4719007416120946e-7 0 0 -2.7037946279696014e-7
          -2.754506564281943e-7 -5.390811088670023e-7 -5.491803821462515e-7 0 0 0
          0 -6.98765147208499e-8 -6.550660237614146e-8 -6.760850703965398e-8 -7.646361145961908e-8 -1.400434759696607e-7
          -1.3093411523104972e-7 -1.3551609719858165e-7 -1.5328462005999072e-7 0 0 0
          0 -1.0954611958899214e-7 -9.412739495953834e-8 -1.0228437118319078e-7 -1.1919141413965585e-7 -2.1917288037218764e-7
          -1.8849863344351e-7 -2.0465614764794445e-7 -2.3846317847953576e-7 0 0 0
          -1.762236151040078e-7 -1.658211043413285e-7 -1.7941404895374034e-7 -3.526504258577925e-7 -3.3152871367831266e-7 -3.586973049803003e-7
          0 -2.110315443485094e-7 -4.2173181056542674e-7 0 -2.3148498413649367e-7 -4.609395608894347e-7
          0 0 -6.149332142539483e-8 -6.159441506786813e-8 -1.233485460030235e-7 -1.235745320219578e-7
          0 0 -8.122933918264674e-8 -8.64392156742215e-8 -1.628019831881797e-7 -1.7309063695802915e-7
          0 -1.8924160062412024e-7 -3.7896076136133103e-7 0 0 0
          0 -1.4410381113032534e-7 -1.550049549422335e-7 -1.4814424023587655e-7 -1.3178848087893947e-7 -2.8821181661959103e-7
          -3.106915620155185e-7 -2.961497934298713e-7 -2.634192093373642e-7 0 -1.6654985903751288e-7 -3.32695856801681e-7
          0 -1.5059007375509435e-7 -3.0120209975206283e-7 0 0 -1.7429319810496034e-7
          -1.564778989346822e-7 -3.4894186673127345e-7 -3.1310211307219395e-7 0 -1.441582356496963e-7 -2.884728810719788e-7
          0 0 -1.4048130403033928e-7 -1.5537777232173053e-7 -2.8150701198301577e-7 -3.1133812259401134e-7
          0 -1.5974211192084497e-7 -3.2132747988489997e-7 0 0 -1.6073460624327648e-7
          -1.6415696919851363e-7 -3.2168380056620587e-7 -3.2877199329992624e-7 0 -1.5719248811647623e-7 -3.1432674691816395e-7
          0 -1.2605286529816236e-7 -2.520000641828005e-7 0 -1.71207521698384e-7 -3.429476204133145e-7
          0 0 -1.401966030315814e-7 -1.6175503630487448e-7 -2.806199925774725e-7 -3.222303492005806e-7
          0 -1.85771529619563e-7 -3.722190120507524e-7 0 0 -2.0000503556830404e-7
          -1.9566222482701874e-7 -3.9915704186106076e-7 -3.9108817932298335e-7 0 0 0
          -2.9563276221304305e-7 -3.0556419342683124e-7 -2.952785385241415e-7 -5.898898200379971e-7 -6.08851064874547e-7 -5.907417006238644e-7
          0 0 0 -3.269505783811521e-7 -3.1219289805894023e-7 -3.117725019092647e-7
          -6.525229400149165e-7 -6.233269153726494e-7 -6.223643589461437e-7 0 0 -1.3701247427100497e-7
          -1.7741357565793061e-7 -2.742388356122379e-7 -3.555976870862304e-7 0 0 0
          -1.892738693661144e-7 -1.9046189891816675e-7 -1.8934021749791627e-7 -3.781724992938933e-7 -3.80578175936109e-7 -3.782873898630596e-7
          0 0 -2.1349644580556867e-7 -2.0449914766789042e-7 -4.267033157365234e-7 -4.0906151345372497e-7
          0 -8.844380580308018e-8 -1.77149191332305e-7 0 0 -3.129430099897973e-7
          -3.2866181067991677e-7 -6.245009705207565e-7 -6.561686605677346e-7 0 0 -3.380736882592156e-7
          -3.3176241694123585e-7 -6.748066083228637e-7 -6.620371839358525e-7 0 0 -2.9111482083829144e-7
          -2.997803355919138e-7 -5.805238043513935e-7 -5.976608416094052e-7 0 -2.5924397299392497e-7 -5.180409374326643e-7
          0 0 -2.8413832112887066e-7 -2.873272334322995e-7 -5.673468871639113e-7 -5.739331820042584e-7
          0 -2.501089121463465e-7 -4.991914650285278e-7 0 -1.6471493689931355e-7 -3.296370541270802e-7
          0 -2.1310421561490205e-7 -4.261205645014607e-7 0 -1.6541277227316081e-7 -3.310598345331512e-7
          0 -1.7167667423450959e-7 -3.432575868474789e-7 0 0 -1.9437004879902969e-7
          -1.6803966629043417e-7 -3.8899900300835496e-7 -3.3728730861962414e-7 0 0 -1.8516386213498844e-7
          -1.7882386351594018e-7 -3.706732686408247e-7 -3.577611527703084e-7 0 -1.320674007829923e-7 -2.6460761343397104e-7
          0 -1.0148352321328666e-7 -2.0327100672938432e-7 0 -1.7545618199696943e-7 -3.506793524166099e-7
          0 -2.195475263732552e-7 -4.385988809905369e-7 0 -1.121975442591588e-7 -2.2527318360956785e-7
          0 -1.0857924633809143e-7 -2.1798663252822226e-7 0 0 -2.445223264725788e-7
          -2.1787643938037205e-7 -4.889137001424826e-7 -4.3630526061495453e-7 0 -2.741725968418952e-7 -5.476922446314742e-7
          0 0 -3.124964245657588e-7 -2.999858807367119e-7 -6.232418900087467e-7 -5.981239196887121e-7
          0 0 0 -1.1880357988603806e-7 -1.2843185917420015e-7 -1.1072731767976064e-7
          -2.3750785356702374e-7 -2.567362362070479e-7 -2.2157606412710724e-7 0 -1.034948746249275e-7 -2.0720218096820416e-7
          0 -2.979198439663949e-7 -5.946235908662267e-7 0 0 -1.8353235635390347e-7
          -1.794827959000157e-7 -3.669015092360924e-7 -3.5894125536111774e-7 0 0 -2.917932975942807e-7
          -2.6857298288684227e-7 -5.828283475127983e-7 -5.370491111838874e-7 0 -2.432025694996014e-7 -4.867566075728589e-7
          0 0 -2.589829964528585e-7 -2.3787907516636523e-7 -5.178254487088198e-7 -4.762381537688284e-7
          0 0 0 0 -8.038994449069428e-8 -8.540658465711066e-8
          -7.74462426405339e-8 -6.973769574729712e-8 -1.616813088541108e-7 -1.72523165512847e-7 -1.5544190432069765e-7 -1.4053290614111893e-7
          0 -8.741595872857269e-8 -1.7512623488802082e-7 0 -1.2202042616034017e-7 -2.452528235097178e-7
          0 0 -2.2827349327936042e-7 -2.2811127546509816e-7 -4.5577947264274137e-7 -4.559323304741799e-7
          0 -1.9738988501837384e-7 -3.9525861736752163e-7 0 0 -1.9226144367500918e-7
          -1.919289730681127e-7 -3.8426883058771834e-7 -3.831830546661997e-7 0 0 -1.751282417369605e-7
          -1.4531294546747183e-7 -3.4998421383568456e-7 -2.908107541251287e-7 0 -1.2020570140195825e-7 -2.405645140415142e-7
          0 0 -2.220766650921209e-7 -2.2343748040353103e-7 -4.447890282314205e-7 -4.4692452450025605e-7
          0 0 0 0 -1.051600516046654e-7 -1.095761160615708e-7
          -9.75161437773896e-8 -9.093057376579491e-8 -2.10877512621071e-7 -2.1968330648316596e-7 -1.9550987464388102e-7 -1.8251162530288064e-7
          0 -2.2284369601237713e-7 -4.4505227771759507e-7 0 0 -7.728414522270693e-8
          -6.949824884412904e-8 -1.551299334440017e-7 -1.3961745211764832e-7 0 0 -2.3750672259915707e-7
          -2.6207250658641494e-7 -4.749089139785067e-7 -5.236410076085448e-7 0 -2.680860869368838e-7 -5.355153559069488e-7
          0 -1.7856296454386518e-7 -3.567627653856016e-7 0 -2.1632057742191515e-7 -4.3192881133368636e-7
          0 -9.125107653390248e-8 -1.8313330262847871e-7 0 -7.221028600387567e-8 -1.4451096387853314e-7
          0 0 -2.076654188106619e-7 -2.407670373888594e-7 -4.146315484990891e-7 -4.811364042142496e-7
          0 -7.171052642702664e-8 -1.4373217760204716e-7 0 -9.651903507954015e-8 -1.918604544053805e-7
          0 -1.8331900197379098e-7 -3.6624732885988914e-7 0 -3.1860545038069025e-7 -6.35707268543369e-7
          0 -6.506295905206696e-8 -1.3067813381524053e-7 0 -2.075858666355852e-7 -4.154688667951263e-7
          0 0 0 -3.079154815873592e-7 -3.018454490350272e-7 -2.695626072922401e-7
          -6.144274036598217e-7 -6.024934642745231e-7 -5.378713304408789e-7 0 -9.929318389639517e-8 -2.0068273930730136e-7
          0 0 -1.924121335611756e-7 -1.8785906922334223e-7 -3.84193341114144e-7 -3.752481302502636e-7
          0 -1.0943915531641767e-7 -2.1945667754201236e-7 0 -1.2283351757738257e-7 -2.4619275194743333e-7
          0 -2.197965593975286e-7 -4.391935477071839e-7 0 -6.567530637385743e-8 -1.3184793155754095e-7
          0 0 -7.999678077675646e-8 -9.396251326040775e-8 -1.602348098642056e-7 -1.882673827312358e-7
          0 -1.2331928896238365e-7 -2.473074080161342e-7 0 -6.164877179634466e-8 -1.2338398674980578e-7
          0 -2.1443572562588835e-7 -4.2838582904529297e-7 0 -1.9389594927706152e-7 -3.8715701275094537e-7
          0 -3.266716653976337e-7 -6.521957657966419e-7 0 -1.6322274282922513e-7 -3.2577039693686597e-7
          0 0 -1.885444275877116e-7 -1.8835234369113393e-7 -3.765627561596073e-7 -3.763851592573351e-7
          0 -2.1998784119383418e-7 -4.3926061239788137e-7 0 0 -1.830228638753864e-7
          -1.8459423028254182e-7 -3.6579733272700787e-7 -3.686727570900879e-7 0 -1.857597832584205e-7 -3.7087975458084e-7
          0 -1.7358715622799788e-7 -3.468127885064899e-7 0 -1.962599494293443e-7 -3.9217997090710527e-7
          0 0 -1.458198721113308e-7 -1.5499930083202506e-7 -2.9237235282744126e-7 -3.1102909694295017e-7
          0 -1.8044223703205446e-7 -3.6122817768100355e-7 0 -1.9153088517319225e-7 -3.826113809211257e-7
        </DataArray>
      </PointData>
      <CellData>
        <DataArray type="Int32" Name="libmesh_elem_id" format="ascii" RangeMin="1392" RangeMax="3231">
          1392 1393 1402 1403 1418 1419
          1434 1435 1442 1443 1448 1449
          1454 1455 1478 1479 1500 1501
          1512 1513 1522 1523 1546 1547
          1572 1573 1582 1583 1590 1591
          1608 1609 1614 1615 1616 1617
          1630 1631 1638 1639 1650 1651
          1654 1655 1656 1657 1678 1679
          1682 1683 1684 1685 1704 1705
          1714 1715 1718 1719 1746 1747
          1760 1761 1762 1763 1772 1773
          1790 1791 1794 1795 1802 1803
          1816 1817 1824 1825 1832 1833
          1838 1839 1840 1841 1846 1847
          1848 1849 1852 1853 1856 1857
          1858 1859 1862 1863 1864 1865
          1874 1875 1876 1877 1878 1879
          1882 1883 1888 1889 1904 1905
          1906 1907 1910 1911 1916 1917
          1924 1925 1926 1927 1930 1931
          1936 1937 1946 1947 1950 1951
          1956 1957 1960 1961 1982 1983
          1996 1997 1998 1999 2026 2027
          2028 2029 2038 2039 2046 2047
          2048 2049 2052 2053 2054 2055
          2058 2059 2060 2061 2084 2085
          2088 2089 2096 2097 2102 2103
          2106 2107 2110 2111 2126 2127
          2136 2137 2138 2139 2144 2145
          2148 2149 2154 2155 2158 2159
          2162 2163 2164 2165 2170 2171
          2176 2177 2178 2179 2196 2197
          2200 2201 2202 2203 2204 2205
          2212 2213 2220 2221 2222 2223
          2224 2225 2226 2227 2228 2229
          2232 2233 2236 2237 2246 2247
          2250 2251 2252 2253 2254 2255
          2260 2261 2264 2265 2266 2267
          2274 2275 2282 2283 2308 2309
          2310 2311 2312 2313 2318 2319
          2324 2325 2328 2329 2346 2347
          2350 2351 2364 2365 2368 2369
          2370 2371 2402 2403 2416 2417
          2420 2421 2444 2445 2458 2459
          2462 2463 2466 2467 2468 2469
          2470 2471 2478 2479 2484 2485
          2488 2489 2490 2491 2502 2503
          2504 2505 2510 2511 2512 2513
          2524 2525 2550 2551 2566 2567
          2570 2571 2580 2581 2582 2583
          2602 2603 2608 2609 2616 2617
          2628 2629 2634 2635 2636 2637
          2640 2641 2642 2643 2644 2645
          2650 2651 2666 2667 2668 2669
          2684 2685 2690 2691 2696 2697
          2700 2701 2710 2711 2714 2715
          2716 2717 2726 2727 2750 2751
          2760 2761 2766 2767 2772 2773
          2782 2783 2798 2799 2802 2803
          2810 2811 2826 2827 2830 2831
          2838 2839 2860 2861 2868 2869
          2874 2875 2884 2885 2922 2923
          2928 2929 2934 2935 2938 2939
          2946 2947 2948 2949 2960 2961
          2962 2963 2964 2965 2974 2975
          2978 2979 2994 2995 2998 2999
          3004 3005 3008 3009 3020 3021
          3028 3029 3034 3035 3038 3039
          3040 3041 3042 3043 3050 3051
          3052 3053 3054 3055 3060 3061
          3066 3067 3072 3073 3076 3077
          3082 3083 3086 3087 3096 3097
          3100 3101 3102 3103 3112 3113
          3116 3117 3148 3149 3154 3155
          3158 3159 3166 3167 3182 3183
          3230 3231
        </DataArray>
        <DataArray type="Int32" Name="subdomain_id" format="ascii" RangeMin="107" RangeMax="107">
          107 107 107 107 107 107
          107 107 107 107 107 107
          107 107 107 107 107 107
          107 107 107 107 107 107
          107 107 107 107 107 107
          107 107 107 107 107 107
          107 107 107 107 107 107
          107 107 107 107 107 107
          107 107 107 107 107 107
          107 107 107 107 107 107
          107 107 107 107 107 107
          107 107 107 107 107 107
          107 107 107 107 107 107
          107 107 107 107 107 107
          107 107 107 107 107 107
          107 107 107 107 107 107
          107 107 107 107 107 107
          107 107 107 107 107 107
          107 107 107 107 107 107
          107 107 107 107 107 107
          107 107 107 107 107 107
          107 107 107 107 107 107
          107 107 107 107 107 107
          107 107 107 107 107 107
          107 107 107 107 107 107
          107 107 107 107 107 107
          107 107 107 107 107 107
          107 107 107 107 107 107
          107 107 107 107 107 107
          107 107 107 107 107 107
          107 107 107 107 107 107
          107 107 107 107 107 107
          107 107 107 107 107 107
          107 107 107 107 107 107
          107 107 107 107 107 107
          107 107 107 107 107 107
          107 107 107 107 107 107
          107 107 107 107 107 107
          107 107 107 107 107 107
          107 107 107 107 107 107
          107 107 107 107 107 107
          107 107 107 107 107 107
          107 107 107 107 107 107
          107 107 107 107 107 107
          107 107 107 107 107 107
          107 107 107 107 107 107
          107 107 107 107 107 107
          107 107 107 107 107 107
          107 107 107 107 107 107
          107 107 107 107 107 107
          107 107 107 107 107 107
          107 107 107 107 107 107
          107 107 107 107 107 107
          107 107 107 107 107 107
          107 107 107 107 107 107
          107 107 107 107 107 107
          107 107 107 107 107 107
          107 107 107 107 107 107
          107 107 107 107 107 107
          107 107 107 107 107 107
          107 107 107 107 107 107
          107 107 107 107 107 107
          107 107 107 107 107 107
          107 107 107 107 107 107
          107 107 107 107 107 107
          107 107 107 107 107 107
          107 107 107 107 107 107
          107 107 107 107 107 107
          107 107 107 107 107 107
          107 107 107 107 107 107
          107 107 107 107 107 107
          107 107 107 107 107 107
          107 107 107 107 107 107
          107 107 107 107 107 107
          107 107 107 107 107 107
          107 107
        </DataArray>
        <DataArray type="Int32" Name="processor_id" format="ascii" RangeMin="2" RangeMax="2">
          2 2 2 2 2 2
          2 2 2 2 2 2
          2 2 2 2 2 2
          2 2 2 2 2 2
          2 2 2 2 2 2
          2 2 2 2 2 2
          2 2 2 2 2 2
          2 2 2 2 2 2
          2 2 2 2 2 2
          2 2 2 2 2 2
          2 2 2 2 2 2
          2 2 2 2 2 2
          2 2 2 2 2 2
          2 2 2 2 2 2
          2 2 2 2 2 2
          2 2 2 2 2 2
          2 2 2 2 2 2
          2 2 2 2 2 2
          2 2 2 2 2 2
          2 2 2 2 2 2
          2 2 2 2 2 2
          2 2 2 2 2 2
          2 2 2 2 2 2
          2 2 2 2 2 2
          2 2 2 2 2 2
          2 2 2 2 2 2
          2 2 2 2 2 2
          2 2 2 2 2 2
          2 2 2 2 2 2
          2 2 2 2 2 2
          2 2 2 2 2 2
          2 2 2 2 2 2
          2 2 2 2 2 2
          2 2 2 2 2 2
          2 2 2 2 2 2
          2 2 2 2 2 2
          2 2 2 2 2 2
          2 2 2 2 2 2
          2 2 2 2 2 2
          2 2 2 2 2 2
          2 2 2 2 2 2
          2 2 2 2 2 2
          2 2 2 2 2 2
          2 2 2 2 2 2
          2 2 2 2 2 2
          2 2 2 2 2 2
          2 2 2 2 2 2
          2 2 2 2 2 2
          2 2 2 2 2 2
          2 2 2 2 2 2
          2 2 2 2 2 2
          2 2 2 2 2 2
          2 2 2 2 2 2
          2 2 2 2 2 2
          2 2 2 2 2 2
          2 2 2 2 2 2
          2 2 2 2 2 2
          2 2 2 2 2 2
          2 2 2 2 2 2
          2 2 2 2 2 2
          2 2 2 2 2 2
          2 2 2 2 2 2
          2 2 2 2 2 2
          2 2 2 2 2 2
          2 2 2 2 2 2
          2 2 2 2 2 2
          2 2 2 2 2 2
          2 2 2 2 2 2
          2 2 2 2 2 2
          2 2 2 2 2 2
          2 2 2 2 2 2
          2 2 2 2 2 2
          2 2 2 2 2 2
          2 2 2 2 2 2
          2 2 2 2 2 2
          2 2
        </DataArray>
      </CellData>
      <Points>
        <DataArray type="Float64" Name="Points" NumberOfComponents="3" format="ascii" RangeMin="0.0055128205128194" RangeMax="0.014586579917196396">
          0.010655961336451 0.0054415469453289 0 0.010738296327413 0.0059250363170334 0
          0.010252884061106 0.0059462536680524 0 0.010205117478458 0.0054994523140404 0
          0.010655961336451 0.0054415469453289 0.00015 0.010738296327413 0.0059250363170334 0.00015
          0.010252884061106 0.0059462536680524 0.00015 0.010205117478458 0.0054994523140404 0.00015
          0.010655961336451 0.0054415469453289 0.0003 0.010738296327413 0.0059250363170334 0.0003
          0.010252884061106 0.0059462536680524 0.0003 0.010205117478458 0.0054994523140404 0.0003
          0.011940440807394 0.0034141066074527 0 0.011459595517011 0.003824326979063 0
          0.011102612382238 0.0034627190197861 0 0.011355953963772 0.0030463545109029 0
          0.011940440807394 0.0034141066074527 0.00015 0.011459595517011 0.003824326979063 0.00015
          0.011102612382238 0.0034627190197861 0.00015 0.011355953963772 0.0030463545109029 0.00015
          0.011940440807394 0.0034141066074527 0.0003 0.011459595517011 0.003824326979063 0.0003
          0.011102612382238 0.0034627190197861 0.0003 0.011355953963772 0.0030463545109029 0.0003
          0.010057653370411 0.0084974472595183 0 0.01054988842507 0.0084422245958245 0
          0.010057653370411 0.0084974472595183 0.00015 0.01054988842507 0.0084422245958245 0.00015
          0.010057653370411 0.0084974472595183 0.0003 0.01054988842507 0.0084422245958245 0.0003
          0.011046194733105 0.00090743319272295 0 0.011064186406242 0.00044456569898216 0
          0.011549090679959 0.00043919238601916 0 0.011507246232172 0.00087204304167501 0
          0.011046194733105 0.00090743319272295 0.00015 0.011064186406242 0.00044456569898216 0.00015
          0.011549090679959 0.00043919238601916 0.00015 0.011507246232172 0.00087204304167501 0.00015
          0.011046194733105 0.00090743319272295 0.0003 0.011064186406242 0.00044456569898216 0.0003
          0.011549090679959 0.00043919238601916 0.0003 0.011507246232172 0.00087204304167501 0.0003
          0.010695724673322 0.003201084864495 0 0.010922769205465 0.002821493997395 0
          0.010695724673322 0.003201084864495 0.00015 0.010922769205465 0.002821493997395 0.00015
          0.010695724673322 0.003201084864495 0.0003 0.010922769205465 0.002821493997395 0.0003
          0.0063972422249218 0.0045440807567198 0 0.0065062213292024 0.0050164807168814 0
          0.0062389906493372 0.0053128670028646 0 0.0060512178389602 0.0047929387822649 0
          0.0063972422249218 0.0045440807567198 0.00015 0.0065062213292024 0.0050164807168814 0.00015
          0.0062389906493372 0.0053128670028646 0.00015 0.0060512178389602 0.0047929387822649 0.00015
          0.0063972422249218 0.0045440807567198 0.0003 0.0065062213292024 0.0050164807168814 0.0003
          0.0062389906493372 0.0053128670028646 0.0003 0.0060512178389602 0.0047929387822649 0.0003
          0.0077450758336629 0.0014176167893871 0 0.0081853433575 0.0016343392489207 0
          0.0081296210030831 0.0020475545417094 0 0.0077097822266787 0.0019577759081516 0
          0.0077450758336629 0.0014176167893871 0.00015 0.0081853433575 0.0016343392489207 0.00015
          0.0081296210030831 0.0020475545417094 0.00015 0.0077097822266787 0.0019577759081516 0.00015
          0.0077450758336629 0.0014176167893871 0.0003 0.0081853433575 0.0016343392489207 0.0003
          0.0081296210030831 0.0020475545417094 0.0003 0.0077097822266787 0.0019577759081516 0.0003
          0.010163700921554 0.0050965322104848 0 0.010539876174215 0.0050107335132671 0
          0.010163700921554 0.0050965322104848 0.00015 0.010539876174215 0.0050107335132671 0.00015
          0.010163700921554 0.0050965322104848 0.0003 0.010539876174215 0.0050107335132671 0.0003
          0.0067145785472978 0.00092067788586619 0 0.0066311284750677 0.00045344715700039 0
          0.0071039644964018 0.00045254776362746 0 0.0071622170579096 0.00091220258976311 0
          0.0067145785472978 0.00092067788586619 0.00015 0.0066311284750677 0.00045344715700039 0.00015
          0.0071039644964018 0.00045254776362746 0.00015 0.0071622170579096 0.00091220258976311 0.00015
          0.0067145785472978 0.00092067788586619 0.0003 0.0066311284750677 0.00045344715700039 0.0003
          0.0071039644964018 0.00045254776362746 0.0003 0.0071622170579096 0.00091220258976311 0.0003
          0.011832021157187 0.0073476785459853 0 0.011779780861271 0.0068646395959748 0
          0.012243708910156 0.0068324173193727 0 0.011832021157187 0.0073476785459853 0.00015
          0.011779780861271 0.0068646395959748 0.00015 0.012243708910156 0.0068324173193727 0.00015
          0.011832021157187 0.0073476785459853 0.0003 0.011779780861271 0.0068646395959748 0.0003
          0.012243708910156 0.0068324173193727 0.0003 0.0084907788898463 0.00044286110481525 0
          0.0089555217282148 0.00046389179151574 0 0.0088246864415892 0.00090448805343066 0
          0.0084146790711037 0.00087434414493667 0 0.0084907788898463 0.00044286110481525 0.00015
          0.0089555217282148 0.00046389179151574 0.00015 0.0088246864415892 0.00090448805343066 0.00015
          0.0084146790711037 0.00087434414493667 0.00015 0.0084907788898463 0.00044286110481525 0.0003
          0.0089555217282148 0.00046389179151574 0.0003 0.0088246864415892 0.00090448805343066 0.0003
          0.0084146790711037 0.00087434414493667 0.0003 0.0073198391209489 0.002802975731369 0
          0.007729981097025 0.0028801564362105 0 0.0077015154526268 0.0033237594367458 0
          0.0072927827923603 0.0032114269239825 0 0.0073198391209489 0.002802975731369 0.00015
          0.007729981097025 0.0028801564362105 0.00015 0.0077015154526268 0.0033237594367458 0.00015
          0.0072927827923603 0.0032114269239825 0.00015 0.0073198391209489 0.002802975731369 0.0003
          0.007729981097025 0.0028801564362105 0.0003 0.0077015154526268 0.0033237594367458 0.0003
          0.0072927827923603 0.0032114269239825 0.0003 0.011061956134478 0.0014022262787872 0
          0.011061956134478 0.0014022262787872 0.00015 0.011061956134478 0.0014022262787872 0.0003
          0.0067262777673885 0.0043003855308917 0 0.0070184374453973 0.0044097475846897 0
          0.0069143452336461 0.0047780273607631 0 0.0067262777673885 0.0043003855308917 0.00015
          0.0070184374453973 0.0044097475846897 0.00015 0.0069143452336461 0.0047780273607631 0.00015
          0.0067262777673885 0.0043003855308917 0.0003 0.0070184374453973 0.0044097475846897 0.0003
          0.0069143452336461 0.0047780273607631 0.0003 0.0072966772765568 0.0023596996909359 0
          0.0077191611848381 0.0024307703640478 0 0.0072966772765568 0.0023596996909359 0.00015
          0.0077191611848381 0.0024307703640478 0.00015 0.0072966772765568 0.0023596996909359 0.0003
          0.0077191611848381 0.0024307703640478 0.0003 0.010569749843509 0.00092230265866691 0
          0.010578573679683 0.0013844170604281 0 0.010145320905195 0.0014335884987508 0
          0.01008894187929 0.00096115561381429 0 0.010569749843509 0.00092230265866691 0.00015
          0.010578573679683 0.0013844170604281 0.00015 0.010145320905195 0.0014335884987508 0.00015
          0.01008894187929 0.00096115561381429 0.00015 0.010569749843509 0.00092230265866691 0.0003
          0.010578573679683 0.0013844170604281 0.0003 0.010145320905195 0.0014335884987508 0.0003
          0.01008894187929 0.00096115561381429 0.0003 0.0061669869081239 0.00049673093518566 0
          0.0062913293509889 0.00097410606592609 0 0.0059245902968253 0.0010856763727913 0
          0.0057061681768373 0.00065177476244477 0 0.0061669869081239 0.00049673093518566 0.00015
          0.0062913293509889 0.00097410606592609 0.00015 0.0059245902968253 0.0010856763727913 0.00015
          0.0057061681768373 0.00065177476244477 0.00015 0.0061669869081239 0.00049673093518566 0.0003
          0.0062913293509889 0.00097410606592609 0.0003 0.0059245902968253 0.0010856763727913 0.0003
          0.0057061681768373 0.00065177476244477 0.0003 0.010613957240618 0.0022894151744625 0
          0.011031068838334 0.0023895404946521 0 0.01053554486979 0.0026566023779455 0
          0.010613957240618 0.0022894151744625 0.00015 0.011031068838334 0.0023895404946521 0.00015
          0.01053554486979 0.0026566023779455 0.00015 0.010613957240618 0.0022894151744625 0.0003
          0.011031068838334 0.0023895404946521 0.0003 0.01053554486979 0.0026566023779455 0.0003
          0.0055128205128194 0 0 0.0060256410256386 0 0
          0.0055128205128194 0 0.00015 0.0060256410256386 0 0.00015
          0.0055128205128194 0 0.0003 0.0060256410256386 0 0.0003
          0.0087932726011055 0.003543484648519 0 0.0081725565838686 0.0034418576035907 0
          0.0081844882448281 0.0029554535172717 0 0.0086653225286358 0.0029358056411338 0
          0.0087932726011055 0.003543484648519 0.00015 0.0081725565838686 0.0034418576035907 0.00015
          0.0081844882448281 0.0029554535172717 0.00015 0.0086653225286358 0.0029358056411338 0.00015
          0.0087932726011055 0.003543484648519 0.0003 0.0081725565838686 0.0034418576035907 0.0003
          0.0081844882448281 0.0029554535172717 0.0003 0.0086653225286358 0.0029358056411338 0.0003
          0.010609256891376 0.0018508518753275 0 0.011063963632424 0.0019108783312894 0
          0.010609256891376 0.0018508518753275 0.00015 0.011063963632424 0.0019108783312894 0.00015
          0.010609256891376 0.0018508518753275 0.0003 0.011063963632424 0.0019108783312894 0.0003
          0.0061614658010566 0.0029736343202522 0 0.0061372854142827 0.0036106222238676 0
          0.0061614658010566 0.0029736343202522 0.00015 0.0061372854142827 0.0036106222238676 0.00015
          0.0061614658010566 0.0029736343202522 0.0003 0.0061372854142827 0.0036106222238676 0.0003
          0.0091223832784702 0.0028108558594978 0 0.0093224708097351 0.0032450014434347 0
          0.0091223832784702 0.0028108558594978 0.00015 0.0093224708097351 0.0032450014434347 0.00015
          0.0091223832784702 0.0028108558594978 0.0003 0.0093224708097351 0.0032450014434347 0.0003
          0.010365654248251 0.0046741943492533 0 0.010130092133721 0.0048347586786618 0
          0.0098673679311407 0.0047157860708196 0 0.010078628200493 0.0044157313734999 0
          0.010365654248251 0.0046741943492533 0.00015 0.010130092133721 0.0048347586786618 0.00015
          0.0098673679311407 0.0047157860708196 0.00015 0.010078628200493 0.0044157313734999 0.00015
          0.010365654248251 0.0046741943492533 0.0003 0.010130092133721 0.0048347586786618 0.0003
          0.0098673679311407 0.0047157860708196 0.0003 0.010078628200493 0.0044157313734999 0.0003
          0.0074225055052033 0.0045889494028562 0 0.0073125071067115 0.0049521547682488 0
          0.0074225055052033 0.0045889494028562 0.00015 0.0073125071067115 0.0049521547682488 0.00015
          0.0074225055052033 0.0045889494028562 0.0003 0.0073125071067115 0.0049521547682488 0.0003
          0.0061231952422177 0.002444135475079 0 0.0061231952422177 0.002444135475079 0.00015
          0.0061231952422177 0.002444135475079 0.0003 0.007634491258567 0.0037589111207536 0
          0.0080978935956725 0.0039120786728548 0 0.007634491258567 0.0037589111207536 0.00015
          0.0080978935956725 0.0039120786728548 0.00015 0.007634491258567 0.0037589111207536 0.0003
          0.0080978935956725 0.0039120786728548 0.0003 0.0067400809843091 0.0034207975388345 0
          0.0067100713183769 0.0039836679330495 0 0.0063054236008776 0.0041223407032968 0
          0.0067400809843091 0.0034207975388345 0.00015 0.0067100713183769 0.0039836679330495 0.00015
          0.0063054236008776 0.0041223407032968 0.00015 0.0067400809843091 0.0034207975388345 0.0003
          0.0067100713183769 0.0039836679330495 0.0003 0.0063054236008776 0.0041223407032968 0.0003
          0.0064429727892239 0.0018594619814901 0 0.0065003657821779 0.0023397297588745 0
          0.0060722038988066 0.0019538017587265 0 0.0064429727892239 0.0018594619814901 0.00015
          0.0065003657821779 0.0023397297588745 0.00015 0.0060722038988066 0.0019538017587265 0.00015
          0.0064429727892239 0.0018594619814901 0.0003 0.0065003657821779 0.0023397297588745 0.0003
          0.0060722038988066 0.0019538017587265 0.0003 0.0068255396015086 0.0051581133306003 0
          0.0068255396015086 0.0051581133306003 0.00015 0.0068255396015086 0.0051581133306003 0.0003
          0.0065384615384579 0 0 0.0065384615384579 0 0.00015
          0.0065384615384579 0 0.0003 0.012879713087233 0.0060908484912964 0
          0.012982043505355 0.0056371881930815 0 0.012879713087233 0.0060908484912964 0.00015
          0.012982043505355 0.0056371881930815 0.00015 0.012879713087233 0.0060908484912964 0.0003
          0.012982043505355 0.0056371881930815 0.0003 0.0065699942646101 0.0028542668018424 0
          0.0065699942646101 0.0028542668018424 0.00015 0.0065699942646101 0.0028542668018424 0.0003
          0.0084683943974961 0.0045583446766593 0 0.0079943718437571 0.0043747262241866 0
          0.0085823759797054 0.0040943119694046 0 0.0084683943974961 0.0045583446766593 0.00015
          0.0079943718437571 0.0043747262241866 0.00015 0.0085823759797054 0.0040943119694046 0.00015
          0.0084683943974961 0.0045583446766593 0.0003 0.0079943718437571 0.0043747262241866 0.0003
          0.0085823759797054 0.0040943119694046 0.0003 0.0085830886495109 0.0024681574500846 0
          0.0090044137010858 0.0023542069269131 0 0.0085830886495109 0.0024681574500846 0.00015
          0.0090044137010858 0.0023542069269131 0.00015 0.0085830886495109 0.0024681574500846 0.0003
          0.0090044137010858 0.0023542069269131 0.0003 0.0098857235699117 0.0079055319030787 0
          0.0095144479526816 0.0076594245921199 0 0.0094715724969347 0.0073263583858313 0
          0.0099283521138692 0.0073475677072736 0 0.0098857235699117 0.0079055319030787 0.00015
          0.0095144479526816 0.0076594245921199 0.00015 0.0094715724969347 0.0073263583858313 0.00015
          0.0099283521138692 0.0073475677072736 0.00015 0.0098857235699117 0.0079055319030787 0.0003
          0.0095144479526816 0.0076594245921199 0.0003 0.0094715724969347 0.0073263583858313 0.0003
          0.0099283521138692 0.0073475677072736 0.0003 0.010833716827414 0.0069257207373803 0
          0.010357413059119 0.0069077241183533 0 0.010300982556592 0.0064274708783385 0
          0.010786080808085 0.0064391381968206 0 0.010833716827414 0.0069257207373803 0.00015
          0.010357413059119 0.0069077241183533 0.00015 0.010300982556592 0.0064274708783385 0.00015
          0.010786080808085 0.0064391381968206 0.00015 0.010833716827414 0.0069257207373803 0.0003
          0.010357413059119 0.0069077241183533 0.0003 0.010300982556592 0.0064274708783385 0.0003
          0.010786080808085 0.0064391381968206 0.0003 0.012723582323863 0.006509831652106 0
          0.012251440655851 0.0062918667587536 0 0.012542392069256 0.0059723735377719 0
          0.012723582323863 0.006509831652106 0.00015 0.012251440655851 0.0062918667587536 0.00015
          0.012542392069256 0.0059723735377719 0.00015 0.012723582323863 0.006509831652106 0.0003
          0.012251440655851 0.0062918667587536 0.0003 0.012542392069256 0.0059723735377719 0.0003
          0.0071151184692216 0.0040272738406853 0 0.0071151184692216 0.0040272738406853 0.00015
          0.0071151184692216 0.0040272738406853 0.0003 0.005927800859391 0.0043689372395662 0
          0.005927800859391 0.0043689372395662 0.00015 0.005927800859391 0.0043689372395662 0.0003
          0.0092411258002763 0.0078319639415625 0 0.0089588909882048 0.0073942383853577 0
          0.0092411258002763 0.0078319639415625 0.00015 0.0089588909882048 0.0073942383853577 0.00015
          0.0092411258002763 0.0078319639415625 0.0003 0.0089588909882048 0.0073942383853577 0.0003
          0.009874674666521 0.0068715373563056 0 0.010410157305432 0.007394545582291 0
          0.009874674666521 0.0068715373563056 0.00015 0.010410157305432 0.007394545582291 0.00015
          0.009874674666521 0.0068715373563056 0.0003 0.010410157305432 0.007394545582291 0.0003
          0.0075354000991736 0.004186248288406 0 0.0075354000991736 0.004186248288406 0.00015
          0.0075354000991736 0.004186248288406 0.0003 0.01131847387487 0.0058224977902188 0
          0.011696082283392 0.0060272916092408 0 0.011725204011411 0.0063910302275778 0
          0.011265055974573 0.0064250601080915 0 0.01131847387487 0.0058224977902188 0.00015
          0.011696082283392 0.0060272916092408 0.00015 0.011725204011411 0.0063910302275778 0.00015
          0.011265055974573 0.0064250601080915 0.00015 0.01131847387487 0.0058224977902188 0.0003
          0.011696082283392 0.0060272916092408 0.0003 0.011725204011411 0.0063910302275778 0.0003
          0.011265055974573 0.0064250601080915 0.0003 0.012000241143886 0.0058170880130831 0
          0.012000241143886 0.0058170880130831 0.00015 0.012000241143886 0.0058170880130831 0.0003
          0.011120492592586 0.0052514705902296 0 0.011120492592586 0.0052514705902296 0.00015
          0.011120492592586 0.0052514705902296 0.0003 0.0092910901193945 0.0039260363263486 0
          0.0090503465409481 0.0043132092761106 0 0.0092910901193945 0.0039260363263486 0.00015
          0.0090503465409481 0.0043132092761106 0.00015 0.0092910901193945 0.0039260363263486 0.0003
          0.0090503465409481 0.0043132092761106 0.0003 0.007889027184575 0.0048982243533992 0
          0.007889027184575 0.0048982243533992 0.00015 0.007889027184575 0.0048982243533992 0.0003
          0.0094935553236164 0.004533528646427 0 0.0097061514105808 0.0041851036755216 0
          0.0094935553236164 0.004533528646427 0.00015 0.0097061514105808 0.0041851036755216 0.00015
          0.0094935553236164 0.004533528646427 0.0003 0.0097061514105808 0.0041851036755216 0.0003
          0.007602124101561 0.0050930903063015 0 0.007602124101561 0.0050930903063015 0.00015
          0.007602124101561 0.0050930903063015 0.0003 0.010723762445737 0.0044202706845482 0
          0.010410164583979 0.0041181159817359 0 0.010723762445737 0.0044202706845482 0.00015
          0.010410164583979 0.0041181159817359 0.00015 0.010723762445737 0.0044202706845482 0.0003
          0.010410164583979 0.0041181159817359 0.0003 0.01095205032792 0.0047963590452232 0
          0.01095205032792 0.0047963590452232 0.00015 0.01095205032792 0.0047963590452232 0.0003
          0.011303178752756 0.0069106117689346 0 0.011303178752756 0.0069106117689346 0.00015
          0.011303178752756 0.0069106117689346 0.0003 0.01003253261535 0.0038623502872685 0
          0.01003253261535 0.0038623502872685 0.00015 0.01003253261535 0.0038623502872685 0.0003
          0.0076528923620256 0.0053996878686031 0 0.0072494384034052 0.005322441352826 0
          0.0076528923620256 0.0053996878686031 0.00015 0.0072494384034052 0.005322441352826 0.00015
          0.0076528923620256 0.0053996878686031 0.0003 0.0072494384034052 0.005322441352826 0.0003
          0.0096442187720765 0.0035928190702974 0 0.0096442187720765 0.0035928190702974 0.00015
          0.0096442187720765 0.0035928190702974 0.0003 0.012013949131265 0.002158444108951 0
          0.012018063243501 0.0027123142038817 0 0.012013949131265 0.002158444108951 0.00015
          0.012018063243501 0.0027123142038817 0.00015 0.012013949131265 0.002158444108951 0.0003
          0.012018063243501 0.0027123142038817 0.0003 0.0080144547016537 0.00086684480617367 0
          0.008304219624614 0.0012703006012415 0 0.0080327132462595 0.0011721512048422 0
          0.0080144547016537 0.00086684480617367 0.00015 0.008304219624614 0.0012703006012415 0.00015
          0.0080327132462595 0.0011721512048422 0.00015 0.0080144547016537 0.00086684480617367 0.0003
          0.008304219624614 0.0012703006012415 0.0003 0.0080327132462595 0.0011721512048422 0.0003
          0.0094736490244467 0.0005865877812969 0 0.010068957850501 0.00047856930843549 0
          0.0096358530086744 0.0010887425154837 0 0.0094736490244467 0.0005865877812969 0.00015
          0.010068957850501 0.00047856930843549 0.00015 0.0096358530086744 0.0010887425154837 0.00015
          0.0094736490244467 0.0005865877812969 0.0003 0.010068957850501 0.00047856930843549 0.0003
          0.0096358530086744 0.0010887425154837 0.0003 0.0071984303565192 0.0057392272964834 0
          0.0067200519522164 0.0055550541115669 0 0.0071984303565192 0.0057392272964834 0.00015
          0.0067200519522164 0.0055550541115669 0.00015 0.0071984303565192 0.0057392272964834 0.0003
          0.0067200519522164 0.0055550541115669 0.0003 0.013091675611077 0.0041736873632184 0
          0.012621380555602 0.004071395146678 0 0.012601464682814 0.0035037767307713 0
          0.013091675611077 0.0041736873632184 0.00015 0.012621380555602 0.004071395146678 0.00015
          0.012601464682814 0.0035037767307713 0.00015 0.013091675611077 0.0041736873632184 0.0003
          0.012621380555602 0.004071395146678 0.0003 0.012601464682814 0.0035037767307713 0.0003
          0.01153639784925 0.0020208067996516 0 0.011496246026306 0.0025480504488598 0
          0.01153639784925 0.0020208067996516 0.00015 0.011496246026306 0.0025480504488598 0.00015
          0.01153639784925 0.0020208067996516 0.0003 0.011496246026306 0.0025480504488598 0.0003
          0.011043213382792 0.0084269911709333 0 0.011043213382792 0.0084269911709333 0.00015
          0.011043213382792 0.0084269911709333 0.0003 0.010128205128191 0 0
          0.0096153846153732 0 0 0.010128205128191 0 0.00015
          0.0096153846153732 0 0.00015 0.010128205128191 0 0.0003
          0.0096153846153732 0 0.0003 0.0091025641025551 0 0
          0.0085897435897353 0 0 0.0091025641025551 0 0.00015
          0.0085897435897353 0 0.00015 0.0091025641025551 0 0.0003
          0.0085897435897353 0 0.0003 0.0085182476127008 0.0020437661198126 0
          0.0089029205554566 0.0019047336662455 0 0.0085182476127008 0.0020437661198126 0.00015
          0.0089029205554566 0.0019047336662455 0.00015 0.0085182476127008 0.0020437661198126 0.0003
          0.0089029205554566 0.0019047336662455 0.0003 0.0081522818828449 0.0024947087352937 0
          0.0081522818828449 0.0024947087352937 0.00015 0.0081522818828449 0.0024947087352937 0.0003
          0.010641025641009 0 0 0.010579843756946 0.00045349299099366 0
          0.010641025641009 0 0.00015 0.010579843756946 0.00045349299099366 0.00015
          0.010641025641009 0 0.0003 0.010579843756946 0.00045349299099366 0.0003
          0.011153846153828 0 0 0.011153846153828 0 0.00015
          0.011153846153828 0 0.0003 0.011760912133753 0.0054122119446059 0
          0.011760912133753 0.0054122119446059 0.00015 0.011760912133753 0.0054122119446059 0.0003
          0.011666666666648 0 0 0.011666666666648 0 0.00015
          0.011666666666648 0 0.0003 0.011547825504055 0.0049713459697514 0
          0.011547825504055 0.0049713459697514 0.00015 0.011547825504055 0.0049713459697514 0.0003
          0.011349632014182 0.0045239710214715 0 0.011349632014182 0.0045239710214715 0.00015
          0.011349632014182 0.0045239710214715 0.0003 0.011997463288521 0.00046572766410539 0
          0.012179487179468 0 0 0.011997463288521 0.00046572766410539 0.00015
          0.012179487179468 0 0.00015 0.011997463288521 0.00046572766410539 0.0003
          0.012179487179468 0 0.0003 0.01039056673058 0.0035410773695937 0
          0.010772622187787 0.0038062315725381 0 0.01039056673058 0.0035410773695937 0.00015
          0.010772622187787 0.0038062315725381 0.00015 0.01039056673058 0.0035410773695937 0.0003
          0.010772622187787 0.0038062315725381 0.0003 0.0089323359070786 0.0047421281357296 0
          0.0089323359070786 0.0047421281357296 0.00015 0.0089323359070786 0.0047421281357296 0.0003
          0.010891746765568 0.007407252260552 0 0.010891746765568 0.007407252260552 0.00015
          0.010891746765568 0.007407252260552 0.0003 0.011089383238376 0.0041358143249023 0
          0.011089383238376 0.0041358143249023 0.00015 0.011089383238376 0.0041358143249023 0.0003
          0.007205317033861 0.0036141963404016 0 0.007205317033861 0.0036141963404016 0.00015
          0.007205317033861 0.0036141963404016 0.0003 0.0080269839945158 0.0054023282425744 0
          0.0080269839945158 0.0054023282425744 0.00015 0.0080269839945158 0.0054023282425744 0.0003
          0.0077721363879251 0.0058968168784219 0 0.0077721363879251 0.0058968168784219 0.00015
          0.0077721363879251 0.0058968168784219 0.0003 0.0095370253310475 0.0025850582106885 0
          0.009732219723835 0.0029713438236062 0 0.0095370253310475 0.0025850582106885 0.00015
          0.009732219723835 0.0029713438236062 0.00015 0.0095370253310475 0.0025850582106885 0.0003
          0.009732219723835 0.0029713438236062 0.0003 0.0094100372761059 0.0021522308351028 0
          0.0094100372761059 0.0021522308351028 0.00015 0.0094100372761059 0.0021522308351028 0.0003
          0.0087313387484914 0.001424359608332 0 0.0084651319029022 0.0017289788972556 0
          0.0087313387484914 0.001424359608332 0.00015 0.0084651319029022 0.0017289788972556 0.00015
          0.0087313387484914 0.001424359608332 0.0003 0.0084651319029022 0.0017289788972556 0.0003
          0.011363196701121 0.0073867521895413 0 0.011894488312007 0.0078344841271679 0
          0.011431801070778 0.0078815011129823 0 0.011363196701121 0.0073867521895413 0.00015
          0.011894488312007 0.0078344841271679 0.00015 0.011431801070778 0.0078815011129823 0.00015
          0.011363196701121 0.0073867521895413 0.0003 0.011894488312007 0.0078344841271679 0.0003
          0.011431801070778 0.0078815011129823 0.0003 0.011511795106494 0.0083968566041475 0
          0.011511795106494 0.0083968566041475 0.00015 0.011511795106494 0.0083968566041475 0.0003
          0.0093066157528448 0.0017085494075796 0 0.0093066157528448 0.0017085494075796 0.00015
          0.0093066157528448 0.0017085494075796 0.0003 0.011737204813157 0.0042624504192267 0
          0.011920232844873 0.0047153506313134 0 0.011737204813157 0.0042624504192267 0.00015
          0.011920232844873 0.0047153506313134 0.00015 0.011737204813157 0.0042624504192267 0.0003
          0.011920232844873 0.0047153506313134 0.0003 0.0097199155871303 0.0015315099671301 0
          0.0098040259351994 0.0019696894002764 0 0.0097199155871303 0.0015315099671301 0.00015
          0.0098040259351994 0.0019696894002764 0.00015 0.0097199155871303 0.0015315099671301 0.0003
          0.0098040259351994 0.0019696894002764 0.0003 0.0099068743951204 0.0023814903757239 0
          0.0099068743951204 0.0023814903757239 0.00015 0.0099068743951204 0.0023814903757239 0.0003
          0.010196799496301 0.0018655242590307 0 0.010252080701677 0.0022738797315184 0
          0.010196799496301 0.0018655242590307 0.00015 0.010252080701677 0.0022738797315184 0.00015
          0.010196799496301 0.0018655242590307 0.0003 0.010252080701677 0.0022738797315184 0.0003
          0.0082479601882269 0.0062087007836213 0 0.0083721174281176 0.0058457654542534 0
          0.0087793359412623 0.006030240425184 0 0.0086690881028679 0.0063945203238097 0
          0.0082479601882269 0.0062087007836213 0.00015 0.0083721174281176 0.0058457654542534 0.00015
          0.0087793359412623 0.006030240425184 0.00015 0.0086690881028679 0.0063945203238097 0.00015
          0.0082479601882269 0.0062087007836213 0.0003 0.0083721174281176 0.0058457654542534 0.0003
          0.0087793359412623 0.006030240425184 0.0003 0.0086690881028679 0.0063945203238097 0.0003
          0.0098103305116681 0.0063862496116293 0 0.0098103305116681 0.0063862496116293 0.00015
          0.0098103305116681 0.0063862496116293 0.0003 0.0084248193747317 0.0050261658136402 0
          0.0084248193747317 0.0050261658136402 0.00015 0.0084248193747317 0.0050261658136402 0.0003
          0.0069463016830039 0.0027787422025108 0 0.0070048409545821 0.0031125297586922 0
          0.0069463016830039 0.0027787422025108 0.00015 0.0070048409545821 0.0031125297586922 0.00015
          0.0069463016830039 0.0027787422025108 0.0003 0.0070048409545821 0.0031125297586922 0.0003
          0.010028456835002 0.0032748409090605 0 0.010028456835002 0.0032748409090605 0.00015
          0.010028456835002 0.0032748409090605 0.0003 0.013084530633285 0.0046685927017207 0
          0.012657407202949 0.0045740785705039 0 0.013084530633285 0.0046685927017207 0.00015
          0.012657407202949 0.0045740785705039 0.00015 0.013084530633285 0.0046685927017207 0.0003
          0.012657407202949 0.0045740785705039 0.0003 0.0063788755008874 0.0014091508241809 0
          0.0060137569775388 0.0015029488511318 0 0.0063788755008874 0.0014091508241809 0.00015
          0.0060137569775388 0.0015029488511318 0.00015 0.0063788755008874 0.0014091508241809 0.0003
          0.0060137569775388 0.0015029488511318 0.0003 0.01196380743939 0.0083394019710021 0
          0.01196380743939 0.0083394019710021 0.00015 0.01196380743939 0.0083394019710021 0.0003
          0.010073855840534 0.0027196155419985 0 0.010289681297386 0.0025561678844121 0
          0.010073855840534 0.0027196155419985 0.00015 0.010289681297386 0.0025561678844121 0.00015
          0.010073855840534 0.0027196155419985 0.0003 0.010289681297386 0.0025561678844121 0.0003
          0.0093223919318803 0.0053434698815888 0 0.009764317340127 0.0054658727348424 0
          0.0097769212248058 0.0059119658621614 0 0.0093027527337708 0.0057939169389015 0
          0.0093223919318803 0.0053434698815888 0.00015 0.009764317340127 0.0054658727348424 0.00015
          0.0097769212248058 0.0059119658621614 0.00015 0.0093027527337708 0.0057939169389015 0.00015
          0.0093223919318803 0.0053434698815888 0.0003 0.009764317340127 0.0054658727348424 0.0003
          0.0097769212248058 0.0059119658621614 0.0003 0.0093027527337708 0.0057939169389015 0.0003
          0.0068882925124701 0.0023177669638962 0 0.0068882925124701 0.0023177669638962 0.00015
          0.0068882925124701 0.0023177669638962 0.0003 0.0092499592325966 0.0063238181416562 0
          0.0089620052424248 0.0065330227489775 0 0.0092499592325966 0.0063238181416562 0.00015
          0.0089620052424248 0.0065330227489775 0.00015 0.0092499592325966 0.0063238181416562 0.0003
          0.0089620052424248 0.0065330227489775 0.0003 0.0072168253422346 0.001397514094839 0
          0.0076041066380058 0.00089936619415626 0 0.0072168253422346 0.001397514094839 0.00015
          0.0076041066380058 0.00089936619415626 0.00015 0.0072168253422346 0.001397514094839 0.0003
          0.0076041066380058 0.00089936619415626 0.0003 0.0075718226613923 0.00044755222139025 0
          0.0075718226613923 0.00044755222139025 0.00015 0.0075718226613923 0.00044755222139025 0.0003
          0.012116660000204 0.0051206445675074 0 0.012116660000204 0.0051206445675074 0.00015
          0.012116660000204 0.0051206445675074 0.0003 0.0068338524094732 0.0018398489073113 0
          0.0068338524094732 0.0018398489073113 0.00015 0.0068338524094732 0.0018398489073113 0.0003
          0.0088473960481577 0.0056214227923259 0 0.0088473960481577 0.0056214227923259 0.00015
          0.0088473960481577 0.0056214227923259 0.0003 0.0081402125110085 0.0066115625704341 0
          0.0081402125110085 0.0066115625704341 0.00015 0.0081402125110085 0.0066115625704341 0.0003
          0.0067824993802385 0.0013824026215467 0 0.0072591856110724 0.0018865642034293 0
          0.0067824993802385 0.0013824026215467 0.00015 0.0072591856110724 0.0018865642034293 0.00015
          0.0067824993802385 0.0013824026215467 0.0003 0.0072591856110724 0.0018865642034293 0.0003
          0.0094035295411974 0.0068662830960629 0 0.0094035295411974 0.0068662830960629 0.00015
          0.0094035295411974 0.0068662830960629 0.0003 0.0080770297303238 0.0057078658228848 0
          0.0080770297303238 0.0057078658228848 0.00015 0.0080770297303238 0.0057078658228848 0.0003
          0.012455160230445 0.0055307966461266 0 0.012455160230445 0.0055307966461266 0.00015
          0.012455160230445 0.0055307966461266 0.0003 0.0092134396095011 0.0012639463069257 0
          0.0092134396095011 0.0012639463069257 0.00015 0.0092134396095011 0.0012639463069257 0.0003
          0.0085681017610313 0.0067725899286886 0 0.0085681017610313 0.0067725899286886 0.00015
          0.0085681017610313 0.0067725899286886 0.0003 0.010337781301114 0.0029713007827362 0
          0.010337781301114 0.0029713007827362 0.00015 0.010337781301114 0.0029713007827362 0.0003
          0.0080769230769162 0 0 0.0080362994401078 0.00044130282391618 0
          0.0075641025640979 0 0 0.0080769230769162 0 0.00015
          0.0080362994401078 0.00044130282391618 0.00015 0.0075641025640979 0 0.00015
          0.0080769230769162 0 0.0003 0.0080362994401078 0.00044130282391618 0.0003
          0.0075641025640979 0 0.0003 0.0084157309119158 0.0054663429893237 0
          0.0084157309119158 0.0054663429893237 0.00015 0.0084157309119158 0.0054663429893237 0.0003
          0.012625060394875 0.0050215313919928 0 0.012340535819996 0.0049145470001145 0
          0.012625060394875 0.0050215313919928 0.00015 0.012340535819996 0.0049145470001145 0.00015
          0.012625060394875 0.0050215313919928 0.0003 0.012340535819996 0.0049145470001145 0.0003
          0.0088807280393962 0.0051824777758032 0 0.0088807280393962 0.0051824777758032 0.00015
          0.0088807280393962 0.0051824777758032 0.0003 0.00978640191627 0.0050564284414982 0
          0.00978640191627 0.0050564284414982 0.00015 0.00978640191627 0.0050564284414982 0.0003
          0.007051282051278 0 0 0.007051282051278 0 0.00015
          0.007051282051278 0 0.0003 0.0089738769927721 0.0068608682916542 0
          0.0089738769927721 0.0068608682916542 0.00015 0.0089738769927721 0.0068608682916542 0.0003
          0.010464396561549 0.007914442793445 0 0.010959162019398 0.0079079830093058 0
          0.010464396561549 0.007914442793445 0.00015 0.010959162019398 0.0079079830093058 0.00015
          0.010464396561549 0.007914442793445 0.0003 0.010959162019398 0.0079079830093058 0.0003
          0.0093768424757788 0.0049206652486621 0 0.0093768424757788 0.0049206652486621 0.00015
          0.0093768424757788 0.0049206652486621 0.0003 0.0084364690699339 0.0071912877673881 0
          0.0084364690699339 0.0071912877673881 0.00015 0.0084364690699339 0.0071912877673881 0.0003
          0.011870414872976 0.00080294526771027 0 0.011870414872976 0.00080294526771027 0.00015
          0.011870414872976 0.00080294526771027 0.0003 0.013048655853798 0.0051555709380823 0
          0.013048655853798 0.0051555709380823 0.00015 0.013048655853798 0.0051555709380823 0.0003
          0.0091480378790118 0.00093783666102615 0 0.0091480378790118 0.00093783666102615 0.00015
          0.0091480378790118 0.00093783666102615 0.0003 0.012592651705639 0.0068198098450163 0
          0.012592651705639 0.0068198098450163 0.00015 0.012592651705639 0.0068198098450163 0.0003
          0.012272070002081 0.0045810549534562 0 0.012153081904124 0.0040944528080542 0
          0.012272070002081 0.0045810549534562 0.00015 0.012153081904124 0.0040944528080542 0.00015
          0.012272070002081 0.0045810549534562 0.0003 0.012153081904124 0.0040944528080542 0.0003
          0.011634800364854 0.0014122839921498 0 0.011634800364854 0.0014122839921498 0.00015
          0.011634800364854 0.0014122839921498 0.0003 0.012451479243686 0.0021914486022899 0
          0.012674188674928 0.0028095410694266 0 0.012451479243686 0.0021914486022899 0.00015
          0.012674188674928 0.0028095410694266 0.00015 0.012451479243686 0.0021914486022899 0.0003
          0.012674188674928 0.0028095410694266 0.0003 0.013121586466294 0.0036708577033715 0
          0.013121586466294 0.0036708577033715 0.00015 0.013121586466294 0.0036708577033715 0.0003
          0.013248150362312 0.0031919567697963 0 0.013248150362312 0.0031919567697963 0.00015
          0.013248150362312 0.0031919567697963 0.0003 0.012096711335481 0.0017058387426491 0
          0.012096711335481 0.0017058387426491 0.00015 0.012096711335481 0.0017058387426491 0.0003
          0.012692307692288 0 0 0.012542896420733 0.00061304595643839 0
          0.012692307692288 0 0.00015 0.012542896420733 0.00061304595643839 0.00015
          0.012692307692288 0 0.0003 0.012542896420733 0.00061304595643839 0.0003
          0.012384518900215 0.0018567382086698 0 0.012384518900215 0.0018567382086698 0.00015
          0.012384518900215 0.0018567382086698 0.0003 0.012087580163866 0.0010424427844857 0
          0.012087580163866 0.0010424427844857 0.00015 0.012087580163866 0.0010424427844857 0.0003
          <InformationKey name="L2_NORM_RANGE" location="vtkDataArray" length="2">
            <Value index="0">
              0.0055128205128
            </Value>
            <Value index="1">
              0.014586579917
            </Value>
          </InformationKey>
        </DataArray>
      </Points>
      <Cells>
        <DataArray type="Int64" Name="connectivity" format="ascii" RangeMin="0" RangeMax="773">
          0 1 2 3 4 5
          6 7 4 5 6 7
          8 9 10 11 12 13
          14 15 16 17 18 19
          16 17 18 19 20 21
          22 23 30 31 32 33
          34 35 36 37 34 35
          36 37 38 39 40 41
          15 14 42 43 19 18
          44 45 19 18 44 45
          23 22 46 47 48 49
          50 51 52 53 54 55
          52 53 54 55 56 57
          58 59 60 61 62 63
          64 65 66 67 64 65
          66 67 68 69 70 71
          3 72 73 0 7 74
          75 4 7 74 75 4
          11 76 77 8 78 79
          80 81 82 83 84 85
          82 83 84 85 86 87
          88 89 99 100 101 102
          103 104 105 106 103 104
          105 106 107 108 109 110
          111 112 113 114 115 116
          117 118 115 116 117 118
          119 120 121 122 744 123
          30 33 745 124 34 37
          745 124 34 37 746 125
          38 41 48 126 127 128
          52 129 130 131 52 129
          130 131 56 132 133 134
          135 136 112 111 137 138
          116 115 137 138 116 115
          139 140 120 119 141 142
          143 144 145 146 147 148
          145 146 147 148 149 150
          151 152 153 154 155 156
          157 158 159 160 157 158
          159 160 161 162 163 164
          165 166 43 167 168 169
          45 170 168 169 45 170
          171 172 47 173 174 175
          153 156 176 177 157 160
          176 177 157 160 178 179
          161 164 180 181 182 183
          184 185 186 187 184 185
          186 187 188 189 190 191
          166 165 192 193 169 168
          194 195 169 168 194 195
          172 171 196 197 112 182
          181 113 116 186 185 117
          116 186 185 117 120 190
          189 121 204 205 180 183
          206 207 184 187 206 207
          184 187 208 209 188 191
          210 211 212 213 214 215
          216 217 214 215 216 217
          218 219 220 221 222 223
          128 127 224 225 131 130
          224 225 131 130 226 227
          134 133 154 153 79 78
          158 157 83 82 158 157
          83 82 162 161 87 86
          231 113 181 232 233 117
          185 234 233 117 185 234
          235 121 189 236 237 238
          239 199 240 241 242 201
          240 241 242 201 243 244
          245 203 246 247 228 248
          249 250 229 251 249 250
          229 251 252 253 230 254
          255 49 48 128 256 53
          52 131 256 53 52 131
          257 57 56 134 175 258
          79 153 177 259 83 157
          177 259 83 157 179 260
          87 161 267 237 199 198
          268 240 201 200 268 240
          201 200 269 243 203 202
          270 271 232 272 273 274
          234 275 273 274 234 275
          276 277 236 278 267 198
          228 247 268 200 229 250
          268 200 229 250 269 202
          230 253 183 279 280 204
          187 281 282 206 187 281
          282 206 191 283 284 208
          285 286 287 288 289 290
          291 292 289 290 291 292
          293 294 295 296 297 298
          299 300 301 302 303 304
          301 302 303 304 305 306
          307 308 261 309 310 311
          263 312 313 314 263 312
          313 314 265 315 316 317
          238 318 127 126 241 319
          130 129 241 319 130 129
          244 320 133 132 324 325
          287 286 326 327 291 290
          326 327 291 290 328 329
          295 294 330 298 331 288
          332 302 333 292 332 302
          333 292 334 306 335 296
          318 336 222 127 319 337
          224 130 319 337 224 130
          320 338 226 133 339 340
          341 342 343 344 345 346
          343 344 345 346 347 348
          349 350 300 1 339 342
          304 5 343 346 304 5
          343 346 308 9 347 350
          351 310 341 340 352 313
          345 344 352 313 345 344
          353 316 349 348 354 339
          1 0 355 343 5 4
          355 343 5 4 356 347
          9 8 357 358 272 180
          359 360 275 184 359 360
          275 184 361 362 278 188
          48 239 238 126 52 242
          241 129 52 242 241 129
          56 245 244 132 336 271
          363 222 337 274 364 224
          337 274 364 224 338 277
          365 226 51 321 239 48
          55 322 242 52 55 322
          242 52 59 323 245 56
          366 367 213 212 368 369
          217 216 368 369 217 216
          370 371 221 220 223 222
          363 372 225 224 364 373
          225 224 364 373 227 226
          365 374 375 210 213 376
          377 214 217 378 377 214
          217 378 379 218 221 380
          375 381 73 210 377 382
          75 214 377 382 75 214
          379 383 77 218 381 354
          0 73 382 355 4 75
          382 355 4 75 383 356
          8 77 297 300 342 384
          301 304 346 385 301 304
          346 385 305 308 350 386
          376 213 367 387 378 217
          369 388 378 217 369 388
          380 221 371 389 223 372
          390 391 225 373 392 393
          225 373 392 393 227 374
          394 395 396 357 180 205
          397 359 184 207 397 359
          184 207 398 361 188 209
          387 367 357 396 388 369
          359 397 388 369 359 397
          389 371 361 398 399 747
          748 400 401 749 750 402
          401 749 750 402 403 751
          752 404 405 102 406 407
          408 106 409 410 408 106
          409 410 411 110 412 413
          180 272 232 181 184 275
          234 185 184 275 234 185
          188 278 236 189 414 415
          144 416 417 418 148 419
          417 418 148 419 420 421
          152 422 423 424 255 391
          425 426 256 393 425 426
          256 393 427 428 257 395
          429 430 431 753 432 433
          434 754 432 433 434 754
          435 436 437 755 438 399
          400 439 440 401 402 441
          440 401 402 441 442 403
          404 443 447 415 414 448
          449 418 417 450 449 418
          417 450 451 421 420 452
          453 100 99 454 455 104
          103 456 455 104 103 456
          457 108 107 458 279 459
          460 280 281 461 462 282
          281 461 462 282 283 463
          464 284 279 465 62 459
          281 466 66 461 281 466
          66 461 283 467 70 463
          448 414 100 453 450 417
          104 455 450 417 104 455
          452 420 108 457 468 469
          415 447 470 471 418 449
          470 471 418 449 472 473
          421 451 753 431 748 756
          754 434 750 757 754 434
          750 757 755 437 752 758
          400 748 431 12 402 750
          434 16 402 750 434 16
          404 752 437 20 474 31
          469 468 475 35 471 470
          475 35 471 470 476 39
          473 472 399 438 744 759
          401 440 745 760 401 440
          745 760 403 442 746 761
          339 477 351 340 343 478
          352 344 343 478 352 344
          347 479 353 348 367 366
          358 357 369 368 360 359
          369 368 360 359 371 370
          362 361 480 32 31 474
          481 36 35 475 481 36
          35 475 482 40 39 476
          483 477 339 354 484 478
          343 355 484 478 343 355
          485 479 347 356 486 483
          354 381 487 484 355 382
          487 484 355 382 488 485
          356 383 183 182 465 279
          187 186 466 281 187 186
          466 281 191 190 467 283
          762 763 489 490 764 765
          491 492 764 765 491 492
          766 767 493 494 490 489
          32 480 492 491 36 481
          492 491 36 481 494 493
          40 482 387 495 496 376
          388 497 498 378 388 497
          498 378 389 499 500 380
          501 270 272 358 502 273
          275 360 502 273 275 360
          503 276 278 362 504 331
          298 297 505 333 302 301
          505 333 302 301 506 335
          306 305 507 486 381 375
          508 487 382 377 508 487
          382 377 509 488 383 379
          318 238 237 510 319 241
          240 511 319 241 240 511
          320 244 243 512 50 49
          255 424 54 53 256 426
          54 53 256 426 58 57
          257 428 363 513 390 372
          364 514 392 373 364 514
          392 373 365 515 394 374
          516 423 391 390 517 425
          393 392 517 425 393 392
          518 427 395 394 519 520
          205 204 521 522 207 206
          521 522 207 206 523 524
          209 208 525 519 204 280
          526 521 206 282 526 521
          206 282 527 523 208 284
          528 460 459 529 530 462
          461 531 530 462 461 531
          532 464 463 533 534 90
          535 536 537 93 538 539
          537 93 538 539 540 96
          541 542 546 525 280 460
          547 526 282 462 547 526
          282 462 548 527 284 464
          759 768 747 399 760 769
          749 401 760 769 749 401
          761 770 751 403 507 375
          376 496 508 377 378 498
          508 377 378 498 509 379
          380 500 483 486 549 550
          484 487 551 552 484 487
          551 552 485 488 553 554
          231 232 271 336 233 234
          274 337 233 234 274 337
          235 236 277 338 391 255
          128 223 393 256 131 225
          393 256 131 225 395 257
          134 227 525 546 555 556
          526 547 557 558 526 547
          557 558 527 548 559 560
          519 525 556 561 521 526
          558 562 521 526 558 562
          523 527 560 563 561 556
          564 565 562 558 566 567
          562 558 566 567 563 560
          568 569 570 571 572 573
          574 575 576 577 574 575
          576 577 578 579 580 581
          2 1 300 299 6 5
          304 303 6 5 304 303
          10 9 308 307 582 299
          298 330 583 303 302 332
          583 303 302 332 584 307
          306 334 585 363 271 270
          586 364 274 273 586 364
          274 273 587 365 277 276
          555 416 144 143 557 419
          148 147 557 419 148 147
          559 422 152 151 588 589
          237 267 590 591 240 268
          590 591 240 268 592 593
          243 269 396 594 495 387
          397 595 497 388 397 595
          497 388 398 596 499 389
          594 396 205 520 595 397
          207 522 595 397 207 522
          596 398 209 524 597 598
          430 429 599 600 433 432
          599 600 433 432 601 602
          436 435 603 246 248 604
          605 249 251 606 605 249
          251 606 607 252 254 608
          72 211 210 73 74 215
          214 75 74 215 214 75
          76 219 218 77 536 535
          609 543 539 538 610 544
          539 538 610 544 542 541
          611 545 612 561 565 613
          614 562 567 615 614 562
          567 615 616 563 569 617
          618 619 620 621 622 623
          624 625 622 623 624 625
          626 627 628 629 630 588
          267 247 631 590 268 250
          631 590 268 250 632 592
          269 253 633 634 573 572
          635 636 577 576 635 636
          577 576 637 638 581 580
          60 639 81 640 64 641
          85 642 64 641 85 642
          68 643 89 644 561 612
          520 519 562 614 522 521
          562 614 522 521 563 616
          524 523 510 231 336 318
          511 233 337 319 511 233
          337 319 512 235 338 320
          640 81 80 645 642 85
          84 646 642 85 84 646
          644 89 88 647 550 648
          477 483 552 649 478 484
          552 649 478 484 554 650
          479 485 630 247 246 651
          631 250 249 652 631 250
          249 652 632 253 252 653
          633 572 654 621 635 576
          655 625 635 576 655 625
          637 580 656 629 15 43
          166 439 19 45 169 441
          19 45 169 441 23 47
          172 443 660 639 661 651
          662 641 663 652 662 641
          663 652 664 643 665 653
          666 330 288 287 667 332
          292 291 667 332 292 291
          668 334 296 295 603 660
          651 246 605 662 652 249
          605 662 652 249 607 664
          653 252 571 570 516 669
          575 574 517 670 575 574
          517 670 579 578 518 671
          672 262 261 311 673 264
          263 314 673 264 263 314
          674 266 265 317 416 555
          546 675 419 557 547 676
          419 557 547 676 422 559
          548 677 570 573 678 657
          574 577 679 658 574 577
          679 658 578 581 680 659
          495 42 14 496 497 44
          18 498 497 44 18 498
          499 46 22 500 61 529
          459 62 65 531 461 66
          65 531 461 66 69 533
          463 70 13 507 496 14
          17 508 498 18 17 508
          498 18 21 509 500 22
          114 510 237 589 118 511
          240 591 118 511 240 591
          122 512 243 593 513 669
          516 390 514 670 517 392
          514 670 517 392 515 671
          518 394 594 681 42 495
          595 682 44 497 595 682
          44 497 596 683 46 499
          114 589 588 111 118 591
          590 115 118 591 590 115
          122 593 592 119 510 114
          113 231 511 118 117 233
          511 118 117 233 512 122
          121 235 681 594 520 612
          682 595 522 614 682 595
          522 614 683 596 524 616
          684 685 645 686 687 688
          646 689 687 688 646 689
          690 691 647 692 693 654
          572 571 694 655 576 575
          694 655 576 575 695 656
          580 579 675 546 460 528
          676 547 462 530 676 547
          462 530 677 548 464 532
          439 400 12 15 441 402
          16 19 441 402 16 19
          443 404 20 23 696 672
          648 697 698 673 649 699
          698 673 649 699 700 674
          650 701 702 618 621 654
          703 622 625 655 703 622
          625 655 704 626 629 656
          72 705 212 211 74 706
          216 215 74 706 216 215
          76 707 220 219 182 112
          136 465 186 116 138 466
          186 116 138 466 190 120
          140 467 708 686 645 80
          709 689 646 84 709 689
          646 84 710 692 647 88
          91 341 310 92 94 345
          313 95 94 345 313 95
          97 349 316 98 135 630
          651 661 137 631 652 663
          137 631 652 663 139 632
          653 665 666 287 325 711
          667 291 327 712 667 291
          327 712 668 295 329 713
          444 25 714 715 445 27
          716 717 445 27 716 717
          446 29 718 719 705 720
          366 212 706 721 368 216
          706 721 368 216 707 722
          370 220 331 504 715 714
          333 505 717 716 333 505
          717 716 335 506 719 718
          13 549 486 507 17 551
          487 508 17 551 487 508
          21 553 488 509 571 669
          513 693 575 670 514 694
          575 670 514 694 579 671
          515 695 102 405 685 99
          106 408 688 103 106 408
          688 103 110 411 691 107
          672 351 477 648 673 352
          478 649 673 352 478 649
          674 353 479 650 693 513
          363 585 694 514 364 586
          694 514 364 586 695 515
          365 587 285 714 25 24
          289 716 27 26 289 716
          27 26 293 718 29 28
          143 142 192 564 147 146
          194 566 147 146 194 566
          151 150 196 568 726 489
          763 771 727 491 765 772
          727 491 765 772 728 493
          767 773 534 536 715 504
          537 539 717 505 537 539
          717 505 540 542 719 506
          165 565 564 192 168 567
          566 194 168 567 566 194
          171 569 568 196 78 81
          639 660 82 85 641 662
          82 85 641 662 86 89
          643 664 136 135 661 63
          138 137 663 67 138 137
          663 67 140 139 665 71
          729 262 672 696 730 264
          673 698 730 264 673 698
          731 266 674 700 630 135
          111 588 631 137 115 590
          631 137 115 590 632 139
          119 592 702 585 270 501
          703 586 273 502 703 586
          273 502 704 587 276 503
          585 702 654 693 586 703
          655 694 586 703 655 694
          587 704 656 695 61 406
          528 529 65 409 530 531
          65 409 530 531 69 412
          532 533 414 732 101 100
          417 733 105 104 417 733
          105 104 420 734 109 108
          63 62 465 136 67 66
          466 138 67 66 466 138
          71 70 467 140 501 720
          618 702 502 721 622 703
          502 721 622 703 503 722
          626 704 720 501 358 366
          721 502 360 368 721 502
          360 368 722 503 362 370
          685 684 454 99 688 687
          456 103 688 687 456 103
          691 690 458 107 685 405
          640 645 688 408 642 646
          688 408 642 646 691 411
          644 647 30 141 469 31
          34 145 471 35 34 145
          471 35 38 149 473 39
          598 738 739 430 600 740
          741 433 600 740 741 433
          602 742 743 436 43 42
          681 167 45 44 682 170
          45 44 682 170 47 46
          683 173 678 711 325 723
          679 712 327 724 679 712
          327 724 680 713 329 725
          619 618 720 705 623 622
          721 706 623 622 721 706
          627 626 722 707 102 101
          528 406 106 105 530 409
          106 105 530 409 110 109
          532 412 549 13 12 739
          551 17 16 741 551 17
          16 741 553 21 20 743
          711 678 573 634 712 679
          577 636 712 679 577 636
          713 680 581 638 80 79
          258 708 84 83 259 709
          84 83 259 709 88 87
          260 710 738 598 696 697
          740 600 698 699 740 600
          698 699 742 602 700 701
          714 285 288 331 716 289
          292 333 716 289 292 333
          718 293 296 335 672 311
          310 351 673 314 313 352
          673 314 313 352 674 317
          316 353 430 739 12 431
          433 741 16 434 433 741
          16 434 436 743 20 437
          193 438 439 166 195 440
          441 169 195 440 441 169
          197 442 443 172 489 726
          33 32 491 727 37 36
          491 727 37 36 493 728
          41 40 444 715 536 543
          445 717 539 544 445 717
          539 544 446 719 542 545
          3 619 705 72 7 623
          706 74 7 623 706 74
          11 627 707 76 633 666
          711 634 635 667 712 636
          635 667 712 636 637 668
          713 638 384 534 504 297
          385 537 505 301 385 537
          505 301 386 540 506 305
          726 771 744 33 727 772
          745 37 727 772 745 37
          728 773 746 41 167 613
          565 165 170 615 567 168
          170 615 567 168 173 617
          569 171 675 732 414 416
          676 733 417 419 676 733
          417 419 677 734 420 422
          550 549 739 738 552 551
          741 740 552 551 741 740
          554 553 743 742 732 675
          528 101 733 676 530 105
          733 676 530 105 734 677
          532 109 63 661 639 60
          67 663 641 64 67 663
          641 64 71 665 643 68
          384 91 90 534 385 94
          93 537 385 94 93 537
          386 97 96 540 123 744
          438 193 124 745 440 195
          124 745 440 195 125 746
          442 197 406 61 60 407
          409 65 64 410 409 65
          64 410 412 69 68 413
          154 78 660 603 158 82
          662 605 158 82 662 605
          162 86 664 607 91 384
          342 341 94 385 346 345
          94 385 346 345 97 386
          350 349 405 407 60 640
          408 410 64 642 408 410
          64 642 411 413 68 644
          648 550 738 697 649 552
          740 699 649 552 740 699
          650 554 742 701 735 92
          310 309 736 95 313 312
          736 95 313 312 737 98
          316 315 633 582 330 666
          635 583 332 667 635 583
          332 667 637 584 334 668
          167 681 612 613 170 682
          614 615 170 682 614 615
          173 683 616 617 620 2
          299 582 624 6 303 583
          624 6 303 583 628 10
          307 584 582 633 621 620
          583 635 625 624 583 635
          625 624 584 637 629 628
          141 144 415 469 145 148
          418 471 145 148 418 471
          149 152 421 473 143 564
          556 555 147 566 558 557
          147 566 558 557 151 568
          560 559 2 620 619 3
          6 624 623 7 6 624
          623 7 10 628 627 11
          729 696 598 597 730 698
          600 599 730 698 600 599
          731 700 602 601 141 30
          123 142 145 34 124 146
          145 34 124 146 149 38
          125 150 154 603 604 155
          158 605 606 159 158 605
          606 159 162 607 608 163
          193 192 142 123 195 194
          146 124 195 194 146 124
          197 196 150 125
        </DataArray>
        <DataArray type="Int64" Name="offsets" format="ascii" RangeMin="8" RangeMax="3616">
          8 16 24 32 40 48
          56 64 72 80 88 96
          104 112 120 128 136 144
          152 160 168 176 184 192
          200 208 216 224 232 240
          248 256 264 272 280 288
          296 304 312 320 328 336
          344 352 360 368 376 384
          392 400 408 416 424 432
          440 448 456 464 472 480
          488 496 504 512 520 528
          536 544 552 560 568 576
          584 592 600 608 616 624
          632 640 648 656 664 672
          680 688 696 704 712 720
          728 736 744 752 760 768
          776 784 792 800 808 816
          824 832 840 848 856 864
          872 880 888 896 904 912
          920 928 936 944 952 960
          968 976 984 992 1000 1008
          1016 1024 1032 1040 1048 1056
          1064 1072 1080 1088 1096 1104
          1112 1120 1128 1136 1144 1152
          1160 1168 1176 1184 1192 1200
          1208 1216 1224 1232 1240 1248
          1256 1264 1272 1280 1288 1296
          1304 1312 1320 1328 1336 1344
          1352 1360 1368 1376 1384 1392
          1400 1408 1416 1424 1432 1440
          1448 1456 1464 1472 1480 1488
          1496 1504 1512 1520 1528 1536
          1544 1552 1560 1568 1576 1584
          1592 1600 1608 1616 1624 1632
          1640 1648 1656 1664 1672 1680
          1688 1696 1704 1712 1720 1728
          1736 1744 1752 1760 1768 1776
          1784 1792 1800 1808 1816 1824
          1832 1840 1848 1856 1864 1872
          1880 1888 1896 1904 1912 1920
          1928 1936 1944 1952 1960 1968
          1976 1984 1992 2000 2008 2016
          2024 2032 2040 2048 2056 2064
          2072 2080 2088 2096 2104 2112
          2120 2128 2136 2144 2152 2160
          2168 2176 2184 2192 2200 2208
          2216 2224 2232 2240 2248 2256
          2264 2272 2280 2288 2296 2304
          2312 2320 2328 2336 2344 2352
          2360 2368 2376 2384 2392 2400
          2408 2416 2424 2432 2440 2448
          2456 2464 2472 2480 2488 2496
          2504 2512 2520 2528 2536 2544
          2552 2560 2568 2576 2584 2592
          2600 2608 2616 2624 2632 2640
          2648 2656 2664 2672 2680 2688
          2696 2704 2712 2720 2728 2736
          2744 2752 2760 2768 2776 2784
          2792 2800 2808 2816 2824 2832
          2840 2848 2856 2864 2872 2880
          2888 2896 2904 2912 2920 2928
          2936 2944 2952 2960 2968 2976
          2984 2992 3000 3008 3016 3024
          3032 3040 3048 3056 3064 3072
          3080 3088 3096 3104 3112 3120
          3128 3136 3144 3152 3160 3168
          3176 3184 3192 3200 3208 3216
          3224 3232 3240 3248 3256 3264
          3272 3280 3288 3296 3304 3312
          3320 3328 3336 3344 3352 3360
          3368 3376 3384 3392 3400 3408
          3416 3424 3432 3440 3448 3456
          3464 3472 3480 3488 3496 3504
          3512 3520 3528 3536 3544 3552
          3560 3568 3576 3584 3592 3600
          3608 3616
        </DataArray>
        <DataArray type="UInt8" Name="types" format="ascii" RangeMin="12" RangeMax="12">
          12 12 12 12 12 12
          12 12 12 12 12 12
          12 12 12 12 12 12
          12 12 12 12 12 12
          12 12 12 12 12 12
          12 12 12 12 12 12
          12 12 12 12 12 12
          12 12 12 12 12 12
          12 12 12 12 12 12
          12 12 12 12 12 12
          12 12 12 12 12 12
          12 12 12 12 12 12
          12 12 12 12 12 12
          12 12 12 12 12 12
          12 12 12 12 12 12
          12 12 12 12 12 12
          12 12 12 12 12 12
          12 12 12 12 12 12
          12 12 12 12 12 12
          12 12 12 12 12 12
          12 12 12 12 12 12
          12 12 12 12 12 12
          12 12 12 12 12 12
          12 12 12 12 12 12
          12 12 12 12 12 12
          12 12 12 12 12 12
          12 12 12 12 12 12
          12 12 12 12 12 12
          12 12 12 12 12 12
          12 12 12 12 12 12
          12 12 12 12 12 12
          12 12 12 12 12 12
          12 12 12 12 12 12
          12 12 12 12 12 12
          12 12 12 12 12 12
          12 12 12 12 12 12
          12 12 12 12 12 12
          12 12 12 12 12 12
          12 12 12 12 12 12
          12 12 12 12 12 12
          12 12 12 12 12 12
          12 12 12 12 12 12
          12 12 12 12 12 12
          12 12 12 12 12 12
          12 12 12 12 12 12
          12 12 12 12 12 12
          12 12 12 12 12 12
          12 12 12 12 12 12
          12 12 12 12 12 12
          12 12 12 12 12 12
          12 12 12 12 12 12
          12 12 12 12 12 12
          12 12 12 12 12 12
          12 12 12 12 12 12
          12 12 12 12 12 12
          12 12 12 12 12 12
          12 12 12 12 12 12
          12 12 12 12 12 12
          12 12 12 12 12 12
          12 12 12 12 12 12
          12 12 12 12 12 12
          12 12 12 12 12 12
          12 12 12 12 12 12
          12 12 12 12 12 12
          12 12 12 12 12 12
          12 12 12 12 12 12
          12 12 12 12 12 12
          12 12 12 12 12 12
          12 12 12 12 12 12
          12 12 12 12 12 12
          12 12 12 12 12 12
          12 12 12 12 12 12
          12 12 12 12 12 12
          12 12 12 12 12 12
          12 12 12 12 12 12
          12 12
        </DataArray>
      </Cells>
    </Piece>
  </UnstructuredGrid>
</VTKFile>
