<?xml version="1.0"?>
<VTKFile type="UnstructuredGrid" version="0.1" byte_order="LittleEndian" header_type="UInt32" compressor="vtkZLibDataCompressor">
  <UnstructuredGrid>
    <Piece NumberOfPoints="774" NumberOfCells="452">
      <PointData>
        <DataArray type="Int32" Name="libmesh_node_id" format="ascii" RangeMin="2286" RangeMax="4991">
          2286 2287 2288 2289 2290 2291
          2292 2293 2294 2295 2296 2297
          2340 2341 2342 2343 2344 2345
          2346 2347 2348 2349 2350 2351
          2400 2401 2403 2404 2406 2407
          2412 2413 2414 2415 2416 2417
          2418 2419 2420 2421 2422 2423
          2487 2488 2489 2490 2491 2492
          2523 2524 2525 2526 2527 2528
          2529 2530 2531 2532 2533 2534
          2550 2551 2552 2553 2554 2555
          2556 2557 2558 2559 2560 2561
          2580 2581 2582 2583 2584 2585
          2685 2686 2687 2688 2689 2690
          2691 2692 2693 2694 2695 2696
          2698 2699 2700 2702 2703 2704
          2706 2707 2708 2796 2797 2798
          2799 2800 2801 2802 2803 2804
          2805 2806 2807 2838 2839 2840
          2841 2842 2843 2844 2845 2846
          2847 2848 2849 2881 2883 2885
          2949 2950 2951 2952 2953 2954
          2955 2956 2957 3054 3055 3056
          3057 3058 3059 3093 3094 3095
          3096 3097 3098 3099 3100 3101
          3102 3103 3104 3117 3118 3119
          3120 3121 3122 3123 3124 3125
          3126 3127 3128 3195 3196 3197
          3198 3199 3200 3201 3202 3203
          3210 3211 3212 3213 3214 3215
          3216 3217 3218 3219 3220 3221
          3222 3223 3224 3225 3226 3227
          3252 3253 3254 3255 3256 3257
          3300 3301 3302 3303 3304 3305
          3306 3307 3308 3309 3310 3311
          3318 3319 3320 3321 3322 3323
          3324 3325 3326 3327 3328 3329
          3330 3331 3332 3333 3334 3335
          3366 3367 3368 3378 3379 3380
          3381 3382 3383 3384 3385 3386
          3387 3388 3389 3390 3391 3392
          3453 3454 3455 3456 3457 3458
          3459 3460 3461 3483 3484 3485
          3492 3493 3494 3525 3526 3528
          3529 3531 3532 3543 3544 3545
          3564 3565 3566 3567 3568 3569
          3570 3571 3572 3588 3589 3590
          3591 3592 3593 3609 3610 3611
          3612 3613 3614 3615 3616 3617
          3618 3619 3620 3630 3631 3632
          3633 3634 3635 3636 3637 3638
          3639 3640 3641 3654 3655 3656
          3657 3658 3659 3660 3661 3662
          3684 3685 3686 3687 3689 3691
          3693 3694 3695 3696 3697 3698
          3708 3709 3710 3711 3712 3713
          3735 3736 3737 3738 3739 3740
          3741 3742 3743 3744 3745 3746
          3747 3748 3749 3762 3763 3764
          3771 3772 3773 3774 3775 3776
          3777 3778 3779 3786 3787 3788
          3795 3796 3797 3798 3799 3800
          3801 3802 3803 3804 3805 3806
          3807 3808 3809 3816 3817 3818
          3834 3835 3836 3837 3838 3839
          3846 3847 3848 3849 3850 3851
          3861 3862 3863 3882 3884 3885
          3887 3888 3890 3900 3901 3902
          3903 3904 3905 3906 3907 3908
          3924 3925 3926 3927 3928 3929
          3930 3931 3932 3939 3940 3941
          3942 3943 3944 3954 3955 3956
          3958 3959 3960 3962 3963 3964
          3969 3970 3971 3972 3973 3974
          3993 3994 3995 4032 4033 4034
          4035 4036 4037 4053 4054 4055
          4056 4057 4058 4059 4060 4061
          4062 4063 4064 4089 4090 4091
          4104 4105 4106 4107 4108 4109
          4116 4117 4118 4128 4129 4130
          4167 4168 4169 4170 4171 4172
          4185 4186 4187 4208 4209 4212
          4213 4216 4217 4233 4234 4235
          4236 4237 4238 4254 4255 4256
          4257 4258 4259 4269 4270 4271
          4272 4273 4274 4284 4285 4286
          4287 4288 4289 4290 4291 4292
          4293 4294 4295 4302 4303 4304
          4314 4315 4316 4317 4318 4319
          4320 4321 4322 4323 4324 4325
          4326 4327 4328 4338 4339 4340
          4344 4345 4346 4350 4351 4352
          4353 4354 4355 4365 4366 4367
          4368 4369 4370 4371 4372 4373
          4374 4375 4376 4377 4378 4379
          4380 4381 4382 4383 4384 4385
          4386 4387 4388 4389 4390 4391
          4398 4399 4400 4416 4417 4418
          4422 4423 4424 4425 4426 4427
          4428 4429 4430 4434 4435 4436
          4437 4438 4439 4440 4441 4442
          4443 4444 4445 4458 4459 4460
          4482 4483 4484 4485 4486 4487
          4488 4489 4490 4491 4492 4493
          4494 4495 4496 4497 4498 4499
          4500 4501 4502 4506 4507 4508
          4509 4510 4511 4518 4519 4520
          4521 4522 4523 4545 4546 4547
          4566 4567 4568 4569 4570 4571
          4572 4573 4574 4599 4600 4601
          4602 4603 4604 4605 4606 4607
          4611 4612 4613 4647 4648 4649
          4650 4651 4652 4653 4654 4655
          4656 4657 4658 4677 4678 4679
          4689 4690 4691 4692 4693 4694
          4695 4696 4697 4716 4717 4718
          4743 4744 4745 4746 4747 4748
          4749 4750 4751 4779 4780 4781
          4788 4789 4790 4800 4801 4802
          4803 4804 4805 4806 4807 4808
          4809 4810 4811 4830 4831 4832
          4872 4873 4874 4902 4903 4904
          4923 4924 4925 4968 4969 4970
          4986 4987 4988 4989 4990 4991
          2880 2882 2884 3883 3873 3886
          3876 3889 3879 3957 3961 3965
          3875 3878 3881 4119 4120 4121
          4206 4207 4210 4211 4214 4215
          4347 4348 4349 4251 4252 4253
        </DataArray>
        <DataArray type="Float64" Name="resid_x" format="ascii" RangeMin="-0.0003671586293609863" RangeMax="0.000027567721704979675">
          -0.0000035011110022242775 0.0000012712316732610418 0.00000217726591866807 0.00000891865204755149 -0.00003052668137626391 -0.000018731004628236292
          -0.00004932395869117201 -0.00003543836136543632 -0.00012047466344844437 -0.00012443449167021114 -0.0001264657648749612 -0.00011566477511237849
          -0.000028966698396359902 0.000004996001131907235 0.000002691637906976352 0.000014356878417665087 -0.00008486283745501311 -0.0000132748874692723
          -0.000029375290797828413 -0.000016952237504419543 -0.0002024326613598859 -0.00012343787649982119 -0.0001156172425206825 -0.00014367682595128883
          -0.00009409463025855658 -0.000019433742890928585 -0.00012257017321104513 -0.000029765494167666162 -0.00008627868944133255 -0.00003596794674054493
          -0.000026606191419364933 -0.0000014080190426923878 0.000004292265774363813 -0.000018864927980200008 -0.00006703500849880584 -0.00001932727763520603
          -0.000050006049998607693 -0.00010754616142438778 -0.00012447604597820572 -0.00010977667187361817 -0.00012278660021403098 -0.00014418112902792046
          -0.00007093510283884275 -0.000048277587762157737 -0.00003776346969730504 -0.000030408585454555492 -0.00010505550784711826 -0.00011367604487055871
          -0.0000022003563806549664 0.000011857665001002715 -0.00006316566671582535 -0.00008383669418332573 -0.0000018775123278302885 0.000012981860487149
          -0.00015420850015779308 -0.00023147432205838925 -0.000055756757364910925 -0.000023422964097852272 -0.0001208097914453532 -0.0001669211938217785
          -0.00000315786023774578 0.000004058452565347537 0.000010475077613758543 0.000013794084608775847 -0.000033336096917579994 -0.00003394039380621994
          -0.000023235379639441334 -0.00008199007449682938 -0.00015986775714127432 -0.00010723073937901617 -0.00012234754003470627 -0.00018458575519808562
          -0.000023005763910788346 -0.00002234303669457205 -0.00002796720983555545 -0.000046078020027540134 -0.00008328897646370237 -0.00011129369865070515
          -0.0000030511270021627013 0.000002265184962269018 0.000004060866113153594 -0.000010834426316996826 -0.0000300181725751969 -0.000020203749910852054
          -0.000059988087650619804 -0.00006641018698694268 -0.0001161369828146519 -0.00012180583667831257 -0.0001465099769273337 -0.0001549627939665399
          -0.00008174582257058916 -0.00009680806956380295 -0.00004591850398716346 -0.0001486693375234438 -0.00006521211543919492 -0.000029622784222471665
          -0.00010521731304891091 -0.00009234520039269611 -0.00005630845744430957 -0.0000032651234600500345 0.000004880421025532655 0.000004887546382281727
          0.00000921716206558898 -0.000031255835471366566 -0.00005462645515197373 -0.000042655124949941836 -0.00005768479827716888 -0.00012419389924067659
          -0.0001522210187854256 -0.00013444859147115906 -0.0001380350062274438 -0.0000028669549982929254 0.0000020574104491188905 0.000008002937847528813
          0.000004762718486261974 -0.0000321069769824156 -0.00006957015998887428 -0.000030492269285087303 -0.00005633913520419753 -0.00010278194163548804
          -0.0001459056158861216 -0.0001280514001797961 -0.00011685095285995928 -0.00009020789684388575 -0.00013585641516700164 -0.00015189520367986376
          -0.00003396464401062005 -0.000022863959721508564 -0.000050261339355373025 -0.000035596843189544813 -0.000035389021769471896 -0.00006449841401878764
          -0.00006370063760741118 -0.00007408411821741012 -0.00009809106041491766 -0.000048837404742929635 -0.00007084506067744911 -0.00003707031874355948
          -0.00012287400248744973 -0.0001080700416036251 -0.00017803819511374996 -0.00008605769131442287 -0.00006919846741970659 -0.0000023164192080038504
          0.0000018867877913386621 -0.00007156664101692911 -0.0000478193479129807 -0.000010671917228144423 0.0000011536850093030182 -0.00013787595822956078
          -0.0001224419264960197 -0.00008241882902648712 -0.00008696877690983484 -0.0000965318255135017 -0.00008426075998446692 -0.00015087017653669932
          -0.00017050894409553763 -0.00007102175723394666 -0.00006152484814281323 -0.00030959756907300573 -0.00036179557585214184 -0.00009467188485023925
          -0.00008183142609929916 -0.00017464543020651035 -0.00021247202302010493 -0.000010693026790686844 -0.000018152994197162542 -0.00004306801606057675
          -0.00002784429162616675 -0.000057900280992395636 -0.00002876403510754244 -0.00009219451743769369 -0.00014376512548253118 -0.00007536500852767247
          -0.00010264724304498429 -0.00004933988521571564 -0.0001726194568920647 -0.00001634096049452083 -0.00011254072653432701 -0.00004493207736011584
          -0.0000026085002149400793 -0.00006119457453168664 -0.00009436192674572297 0.000011671868467733049 -0.000007218131036879072 -0.0000697003475860214
          -0.0000981592498185968 0.000007618111734331023 -0.0001409395673350744 -0.0001576950625432616 -0.00016337133218158328 -0.000104352969084065
          -0.00006125424173264449 -0.00008399324751540149 -0.00003468826409713799 -0.00013290880564875707 -0.00010711394935469798 -0.00015809724856108431
          -0.00015946601878091826 -0.00011173578016698826 -0.0003671586293609863 -0.00029200957549235795 -0.0002601147794036862 -0.0002150683610109283
          -0.0000857102022040479 -0.00008922821699330896 -0.000047497934059004265 -0.000049640816035978474 -0.00014070434851709557 -0.00013822109141692351
          -0.00002210241126343604 -0.00004179867447184904 -0.000012216278729937358 0.0000019648356653911847 -0.00004337975829105112 -0.00007564704477891482
          -0.00003952130840279011 -0.000027080416869995627 -0.00009583153069403494 -0.00008640109180113598 -0.00007312487379262933 -0.00009557231762985507
          -0.00005757609716616763 -0.000024843165226329234 -0.00003475012480574913 -0.000015216555779851149 -0.0000855820115417405 -0.00006737128639811019
          -0.00012965228371353277 -0.0003405868588206573 -0.00022652043231641272 -0.0000475140823119613 -0.000052104285162002384 -0.00004236758285625086
          -0.00005676334875959199 -0.00011143992677786763 -0.00014375949911649144 -0.000029922758934652904 -0.000012522362143663202 -0.00006584441305879096
          -0.00002223477488483283 0.0000014001977231004048 -0.0001558250497453173 -0.00008908446808941761 -0.00006132948091730483 -0.00013770705333726596
          -0.00000288624840427687 0.000005613718182750915 -0.00013212725307543138 -0.0000036642531182629057 0.000009206073325884745 -0.00034658726334235723
          -0.0000525700700650944 -0.00004931988971712542 -0.00022909019196415414 -0.00008644177835614997 -0.000058862781520563345 -0.00007332535366311177
          -0.00006149499085950083 -0.00003305452398283393 -0.00006357631044195955 -0.0000685955357333512 -0.00010684271085548147 -0.00015310628440090568
          -0.0001743931545039601 -0.00012215763324086026 -0.00011909783606345314 -0.000016721124918905872 0.000027567721704979675 -0.00005149333581222493
          -0.000010910343430037273 -0.00004825176429967826 -0.00007540144804085713 -0.000014964231615177681 -0.000046000033239401716 -0.000035885865881324364
          -0.00010077638526140298 -0.00012823308954201806 -0.00013431143525988176 -0.00006591428348468042 -0.00003297120039036372 -0.00006613334511529345
          -0.00003803221127163248 -0.00013764715891895207 -0.00012788707492950024 -0.00006104422985764302 -0.00000782950698352547 -0.0000013056338805661483
          -0.000006597550286091547 -0.00012307309206605055 -0.00002745915927970799 -0.000013205373860181169 -0.00005936953926788391 -0.00012044142737188679
          -0.00004736933187154957 -0.0000732040632658304 -0.00010847476850583959 -0.0000037696395338571165 -0.00002427568189045104 -0.00003065166561766475
          -0.000008666630929354824 -0.000016019445952863975 -0.00005125643386572065 -0.00003953063142336788 -0.00003455073465064018 -0.00008269809851890741
          -0.00010402571051271181 -0.00012019591134349028 -0.00012602116955040543 -0.000060012749129256804 -0.000004470276997903255 0.0000032128157601007956
          -0.00012716920396016462 -0.000008687078109304025 -0.000012852641984473223 -0.00010588165065339439 -0.00007457367478092003 -0.000051352579985675106
          -0.00010268381135025706 -0.00006265632844693059 -0.00009761577834721535 -0.00013814158500213836 -0.0002040413308908029 -0.00011980330516081494
          -0.0001222077695435253 -0.00011634562217999189 -0.00016588788212779093 -0.00015759356640909772 -0.0000946674883415266 -0.00012999565554228099
          -0.00009739202701330996 -0.00009304081629579741 -0.00005971315435404634 -0.00004600743740157398 -0.00010403374957013156 -0.00008664158377191811
          -0.00017138239825453816 -0.00006525700292203673 -0.00009127586834001278 -0.00010203519203355604 -0.000028562186473679585 -0.00004918095834671732
          -0.00008358809984310156 -0.0000704034289539246 -0.000018980579568561584 -0.000020673462782117014 -0.000070818899343017 -0.00013528471685653187
          -0.000036991111264539356 -0.00006252153176333763 -0.0001138286880975059 -0.00009755980590586688 -0.000043536684051659336 -0.00008580927942158922
          -0.00011713480570763046 -0.00007890237422247814 -0.00014510953722934872 -0.00006585167481043541 -0.00006968664236928213 -0.000027978649616788864
          -0.000041016707732932645 -0.00011537759822000115 -0.00011896713886816457 -0.00009472833461776631 -0.000051443566676745434 -0.00011950208997779654
          -0.0001050855736388634 -0.00009009243867863503 -0.00005939825523126885 -0.00003826179630062043 -0.00009773800092283125 -0.0000989509555662238
          -0.00007192267492506232 -0.00004002405489922367 -0.00005327402014598803 -0.00007127304773067722 -0.00005152942832742369 -0.00006741712566164793
          -0.00004310953374364601 -0.00011445166578510912 -0.00011496297228230645 -0.00012110336002046918 -0.00006532826580285533 -0.00011963305418083436
          -0.00008111835771540399 -0.00004856687927290437 -0.00009883853833025924 -0.00009347442493318203 -0.00003752724422512177 -0.00010707843936430539
          -0.00002216852446990103 -0.0000417267026269208 -0.000007928129134970874 -0.00003997149346712803 -0.00005242581865294582 -0.00008246298349345871
          -0.0001358181838576611 -0.00003848696246167016 -0.00011030747486368009 -0.00010548843194779778 -0.00013306101610144339 -0.0002068143792710586
          -0.0001953483071952533 -0.00014445378990934898 -0.00017831072481655497 -0.00009031891758848332 -0.0000767129498093766 -0.00009051840189799876
          -0.00005960307759411698 -0.00008214844247822484 -0.00010158822230588171 -0.00009853822143179869 -0.00011808538804114477 -0.00010287829714794583
          -0.00011939417421635845 -0.000029390454952427092 -0.00010099000762142651 -0.00008267552949370316 -0.000005563557602616953 -0.00005582221617128624
          -0.00016563627986476703 -0.00012149317439025253 -0.0001303856417136373 -0.0000956979338369024 -0.00009128571100580629 -0.00013685938924101748
          -0.00010562551511661411 -0.00009416731959088764 -0.0000794037321405483 -0.00009267128554135695 -0.000058461323371616913 -0.00017338219505447228
          -0.0001986066402448472 -0.00007940642805071008 -0.00021308842089950986 -0.00014251100349937929 -0.00010033864612779553 -0.00016542369482319685
          -0.0001553023359974759 -0.00015266129359137182 -0.00010489404474300912 -0.00007287338430206347 -0.00008760637594074083 -0.00010588526168797685
          -0.00007158105044746677 -0.00007098932718507811 -0.000058190981300665356 -0.00003505663979774809 -0.00005997501940058214 -0.000011059623841624955
          -0.000041591239351657094 -0.000059672816686617836 -0.00008823217493825197 -0.00006233192473548144 -0.000037627812520035775 -0.00003694186244462827
          -0.00001982478057938053 -0.00007442390936551746 -0.000056995741117393806 -0.0001232739510572678 -0.000024119465823480013 -0.00011434437679347376
          -0.000018758760439885336 -0.00014366767730011887 -0.0001020481174345278 -0.00018324785476320216 -0.00011598640748555766 -0.00013886528081563654
          -0.00006954554320026674 -0.00018010800922763082 -0.000041535770933354144 -0.00010370426837358337 -0.000055765610346369954 -0.00013917870204283034
          -0.000057983327559352205 -0.00001944508150408808 -0.000050970947230943864 -0.00008856484990271696 -0.0000046356938945280035 -0.00008033998164513889
          -0.00003794348217356358 -0.00001586207065340517 -0.000055167730261374004 -0.00009050267423127423 -0.000005161968625877478 -0.00008987851293529303
          -0.00009460658553861467 -0.00001466295030316811 -0.00009272695417128496 -0.00014938676906428583 -0.00007982361020131279 -0.0001958541561473126
          -0.00010283244801678748 -0.00013263510886707408 -0.00006967588223050214 -0.00011318137020921437 -0.00011791834523400269 -0.00003576154183404512
          -0.00006161569404827816 -0.00008934183113912253 -0.00011130100270673182 -0.00009795107359611421 -0.000044447026133820344 -0.00011041431185088157
          -0.00005307874496907061 -0.000009507235307015804 -0.00006925450471184647 -0.00015702767348635405 -0.000044909027885786656 -0.00010186613253626575
          -0.00017173849358753657 -0.00009053270020720205 -0.00011855485855427617 -0.00005759200580746082 -0.00004333691295510533 -0.00007383781095082753
          -0.00007818190810437997 -0.00008676662813478231 -0.00010969061352117393 -0.0000874180100502997 -0.00007538905762638493 -0.00004320752714548348
          -0.000022095481643003012 -0.00010961053765035089 -0.00008942221056340571 -0.00012043190178889773 -0.00007221242050237109 -0.0001309372023512445
          -0.00009584623848546414 -0.00016183116162293842 -0.00005267865909397429 -0.00016652947214201852 -0.0001319477628674015 -0.00013020928507079255
          -0.000060776777161208884 -0.00008634760049552881 -0.000009694961029538263 -0.000026028134887834398 -0.0001826070141639491 -0.000003997914237441336
          -0.00005663296879498958 -0.00012870994961655668 -0.000043653056740478036 -0.00003437126753436104 -0.00003975896547148139 -0.000055552754292698125
          -0.00012078315252095351 -0.000058764654366161295 -0.00012613241489312088 -0.00007171587590182327 -0.00006529764184026732 -0.000012549441896325675
          -0.000010417491480563257 -0.0001060948684274976 -0.00007369020963832185 -0.00014692367630564362 -0.0000782768854596938 -0.000045645042628716936
          -0.000005380096057550077 -0.00011156945996360079 -0.00008157880559922503 -0.00007391223623887111 -0.0000028012586130721218 -0.00007164599676001693
          -0.00013530270402828393 -0.00011509071733573073 -0.000053651829146517116 -0.00005093835593572571 -0.00008894198455555724 -0.00006845194081628314
          -0.00005354708341531733 -0.00002017456198077916 -0.0000020531233437814933 0.000005039215931423868 -0.0000946249980753322 -0.000024068566186530305
          -0.00003488915448723873 -0.00001379277097401932 -0.00011075298755169882 -0.00006821467507100998 -0.00008499441153242415 -0.0000680721317858346
          -0.000094443075491224 -0.000028701398912200915 -0.0000988744761487581 -0.00009887586902768142 -0.000051096336195710634 -0.0001099024384545455
          -0.00016217760008663262 -0.0001573467860573885 -0.00012686574176212773 -0.00010972672947362483 -0.00011141613543808049 -0.00008305363856120351
          -0.0001370916094661223 -0.000026590096124656792 -0.00007957415842585469 -0.00010909991545027253 -0.000028130461518394156 -0.00021739481351978895
          -0.000004618783144394456 -0.00016670990389222595 -0.000057873920347617513 -0.000052363272196931376 -0.00017029213495955986 -0.00001207682130122123
          -0.0003422482843138397 -0.00006081632646903756 -0.00021705783962389091 -0.00009934667766042793 -0.0001900137764918597 -0.00012518377241077516
          -0.00008689131986505672 -0.00007864566239912385 -0.000012669654774644101 -0.00003994324214601219 -0.000045822754938473764 -0.00004504938419780391
          -0.000008672220029648514 -0.00007671469922421181 -0.00010106101604545614 -0.00004444735031183811 -0.0000013951574189263738 -0.00009153171601816723
          -0.00006051654716543453 -0.000033716110802384236 -0.00006078217234772865 -0.00012538259055361323 -0.00010953844007133284 -0.00007941897978147594
          -0.0001869114353763024 -0.0001284928742251168 -0.0001353251320006521 -0.00013256711581144387 -0.00003763691490465959 -0.000049449695042280695
          -0.00002574503171093312 -0.00010805378111955477 -0.0000355480283436016 -0.00011581436167240611 -0.00015760782211993174 -0.00008137484822379193
          -0.00006877465995325238 -0.00015242826898242967 -0.00011739535252885958 -0.0001207860687353346 -0.00004920069704716923 -0.00011113677529595023
          -0.00007108993006088582 -0.000005034808366666255 -0.0000687744443683691 -0.00014438194066901389 -0.00009791618961507709 -0.00011951470821536248
          -0.00012922973753215494 -0.00008694445184209698 -0.00011103977295823242 -0.00011959459118493498 -0.0001924446609935515 -0.0001236270943105744
          -0.00016792449015934352 -0.00018172692880913388 -0.00008789472012749044 -0.00007042090037234772 -0.00011132675712488549 -0.00011175374344096767
          -0.00009007847340525288 -0.000012237782290203114 -0.00007070192877511872 -0.00009131399486106417 -0.000060525028353630717 -0.00005968550500767833
          -0.00008298718420973739 0.0000014788094522266704 -0.0000683020408041024 -0.00016355020082148286 -0.00006226139197496039 -0.00010666261916192354
          -0.00007129112567261231 -0.0000904552282401383 -0.00008268744947947937 -0.00013450841825846105 -0.000028427461989999347 -0.000057911369744756414
          -0.00006116699221125899 -0.0001638424874523814 -0.000045621244527449534 -0.00003003888090313822 -0.00006601066928180188 -0.000012176235320904283
          -0.0000439191989460852 -0.00010841236297975954 -0.00004070542831335899 -0.00009525100341933879 5.823570461416239e-7 -0.00005859063789159791
          -0.00005510905963168611 -0.00006817171426787283 4.7525517610225165e-7 -0.000045902095906935614 -0.00004161191973350853 -0.00005407588338091074
          -0.0001332694418367808 -0.00003195387473953204 -0.00008781660528311974 -0.00012357508731897227 -0.00008986435940760984 -0.00010503428174901686
          -0.00007726032312538322 -0.000043444870815978476 -0.00006997553358800701 -0.00009054989174872574 -0.000013274310181721205 -0.00005150303934930989
          -0.00006361582117486719 -0.00007416424537920463 -0.000017491158398108553 -0.000049049391815714216 -0.00004191262328090417 -0.00006332738442171859
          -0.00013801126569945588 -0.00004143205879580947 -0.00007889040635822298 -0.00011452083124785517 -0.00013645225075098466 -0.00008977005552646133
          -0.00016043767167928102 -0.00020935287170686934 -0.00012338426023106308 -0.00015891750427510232 -0.00021201045408147934 -0.000135301623821249
          -0.00017886358577756667 -0.00009713895614815726 -0.00009246958146791329 -0.00012624407060113363 -0.00017123802157126278 -0.00010214847430023433
          -0.00013230406473341283 -0.00016401937580834414 -0.00003061935789272496 -0.000055151786889640064 -0.00005148742376026583 -0.00009581558991378358
          -0.00012653422963992966 -0.000234736717686701 -0.00014613771923954744 -0.00012258692431554863 -0.0001121249401787594 -0.00018329998785659996
          -0.00018156402788704895 -0.00012474775950543915 -0.0001375068580840022 -0.0001342862335538264 -0.0002023761249265732 -0.00012274441416693094
          -0.00010371465143776959 -0.00010478419272175188 -0.00011286295118839718 -0.0000878619189625951 -0.00010226651884703841 -0.00008982888505215669
          -0.00005654683830380591 -0.00014159973243543789 -0.00011628405953612031 -0.00023360349980450223 -0.00008455910039595338 -0.00019008162669020834
          -0.00012268859099373586 -0.00012115676165436184 -0.00008318971566945166 -0.00017901432756861624 -0.0002354076745270106 -0.00015726477835187325
        </DataArray>
        <DataArray type="Float64" Name="resid_y" format="ascii" RangeMin="-0.021360710844892397" RangeMax="0.008080523962659427">
          -4.817406401673441e-7 -0.0000014532133186528906 1.2566692293919986e-7 -0.000009294940932543655 0.000011240409579078153 -0.000001590570043369377
          0.000024565519106486576 0.000005615137300813561 0.000038797033169663334 0.000037375856904510105 0.000051247344079544187 0.00004360078842530202
          0.000014960415013873588 0.0000031270717672574055 6.429620344962535e-7 -0.000003477450637395449 0.00003476978933296057 0.000006662089362370963
          -0.000007335215140856326 0.000015222145501382275 0.000024403754097120783 0.000005686180809729574 0.000008526353218302717 0.000028711074450474272
          0.0001276442344536879 0.0000737980454641636 0.00017177135375644192 0.000140573420679857 0.00010863203644049298 0.00008535878990306202
          -0.000018162230400696738 -0.000001496513269847225 0.0000020435537908488656 -0.00003606218645879839 -0.000032278182290200247 0.000005766976084278005
          0.000014386501740312405 -0.00008148704489702174 -0.000007066994949552884 0.00001549970477914128 0.000013282669862238472 -0.00003012373232741698
          -0.000016163315788448804 -0.00002380211887226258 0.000002078079872195205 0.00001389521206748498 0.000016495687240554013 0.000025566716573683507
          -0.0000015753884352901967 -0.0000035231662340717146 0.00004325028700309305 0.000021722870029542828 -0.0000025691638270465555 0.0000014727438687849037
          0.00011364367161411683 0.00004910807505365596 0.0000043191325947208176 0.000009486638638509653 0.00006796082168310149 0.000029509724813911193
          -5.008085683870078e-7 -0.000006070457681025838 -0.00000548775345601913 6.91252492896529e-7 -0.000005752353680853629 -0.000011244271046140925
          0.0000018957780230058514 0.000024421221184041733 0.000005570319386463988 0.000006103243319793058 0.00001879635008795403 0.00002295263423092355
          0.000006346435557238669 0.000029469422345000836 0.000015447070059820822 0.00003587972579139655 0.000030765155202184744 0.000034514775691092334
          -2.5811456155311156e-7 -2.1107152203630151e-7 0.0000020410314980288653 -0.000021400624166931226 0.000005447480299325055 -0.000002964308651510865
          0.000023925573248812702 -0.000028238674776004044 0.000006846902143328162 0.000003225183750698614 0.000017231098682845625 -0.000003899857023354869
          -0.000011676972957650605 0.000032731422577187905 0.000003942101021194716 -0.000005338426771001048 0.000012401722177073776 -0.00002187104056219913
          0.000027953348725108518 0.00001954140207849689 -0.000009348964393968498 -9.569981505820266e-8 -0.0000018057838754681303 -0.000003838623765273523
          0.0000028839686171666917 -0.000003228356799492597 -0.000004703899698328424 -0.000014831056613661547 3.879257284324089e-9 0.000003467002833164529
          0.0000037038360237956307 0.0000037264853570858052 -1.6422070293290597e-7 -5.954948610275256e-7 -0.0000032952778048689 -0.0000064418852522467665
          8.332633315228169e-7 0.0000044978195059188625 0.000005051952469762189 -0.000005829442107804089 0.000017264449645878165 0.000015740934195868864
          0.000023893339185625424 0.000019312232596414847 0.000019622255906153428 0.000015850185329142202 0.000013405526495849276 0.000010926618370428291
          0.000020737595316159055 0.000005839779407473995 0.0000018168544250940152 0.000013885702787503479 0.000004410615926965945 0.000024405895411638845
          0.000015128301926646548 0.000015067985812462596 0.00003715755213146328 0.000014448613280059245 0.00007072444630581726 0.000002363347328066716
          0.00006710361898979497 0.000004868059953320515 0.000025195158921161812 0.000004978377223902931 0.00001885091166453374 0.000003840601208699324
          -0.0000013203555701145515 0.000013967569264869547 0.000009642903710348986 0.0000036821076831099024 -0.000008145765378705927 0.000015547145422186315
          0.000005942937153242478 0.000002406652062334185 0.000008849125275224665 -4.3434309289361664e-7 0.000026251539113674848 0.000041720763290001815
          0.00003702656220166273 -0.00000936800209360442 0.000021064002840802572 0.00008367214712673605 0.00006151935152272532 -0.000014505076061774227
          0.000003769756409266207 0.000034229321695208 0.00002322743141728971 -0.000005844393798865553 0.00000545363133419921 -0.000008346689665980796
          0.0000057740961466930946 -0.0000032367366009011453 0.000024159123894387097 0.000015107187510350877 0.000011459698274023794 0.000018349043462416795
          -0.010677132743123138 -0.006661700480972227 -0.021360710844892397 -0.013339536662606254 -0.010707785691602316 -0.006875291334062545
          -0.0000014092965264231663 -0.000023520134087831948 5.27921716947724e-7 -0.0000017546716773444646 -0.0000028809806428648985 -0.00001891057909721508
          0.000015300841911439645 0.000007081383518787402 0.000037365940921060825 0.000030075482698215666 0.000042863787552657826 0.000023299972820234154
          -0.0000075963395386670525 0.00003432585023718229 -0.000023550964560704532 0.00004747648619573609 7.585120685412242e-8 0.000020369195937737505
          0.00000384978300684187 -0.000008833689446656641 0.000018133883882096025 -0.000013773447691533061 0.00002030222437372168 0.00001319263010121901
          0.00003847670260243106 0.000021331834797135366 0.000019866292075686014 -0.000006327648609886268 0.000016976343728870164 0.000016880541750416162
          0.000005630520116899594 0.00001102941482521505 -0.000004997373698471114 -4.832226530035802e-7 -0.0000023481977791265166 0.000033990306181817115
          0.00001225066502687569 0.00001982413436694714 0.0000059171129674576856 0.000029446307309608996 0.000026456377853553356 0.000029649716750515358
          -0.0000011737971412021514 -0.000007487617730695187 0.000009767296167554826 0.000022283909213766454 0.000025512912979697155 0.00003257737952179658
          0.000011970697838083362 0.0000413481799308793 0.00002334763271785549 0.000028404738171125023 0.000028250448557031425 0.000010291513971427864
          0.000013246639785672969 0.00002085022917143811 0.00002736723731426669 0.000008283665884535921 0.000003087763001617975 -0.000014254018236417587
          0.000006121434731270721 0.0000014644181744846892 -0.000009696000130055699 0.000007995982095588346 0.00002212724770993171 0.00001642123410235813
          -4.4751644771899926e-7 -8.374129665123919e-7 0.000008288313957966788 -0.0000026811193323621717 -0.000005879728555801926 0.000009415235816885581
          -0.000007793049986379481 0.000002886683300548209 0.0000015545893025355542 0.000027755768247431784 0.00001409860327802187 0.000020998683740972197
          -0.003409918103943948 -0.006831165253532891 -0.003527926798110678 -0.000012856172532077492 0.000020842641597872136 -0.000020358441586112996
          0.000013673446193178396 -0.000002101996612543372 0.000006410204015452198 -0.000007932517610107761 -0.000010711710654407228 0.000003441490619737189
          -0.000008345800799956608 0.00002207804394512708 0.00002225046847472139 -0.000004353407683800256 -0.000013458789039226364 0.00005387856935268245
          0.000012734915168542 0.000009346528294956746 0.00004954179289486018 -0.000012151044347323732 0.000011689427949344855 -0.00001833652153074728
          -0.000001255352584339682 0.000006782100301633634 0.0000073503682719838065 0.000046939804441471084 0.00003641990712874993 -0.0000011667340420701104
          -0.0000033108294353761426 0.00010160489894774083 0.00008948051778919289 0.0000030889786179705628 0.000013577183020765504 0.00010518269940341246
          0.00007485283467099577 0.00005012887877416409 0.00005342245831559903 -1.6395135956411705e-7 0.000023171616312895032 0.00004243833467323325
          0.000004057953138956669 0.0000010433881157644043 0.000012730094514835054 0.000030007893311705287 0.000021415506124818594 0.00003200012584466099
          0.00003307626448091931 0.00005160619793770837 0.000057018570021446537 -0.000017995025432343548 -0.0000010388679958341432 0.000003769556149923678
          -0.00003979888440684351 0.000003429345217368686 0.000022923982166217494 -0.000018519773095649825 0.000014264992658639258 0.00002171259204437545
          0.000019407560337050996 4.914033455809264e-7 0.00001176386409045601 0.000008163247983940941 0.000006665648775387029 0.000011333535401908228
          0.00012277314012909893 0.00008721070582458357 0.00019006380668511874 0.00014889175777241248 0.00010816977220663715 0.0001119667703884282
          0.00008615426257838673 0.00006961595549746444 0.00004722301832279195 0.000033343731375708174 0.000057387586578779796 0.00005741647195276617
          0.0000583619409338116 0.00002769830426931595 0.00001655942716326849 0.00001604923648211142 -0.000006967946942593867 0.000009380190026067603
          0.000013954089832286624 0.0000031675566299011262 -0.0000018340899913460093 0.000006262127367711798 0.000026745700782873465 0.000029182257905807814
          0.000011933755318770632 0.000024129702231645567 0.00004975431290771531 0.0000038439407015443405 0.000007108938816051402 0.000020148459608680322
          0.000027803931978615665 0.00001242506276301087 0.00003273271622861347 -0.000015110856844495132 -0.000002138301076115047 -4.1875972550502183e-7
          0.00003174877626113161 0.00001965380033745138 0.00004041694974352746 0.00002958411253820535 0.00002426791281103305 0.00003239761658761688
          -0.000019081622806867496 -0.00002649630790448748 0.000012892808727326885 0.000019922605239178562 0.00003787306972743987 0.000039799453470918886
          0.00001368070416172748 0.000008331104921191186 0.00001323569246039968 0.00003275743030090126 0.00003840051033961612 0.000015489948437379455
          0.000018874119757953875 0.000016887365550728728 0.000018514281289703192 0.000021485692627233252 -0.000002863467172255392 0.00002192428449659771
          0.000024109922032585288 0.000008974627820025269 0.00003165679591726235 0.000010982561655050252 -0.000001995234571148391 0.000011032744641780758
          0.000006459997104149573 0.000022573902510160046 -0.0000035607860200742233 0.000007177683865827386 0.00001299101306510668 0.000018348353468549197
          0.000004701571664573502 0.00000568609453467997 0.000022549591362015092 0.00000399699363846668 0.00004989122716370607 0.0000060088623436639794
          0.00005731132709390317 -0.000001974337381491307 0.000012679126987517539 0.00002379912995299641 0.00006437138274616703 0.000029950957629808184
          0.000018962981127360317 0.00003246749867384451 7.362879671570519e-7 0.00000778884967530982 0.000005809888152108022 -0.000009835337881673408
          -0.00002927215696819311 -0.000017054914146874696 0.000004027475126244426 -0.0000164256619401542 0.000002320509259203158 0.000006248361532697102
          0.000017076432233728393 0.000021563475050152478 0.000018361872578264468 0.00009850359833925466 0.00009275864489170782 0.00015410342210522496
          0.00015168703512617038 0.00007499451930342328 0.00007670295978423267 0.00000423369062012291 0.000005513445635799488 0.0000016905860481678317
          0.00001029339161336823 0.00003120012126766984 0.000015910442083597216 0.000012608121053046817 0.000024990956980408888 0.00002921181845593271
          0.000020252636809854965 0.000011969006328051493 0.00005302347172020513 8.832834419527681e-7 0.000020719311745941767 0.000009641014715768437
          0.0000856626405888964 0.0001287828748386087 0.00007012558985254776 0.0027879542667460216 0.0037184377460948064 0.005577812172353127
          0.007436901668685015 0.0027395411001306233 0.003672273746771839 0.004041565955352924 0.0037701833781316994 0.008080523962659427
          0.007551454697947203 0.004028547131378409 0.0038030526808957377 -0.000020488348802758525 0.00000352505289472841 -0.000011500451524144037
          -0.0000017632626944522403 0.00001769089904240964 0.000008025587710488828 0.000025633534570116204 0.00001356205828151845 0.00001561412796971572
          0.0012411935564403938 -0.000011196685026451138 0.0024816681915705973 0.000010460613576367779 0.0011781204930487019 0.00001735387770358007
          -0.0008357039582207412 -0.0016801213168917192 -0.0009491433937745037 0.000018898662742563785 0.000005477819719891183 0.000016571460887007325
          -0.0033544464667646396 -0.006753494503755673 -0.003563539837371293 0.000015994002589232725 -0.000004838631521042122 0.000011400191675045579
          0.000023060766548503586 -0.000009311188310839706 0.000006206222592239699 -0.000029989174402810567 -0.006697501422626504 -0.00004364217341439134
          -0.013454239721193834 -0.00001768333553056438 -0.007028804428708505 0.00004543302241557471 0.0000648778274819602 0.000003875628617001307
          -0.000005998149206210869 0.0000035082075467568474 -0.000003263986357786991 0.00001477273466407407 0.000006798164438758317 0.000018907683041488252
          0.000041133277777414406 0.00001274561016774943 0.00004730745327730969 0.00005176708860000351 0.000003211588413281133 0.000011150914274450988
          0.000046805038981031534 0.000021856411031960857 0.000013866068174665964 0.000015027476155412764 0.0000122221455655519 0.00001760029357218522
          0.00006728495687828573 0.00011472340234311429 0.00007254074375146607 0.000018673426148115577 0.00002380122919704887 -0.00001232876166862274
          -0.000006506434388819492 0.000002966746905479819 0.000012667616567783 0.000004348688484635019 -0.000027906010345805986 0.0000014516601830757113
          -0.000005140258329625318 -0.0000030641065295374664 -0.000026424360326314945 0.00001647088752853394 -0.000003726864475427777 0.00002037340903926054
          0.00001715385314132213 0.000010940158182481952 -7.877053063241185e-7 0.0000038841452919650965 0.000036336068560981205 0.000008478576706020743
          0.00004253863833120208 0.000048868238928002905 0.000039438368219280734 0.00006913157192897298 0.00008870756821726528 0.0000578331269919085
          0.00003182570346240413 0.000019006457544665635 0.000015209802244817909 0.000010483903922076446 0.00001668117401447053 -0.000027561987614195885
          -0.0000029846217771533484 -0.000011277216468286513 0.00001102569036947644 0.000041749121095846996 0.000028486289084524857 0.000004440934585610702
          -0.000006335097824074036 -0.000004196980108106692 -0.000003710635629885616 0.000015230366151098781 -0.000008090910687535459 0.000007806467959055145
          0.000012815264059100112 0.000007733368124634863 -0.000022506113122403634 0.00000347577108843734 -0.000004983514838971439 0.000006757878720930414
          0.000010790988832377196 -2.571217599528497e-7 3.8102637139186823e-7 -5.402879839303681e-7 0.00004275993432107522 0.000014335445680449012
          0.000015976960668949783 0.0000252332590604731 0.00004790043600470806 0.000026333988500873082 0.00003889369486540471 0.00004550485436675706
          0.000046578791441009544 0.0000054393988597827535 0.00004076441045752148 0.00003352172916478834 0.000024443094205739424 0.000030970932737978824
          0.000014029593480553368 0.000022580931164180502 0.000005467379418750914 0.000017502760515951724 0.000009739986329209858 0.000017772483542406953
          -0.0000019423899883762308 -0.000014845854660507606 0.000012956937148880798 -0.00002023634852744982 0.000006405861046384492 -0.000023994655853308566
          -0.000002145962068872756 -0.0000043796679669028116 0.00000181357982564391 0.000003158735543490115 -0.000008220184591996825 -0.000004654461178605436
          -0.0000020648664791726723 -0.000011942736506539054 6.398239827017094e-8 0.0000524114437511318 0.00009868406594500112 0.000057249839704924185
          0.00002265950644146945 0.000007448880105721985 0.000004447109143282391 0.00001487355902879189 0.000006646044766733632 0.000008179477344644366
          -0.000003960363008977813 0.000004516229349806286 0.000038338833443346196 0.000017534893176842856 0.00000431973060309801 0.00001075356934249624
          0.00002730163705390136 0.00005000670283899621 0.00002676615903551144 0.000033834035611283645 0.000046319570357994735 0.00005543934004202493
          0.000005081214863318206 -0.000006837986207548774 0.000007958490808030686 0.00003791342874330875 0.000002843200517131314 0.000014053395697703752
          0.000004443287132278699 0.000056222465005511396 0.00001627253983728632 -0.00003142647026405207 -0.000014422261232506701 -0.00002230188350769817
          -0.0000034213409586255706 0.000005975214622275758 0.000011667860115692355 0.000009202510751910638 0.000014237238342948303 0.000011208698701518915
          0.000010684676583436366 -0.000005029939317818116 0.000007770736825713116 0.000014163808558595057 0.000010111250962677003 0.000013400011948582966
          0.00005783529136177065 0.00006939133868959311 0.000051672718618911775 0.00010233973519090458 0.00014901908570677525 0.0000814422911158616
          0.000021487992445861867 0.00002459642090720459 0.000027455670132370074 0.000025054887409430493 0.00000921643098060346 0.00002417566692168951
          0.00007690944461137203 0.000021560035330724786 0.00004989693915121232 0.00001881131736616512 0.000009439977399574445 0.000014965831915727743
          0.0000034815313747454772 0.000009039845634696564 0.000016958501256388904 0.00001590890911213629 -0.000014301163935957675 7.754549172776272e-8
          0.00006531109252466 0.00007619941468729047 0.000059687607702429285 0.000011482742476586882 0.0000021766808185079076 0.000007593154399188062
          0.002873095194707724 -0.0000043565065152553675 0.0013714798529766126 0.005757845982522749 -0.000019247234092795293 0.00274198716497165
          0.002912924020295392 -0.000006673603076267753 0.0013796604075333328 0.00002082320760087887 -0.0000034212531737892043 0.000012448554292847705
          0.00001365596227840063 0.000010672953487363482 -0.0000063093111475637925 -0.000003801656883947735 -0.000005208495364396673 -0.0000034797924308490463
          0.000009090340650379225 -0.0000216358732888864 0.000013007206677725924 0.00006553265019793448 0.0000740734193429869 0.000043924091397303986
          -0.0007398335881657383 -0.0014819737991750405 -0.0007842474280682151 0.00006101488853836948 -0.000009424600211182035 0.000024351407386914714
          0.0000446633773150025 0.000028666532942703965 0.000006390570818849434 0.0000081553651377856 0.000039510127096355555 0.000035408831273741476
          0.000057762413339963216 0.00005994234407165301 0.000042313374455992675 0.00007398128646270846 0.00009652550264264981 0.00006439944538037118
          -0.000025730373751067055 -0.00005058648298703061 -0.000023578761629744743 -0.00000794153971305639 -0.00003623378692464013 -0.000014327618943571485
          0.0000023212833855255563 0.00000463353631132259 0.000007138107388192372 0.00000892875258039303 0.000007533447521383338 0.0000051492288188938196
          0.000013772328728084253 0.000004515381570446321 -0.000012143817153971708 -0.000023364523689619124 -0.000004921809066182718 -0.000008937741743802324
          -0.0000019713420937373695 -0.000018440019862846387 -0.00001900057385735088 0.000005155156433228961 0.000019862327612474306 0.000029266873486267705
          0.000033133043723754946 0.0000026752223366288685 -0.000005935012757586969 0.000007029396919530639 0.00000839693624034299 0.000006459677785154716
          0.000029397933149407154 0.000030380595966033458 -0.000004050762551834411 0.000049998864724392234 0.00007736055275180858 0.000030118776588697847
          -0.010466639048821013 -0.00006963430920920843 -0.02094095586109823 -0.00009488813039453675 -0.010802684031390673 -0.000036354224435604376
          0.000011183517252698685 0.000036332681837327515 0.000013985778513000589 -0.00008065001877181205 -0.00014412584263569228 -0.000070839421204269
        </DataArray>
        <DataArray type="Float64" Name="resid_z" format="ascii" RangeMin="0" RangeMax="0">
          0 0 0 0 0 0
          0 0 0 0 0 0
          0 0 0 0 0 0
          0 0 0 0 0 0
          0 0 0 0 0 0
          0 0 0 0 0 0
          0 0 0 0 0 0
          0 0 0 0 0 0
          0 0 0 0 0 0
          0 0 0 0 0 0
          0 0 0 0 0 0
          0 0 0 0 0 0
          0 0 0 0 0 0
          0 0 0 0 0 0
          0 0 0 0 0 0
          0 0 0 0 0 0
          0 0 0 0 0 0
          0 0 0 0 0 0
          0 0 0 0 0 0
          0 0 0 0 0 0
          0 0 0 0 0 0
          0 0 0 0 0 0
          0 0 0 0 0 0
          0 0 0 0 0 0
          0 0 0 0 0 0
          0 0 0 0 0 0
          0 0 0 0 0 0
          0 0 0 0 0 0
          0 0 0 0 0 0
          0 0 0 0 0 0
          0 0 0 0 0 0
          0 0 0 0 0 0
          0 0 0 0 0 0
          0 0 0 0 0 0
          0 0 0 0 0 0
          0 0 0 0 0 0
          0 0 0 0 0 0
          0 0 0 0 0 0
          0 0 0 0 0 0
          0 0 0 0 0 0
          0 0 0 0 0 0
          0 0 0 0 0 0
          0 0 0 0 0 0
          0 0 0 0 0 0
          0 0 0 0 0 0
          0 0 0 0 0 0
          0 0 0 0 0 0
          0 0 0 0 0 0
          0 0 0 0 0 0
          0 0 0 0 0 0
          0 0 0 0 0 0
          0 0 0 0 0 0
          0 0 0 0 0 0
          0 0 0 0 0 0
          0 0 0 0 0 0
          0 0 0 0 0 0
          0 0 0 0 0 0
          0 0 0 0 0 0
          0 0 0 0 0 0
          0 0 0 0 0 0
          0 0 0 0 0 0
          0 0 0 0 0 0
          0 0 0 0 0 0
          0 0 0 0 0 0
          0 0 0 0 0 0
          0 0 0 0 0 0
          0 0 0 0 0 0
          0 0 0 0 0 0
          0 0 0 0 0 0
          0 0 0 0 0 0
          0 0 0 0 0 0
          0 0 0 0 0 0
          0 0 0 0 0 0
          0 0 0 0 0 0
          0 0 0 0 0 0
          0 0 0 0 0 0
          0 0 0 0 0 0
          0 0 0 0 0 0
          0 0 0 0 0 0
          0 0 0 0 0 0
          0 0 0 0 0 0
          0 0 0 0 0 0
          0 0 0 0 0 0
          0 0 0 0 0 0
          0 0 0 0 0 0
          0 0 0 0 0 0
          0 0 0 0 0 0
          0 0 0 0 0 0
          0 0 0 0 0 0
          0 0 0 0 0 0
          0 0 0 0 0 0
          0 0 0 0 0 0
          0 0 0 0 0 0
          0 0 0 0 0 0
          0 0 0 0 0 0
          0 0 0 0 0 0
          0 0 0 0 0 0
          0 0 0 0 0 0
          0 0 0 0 0 0
          0 0 0 0 0 0
          0 0 0 0 0 0
          0 0 0 0 0 0
          0 0 0 0 0 0
          0 0 0 0 0 0
          0 0 0 0 0 0
          0 0 0 0 0 0
          0 0 0 0 0 0
          0 0 0 0 0 0
          0 0 0 0 0 0
          0 0 0 0 0 0
          0 0 0 0 0 0
          0 0 0 0 0 0
          0 0 0 0 0 0
          0 0 0 0 0 0
          0 0 0 0 0 0
          0 0 0 0 0 0
          0 0 0 0 0 0
          0 0 0 0 0 0
          0 0 0 0 0 0
          0 0 0 0 0 0
          0 0 0 0 0 0
          0 0 0 0 0 0
          0 0 0 0 0 0
          0 0 0 0 0 0
          0 0 0 0 0 0
          0 0 0 0 0 0
          0 0 0 0 0 0
          0 0 0 0 0 0
          0 0 0 0 0 0
        </DataArray>
        <DataArray type="Float64" Name="stress_zz" format="ascii" RangeMin="-7468.821867012429" RangeMax="7243.66057904657">
          -1555.2831940466328 -1077.992433907384 -1458.8775303775649 -1052.324362324397 -1524.7289299218296 -1012.7157251736882
          -1523.7092694634412 -1085.5457432855223 -1494.1746657970268 -947.4390164399922 -1588.5410085493165 -1118.7671242466479
          694.929646937793 -270.47629486757205 -2221.1794798071132 -215.90484917785187 745.8979606278668 -333.4783188395762
          -2339.579085085018 -220.7436734565828 796.8662743179406 -396.4803428115804 -2457.9786903629238 -225.5824977353136
          1474.1660814528054 389.5156066874966 1543.8347331522277 368.4489774173684 1613.5033848516505 347.38234814724035
          -147.44889357274414 24.932643893374916 -886.986589572462 -3653.8399704402655 -150.22395309452472 8.812360705339984
          -838.8905645651614 -3673.775805177258 -152.99901261630527 -7.3079224826949485 -790.7945395578608 -3693.7116399142506
          -1125.452334367941 -265.2267330927446 -1187.3834497049024 -248.51673360150215 -1249.3145650418637 -231.8067341102597
          -2893.224913186462 -1952.3093948377875 -205.77472700653834 266.574528743874 -2960.3355361574913 -2208.240224025791
          -263.466807729734 96.82402551504538 -3027.4461591285194 -2464.1710532137945 -321.15888845292966 -72.9264777137837
          626.1956107894005 810.3082985894371 1415.3942976848148 899.7123147950567 589.7208449225475 924.7952958946646
          1466.2025886736997 813.9124562453047 553.2460790556945 1039.282293199892 1517.010879662584 728.1125976955526
          -656.1528561927087 -1058.16541432136 -683.5800608018867 -993.7262270996079 -711.0072654110649 -929.2870398778556
          -109.3851357206671 1291.4722949304232 1160.3907115479763 798.4993225125902 -134.22545414415268 1288.5296284342214
          1213.8170923264622 871.963801355507 -159.06577256763828 1285.5869619380194 1267.2434731049484 945.4282801984239
          -923.5138026742 -483.96305559096163 -1480.7803402470013 -885.8612839810883 -486.82124950198374 -1524.4196443728874
          -848.2087652879766 -489.6794434130058 -1568.0589484987736 593.6087306830159 204.84868538478176 -239.17971318461414
          301.0032371135695 567.598555331969 271.72032923960853 -161.66461340815243 202.49410936524748 541.5883799809219
          338.5919730944354 -84.1495136316908 103.98498161692544 -1078.0932720289393 475.5614427210438 754.7857512442947
          -268.4112903666021 -1148.1881346010484 612.0825358398442 780.9867424880724 -416.8098028138042 -1218.2829971731574
          748.6036289586447 807.1877337318502 -565.2083152610062 1234.6221367595226 1304.914775684711 1375.2074146098994
          -3332.7421804909495 -1255.7563551061014 640.6005108549502 -3540.0065662282777 -1267.7437539630914 768.5832666102871
          -3747.270951965607 -1279.7311528200817 896.5660223656239 -186.02163793945715 651.06863171073 -218.89380315676533
          688.7067979719665 -251.7659683740735 726.3449642332031 161.5443922108198 857.0432299151886 540.7030049961119
          226.9127323673751 154.0298345871203 890.7995476041489 510.80591864627786 210.82367594012766 146.51527696342083
          924.5558652931093 480.90883229644396 194.73461951288013 258.4941009551743 -1666.946573269423 -876.5914691934273
          -263.07861508057294 130.21610451565095 -1777.3810826923723 -921.8514145847282 -378.1210566500542 1.9381080761276053
          -1887.815592115322 -967.1113599760298 -493.16349821953554 785.5444738203737 492.56708923415704 17.75364370990974
          801.0484250814275 582.6085690309524 7.593338483098904 816.552376342481 672.6500488277477 -2.5669667437119443
          1564.8858795179183 2760.6399544403566 1541.3383881159032 2776.0854915078003 1517.7908967138883 2791.531028575244
          302.08862043897625 1125.5637831414972 1784.6203771512817 507.5181969394872 323.2473123397151 1127.2773567819536
          1898.7835851372388 544.2536707103152 344.4060042404542 1128.99093042241 2012.9467931231957 580.9891444811431
          1038.7988624171596 1127.9518316030046 1036.7530355645404 1183.3860514152814 1034.7072087119213 1238.8202712275584
          1595.7269881212123 -361.23408149092427 1532.3788855474754 -341.1725169226864 1469.0307829737385 -321.11095235444844
          -1572.1915889545867 -1586.220519728973 -1548.9746157093982 -1585.243369095455 -1525.7576424642107 -1584.2662184619371
          -207.3958393391269 -239.3316000200557 335.12335381098285 573.6100104035686 -118.35975165228193 -233.74016453209688
          270.38336960294805 584.5770695808228 -29.32366396543695 -228.1487290441381 205.64338539491325 595.5441287580769
          -303.03631903616866 2146.4444029820706 -284.36018826614423 2170.889480235288 -265.68405749611986 2195.3345574885047
          1398.7940985070636 1290.0339635154642 1181.2738285238643 1065.1152668944164 657.0916666216689 1090.3459740002988
          651.8599443483442 1115.5766811061812 646.6282220750197 -1409.371786403949 -4362.427964455173 -2639.296523698285
          -1462.4935610941354 -4558.217211103045 -2695.56106233369 -1515.615335784321 -4754.006457750918 -2751.825600969096
          472.6753229819288 1019.6389773940625 688.437000702781 405.87196510206513 982.9392986659578 543.4522655345739
          339.06860722220154 946.2396199378534 398.4675303663668 1374.3921737643705 1309.873542628307 1245.3549114922432
          2375.591173619667 2506.8315555984423 2638.071937577217 251.54800350829476 511.7799942928663 361.3373550916545
          513.0435804134482 471.1267066750143 514.3071665340301 283.22159876580616 260.03627112012896 236.8509434744517
          649.5559268625598 1227.1977411321718 373.3866206673731 690.7272184624027 1244.4880409519405 389.26068991262173
          731.8985100622457 1261.7783407717093 405.13475915787023 1035.0019427758994 -109.99360632897887 1023.237507067123
          -50.13321418652244 1011.4730713583466 9.727177955934053 1087.3762308048922 6681.978789617028 3865.2485689969144
          1371.8159850525522 1151.7913414445868 6962.819684331799 4012.817505673075 1408.9137636463354 1216.206452084281
          7243.66057904657 4160.386442349234 1446.0115422401188 -2310.493912531466 -1625.2670505843575 -1848.5750789418544
          -1488.0201609175379 -2281.305095436942 -1652.9907348829533 -1930.122317332586 -1420.7407426104132 -2252.1162783424174
          -1680.7144191815491 -2011.669555723317 -1353.4613243032884 -1362.4612525231662 -50.50237549377916 1949.9118761599411
          -1311.1455024561076 -36.96984512982558 2145.3433677517114 -1259.8297523890487 -23.437314765871907 2340.7748593434812
          -1500.9059395292554 -1537.579325800738 -1574.2527120722204 1213.079204846415 1060.538623802212 907.9980427580089
          1447.1155215251133 7.032203549550468 1598.320205460953 -26.255577882476427 1749.5248893967928 -59.54335931450332
          -522.9677134640355 -2231.9177123150453 -505.49676192416825 -2257.0163298350903 -488.02581038430105 -2282.114947355136
          502.19398329209736 545.751069309466 589.3081553268346 -1083.7983291783075 -1723.6069162459664 -1535.4361375611606
          -1972.9624959311259 -1054.2496527370433 -1799.7492315818565 -1631.5670364838074 -1968.5522961657462 -1024.700976295779
          -1875.891546917747 -1727.697935406454 -1964.1420964003667 201.96721147075323 174.30900944219135 146.6508074136296
          -1265.10059115487 -1243.2228335831303 -1221.3450760113903 1777.9869622736073 1283.3609360466553 1868.2596027343843
          1272.8578846901553 1958.5322431951618 1262.3548333336555 1056.5300638700558 1040.5000182614938 1024.4699726529323
          1227.193428009606 1630.2383721206716 1155.7265791492337 1661.2477492590451 1084.259730288861 1692.2571263974196
          3985.9740024393 3966.392006983484 3946.810011527668 -222.1791512028381 89.40479917782825 -110.82869397283734
          119.13285957857349 0.5217632571634354 148.8609199793187 -766.8401886821149 -692.207973186289 -617.5757576904633
          -1614.82564620848 -1603.5875918095378 -1592.3495374105955 478.8385854616387 508.9515590025621 539.0645325434856
          3205.4518961952876 5172.444780575894 3167.655085284071 5228.686859569784 3129.8582743728552 5284.928938563676
          105.95939808074655 167.3557278420477 228.75205760334893 -429.2682699687879 2577.054330836503 -457.60927952970434
          2700.4452546805264 -485.9502890906208 2823.8361785245506 48.74564865929983 16.610861661054102 -353.53820425176264
          -86.66892522419053 -40.67485895042346 -547.1962356597263 -222.08349910768095 -97.96057956190104 -740.8542670676898
          359.59442497090214 251.37712413589838 660.1220026831909 366.02401667909027 254.4394609552191 625.5327875381041
          372.4536083872784 257.5017977745397 590.9435723930172 3231.6612236274927 411.7239320344951 3313.8489673702516
          452.10839006894287 3396.036711113011 492.49284810339066 -1511.0595621947405 -818.3894056576938 -2972.4309548475144
          -1442.2886437830234 -876.0803323077896 -3037.964525833601 -1373.5177253713064 -933.7712589578853 -3103.498096819687
          557.203931232671 2051.6524919128715 597.6315647612171 2192.56761876746 638.0591982897629 2333.482745622048
          -1736.90039272277 -1766.7764348454962 -1796.6524769682221 542.3482092581864 991.2173363559907 593.7966859696733
          1045.6456775199763 645.2451626811601 1100.0740186839616 792.7837457918627 556.6478916677968 853.4072875383176
          511.829807914155 914.0308292847727 467.01172416051315 1351.8672048522599 576.4345524745497 1365.9424827635958
          604.0703872972989 1380.0177606749314 631.7062221200482 1370.015325910133 1415.5720834521717 1461.1288409942101
          779.3708801919812 279.3527635106447 866.9170260639754 280.9076123935638 954.4631719359697 282.4624612764828
          1397.1839588146233 1487.8254521029905 1578.4669453913575 418.3485840136485 398.6810178102371 379.0134516068256
          1871.638165416237 2089.701156107663 2307.7641467990884 871.4609393882608 855.8976328226372 840.3343262570133
          306.05432623952964 302.1042650169414 298.15420379435307 -1151.3653233271402 4244.367670388057 -1160.0992768703718
          4535.674672452958 -1168.8332304136034 4826.981674517858 -947.9928789697396 -926.4812516394912 -988.641784314868
          -951.9370578322856 -1029.2906896599966 -977.3928640250801 -119.77703126950905 -154.32743189784878 -188.87783252618854
          -2225.3828248327154 -2227.236614944344 -2229.0904050559725 -426.4015057356536 -419.85260423601386 -413.303702736374
          509.2761656757264 541.2404207585948 573.2046758414634 -1135.5284412270626 -1230.0191166454886 -1324.5097920639146
          2055.64446728135 2028.2595394378088 2000.8746115942674 -992.7715246120969 -1362.3651644097188 -983.8118243705882
          -1362.237618365008 -974.8521241290795 -1362.1100723202976 -332.94171359911815 -281.96548870975397 -230.9892638203898
          281.0611094474013 1033.201275738929 360.3300264051305 1159.595816352843 439.5989433628597 1285.9903569667567
          -1228.0026038643653 -642.2615129803529 -1326.9109269370897 -1207.7180361995963 -623.0361011775682 -1338.4891926495493
          -1187.4334685348272 -603.8106893747835 -1350.0674583620087 -1349.1765015902452 -1389.0864699815766 -1428.9964383729075
          42.14735278563936 101.1317640193535 160.11617525306767 2842.9335939429584 2488.260084081433 2873.540594179876
          2451.276645492015 2904.1475944167933 2414.293206902597 529.5765672840122 255.49038745664535 511.7477743964873
          235.76011839229537 493.9189815089624 216.02984932794544 -118.32464205175978 -113.78184286126289 -109.23904367076602
          652.9491248229614 470.9221652428106 601.6942377437898 443.2810968554404 550.4393506646182 415.6400284680701
          2331.78463367701 3231.348970492876 -370.25862759901764 -2497.262963297425 2381.1573091687555 3293.107478417286
          -319.48665026689844 -2600.749710416033 2430.529984660502 3354.8659863416965 -268.714672934779 -2704.236457534641
          -2131.265587615401 -2212.1524199311716 -2293.039252246942 -806.5994284751798 -809.9725487424287 -813.3456690096774
          -2577.0039868629087 -2973.900134345849 -2675.5202905379315 -3233.7376444456936 -2774.0365942129542 -3493.575154545539
          -1029.2691823844093 -1027.4813859028677 -1025.6935894213261 671.7696359132432 2379.080766152982 791.0386932847911
          2381.7761340567286 910.3077506563391 2384.471501960475 -375.44463290234205 227.7800033922793 -368.5257045344509
          132.03950258102782 -361.6067761665597 36.29900176977631 105.53141091252107 112.68233466987994 119.8332584272388
          -449.5497316226255 97.26842837974739 -457.3611202234054 45.684364973110604 -465.17250882418546 -5.899698433526169
          285.4187813416952 -419.8948503546965 -1383.0895722000712 607.5387547350273 286.1347756731103 -464.7202821952257
          -1475.7837969977156 654.9847430136524 286.85077000452543 -509.54571403575477 -1568.4780217953598 702.4307312922776
          54.90538369312222 107.86281229601012 160.82024089889802 -598.6090454705267 -1479.8162105879758 -594.5552394766056
          -1665.8979606327882 -590.5014334826841 -1851.9797106776002 689.909831938679 646.0592303567844 675.5677764522351
          712.3671258177585 661.2257209657912 778.6750212787325 988.9168971016551 1079.4082010024947 1169.8995049033342
          1704.9289288857813 1627.3586488340834 1549.788368782386 334.76755560565545 375.69582761802553 416.62409963039556
          1577.423975290476 1604.6097187720418 1631.7954622536079 -467.4588190091611 -594.3879442836399 -721.3170695581186
          -66.10899806729083 475.9434414525708 0.13281980653205228 368.5778695443309 66.3746376803549 261.212297636091
          150.02898989840833 189.93656843860404 229.84414697879976 168.25320501315764 92.73194163525356 17.210678257348263
          1590.6709338335472 1640.8161716418363 1690.9614094501253 60.905525118777774 101.35280959632287 141.80009407386797
          1309.8519819389073 1251.492342451852 1193.1327029647969 -748.450977038858 -768.2234533910206 -787.9959297431831
          789.1459802001992 824.5993147410845 1026.568529490747 728.0248666779909 792.7147939496415 1067.350179133729
          666.9037531557824 760.8302731581986 1108.1318287767106 -592.5962207322034 -671.4926057743754 -750.3889908165474
          2807.9206140941183 3018.6475712298984 2838.551686380628 2986.125100343754 2869.1827586671375 2953.60262945761
          135.20766944825567 122.56589865214443 109.92412785603318 -204.3147625722204 -275.1192318874506 -345.9237012026808
          1647.9937733449622 1689.7867274606576 1731.5796815763529 1435.5864564266346 1420.0646996626097 1404.5429428985844
          -1433.478120259962 -2074.741471390929 -1517.9915599438991 -2130.8552108791982 -1602.5049996278362 -2186.968950367467
          28.25041801192505 -36.36844034881414 -100.9872987095533 1573.289401021118 1610.3464124484985 1647.4034238758788
          -7076.997409481516 -7272.9096382469725 -7468.821867012429 1163.2528834729296 1185.736344005336 1208.2198045377422
          -388.42211886697396 -347.9486630103193 -307.47520715366477 -2478.5053059165325 -2553.563849741378 -2628.6223935662238
          2948.947360560963 2424.3094777896736 2927.8224862033744 2466.9730111927315 2906.697611845785 2509.6365445957895
          -1247.3445801725961 -1248.8948628252265 -1250.4451454778568 -3192.1742478807164 -1321.3581055332008 -3386.6077498326063
          -1357.6640209627712 -3581.0412517844957 -1393.9699363923417 -3113.4947067569046 -3142.803261338349 -3172.1118159197927
          -402.65000322639366 -372.85722894183414 -343.06445465727484 -875.215402546137 -896.6023008563284 -917.9891991665195
          2865.7045536631394 129.61028129150765 2986.285776191649 29.8428475533402 3106.866998720159 -69.92458618482723
          -2109.062767440802 -2200.9634877728304 -2292.864208104859 -3004.2749686846105 -3144.124849971575 -3283.9747312585387
        </DataArray>
        <DataArray type="Float64" Name="peeq" format="ascii" RangeMin="0" RangeMax="0">
          0 0 0 0 0 0
          0 0 0 0 0 0
          0 0 0 0 0 0
          0 0 0 0 0 0
          0 0 0 0 0 0
          0 0 0 0 0 0
          0 0 0 0 0 0
          0 0 0 0 0 0
          0 0 0 0 0 0
          0 0 0 0 0 0
          0 0 0 0 0 0
          0 0 0 0 0 0
          0 0 0 0 0 0
          0 0 0 0 0 0
          0 0 0 0 0 0
          0 0 0 0 0 0
          0 0 0 0 0 0
          0 0 0 0 0 0
          0 0 0 0 0 0
          0 0 0 0 0 0
          0 0 0 0 0 0
          0 0 0 0 0 0
          0 0 0 0 0 0
          0 0 0 0 0 0
          0 0 0 0 0 0
          0 0 0 0 0 0
          0 0 0 0 0 0
          0 0 0 0 0 0
          0 0 0 0 0 0
          0 0 0 0 0 0
          0 0 0 0 0 0
          0 0 0 0 0 0
          0 0 0 0 0 0
          0 0 0 0 0 0
          0 0 0 0 0 0
          0 0 0 0 0 0
          0 0 0 0 0 0
          0 0 0 0 0 0
          0 0 0 0 0 0
          0 0 0 0 0 0
          0 0 0 0 0 0
          0 0 0 0 0 0
          0 0 0 0 0 0
          0 0 0 0 0 0
          0 0 0 0 0 0
          0 0 0 0 0 0
          0 0 0 0 0 0
          0 0 0 0 0 0
          0 0 0 0 0 0
          0 0 0 0 0 0
          0 0 0 0 0 0
          0 0 0 0 0 0
          0 0 0 0 0 0
          0 0 0 0 0 0
          0 0 0 0 0 0
          0 0 0 0 0 0
          0 0 0 0 0 0
          0 0 0 0 0 0
          0 0 0 0 0 0
          0 0 0 0 0 0
          0 0 0 0 0 0
          0 0 0 0 0 0
          0 0 0 0 0 0
          0 0 0 0 0 0
          0 0 0 0 0 0
          0 0 0 0 0 0
          0 0 0 0 0 0
          0 0 0 0 0 0
          0 0 0 0 0 0
          0 0 0 0 0 0
          0 0 0 0 0 0
          0 0 0 0 0 0
          0 0 0 0 0 0
          0 0 0 0 0 0
          0 0 0 0 0 0
          0 0 0 0 0 0
          0 0 0 0 0 0
          0 0 0 0 0 0
          0 0 0 0 0 0
          0 0 0 0 0 0
          0 0 0 0 0 0
          0 0 0 0 0 0
          0 0 0 0 0 0
          0 0 0 0 0 0
          0 0 0 0 0 0
          0 0 0 0 0 0
          0 0 0 0 0 0
          0 0 0 0 0 0
          0 0 0 0 0 0
          0 0 0 0 0 0
          0 0 0 0 0 0
          0 0 0 0 0 0
          0 0 0 0 0 0
          0 0 0 0 0 0
          0 0 0 0 0 0
          0 0 0 0 0 0
          0 0 0 0 0 0
          0 0 0 0 0 0
          0 0 0 0 0 0
          0 0 0 0 0 0
          0 0 0 0 0 0
          0 0 0 0 0 0
          0 0 0 0 0 0
          0 0 0 0 0 0
          0 0 0 0 0 0
          0 0 0 0 0 0
          0 0 0 0 0 0
          0 0 0 0 0 0
          0 0 0 0 0 0
          0 0 0 0 0 0
          0 0 0 0 0 0
          0 0 0 0 0 0
          0 0 0 0 0 0
          0 0 0 0 0 0
          0 0 0 0 0 0
          0 0 0 0 0 0
          0 0 0 0 0 0
          0 0 0 0 0 0
          0 0 0 0 0 0
          0 0 0 0 0 0
          0 0 0 0 0 0
          0 0 0 0 0 0
          0 0 0 0 0 0
          0 0 0 0 0 0
          0 0 0 0 0 0
          0 0 0 0 0 0
          0 0 0 0 0 0
          0 0 0 0 0 0
          0 0 0 0 0 0
        </DataArray>
        <DataArray type="Float64" Name="pe11" format="ascii" RangeMin="0" RangeMax="0">
          0 0 0 0 0 0
          0 0 0 0 0 0
          0 0 0 0 0 0
          0 0 0 0 0 0
          0 0 0 0 0 0
          0 0 0 0 0 0
          0 0 0 0 0 0
          0 0 0 0 0 0
          0 0 0 0 0 0
          0 0 0 0 0 0
          0 0 0 0 0 0
          0 0 0 0 0 0
          0 0 0 0 0 0
          0 0 0 0 0 0
          0 0 0 0 0 0
          0 0 0 0 0 0
          0 0 0 0 0 0
          0 0 0 0 0 0
          0 0 0 0 0 0
          0 0 0 0 0 0
          0 0 0 0 0 0
          0 0 0 0 0 0
          0 0 0 0 0 0
          0 0 0 0 0 0
          0 0 0 0 0 0
          0 0 0 0 0 0
          0 0 0 0 0 0
          0 0 0 0 0 0
          0 0 0 0 0 0
          0 0 0 0 0 0
          0 0 0 0 0 0
          0 0 0 0 0 0
          0 0 0 0 0 0
          0 0 0 0 0 0
          0 0 0 0 0 0
          0 0 0 0 0 0
          0 0 0 0 0 0
          0 0 0 0 0 0
          0 0 0 0 0 0
          0 0 0 0 0 0
          0 0 0 0 0 0
          0 0 0 0 0 0
          0 0 0 0 0 0
          0 0 0 0 0 0
          0 0 0 0 0 0
          0 0 0 0 0 0
          0 0 0 0 0 0
          0 0 0 0 0 0
          0 0 0 0 0 0
          0 0 0 0 0 0
          0 0 0 0 0 0
          0 0 0 0 0 0
          0 0 0 0 0 0
          0 0 0 0 0 0
          0 0 0 0 0 0
          0 0 0 0 0 0
          0 0 0 0 0 0
          0 0 0 0 0 0
          0 0 0 0 0 0
          0 0 0 0 0 0
          0 0 0 0 0 0
          0 0 0 0 0 0
          0 0 0 0 0 0
          0 0 0 0 0 0
          0 0 0 0 0 0
          0 0 0 0 0 0
          0 0 0 0 0 0
          0 0 0 0 0 0
          0 0 0 0 0 0
          0 0 0 0 0 0
          0 0 0 0 0 0
          0 0 0 0 0 0
          0 0 0 0 0 0
          0 0 0 0 0 0
          0 0 0 0 0 0
          0 0 0 0 0 0
          0 0 0 0 0 0
          0 0 0 0 0 0
          0 0 0 0 0 0
          0 0 0 0 0 0
          0 0 0 0 0 0
          0 0 0 0 0 0
          0 0 0 0 0 0
          0 0 0 0 0 0
          0 0 0 0 0 0
          0 0 0 0 0 0
          0 0 0 0 0 0
          0 0 0 0 0 0
          0 0 0 0 0 0
          0 0 0 0 0 0
          0 0 0 0 0 0
          0 0 0 0 0 0
          0 0 0 0 0 0
          0 0 0 0 0 0
          0 0 0 0 0 0
          0 0 0 0 0 0
          0 0 0 0 0 0
          0 0 0 0 0 0
          0 0 0 0 0 0
          0 0 0 0 0 0
          0 0 0 0 0 0
          0 0 0 0 0 0
          0 0 0 0 0 0
          0 0 0 0 0 0
          0 0 0 0 0 0
          0 0 0 0 0 0
          0 0 0 0 0 0
          0 0 0 0 0 0
          0 0 0 0 0 0
          0 0 0 0 0 0
          0 0 0 0 0 0
          0 0 0 0 0 0
          0 0 0 0 0 0
          0 0 0 0 0 0
          0 0 0 0 0 0
          0 0 0 0 0 0
          0 0 0 0 0 0
          0 0 0 0 0 0
          0 0 0 0 0 0
          0 0 0 0 0 0
          0 0 0 0 0 0
          0 0 0 0 0 0
          0 0 0 0 0 0
          0 0 0 0 0 0
          0 0 0 0 0 0
          0 0 0 0 0 0
          0 0 0 0 0 0
          0 0 0 0 0 0
          0 0 0 0 0 0
        </DataArray>
        <DataArray type="Float64" Name="pe22" format="ascii" RangeMin="0" RangeMax="0">
          0 0 0 0 0 0
          0 0 0 0 0 0
          0 0 0 0 0 0
          0 0 0 0 0 0
          0 0 0 0 0 0
          0 0 0 0 0 0
          0 0 0 0 0 0
          0 0 0 0 0 0
          0 0 0 0 0 0
          0 0 0 0 0 0
          0 0 0 0 0 0
          0 0 0 0 0 0
          0 0 0 0 0 0
          0 0 0 0 0 0
          0 0 0 0 0 0
          0 0 0 0 0 0
          0 0 0 0 0 0
          0 0 0 0 0 0
          0 0 0 0 0 0
          0 0 0 0 0 0
          0 0 0 0 0 0
          0 0 0 0 0 0
          0 0 0 0 0 0
          0 0 0 0 0 0
          0 0 0 0 0 0
          0 0 0 0 0 0
          0 0 0 0 0 0
          0 0 0 0 0 0
          0 0 0 0 0 0
          0 0 0 0 0 0
          0 0 0 0 0 0
          0 0 0 0 0 0
          0 0 0 0 0 0
          0 0 0 0 0 0
          0 0 0 0 0 0
          0 0 0 0 0 0
          0 0 0 0 0 0
          0 0 0 0 0 0
          0 0 0 0 0 0
          0 0 0 0 0 0
          0 0 0 0 0 0
          0 0 0 0 0 0
          0 0 0 0 0 0
          0 0 0 0 0 0
          0 0 0 0 0 0
          0 0 0 0 0 0
          0 0 0 0 0 0
          0 0 0 0 0 0
          0 0 0 0 0 0
          0 0 0 0 0 0
          0 0 0 0 0 0
          0 0 0 0 0 0
          0 0 0 0 0 0
          0 0 0 0 0 0
          0 0 0 0 0 0
          0 0 0 0 0 0
          0 0 0 0 0 0
          0 0 0 0 0 0
          0 0 0 0 0 0
          0 0 0 0 0 0
          0 0 0 0 0 0
          0 0 0 0 0 0
          0 0 0 0 0 0
          0 0 0 0 0 0
          0 0 0 0 0 0
          0 0 0 0 0 0
          0 0 0 0 0 0
          0 0 0 0 0 0
          0 0 0 0 0 0
          0 0 0 0 0 0
          0 0 0 0 0 0
          0 0 0 0 0 0
          0 0 0 0 0 0
          0 0 0 0 0 0
          0 0 0 0 0 0
          0 0 0 0 0 0
          0 0 0 0 0 0
          0 0 0 0 0 0
          0 0 0 0 0 0
          0 0 0 0 0 0
          0 0 0 0 0 0
          0 0 0 0 0 0
          0 0 0 0 0 0
          0 0 0 0 0 0
          0 0 0 0 0 0
          0 0 0 0 0 0
          0 0 0 0 0 0
          0 0 0 0 0 0
          0 0 0 0 0 0
          0 0 0 0 0 0
          0 0 0 0 0 0
          0 0 0 0 0 0
          0 0 0 0 0 0
          0 0 0 0 0 0
          0 0 0 0 0 0
          0 0 0 0 0 0
          0 0 0 0 0 0
          0 0 0 0 0 0
          0 0 0 0 0 0
          0 0 0 0 0 0
          0 0 0 0 0 0
          0 0 0 0 0 0
          0 0 0 0 0 0
          0 0 0 0 0 0
          0 0 0 0 0 0
          0 0 0 0 0 0
          0 0 0 0 0 0
          0 0 0 0 0 0
          0 0 0 0 0 0
          0 0 0 0 0 0
          0 0 0 0 0 0
          0 0 0 0 0 0
          0 0 0 0 0 0
          0 0 0 0 0 0
          0 0 0 0 0 0
          0 0 0 0 0 0
          0 0 0 0 0 0
          0 0 0 0 0 0
          0 0 0 0 0 0
          0 0 0 0 0 0
          0 0 0 0 0 0
          0 0 0 0 0 0
          0 0 0 0 0 0
          0 0 0 0 0 0
          0 0 0 0 0 0
          0 0 0 0 0 0
          0 0 0 0 0 0
          0 0 0 0 0 0
          0 0 0 0 0 0
        </DataArray>
        <DataArray type="Float64" Name="pe33" format="ascii" RangeMin="0" RangeMax="0">
          0 0 0 0 0 0
          0 0 0 0 0 0
          0 0 0 0 0 0
          0 0 0 0 0 0
          0 0 0 0 0 0
          0 0 0 0 0 0
          0 0 0 0 0 0
          0 0 0 0 0 0
          0 0 0 0 0 0
          0 0 0 0 0 0
          0 0 0 0 0 0
          0 0 0 0 0 0
          0 0 0 0 0 0
          0 0 0 0 0 0
          0 0 0 0 0 0
          0 0 0 0 0 0
          0 0 0 0 0 0
          0 0 0 0 0 0
          0 0 0 0 0 0
          0 0 0 0 0 0
          0 0 0 0 0 0
          0 0 0 0 0 0
          0 0 0 0 0 0
          0 0 0 0 0 0
          0 0 0 0 0 0
          0 0 0 0 0 0
          0 0 0 0 0 0
          0 0 0 0 0 0
          0 0 0 0 0 0
          0 0 0 0 0 0
          0 0 0 0 0 0
          0 0 0 0 0 0
          0 0 0 0 0 0
          0 0 0 0 0 0
          0 0 0 0 0 0
          0 0 0 0 0 0
          0 0 0 0 0 0
          0 0 0 0 0 0
          0 0 0 0 0 0
          0 0 0 0 0 0
          0 0 0 0 0 0
          0 0 0 0 0 0
          0 0 0 0 0 0
          0 0 0 0 0 0
          0 0 0 0 0 0
          0 0 0 0 0 0
          0 0 0 0 0 0
          0 0 0 0 0 0
          0 0 0 0 0 0
          0 0 0 0 0 0
          0 0 0 0 0 0
          0 0 0 0 0 0
          0 0 0 0 0 0
          0 0 0 0 0 0
          0 0 0 0 0 0
          0 0 0 0 0 0
          0 0 0 0 0 0
          0 0 0 0 0 0
          0 0 0 0 0 0
          0 0 0 0 0 0
          0 0 0 0 0 0
          0 0 0 0 0 0
          0 0 0 0 0 0
          0 0 0 0 0 0
          0 0 0 0 0 0
          0 0 0 0 0 0
          0 0 0 0 0 0
          0 0 0 0 0 0
          0 0 0 0 0 0
          0 0 0 0 0 0
          0 0 0 0 0 0
          0 0 0 0 0 0
          0 0 0 0 0 0
          0 0 0 0 0 0
          0 0 0 0 0 0
          0 0 0 0 0 0
          0 0 0 0 0 0
          0 0 0 0 0 0
          0 0 0 0 0 0
          0 0 0 0 0 0
          0 0 0 0 0 0
          0 0 0 0 0 0
          0 0 0 0 0 0
          0 0 0 0 0 0
          0 0 0 0 0 0
          0 0 0 0 0 0
          0 0 0 0 0 0
          0 0 0 0 0 0
          0 0 0 0 0 0
          0 0 0 0 0 0
          0 0 0 0 0 0
          0 0 0 0 0 0
          0 0 0 0 0 0
          0 0 0 0 0 0
          0 0 0 0 0 0
          0 0 0 0 0 0
          0 0 0 0 0 0
          0 0 0 0 0 0
          0 0 0 0 0 0
          0 0 0 0 0 0
          0 0 0 0 0 0
          0 0 0 0 0 0
          0 0 0 0 0 0
          0 0 0 0 0 0
          0 0 0 0 0 0
          0 0 0 0 0 0
          0 0 0 0 0 0
          0 0 0 0 0 0
          0 0 0 0 0 0
          0 0 0 0 0 0
          0 0 0 0 0 0
          0 0 0 0 0 0
          0 0 0 0 0 0
          0 0 0 0 0 0
          0 0 0 0 0 0
          0 0 0 0 0 0
          0 0 0 0 0 0
          0 0 0 0 0 0
          0 0 0 0 0 0
          0 0 0 0 0 0
          0 0 0 0 0 0
          0 0 0 0 0 0
          0 0 0 0 0 0
          0 0 0 0 0 0
          0 0 0 0 0 0
          0 0 0 0 0 0
          0 0 0 0 0 0
          0 0 0 0 0 0
          0 0 0 0 0 0
        </DataArray>
        <DataArray type="Float64" Name="disp_x" format="ascii" RangeMin="0.000004313292991406436" RangeMax="0.000010387373151782862">
          0.00000835776883389308 0.000008423223432479258 0.000008042755951270593 0.00000800429780839791 0.000008357769303178411 0.000008423224144861311
          0.000008042755993111916 0.000008004297847847878 0.000008357771409220405 0.000008423226454445504 0.00000804275682181477 0.000008004298594725134
          0.000009362540128069743 0.000008985796105379498 0.000008705316593557162 0.000008903705886809316 0.000009362540947132282 0.00000898579640039967
          0.000008705316945410974 0.000008903706034026402 0.000009362544104489521 0.000008985797713844489 0.000008705319107452402 0.000008903706852688602
          0.000007896876503768205 0.000008281000921865197 0.00000789687834429529 0.000008281002960217547 0.000007896883372090404 0.000008281009737286951
          0.00000865924990329461 0.000008673272555116156 0.000009053852468773354 0.00000902109331455893 0.000008659250545094353 0.000008673272620282321
          0.000009053852828232368 0.000009021094014031158 0.000008659252530319558 0.000008673274174489674 0.000009053855087768837 0.000009021097471937928
          0.000008385687851608222 0.000008563524957874235 0.000008385688525397465 0.000008563525784407689 0.000008385689896150241 0.000008563527229004542
          0.000005010573007461301 0.000005097404070909366 0.000004888051160058347 0.000004739041667149015 0.000005010570105208411 0.0000050974005430175815
          0.000004888047372835713 0.000004739038123554506 0.000005010561124881764 0.000005097390732468344 0.000004888037177219611 0.000004739028110769541
          0.000006066364642333599 0.000006412399431909936 0.000006368870737296695 0.000006038925066805425 0.0000060663629640860195 0.000006412397980975477
          0.000006368869003888235 0.000006038922817398318 0.0000060663588074133345 0.000006412394565075292 0.000006368864954955542 0.000006038917828586796
          0.000007970966282738804 0.00000826594018654841 0.000007970966637169925 0.000008265940541343692 0.000007970967391730886 0.000008265941848899178
          0.000005256734312196992 0.0000051911406587501875 0.000005562489340838797 0.00000560831609229807 0.0000052567320011646695 0.000005191138557169982
          0.000005562487073839898 0.000005608314092845046 0.00000525672605540772 0.000005191132902408573 0.000005562481982705881 0.000005608308902528094
          0.000009281424028753078 0.000009240195503953405 0.000009603148383091185 0.000009281425801121352 0.000009240197838243275 0.000009603150590704321
          0.00000928143162173069 0.000009240203073447526 0.000009603157342539814 0.000006651983435694034 0.0000070171274711196344 0.0000069144271401631555
          0.000006592281272444427 0.0000066519822699108365 0.000007017126210274196 0.00000691442597365538 0.000006592279738965667 0.000006651979586814415
          0.000007017123925932214 0.000006914423715305513 0.000006592276181938172 0.000005733192967555758 0.000006055568250950454 0.000006033733355416944
          0.0000057123714028905475 0.000005733191132900696 0.000006055566017631551 0.00000603373145457157 0.000005712368605330362 0.000005733185200960056
          0.00000605556056198651 0.000006033726006271245 0.000005712362116992616 0.000008671805151479025 0.00000867180592665696 0.000008671807766061452
          0.0000052687821411831105 0.000005498672626959938 0.000005417698804942909 0.000005268779686006696 0.000005498670146431708 0.000005417696068353672
          0.0000052687718123463 0.000005498662480836018 0.0000054176878655565635 0.000005714613561773755 0.000006046637006365304 0.0000057146116674110985
          0.000006046635606948527 0.000005714606454994577 0.000006046630831885933 0.000008285195158822241 0.000008292301843596073 0.00000795209335122731
          0.00000790761861740299 0.000008285195525499479 0.000008292302336226619 0.000007952092869607776 0.000007907618527594881 0.000008285195806809082
          0.000008292302324248924 0.000007952093007563834 0.000007907618702305745 0.000004826718793873215 0.000004924392720406393 0.0000046364996589206975
          0.000004465036593432109 0.000004826717341602673 0.000004924391362423273 0.000004636497889421275 0.000004465034743806263 0.000004826711296092737
          0.0000049243855151897116 0.000004636493093391634 0.000004465030158141386 0.000008320640092345067 0.000008648162120530224 0.000008259386324882222
          0.000008320640147826281 0.000008648162072298962 0.000008259386765843095 0.000008320640830844891 0.000008648162837744683 0.000008259387414999991
          0.000004313299779842 0.000004715755951628983 0.000004313298054808782 0.00000471575467305301 0.000004313292991406436 0.000004715748547310237
          0.00000689197832912264 0.000006404081450734342 0.00000641281983275557 0.00000679062721013194 0.00000689197730549653 0.0000064040803498695835
          0.000006412818738961614 0.000006790626273828498 0.00000689197488162408 0.000006404076277264753 0.000006412814685646464 0.000006790624390717279
          0.000008316644327293107 0.000008673652292862912 0.000008316644924436014 0.000008673652856118248 0.000008316645594753109 0.000008673654690348527
          0.00000482322258889441 0.000004804806920271676 0.000004823219988542342 0.000004804804020304145 0.000004823212301774596 0.000004804795999844409
          0.0000071496131073776 0.00000730732706884182 0.000007149613072763895 0.000007307326876647585 0.000007149611532681985 0.0000073073253135087535
          0.000008128656668947697 0.000007944081616619342 0.000007737645370784053 0.000007902937135875052 0.000008128656946854738 0.00000794408197322264
          0.000007737645064084304 0.000007902936932209478 0.000008128657743680338 0.000007944082008987882 0.000007737645195538505 0.000007902937046898933
          0.0000058167222616711185 0.000005731163532198307 0.000005816720162854216 0.000005731161497619677 0.000005816713862756417 0.0000057311556274508015
          0.000004792832738078882 0.000004792830221076588 0.0000047928239415932445 0.000005981701048468839 0.000006346155220929158 0.000005981699128295339
          0.000006346153976170703 0.000005981694294207966 0.000006346149972276605 0.000005278260861256823 0.000005255480696691479 0.0000049376239811750025
          0.000005278258429719388 0.000005255478313840029 0.0000049376211280936 0.000005278251833186716 0.000005255470771089461 0.000004937613380016305
          0.000005043700871830043 0.00000508900768805893 0.000004752585585499702 0.000005043698911372548 0.000005089005527428617 0.000004752583117138319
          0.0000050436929194454766 0.0000050889990795597385 0.000004752577071013035 0.000005348880588670142 0.0000053488782025218435 0.000005348867394874438
          0.0000051183590804215876 0.000005118358204711619 0.000005118354257558819 0.000010100561486747142 0.000010180482496348985 0.000010100563582110533
          0.000010180484752382953 0.00001010057083597696 0.000010180491714173274 0.00000514404875836702 0.000005144047162391651 0.000005144041576233623
          0.000006638607800908838 0.000006265707306155779 0.000006727205159914046 0.000006638606375948306 0.00000626570567071077 0.000006727204546164583
          0.000006638603206704665 0.000006265700610961229 0.00000672720107537447 0.0000067255303583775425 0.000007056474921576171 0.000006725529598456819
          0.000007056474167326412 0.000006725526815859647 0.000007056471936802809 0.000007760726382333846 0.000007469458734415582 0.000007434645407887875
          0.00000779227505547405 0.000007760727753496863 0.000007469459196526127 0.000007434645601848862 0.000007792275836106361 0.000007760732344817698
          0.000007469462149191408 0.000007434646417099892 0.000007792279945974048 0.000008499889922836512 0.000008126960261292038 0.00000808159111836128
          0.000008461654372712 0.000008499890922409942 0.000008126960963661714 0.000008081591925069687 0.000008461655202999207 0.000008499894354085488
          0.000008126963745017814 0.000008081593364224504 0.000008461658046857753 0.000009978502222912194 0.000009608900788389006 0.000009836445306375182
          0.000009978504244125792 0.000009608902285629389 0.000009836446957953034 0.00000997851022573484 0.000009608906872941505 0.000009836452233170706
          0.000005573929840051053 0.000005573927825043054 0.000005573919971958279 0.000004641210890149692 0.000004641208454184198 0.000004641199330935709
          0.000007256335753518686 0.0000070334358835209914 0.000007256336765914224 0.0000070334357542973545 0.0000072563369820740535 0.000007033434265437282
          0.000007748798311775425 0.000008169437986299072 0.000007748799596189952 0.000008169439966609718 0.000007748802086957495 0.000008169444019603992
          0.000005904578361426069 0.000005904577775675958 0.000005904571858489774 0.000008877718714506886 0.000009173797042432392 0.00000919700971490839
          0.000008836749261472402 0.000008877720161414401 0.000009173798457621869 0.00000919701141937631 0.000008836750866090163 0.000008877723828867486
          0.000009173802554458024 0.000009197016004055813 0.00000883675507398075 0.000009411810004673646 0.000009411811968296012 0.00000941181589119955
          0.000008721695164963185 0.00000872169638098708 0.000008721698706938354 0.000007283689634945047 0.000007095282311865713 0.0000072836893586950905
          0.000007095281677752589 0.000007283687778742039 0.00000709527902866693 0.000006184166029939828 0.000006184164791339071 0.0000061841600261530416
          0.000007443804078905119 0.000007610101226385208 0.000007443804372317468 0.000007610101777364956 0.000007443803646784684 0.000007610101893607417
          0.000005959233915924735 0.0000059592332374652005 0.00000595922794274241 0.000008409253808329585 0.000008162699356196663 0.000008409254356814745
          0.000008162699788311868 0.000008409255765980886 0.000008162700487128193 0.00000858890930408444 0.000008588910710726048 0.000008588912981920762
          0.000008867297780598204 0.000008867299540431084 0.000008867303634089158 0.000007865862750519596 0.000007865863194541543 0.000007865863588505807
          0.000006000068837990635 0.0000056826902969996964 0.00000600006728912878 0.00000568268796091004 0.000006000063075120883 0.000005682681079630026
          0.000007560529338275768 0.000007560529968822008 0.000007560529541148293 0.000009419213486937788 0.000009422815397108431 0.000009419214692822549
          0.000009422817059416551 0.000009419219609972076 0.000009422821799690319 0.000006277826155901992 0.000006505627277229335 0.000006292267561858539
          0.000006277825303459344 0.000006505626825760413 0.0000062922671844046965 0.0000062778222115307725 0.000006505623516664701 0.000006292264003722059
          0.00000742420286189624 0.00000789180559975597 0.000007551769234871702 0.00000742420274815421 0.000007891805422951852 0.00000755176929485498
          0.000007424201750220134 0.000007891805077427739 0.0000075517682270429855 0.000005644071059631004 0.0000052672404490847726 0.000005644068596116468
          0.000005267237374439788 0.000005644060828940029 0.000005267227288557592 0.000010265457289801663 0.000009896907828523166 0.00000988083970208347
          0.000010265459362373153 0.000009896909664661573 0.000009880842051308015 0.000010265465554074291 0.000009896915737641491 0.00000988084813419558
          0.000009044481294909209 0.000009013351001725877 0.000009044483091571397 0.000009013352629933996 0.000009044486231221183 0.000009013354342559434
          0.000008666076314987112 0.000008666078747081142 0.000008666085149094364 0.000007938298327098696 0.000007535479533535145 0.000007938298760512287
          0.000007535479566303395 0.00000793829891609309 0.000007535478627764492 0.000007132612342450116 0.000006729706509970834 0.0000071326126538241344
          0.000006729706168887495 0.000007132610676529689 0.000006729703697223282 0.000006674232063488145 0.0000069763816472676885 0.0000066742318543807186
          0.000006976380919376534 0.000006674229207436375 0.000006976378988884597 0.000006387032900523721 0.000006387033197591641 0.000006387030337023971
          0.000008341017746581757 0.000008293010955185195 0.000008341018315852995 0.000008293012463214314 0.000008341019121617303 0.000008293013404257135
          0.000008743618652745481 0.000008743620145743283 0.000008743621794638026 0.00000922387576411528 0.000009223877462642711 0.000009223881535812881
          0.000009146079956559484 0.000009146081161769519 0.000009146082341681371 0.000009056333794642256 0.00000905633529302519 0.000009056337862845715
          0.000008900361059263948 0.000008900362085403752 0.000008900364245977902 0.0000094056433079849 0.000009548378195484941 0.000009405644701360135
          0.000009548379579164637 0.000009405647793866802 0.00000954838258351769 0.000008146523599915928 0.000008446751791603078 0.000008146524512410738
          0.000008446752952119513 0.000008146525496575941 0.000008446754703121268 0.000007003498916267601 0.000007003498614900602 0.00000700349663243008
          0.000008546186011864561 0.000008546187660893262 0.000008546191577143478 0.000008695723132491715 0.000008695725050309284 0.000008695727521320972
          0.0000056441656569140045 0.000005644165029968318 0.000005644158874271914 0.000006294060628721253 0.000006294059465766166 0.0000062940556993154824
          0.000006095572531252798 0.000006095570982672225 0.0000060955658839541535 0.000007475126316036915 0.000007628857956726963 0.000007475126240335534
          0.000007628858021010235 0.000007475124868817255 0.0000076288570029278005 0.000007374985279370021 0.000007374985462915013 0.000007374984098523956
          0.000006841286919238395 0.0000066322926230984956 0.0000068412865459232395 0.000006632292957562519 0.000006841284466271394 0.0000066322903673014526
          0.000008914860800229465 0.000009330482569849076 0.000008969001011525953 0.000008914862769315858 0.000009330484509594772 0.000008969002700521713
          0.000008914867555920755 0.000009330490475489024 0.000008969007886997094 0.000009031821017326545 0.000009031823017563587 0.000009031828870573779
          0.0000072934262052914916 0.000007293426173223827 0.00000729342460263601 0.000009203987675127634 0.000009347962815249656 0.000009203989008788916
          0.000009347964275710823 0.000009203991044008948 0.00000934796834659714 0.00000761800456103626 0.000007684346317309682 0.0000076180055443038345
          0.000007684346415357828 0.0000076180049416087674 0.00000768434581243573 0.000007765452049585892 0.000007765452546211589 0.000007765452061903295
          0.000007992766977299113 0.000008036475076653056 0.000007992768216295477 0.000008036476077075505 0.0000079927685300949 0.000008036476504441606
          0.0000064706031596809455 0.000006566688513584509 0.00000688707899370536 0.000006801898056564319 0.000006470602194652923 0.00000656668738576977
          0.000006887077935314042 0.000006801897341672464 0.000006470598729946334 0.000006566684667072125 0.000006887075797060642 0.00000680189702768041
          0.000007696942798691675 0.00000769694352237247 0.000007696944998388637 0.000006605533556460487 0.000006605532751280168 0.000006605529008848247
          0.000005439653914424375 0.000005485988737459385 0.000005439652798214166 0.000005485988520942195 0.000005439647756364712 0.000005485982820850405
          0.000007861871101791062 0.000007861871982912688 0.000007861872276686397 0.000010260189661194805 0.000009925533525429171 0.000010260191641948215
          0.000009925535540967982 0.000010260197493945534 0.000009925541240019981 0.000004993220312930538 0.000004706568886536469 0.0000049932188340257416
          0.00000470656698906286 0.000004993213118065101 0.000004706561372217935 0.000009384659876500894 0.000009384661821311662 0.00000938466807852623
          0.000007896910724086338 0.000008066241634992253 0.000007896911477798308 0.000008066242996721996 0.000007896911825467386 0.00000806624343728083
          0.00000731126017852553 0.000007658400324415734 0.000007669427885492863 0.00000729708533646415 0.000007311259631895292 0.000007658400437777194
          0.000007669428809448701 0.00000729708512306844 0.000007311259059676216 0.00000765840045872331 0.000007669429684553364 0.0000072970852454262555
          0.000005393725122472111 0.000005393724424385919 0.000005393718772198412 0.00000725735609485095 0.00000703224895986249 0.000007257356745611747
          0.0000070322491011939726 0.0000072573563941889105 0.0000070322478280899105 0.000005651353902073264 0.000005955440943965267 0.00000565135270876912
          0.000005955440941688495 0.000005651347784344383 0.00000595543750353666 0.000005930000279860202 0.000005929999537738164 0.000005929995499277741
          0.000009502328602992117 0.000009502330415351187 0.000009502334266805804 0.0000053506992741671204 0.000005350697841941628 0.000005350692501381152
          0.000006939147119171649 0.000006939147017844882 0.000006939144354284499 0.000006387762289787163 0.000006387761438566067 0.00000638775822528181
          0.000005310188773089203 0.000005684851067197184 0.000005310188306701513 0.0000056848509473772876 0.000005310183424273498 0.0000056848465216556135
          0.000007379639153714209 0.000007379640032363317 0.000007379640778332072 0.000006334427821866495 0.000006334427793457935 0.000006334424023335617
          0.000009767860407015405 0.000009767862641465232 0.000009767867836391003 0.000007219993127374627 0.000007219993617207323 0.000007219992070799563
          0.0000067242609074400725 0.000006724260628116375 0.000006724258915954313 0.000008104419738031603 0.000008104421267453037 0.00000810442216910976
          0.000006326795391276065 0.000006294904614886775 0.0000059239120944943456 0.0000063267947258920176 0.000006294904838749695 0.000005923911179844228
          0.000006326791968688286 0.000006294901793517336 0.000005923907775695057 0.000006599674779359203 0.000006599674667896788 0.000006599671238946514
          0.000009900536461318246 0.000009677541443906141 0.00000990053868342085 0.000009677543633665701 0.000009900544543720303 0.000009677547324294797
          0.000006964058863661743 0.000006964059251321396 0.000006964057205950148 0.000007674790504287571 0.000007674791451478271 0.00000767479161791933
          0.000005521087789828865 0.000005521087692055646 0.0000055210837381964435 0.00000704283872873274 0.000007042839434534468 0.0000070428397216980146
          0.000008213083202581566 0.000008599724637665435 0.000008213085271796838 0.000008599726533288624 0.000008213090451831747 0.000008599731262801179
          0.000007352979901583472 0.000007352980774515102 0.0000073529800167423415 0.000006623029398465207 0.000006623029623498216 0.0000066230295795396385
          0.000009306028488469542 0.000009306030251649893 0.000009306033707902094 0.000010232394800935557 0.000010232397549684525 0.00001023240462430854
          0.000007168488377822619 0.0000071684898281520865 0.000007168488524511361 0.00000987611763340087 0.000009876120524467078 0.000009876126862034248
          0.00000962359132018976 0.000009529865640954689 0.000009623594066871702 0.000009529868258599819 0.000009623599329706925 0.00000952987365626095
          0.000009121385644508075 0.000009121386546788843 0.000009121390201901053 0.000009762329711767702 0.000009937356668141009 0.000009762331467900659
          0.00000993735820033387 0.000009762336759434895 0.000009937363372951429 0.00001028853937576384 0.000010288541300630538 0.000010288546090922135
          0.000010387366895220623 0.000010387368749754256 0.000010387373151782862 0.000009483882253437918 0.00000948388394454931 0.000009483887274689978
          0.000009950460402137194 0.000009833412756681246 0.000009950462117774105 0.000009833414132846907 0.000009950468355136918 0.000009833418073390098
          0.000009709650172369173 0.000009709652836178935 0.000009709657212044529 0.000009476462587908319 0.000009476464034694273 0.000009476466146120165
        </DataArray>
        <DataArray type="Float64" Name="disp_y" format="ascii" RangeMin="-0.000002008014646008208" RangeMax="0">
          -0.0000012836986381670491 -0.0000013976557808671848 -0.0000014043407485993688 -0.0000012987554323772323 -0.0000012837018077699637 -0.0000013976593284767697
          -0.0000014043441065082223 -0.0000012987586355860188 -0.0000012837118473269217 -0.0000013976699056856937 -0.0000014043548588329633 -0.000001298768401251047
          -8.016108008557961e-7 -8.995665066424008e-7 -8.153390214275009e-7 -7.166710893529234e-7 -8.01612541555283e-7 -8.995687975347279e-7
          -8.15340963300878e-7 -7.166724625508007e-7 -8.016177183214922e-7 -8.995764183731114e-7 -8.153467701624906e-7 -7.166760543084927e-7
          -0.0000020079929035403578 -0.0000019925252247519687 -0.000002007998580764997 -0.000001992530252676594 -0.000002008014646008208 -0.0000019925459678605486
          -2.1356601283387547e-7 -1.0462201636256071e-7 -1.0320420386321489e-7 -2.0494388936310275e-7 -2.1356648807419828e-7 -1.0462211320714802e-7
          -1.0320380650754233e-7 -2.049444516318565e-7 -2.135686829574999e-7 -1.0462187189472759e-7 -1.0320230440483113e-7 -2.049463214636289e-7
          -7.544897589491944e-7 -6.645554869810218e-7 -7.544911654020996e-7 -6.645566401864858e-7 -7.544959462909029e-7 -6.64560704769287e-7
          -0.0000010704929174682504 -0.0000011829058500227312 -0.0000012522163425964436 -0.000001127986137251421 -0.0000010704954015521447 -0.00000118290889167988
          -0.0000012522190406093475 -0.0000011279886695142124 -0.0000010705026420489736 -0.0000011829172023015436 -0.0000012522288042925122 -0.0000011279965133138973
          -3.343444933977233e-7 -3.857167093864793e-7 -4.832914630002657e-7 -4.618099484644049e-7 -3.3434537477664104e-7 -3.8571749653025915e-7
          -4.832925608325523e-7 -4.6181064795379875e-7 -3.343476732244167e-7 -3.857204695447654e-7 -4.832953272477306e-7 -4.618134266451444e-7
          -0.0000012035120853890997 -0.0000011822267324604919 -0.000001203514979875006 -0.0000011822298155416258 -0.0000012035238760035827 -0.00000118223852978898
          -2.1656491220156354e-7 -1.0662477630989251e-7 -1.0656244802991421e-7 -2.1484631861506806e-7 -2.165650571567044e-7 -1.0662482337284622e-7
          -1.0656238044256991e-7 -2.148467887046867e-7 -2.1656614116779674e-7 -1.0662442832743653e-7 -1.0656256802116401e-7 -2.1484795691103845e-7
          -0.0000017276023652780252 -0.0000016142721680197456 -0.0000016038826727580352 -0.00000172760620391888 -0.0000016142762849833317 -0.0000016038864354347823
          -0.0000017276182073027635 -0.000001614288177134206 -0.0000016038975077466697 -1.0452030667860803e-7 -1.0950157609485548e-7 -2.1350766128695694e-7
          -2.063560849998687e-7 -1.0452053939137684e-7 -1.0950168143019136e-7 -2.1350806629906532e-7 -2.0635642128096325e-7 -1.045213150151965e-7
          -1.0950200918968986e-7 -2.1350932777640457e-7 -2.063574788662904e-7 -6.609874147691229e-7 -6.797546225000266e-7 -7.84655584704765e-7
          -7.574793461781212e-7 -6.609887083863657e-7 -6.797560070436754e-7 -7.84657418141484e-7 -7.574808152416743e-7 -6.60992399703051e-7
          -6.797602540851599e-7 -7.846626550457954e-7 -7.574863392410734e-7 -3.3002973105492625e-7 -3.3003055010950006e-7 -3.3003276901029424e-7
          -0.0000010138443213087665 -0.0000010405981937470443 -0.0000011276873018512702 -0.000001013846804617349 -0.0000010406008825163414 -0.0000011276903891421565
          -0.0000010138553956370006 -0.0000010406100567333949 -0.0000011276992680257999 -5.562751937272842e-7 -5.735275518056866e-7 -5.562762880707448e-7
          -5.735290977279132e-7 -5.562794270988224e-7 -5.735329508325191e-7 -2.1732714114099775e-7 -3.262342991501509e-7 -3.381079132067491e-7
          -2.2668798053200766e-7 -2.1732758541635018e-7 -3.262353057316938e-7 -3.381086073592364e-7 -2.2668862985236253e-7 -2.1732920038159325e-7
          -3.262377043387919e-7 -3.3811106952252135e-7 -2.2669038213482762e-7 -1.1661428149611233e-7 -2.287937425006609e-7 -2.54627847433076e-7
          -1.5270723331236962e-7 -1.1661412951480404e-7 -2.2879421802824873e-7 -2.5462832824573195e-7 -1.5270733174691344e-7 -1.1661242937845539e-7
          -2.2879573938060937e-7 -2.546304606663875e-7 -1.5270786873167663e-7 -5.395636648058644e-7 -5.625804823734982e-7 -6.262764564436541e-7
          -5.39564698863553e-7 -5.625818838018599e-7 -6.262775092013624e-7 -5.395681176715722e-7 -5.625857462827623e-7 -6.262815260701491e-7
          0 0 0 0 0 0
          -8.373544311699655e-7 -8.13083193742864e-7 -6.979576578607072e-7 -6.934926141174255e-7 -8.373565895910829e-7 -8.13084804203869e-7
          -6.979591664725362e-7 -6.934941553368644e-7 -8.373628942044673e-7 -8.130896713547991e-7 -6.97963757521097e-7 -6.934992720427255e-7
          -4.3616191688418024e-7 -4.4979044588427135e-7 -4.3616291765630246e-7 -4.497914917297987e-7 -4.361659592491107e-7 -4.4979434166042405e-7
          -6.987899446003382e-7 -8.488965983001621e-7 -6.987909857922664e-7 -8.488979302247561e-7 -6.987941294602059e-7 -8.489018768124983e-7
          -6.63918122738115e-7 -7.665234579264546e-7 -6.639199321109067e-7 -7.665255414063483e-7 -6.639243264879659e-7 -7.665316367474341e-7
          -0.000001103124205928696 -0.0000011416379401876413 -0.0000011140180675745611 -0.000001042618228547368 -0.0000011031270236133185 -0.0000011416407069039913
          -0.000001114020710269993 -0.0000010426206058098316 -0.0000011031352252570923 -0.0000011416491008766097 -0.0000011140289494483537 -0.0000010426282677804989
          -0.0000010840240196087523 -0.0000011700286926277847 -0.0000010840269222858837 -0.0000011700317663392662 -0.000001084035467357966 -0.0000011700425986680432
          -5.740591680082745e-7 -5.740599320573726e-7 -5.740629978627435e-7 -8.875909699033301e-7 -9.244035203477154e-7 -8.875931592451096e-7
          -9.244060054309342e-7 -8.875994680446911e-7 -9.2441315874337e-7 -8.058380708857946e-7 -9.388299407992208e-7 -9.70322928987217e-7
          -8.058394283522582e-7 -9.388320524543699e-7 -9.703246287838598e-7 -8.058438160939988e-7 -9.388366579792542e-7 -9.703308362578325e-7
          -4.3712736702630215e-7 -5.502817629830274e-7 -4.586756785274744e-7 -4.371280646131228e-7 -5.50282744483833e-7 -4.5867640637083887e-7
          -4.3713008422796307e-7 -5.502856117520667e-7 -4.5867825886783466e-7 -0.000001217679274203123 -0.0000012176828317968396 -0.0000012176931743931885
          0 0 0 -0.0000014256585773167043 -0.0000013186190321184768 -0.0000014256615206975498
          -0.000001318622102443048 -0.000001425670733606859 -0.000001318630915516467 -6.716820372205834e-7 -6.7168323589326e-7 -6.716870159386829e-7
          -0.000001077858628203663 -0.0000010340073375372611 -9.678272912450215e-7 -0.0000010778613259786736 -0.0000010340102726576054 -9.678297450703252e-7
          -0.000001077869843677545 -0.000001034018480479796 -9.678375053924262e-7 -5.828756495397247e-7 -5.559624563935689e-7 -5.828769095710827e-7
          -5.55963724179203e-7 -5.828809504273133e-7 -5.55967317283577e-7 -0.0000018690994488337529 -0.000001812247898232547 -0.0000017335137326688279
          -0.0000017370001157361313 -0.000001869104347246553 -0.000001812252537436346 -0.0000017335187474513478 -0.000001737004686841456 -0.000001869119403433081
          -0.0000018122670000259441 -0.0000017335347642772084 -0.0000017370190000676887 -0.0000016335635564030584 -0.0000016313558619700584 -0.0000015180171838897275
          -0.0000015189027564941542 -0.0000016335675174616644 -0.0000016313600243112749 -0.000001518021376878683 -0.0000015189063316784643 -0.0000016335797008064374
          -0.0000016313726270666684 -0.0000015180331276518062 -0.0000015189171144685282 -0.0000015250140200827668 -0.000001476800366288347 -0.0000013999527721299439
          -0.000001525017242113801 -0.000001476803448669318 -0.0000013999556468608737 -0.000001525026091950308 -0.0000014768125586153737 -0.0000013999646751546562
          -9.502033301138561e-7 -9.502055600880532e-7 -9.5021138534212e-7 -0.0000010271297097586948 -0.0000010271319458590913 -0.0000010271369549024796
          -0.000001853999382972424 -0.0000017510181954012567 -0.0000018540049144608435 -0.000001751023277167631 -0.0000018540199950002191 -0.0000017510378756200966
          -0.0000016245447614040075 -0.0000017461530636267087 -0.0000016245498398182208 -0.0000017461579543967412 -0.0000016245642044027227 -0.0000017461710198479006
          -9.887061809238617e-7 -9.887089643983328e-7 -9.887160572269028e-7 -0.0000013710969077023491 -0.0000014175671665110079 -0.000001503080401383048
          -0.0000015134196981697038 -0.0000013711002997308073 -0.0000014175703228194033 -0.0000015030839645174602 -0.0000015134233165664116 -0.0000013711103174575352
          -0.0000014175795512470793 -0.000001503094832503482 -0.0000015134341958328196 -0.0000013665261668566601 -0.0000013665292789132492 -0.000001366538463922554
          -0.0000012371829641104785 -0.0000012371860729866103 -0.000001237195011619229 -9.277464054743863e-7 -0.0000010196288050025544 -9.277487883283436e-7
          -0.0000010196312339463516 -9.277562128740461e-7 -0.0000010196385613792247 -0.0000011581697075164988 -0.0000011581728094502028 -0.0000011581821956460133
          -0.0000010714341338752922 -9.8865194231673e-7 -0.0000010714365823973291 -9.88654089439523e-7 -0.0000010714444349774632 -9.886611301383137e-7
          -0.0000012040474208783106 -0.0000012040511229127108 -0.0000012040613203753422 -0.0000010422199722041315 -9.71587356591751e-7 -0.0000010422226505923496
          -9.715900367970845e-7 -0.000001042230314407709 -9.715974358162298e-7 -0.0000011303515783437155 -0.0000011303543541597678 -0.000001130361964851672
          -0.0000016276995651875133 -0.0000016277036820755245 -0.0000016277156262225776 -9.118204528977549e-7 -9.118228906883593e-7 -9.118299803090575e-7
          -0.0000012770386104063072 -0.000001257918570504698 -0.0000012770423302128988 -0.0000012579224063282086 -0.0000012770535434364212 -0.0000012579335391321954
          -8.485664143154895e-7 -8.485686999092482e-7 -8.485760519194962e-7 -5.06441001065928e-7 -6.364887421243469e-7 -5.064424438786384e-7
          -6.364904147632419e-7 -5.064472361713501e-7 -6.364950933261478e-7 -2.045039843254022e-7 -2.9980301273179067e-7 -2.7654916253224057e-7
          -2.045046471063794e-7 -2.9980421855812396e-7 -2.765501413795819e-7 -2.0450548710187309e-7 -2.998067552466849e-7 -2.765521925042288e-7
          -1.3843898312332673e-7 -1.1286913208465401e-7 -2.569292571964577e-7 -1.384391091209312e-7 -1.1286915582747955e-7 -2.56929735667289e-7
          -1.384395856892783e-7 -1.1286943112706328e-7 -2.5693162696637484e-7 -0.0000013570149532189678 -0.0000013117446745109349 -0.0000013570187288166345
          -0.0000013117482538828077 -0.0000013570290142258062 -0.0000013117591491361665 -9.751354424494118e-7 -9.533656563406892e-7 -8.203656142876555e-7
          -9.75137796635349e-7 -9.533680177303792e-7 -8.203673711652665e-7 -9.751450380329063e-7 -9.533757085711634e-7 -8.203725038536178e-7
          -4.7496966752609304e-7 -5.990634996512337e-7 -4.7497073261668946e-7 -5.990649474518631e-7 -4.7497446015603316e-7 -5.990692275770311e-7
          -0.000001986191068052261 -0.000001986195917022929 -0.0000019862100401459456 0 0 0
          0 0 0 0 0 0
          0 0 0 -4.825498211533341e-7 -4.4974143170852295e-7 -4.825506483329302e-7
          -4.4974248957019667e-7 -4.825532984889022e-7 -4.497456199382401e-7 -5.889753214575848e-7 -5.889767820929526e-7 -5.889810348973921e-7
          0 -1.068519337225992e-7 0 -1.0685196544404149e-7 0 -1.0685217342908764e-7
          0 0 0 -0.000001272399409004194 -0.0000012724024422775543 -0.000001272411496427415
          0 0 0 -0.0000011694852007735915 -0.0000011694878940889123 -0.000001169495769853245
          -0.000001064785064830401 -0.0000010647875998848743 -0.0000010647949111953137 -1.0927562871654824e-7 0 -1.092750792903758e-7
          0 -1.0927130372486932e-7 0 -8.352994304400788e-7 -8.971318022483458e-7 -8.35301913278507e-7
          -8.971346381675327e-7 -8.353083273381767e-7 -8.971420744972029e-7 -0.000001121387439893656 -0.0000011213904583445307 -0.0000011213993233530905
          -0.0000017468777787084232 -0.0000017468822826843876 -0.0000017468951453720082 -9.740782818529126e-7 -9.740811143048408e-7 -9.7408856649449e-7
          -8.525980324525337e-7 -8.526001498667514e-7 -8.526058831617349e-7 -0.000001278081051724807 -0.000001278084910763574 -0.000001278095696823594
          -0.0000013955169433020176 -0.0000013955212537463647 -0.00000139553428702577 -6.103566201968921e-7 -7.015197966294633e-7 -6.103581338246754e-7
          -7.015216193783297e-7 -6.103622712924067e-7 -7.015262669872677e-7 -5.081363762768301e-7 -5.081376382071856e-7 -5.081410528638307e-7
          -3.362606904036394e-7 -4.081580858885811e-7 -3.3626153821259726e-7 -4.0815881047739094e-7 -3.3626392412334617e-7 -4.081614753429051e-7
          -0.0000017395478679959044 -0.000001841648412846702 -0.0000018555935985899154 -0.0000017395521104939862 -0.0000018416525195877673 -0.0000018555977101147164
          -0.0000017395642614558095 -0.0000018416647815644942 -0.0000018556104171567668 -0.0000019762480071745193 -0.0000019762526125650587 -0.000001976265731165271
          -4.0335347320620294e-7 -4.033544878069454e-7 -4.033573092034931e-7 -0.0000010018203665547082 -0.0000011076721213230511 -0.0000010018230173358514
          -0.0000011076746591137344 -0.0000010018303173344923 -0.0000011076814122658145 -3.614205789569543e-7 -4.6483371330974273e-7 -3.614218655696844e-7
          -4.6483496678694086e-7 -3.614243823411694e-7 -4.648382937344319e-7 -5.620095695967387e-7 -5.620110134469999e-7 -5.620147567051321e-7
          -4.399837828775621e-7 -5.362993036123611e-7 -4.3998509968986034e-7 -5.36300547405186e-7 -4.3998830355228856e-7 -5.363042052668921e-7
          -0.0000014700030235449678 -0.000001383640668181791 -0.0000014273038814915094 -0.000001513960930241994 -0.000001470007363228437 -0.0000013836446655434465
          -0.0000014273077897826693 -0.00000151396522648949 -0.0000014700193569690578 -0.0000013836583927868725 -0.0000014273192590530757 -0.0000015139785457118842
          -0.0000015098218875263577 -0.0000015098262506703527 -0.0000015098387480593079 -0.0000011889051375929631 -0.0000011889084186758275 -0.0000011889173448026253
          -6.546564704189799e-7 -7.335769062517312e-7 -6.546578487091406e-7 -7.335786792351215e-7 -6.546609906684839e-7 -7.335833810347353e-7
          -7.729395230565372e-7 -7.72941431307343e-7 -7.72946981056742e-7 -0.000001091038176531042 -0.0000010711024047797879 -0.0000010910406090069438
          -0.0000010711050460945711 -0.0000010910480131507278 -0.0000010711129337281229 -3.3112704285355906e-7 -3.526820656210724e-7 -3.3112773705178915e-7
          -3.526825322190365e-7 -3.3112965309143047e-7 -3.526839949713441e-7 -0.0000019597705815682488 -0.0000019597750153804253 -0.0000019597886190459886
          -6.417126833654458e-7 -6.028812492382479e-7 -6.41714314066605e-7 -6.028826291483964e-7 -6.417186973848661e-7 -6.028866106472063e-7
          -0.0000012636385424099613 -0.0000012918760020863883 -0.0000013975455979634268 -0.000001370519101816553 -0.0000012636419051207496 -0.0000012918793378800515
          -0.0000013975495823882488 -0.0000013705225529355052 -0.0000012636523476630512 -0.000001291889448667004 -0.0000013975603109055415 -0.0000013705338904429486
          -5.457936250866668e-7 -5.457945997350143e-7 -5.457973680281417e-7 -0.0000014963589139851528 -0.0000015464702981677178 -0.0000014963632617429426
          -0.0000015464748910882268 -0.0000014963756285363128 -0.0000015464886577710297 -3.292441938152869e-7 -2.1203174610914174e-7 -3.2924459148784633e-7
          -2.1203193363091495e-7 -3.2924613773315914e-7 -2.120330661899222e-7 -1.0549980662340834e-7 -1.0550001096515625e-7 -1.055006864652276e-7
          -0.0000012021267711471596 -0.0000012021295465524005 -0.000001202137391094891 -4.3307168663080923e-7 -4.330725240819872e-7 -4.3307493083819007e-7
          -0.0000013301320270430551 -0.0000013301359798179123 -0.000001330147191041643 -0.0000015659087536469839 -0.0000015659140361881724 -0.0000015659288224541078
          -3.252832627946499e-7 -4.4458861491544535e-7 -3.2528393707597774e-7 -4.4458961664178063e-7 -3.2528572118091275e-7 -4.4459227072509733e-7
          -0.0000016246662182917139 -0.000001624671623325324 -0.000001624686334648273 -0.0000013507480032554025 -0.0000013507523578822809 -0.0000013507652738939012
          -0.0000012967772957273643 -0.0000012967801705794043 -0.0000012967892750130038 -2.983733026641422e-7 -2.9837419895893365e-7 -2.983762861132133e-7
          -0.0000016039477687647984 -0.0000016039528457837706 -0.0000016039688281703712 -7.0082561923147e-7 -7.008273935754783e-7 -7.00832275806923e-7
          0 -1.0410744930863868e-7 0 0 -1.0410771270966886e-7 0
          0 -1.0410842877248584e-7 0 -0.0000012934511527722878 -0.0000012934551931601623 -0.0000012934668475104681
          -0.0000011762556435034946 -0.0000011525840407941365 -0.0000011762584566010287 -0.0000011525866941042162 -0.0000011762664101874014 -0.0000011525941945743702
          -0.0000012258956932487396 -0.0000012258992966935745 -0.0000012259096777214256 -0.000001194834207203648 -0.0000011948375783302737 -0.0000011948469256828755
          0 0 0 -0.0000016243330676365957 -0.0000016243386040009698 -0.000001624353780702646
          -0.0000018685858155726761 -0.0000018645262105537155 -0.0000018685910440091487 -0.0000018645308569974501 -0.0000018686060112063704 -0.0000018645443506919713
          -0.000001163317908767533 -0.0000011633211762998057 -0.0000011633301922134392 -0.0000017036914201849857 -0.0000017036969880917578 -0.0000017037120929326361
          -1.8846159483762026e-7 -1.88461771821462e-7 -1.8846296676833024e-7 -0.0000012053243072588913 -0.0000012053269787059962 -0.0000012053345959917455
          -2.2137552320910626e-7 -2.2137612941994163e-7 -2.2137779718767753e-7 -0.0000015986297175781497 -0.0000015986331724321533 -0.000001598643479870688
          -0.0000010745597283796026 -9.607214470895472e-7 -0.0000010745623033199487 -9.607239518226188e-7 -0.000001074569342074764 -9.60731351837612e-7
          -3.3178657773907183e-7 -3.3178769134207163e-7 -3.317906187635793e-7 -5.132321566672317e-7 -6.574555812813434e-7 -5.132332135388231e-7
          -6.574571106586983e-7 -5.132372547775438e-7 -6.574617296699203e-7 -8.573480803211216e-7 -8.573498884854508e-7 -8.573554932697313e-7
          -7.448778329803497e-7 -7.448793938394553e-7 -7.4488304400412e-7 -4.0007916045016407e-7 -4.0007996938591055e-7 -4.000818482954694e-7
          0 -1.434778092834559e-7 0 -1.434777625039392e-7 0 -1.4347763361818953e-7
          -4.3494507765166294e-7 -4.3494567110384484e-7 -4.349461577206596e-7 -2.444376391351245e-7 -2.4443845911371857e-7 -2.4444239113696684e-7
        </DataArray>
        <DataArray type="Float64" Name="disp_z" format="ascii" RangeMin="-7.072844183897104e-8" RangeMax="0">
          0 0 0 0 -3.519416521944878e-8 -3.517170881935461e-8
          -3.516661373867672e-8 -3.518741943778696e-8 -7.038819621530235e-8 -7.034339032132558e-8 -7.033326805305037e-8 -7.037503424260563e-8
          0 0 0 0 -3.527824568886319e-8 -3.52621198818713e-8
          -3.526911381319986e-8 -3.5280116600812433e-8 -7.055666158312231e-8 -7.05242251281902e-8 -7.053799984659795e-8 -7.056045138545903e-8
          0 0 -3.5004921619276785e-8 -3.502401735184061e-8 -7.000985310157094e-8 -7.004808706576732e-8
          0 0 0 0 -3.5306263541702286e-8 -3.53097261763706e-8
          -3.5315674641151305e-8 -3.5314374116138204e-8 -7.061252282389654e-8 -7.061958617019564e-8 -7.063160428125562e-8 -7.062820733914694e-8
          0 0 -3.527010054082594e-8 -3.5279731706574165e-8 -7.054006193766659e-8 -7.055936829062476e-8
          0 0 0 0 -3.52848112764875e-8 -3.526908989435352e-8
          -3.526373639195354e-8 -3.529365678759678e-8 -7.056798591833075e-8 -7.054074551362716e-8 -7.052698459783504e-8 -7.058789223116056e-8
          0 0 0 0 -3.531283607171129e-8 -3.530375689903196e-8
          -3.529969856297639e-8 -3.530754465405549e-8 -7.062564414009928e-8 -7.0607280496975e-8 -7.059951951968544e-8 -7.061531449596132e-8
          0 0 -3.520453845233766e-8 -3.521086966370851e-8 -7.040901260954468e-8 -7.042166008830954e-8
          0 0 0 0 -3.533563162745425e-8 -3.5339061712131766e-8
          -3.532952805486271e-8 -3.5325998183095774e-8 -7.067107559079667e-8 -7.067857295848355e-8 -7.065896809539703e-8 -7.065194580869244e-8
          0 0 0 -3.512098802242819e-8 -3.5145860049858044e-8 -3.516038982318839e-8
          -7.024183472148393e-8 -7.029196555951358e-8 -7.032031719717038e-8 0 0 0
          0 -3.531004841068657e-8 -3.530660304792307e-8 -3.530505989409911e-8 -3.53088471502021e-8 -7.061998590606202e-8
          -7.061319591056263e-8 -7.06099594150447e-8 -7.061778401558947e-8 0 0 0
          0 -3.530253807604721e-8 -3.529201752957283e-8 -3.5283193345316596e-8 -3.529492934172907e-8 -7.060480538745394e-8
          -7.058394150754308e-8 -7.056646060323315e-8 -7.058963067200754e-8 0 -3.5300680656155175e-8 -7.060125840860571e-8
          0 0 0 -3.528663882841557e-8 -3.526974656527241e-8 -3.52561248185654e-8
          -7.057584018296945e-8 -7.053878750960181e-8 -7.05115196795192e-8 0 0 -3.530959323803548e-8
          -3.530022118111716e-8 -7.06192985576887e-8 -7.060036790008959e-8 0 0 0
          0 -3.530312432649027e-8 -3.529923587890202e-8 -3.529739835825725e-8 -3.530145698230628e-8 -7.060614118529331e-8
          -7.059858202015322e-8 -7.059464130152483e-8 -7.060280601698559e-8 0 0 0
          0 -3.535001003495967e-8 -3.534583001496876e-8 -3.535379289483896e-8 -3.5362736866019e-8 -7.070015240284887e-8
          -7.069119271318425e-8 -7.07076181528046e-8 -7.07260902787569e-8 0 0 0
          -3.52870145844801e-8 -3.5288410260125164e-8 -3.5280493838547746e-8 -7.057389028012655e-8 -7.057660174472935e-8 -7.05609189019318e-8
          0 0 -3.536374210224127e-8 -3.5347037070750936e-8 -7.072844183897104e-8 -7.069309486003345e-8
          0 0 0 0 -3.526181064034052e-8 -3.527171825248667e-8
          -3.528187547430977e-8 -3.527762705570127e-8 -7.052364403776754e-8 -7.054349078797427e-8 -7.056370733406746e-8 -7.055514657462236e-8
          0 0 -3.529360612589069e-8 -3.529607510708491e-8 -7.058720513193835e-8 -7.059216644376069e-8
          0 0 -3.532759953157071e-8 -3.531946251563699e-8 -7.065551577129476e-8 -7.06392099538309e-8
          0 0 -3.5278864413653024e-8 -3.526836239462483e-8 -7.055748601759325e-8 -7.05369368486824e-8
          0 0 0 0 -3.5222021048519575e-8 -3.5214617494402406e-8
          -3.5218413981359165e-8 -3.522985144038197e-8 -7.04438676882333e-8 -7.042947611637832e-8 -7.043671084144574e-8 -7.045942798829418e-8
          0 0 -3.525272137561589e-8 -3.523806566457934e-8 -7.050600385180584e-8 -7.047647425148231e-8
          0 -3.533769064792332e-8 -7.067589989127454e-8 0 0 -3.5273013447358124e-8
          -3.5260479880694046e-8 -7.054613906812125e-8 -7.052089473736506e-8 0 0 0
          -3.530403429048989e-8 -3.529487868391063e-8 -3.530230486954795e-8 -7.0608139871516e-8 -7.058947788310851e-8 -7.060469071340695e-8
          0 0 0 -3.5334881575114126e-8 -3.532870477104663e-8 -3.534388074861354e-8
          -7.066960995517753e-8 -7.065754278943615e-8 -7.068821256541876e-8 0 -3.5245930280889454e-8 -7.049208688125055e-8
          0 -3.533833307584519e-8 -7.067659593740978e-8 0 0 -3.5208940589022214e-8
          -3.523189722199619e-8 -7.041788201693588e-8 -7.046401192683217e-8 0 -3.531836820974168e-8 -7.063660055870118e-8
          0 0 0 -3.523056177314991e-8 -3.524512769967141e-8 -3.524799708345764e-8
          -7.046092344329265e-8 -7.049008085591949e-8 -7.049600577094364e-8 0 0 -3.528898307311704e-8
          -3.528703485589543e-8 -7.057806518307195e-8 -7.057397285509801e-8 0 0 0
          0 -3.504498547927125e-8 -3.5052333441764924e-8 -3.507630192400349e-8 -3.5082308956021664e-8 -7.009024553970258e-8
          -7.010440416853551e-8 -7.01534518551406e-8 -7.01644976138547e-8 0 0 0
          0 -3.512361674404221e-8 -3.5116792253804253e-8 -3.5142564270085256e-8 -3.5148284173953445e-8 -7.024726591615278e-8
          -7.023345218648153e-8 -7.028500990002278e-8 -7.029657086852907e-8 0 0 0
          -3.518769867365831e-8 -3.5184776378249804e-8 -3.520292650394832e-8 -7.037524942698663e-8 -7.036970533325572e-8 -7.040516227531017e-8
          0 -3.527916815717336e-8 -7.055816037069076e-8 0 -3.5310819245330893e-8 -7.062213514360676e-8
          0 0 -3.5038996574334024e-8 -3.507305731741232e-8 -7.007694608156414e-8 -7.01458993271167e-8
          0 0 -3.5112768610149394e-8 -3.508998135288437e-8 -7.022566380346806e-8 -7.017986460748367e-8
          0 -3.526214073766428e-8 -7.052416661435809e-8 0 0 0
          0 -3.5186416428502005e-8 -3.518528410620545e-8 -3.516916132213085e-8 -3.515758145717637e-8 -7.037276288808424e-8
          -7.037090057048536e-8 -7.03383078744086e-8 -7.03150842917837e-8 0 -3.519861238069344e-8 -7.039723333795998e-8
          0 -3.5209241603343436e-8 -7.04187415322451e-8 0 0 -3.524441168615901e-8
          -3.523460689167144e-8 -7.048855987148941e-8 -7.046947385799325e-8 0 -3.522781498808087e-8 -7.045570421499482e-8
          0 0 -3.522461351181073e-8 -3.5236538392534766e-8 -7.044948807651793e-8 -7.047321201870597e-8
          0 -3.522406224168558e-8 -7.044720671644634e-8 0 0 -3.5233695809457595e-8
          -3.5241547797606904e-8 -7.046757941214895e-8 -7.048323012729563e-8 0 -3.5223138941497954e-8 -7.044596750150335e-8
          0 -3.5132733202782684e-8 -7.026540363951107e-8 0 -3.5248125178725734e-8 -7.049631114680984e-8
          0 0 -3.520988534731219e-8 -3.5220364136435737e-8 -7.04205671482312e-8 -7.044124003687343e-8
          0 -3.5255807181900083e-8 -7.051149708638919e-8 0 0 -3.530597674737743e-8
          -3.529143928536035e-8 -7.061188500638732e-8 -7.058236714421326e-8 0 0 0
          -3.531375749605641e-8 -3.530808773537777e-8 -3.5312719920188046e-8 -7.062739580818177e-8 -7.061613192606627e-8 -7.062624824704176e-8
          0 0 0 -3.530413479035454e-8 -3.53041638456923e-8 -3.5299494326373596e-8
          -7.060817591902015e-8 -7.060861080585718e-8 -7.059882547250212e-8 0 0 -3.5202218763012106e-8
          -3.5229243886630724e-8 -7.040449452362245e-8 -7.045804833334508e-8 0 0 0
          -3.528437211031057e-8 -3.527604114284204e-8 -3.529359985905116e-8 -7.056853336124423e-8 -7.055183337776757e-8 -7.058742392467676e-8
          0 0 -3.530078933925397e-8 -3.528869083683079e-8 -7.060176284527777e-8 -7.0577469035476e-8
          0 -3.5039019632738055e-8 -7.007809063595105e-8 0 0 -3.5303653594105675e-8
          -3.530302104341424e-8 -7.060716606273316e-8 -7.060606453035995e-8 0 0 -3.5305523911761076e-8
          -3.531020315924555e-8 -7.061101196646945e-8 -7.06204676962962e-8 0 0 -3.529568397856231e-8
          -3.529462172097698e-8 -7.059132105921647e-8 -7.058920620975764e-8 0 -3.5292582181341915e-8 -7.058511203372471e-8
          0 0 -3.5305054969245695e-8 -3.530588962140919e-8 -7.060996199051425e-8 -7.061180271477053e-8
          0 -3.5307995354305566e-8 -7.0615739205632e-8 0 -3.5210942003254597e-8 -7.042157343088686e-8
          0 -3.531228298360668e-8 -7.062441141113097e-8 0 -3.522398025218363e-8 -7.044783012816286e-8
          0 -3.5236930126664384e-8 -7.04738340980442e-8 0 0 -3.532211081157092e-8
          -3.531527110705367e-8 -7.064453659219831e-8 -7.06301982237284e-8 0 0 -3.525957708651985e-8
          -3.525405900217133e-8 -7.051917926326418e-8 -7.05080870720545e-8 0 -3.521985499080331e-8 -7.043969402996378e-8
          0 -3.5097265753329175e-8 -7.019437824157504e-8 0 -3.5246396173761924e-8 -7.049269668391685e-8
          0 -3.528559203350756e-8 -7.057096891862995e-8 0 -3.5202853378012994e-8 -7.040499820257387e-8
          0 -3.5178898869278925e-8 -7.035719514008464e-8 0 0 -3.528045367371106e-8
          -3.527225269759078e-8 -7.056093527636665e-8 -7.054443947169476e-8 0 -3.528849062052885e-8 -7.057690465177886e-8
          0 0 -3.530171535412668e-8 -3.529999552947027e-8 -7.060335043730837e-8 -7.06002221957132e-8
          0 0 0 -3.5108343759739054e-8 -3.509601589442436e-8 -3.508215751661073e-8
          -7.02168714767177e-8 -7.019196052542324e-8 -7.016441445459068e-8 0 -3.505429098758165e-8 -7.010859666664496e-8
          0 -3.529519059204979e-8 -7.059029614697549e-8 0 0 -3.5248886339768695e-8
          -3.523861365948955e-8 -7.049812285725566e-8 -7.047743603415064e-8 0 0 -3.529547931176873e-8
          -3.529002545430584e-8 -7.059121960438415e-8 -7.058011598514922e-8 0 -3.5283465681224195e-8 -7.056703349948486e-8
          0 0 -3.529177172829101e-8 -3.528560668071961e-8 -7.058366229018856e-8 -7.057127874947045e-8
          0 0 0 0 -3.515096865241207e-8 -3.517258111433632e-8
          -3.5160206517543356e-8 -3.5139781743328284e-8 -7.030122408423468e-8 -7.034503172087723e-8 -7.032074299272819e-8 -7.027940866856905e-8
          0 -3.514200051552253e-8 -7.028437772306475e-8 0 -3.5214204134483e-8 -7.042871869244315e-8
          0 0 -3.531186321073491e-8 -3.5305691000194284e-8 -7.062339495779485e-8 -7.061258291759035e-8
          0 -3.5265170168501084e-8 -7.053024452332957e-8 0 0 -3.5268310452000334e-8
          -3.526041569829202e-8 -7.053685112096059e-8 -7.052102575376126e-8 0 0 -3.533999643894299e-8
          -3.534853726714914e-8 -7.068006290425576e-8 -7.06975249113337e-8 0 -3.5069105319755174e-8 -7.013803132385627e-8
          0 0 -3.5277413237798585e-8 -3.528113113544296e-8 -7.055507560737713e-8 -7.056208209976858e-8
          0 0 0 0 -3.5192273821507695e-8 -3.518669808750337e-8
          -3.51657059805308e-8 -3.51690175283922e-8 -7.038468053533203e-8 -7.037335203187004e-8 -7.03314064451832e-8 -7.033801750154834e-8
          0 -3.531878464289192e-8 -7.063753954894335e-8 0 0 -3.5141212263206904e-8
          -3.513225485346615e-8 -7.028196190435329e-8 -7.026524553545322e-8 0 0 -3.532250683942248e-8
          -3.531873062515012e-8 -7.064504993496812e-8 -7.06372374798128e-8 0 -3.532134338291077e-8 -7.064278448657072e-8
          0 -3.5230345418834836e-8 -7.04611311295313e-8 0 -3.5325878809166256e-8 -7.065181351600041e-8
          0 -3.5179535130291675e-8 -7.035904331536941e-8 0 -3.5133253403937326e-8 -7.026797368054288e-8
          0 0 -3.533147542364003e-8 -3.5316444145773046e-8 -7.066282783906652e-8 -7.063291073027631e-8
          0 -3.510820526115977e-8 -7.021571352278782e-8 0 -3.5186433510945954e-8 -7.037436587376101e-8
          0 -3.522044381298444e-8 -7.044114009786075e-8 0 -3.530067200560196e-8 -7.060119811894869e-8
          0 -3.511407073964363e-8 -7.022782858866275e-8 0 -3.527319798263657e-8 -7.054640888216535e-8
          0 0 0 -3.531515670424595e-8 -3.5314524291589e-8 -3.532229626509767e-8
          -7.063049199792874e-8 -7.062905726444509e-8 -7.064444478440323e-8 0 -3.519445961630238e-8 -7.038875878758163e-8
          0 0 -3.524242133800909e-8 -3.52395166983716e-8 -7.04846994971225e-8 -7.04784669567962e-8
          0 -3.520116394976776e-8 -7.040232453800484e-8 0 -3.5204569346655614e-8 -7.040908778425301e-8
          0 -3.532956358424716e-8 -7.065905697251029e-8 0 -3.510913567227309e-8 -7.021879316343638e-8
          0 0 -3.505918399382624e-8 -3.5069138174763225e-8 -7.01185259490629e-8 -7.013809214167426e-8
          0 -3.521018317331222e-8 -7.042029967252979e-8 0 -3.508499324402303e-8 -7.016908200945374e-8
          0 -3.532303194598684e-8 -7.064539846799659e-8 0 -3.525074311532716e-8 -7.050119361594048e-8
          0 -3.530383524417133e-8 -7.060790155969078e-8 0 -3.517277594667387e-8 -7.034612121225999e-8
          0 0 -3.524965171705279e-8 -3.526089230839923e-8 -7.049990588480952e-8 -7.052146562367174e-8
          0 -3.530957780183277e-8 -7.06194128032745e-8 0 0 -3.531809501337743e-8
          -3.530789878724253e-8 -7.063688006395828e-8 -7.061578244712128e-8 0 -3.5301709811355884e-8 -7.06035332463651e-8
          0 -3.5312122461210325e-8 -7.062410851348103e-8 0 -3.5312793190420825e-8 -7.062531343759953e-8
          0 0 -3.532793390370945e-8 -3.53321624714117e-8 -7.065541045249753e-8 -7.066467005821954e-8
          0 -3.531750680722677e-8 -7.063458729571979e-8 0 -3.5321782318075344e-8 -7.064347872742096e-8
        </DataArray>
      </PointData>
      <CellData>
        <DataArray type="Int32" Name="libmesh_elem_id" format="ascii" RangeMin="1392" RangeMax="3231">
          1392 1393 1402 1403 1418 1419
          1434 1435 1442 1443 1448 1449
          1454 1455 1478 1479 1500 1501
          1512 1513 1522 1523 1546 1547
          1572 1573 1582 1583 1590 1591
          1608 1609 1614 1615 1616 1617
          1630 1631 1638 1639 1650 1651
          1654 1655 1656 1657 1678 1679
          1682 1683 1684 1685 1704 1705
          1714 1715 1718 1719 1746 1747
          1760 1761 1762 1763 1772 1773
          1790 1791 1794 1795 1802 1803
          1816 1817 1824 1825 1832 1833
          1838 1839 1840 1841 1846 1847
          1848 1849 1852 1853 1856 1857
          1858 1859 1862 1863 1864 1865
          1874 1875 1876 1877 1878 1879
          1882 1883 1888 1889 1904 1905
          1906 1907 1910 1911 1916 1917
          1924 1925 1926 1927 1930 1931
          1936 1937 1946 1947 1950 1951
          1956 1957 1960 1961 1982 1983
          1996 1997 1998 1999 2026 2027
          2028 2029 2038 2039 2046 2047
          2048 2049 2052 2053 2054 2055
          2058 2059 2060 2061 2084 2085
          2088 2089 2096 2097 2102 2103
          2106 2107 2110 2111 2126 2127
          2136 2137 2138 2139 2144 2145
          2148 2149 2154 2155 2158 2159
          2162 2163 2164 2165 2170 2171
          2176 2177 2178 2179 2196 2197
          2200 2201 2202 2203 2204 2205
          2212 2213 2220 2221 2222 2223
          2224 2225 2226 2227 2228 2229
          2232 2233 2236 2237 2246 2247
          2250 2251 2252 2253 2254 2255
          2260 2261 2264 2265 2266 2267
          2274 2275 2282 2283 2308 2309
          2310 2311 2312 2313 2318 2319
          2324 2325 2328 2329 2346 2347
          2350 2351 2364 2365 2368 2369
          2370 2371 2402 2403 2416 2417
          2420 2421 2444 2445 2458 2459
          2462 2463 2466 2467 2468 2469
          2470 2471 2478 2479 2484 2485
          2488 2489 2490 2491 2502 2503
          2504 2505 2510 2511 2512 2513
          2524 2525 2550 2551 2566 2567
          2570 2571 2580 2581 2582 2583
          2602 2603 2608 2609 2616 2617
          2628 2629 2634 2635 2636 2637
          2640 2641 2642 2643 2644 2645
          2650 2651 2666 2667 2668 2669
          2684 2685 2690 2691 2696 2697
          2700 2701 2710 2711 2714 2715
          2716 2717 2726 2727 2750 2751
          2760 2761 2766 2767 2772 2773
          2782 2783 2798 2799 2802 2803
          2810 2811 2826 2827 2830 2831
          2838 2839 2860 2861 2868 2869
          2874 2875 2884 2885 2922 2923
          2928 2929 2934 2935 2938 2939
          2946 2947 2948 2949 2960 2961
          2962 2963 2964 2965 2974 2975
          2978 2979 2994 2995 2998 2999
          3004 3005 3008 3009 3020 3021
          3028 3029 3034 3035 3038 3039
          3040 3041 3042 3043 3050 3051
          3052 3053 3054 3055 3060 3061
          3066 3067 3072 3073 3076 3077
          3082 3083 3086 3087 3096 3097
          3100 3101 3102 3103 3112 3113
          3116 3117 3148 3149 3154 3155
          3158 3159 3166 3167 3182 3183
          3230 3231
        </DataArray>
        <DataArray type="Int32" Name="subdomain_id" format="ascii" RangeMin="107" RangeMax="107">
          107 107 107 107 107 107
          107 107 107 107 107 107
          107 107 107 107 107 107
          107 107 107 107 107 107
          107 107 107 107 107 107
          107 107 107 107 107 107
          107 107 107 107 107 107
          107 107 107 107 107 107
          107 107 107 107 107 107
          107 107 107 107 107 107
          107 107 107 107 107 107
          107 107 107 107 107 107
          107 107 107 107 107 107
          107 107 107 107 107 107
          107 107 107 107 107 107
          107 107 107 107 107 107
          107 107 107 107 107 107
          107 107 107 107 107 107
          107 107 107 107 107 107
          107 107 107 107 107 107
          107 107 107 107 107 107
          107 107 107 107 107 107
          107 107 107 107 107 107
          107 107 107 107 107 107
          107 107 107 107 107 107
          107 107 107 107 107 107
          107 107 107 107 107 107
          107 107 107 107 107 107
          107 107 107 107 107 107
          107 107 107 107 107 107
          107 107 107 107 107 107
          107 107 107 107 107 107
          107 107 107 107 107 107
          107 107 107 107 107 107
          107 107 107 107 107 107
          107 107 107 107 107 107
          107 107 107 107 107 107
          107 107 107 107 107 107
          107 107 107 107 107 107
          107 107 107 107 107 107
          107 107 107 107 107 107
          107 107 107 107 107 107
          107 107 107 107 107 107
          107 107 107 107 107 107
          107 107 107 107 107 107
          107 107 107 107 107 107
          107 107 107 107 107 107
          107 107 107 107 107 107
          107 107 107 107 107 107
          107 107 107 107 107 107
          107 107 107 107 107 107
          107 107 107 107 107 107
          107 107 107 107 107 107
          107 107 107 107 107 107
          107 107 107 107 107 107
          107 107 107 107 107 107
          107 107 107 107 107 107
          107 107 107 107 107 107
          107 107 107 107 107 107
          107 107 107 107 107 107
          107 107 107 107 107 107
          107 107 107 107 107 107
          107 107 107 107 107 107
          107 107 107 107 107 107
          107 107 107 107 107 107
          107 107 107 107 107 107
          107 107 107 107 107 107
          107 107 107 107 107 107
          107 107 107 107 107 107
          107 107 107 107 107 107
          107 107 107 107 107 107
          107 107 107 107 107 107
          107 107 107 107 107 107
          107 107 107 107 107 107
          107 107 107 107 107 107
          107 107
        </DataArray>
        <DataArray type="Int32" Name="processor_id" format="ascii" RangeMin="2" RangeMax="2">
          2 2 2 2 2 2
          2 2 2 2 2 2
          2 2 2 2 2 2
          2 2 2 2 2 2
          2 2 2 2 2 2
          2 2 2 2 2 2
          2 2 2 2 2 2
          2 2 2 2 2 2
          2 2 2 2 2 2
          2 2 2 2 2 2
          2 2 2 2 2 2
          2 2 2 2 2 2
          2 2 2 2 2 2
          2 2 2 2 2 2
          2 2 2 2 2 2
          2 2 2 2 2 2
          2 2 2 2 2 2
          2 2 2 2 2 2
          2 2 2 2 2 2
          2 2 2 2 2 2
          2 2 2 2 2 2
          2 2 2 2 2 2
          2 2 2 2 2 2
          2 2 2 2 2 2
          2 2 2 2 2 2
          2 2 2 2 2 2
          2 2 2 2 2 2
          2 2 2 2 2 2
          2 2 2 2 2 2
          2 2 2 2 2 2
          2 2 2 2 2 2
          2 2 2 2 2 2
          2 2 2 2 2 2
          2 2 2 2 2 2
          2 2 2 2 2 2
          2 2 2 2 2 2
          2 2 2 2 2 2
          2 2 2 2 2 2
          2 2 2 2 2 2
          2 2 2 2 2 2
          2 2 2 2 2 2
          2 2 2 2 2 2
          2 2 2 2 2 2
          2 2 2 2 2 2
          2 2 2 2 2 2
          2 2 2 2 2 2
          2 2 2 2 2 2
          2 2 2 2 2 2
          2 2 2 2 2 2
          2 2 2 2 2 2
          2 2 2 2 2 2
          2 2 2 2 2 2
          2 2 2 2 2 2
          2 2 2 2 2 2
          2 2 2 2 2 2
          2 2 2 2 2 2
          2 2 2 2 2 2
          2 2 2 2 2 2
          2 2 2 2 2 2
          2 2 2 2 2 2
          2 2 2 2 2 2
          2 2 2 2 2 2
          2 2 2 2 2 2
          2 2 2 2 2 2
          2 2 2 2 2 2
          2 2 2 2 2 2
          2 2 2 2 2 2
          2 2 2 2 2 2
          2 2 2 2 2 2
          2 2 2 2 2 2
          2 2 2 2 2 2
          2 2 2 2 2 2
          2 2 2 2 2 2
          2 2 2 2 2 2
          2 2 2 2 2 2
          2 2
        </DataArray>
      </CellData>
      <Points>
        <DataArray type="Float64" Name="Points" NumberOfComponents="3" format="ascii" RangeMin="0.0055128205128194" RangeMax="0.014586579917196396">
          0.010655961336451 0.0054415469453289 0 0.010738296327413 0.0059250363170334 0
          0.010252884061106 0.0059462536680524 0 0.010205117478458 0.0054994523140404 0
          0.010655961336451 0.0054415469453289 0.00015 0.010738296327413 0.0059250363170334 0.00015
          0.010252884061106 0.0059462536680524 0.00015 0.010205117478458 0.0054994523140404 0.00015
          0.010655961336451 0.0054415469453289 0.0003 0.010738296327413 0.0059250363170334 0.0003
          0.010252884061106 0.0059462536680524 0.0003 0.010205117478458 0.0054994523140404 0.0003
          0.011940440807394 0.0034141066074527 0 0.011459595517011 0.003824326979063 0
          0.011102612382238 0.0034627190197861 0 0.011355953963772 0.0030463545109029 0
          0.011940440807394 0.0034141066074527 0.00015 0.011459595517011 0.003824326979063 0.00015
          0.011102612382238 0.0034627190197861 0.00015 0.011355953963772 0.0030463545109029 0.00015
          0.011940440807394 0.0034141066074527 0.0003 0.011459595517011 0.003824326979063 0.0003
          0.011102612382238 0.0034627190197861 0.0003 0.011355953963772 0.0030463545109029 0.0003
          0.010057653370411 0.0084974472595183 0 0.01054988842507 0.0084422245958245 0
          0.010057653370411 0.0084974472595183 0.00015 0.01054988842507 0.0084422245958245 0.00015
          0.010057653370411 0.0084974472595183 0.0003 0.01054988842507 0.0084422245958245 0.0003
          0.011046194733105 0.00090743319272295 0 0.011064186406242 0.00044456569898216 0
          0.011549090679959 0.00043919238601916 0 0.011507246232172 0.00087204304167501 0
          0.011046194733105 0.00090743319272295 0.00015 0.011064186406242 0.00044456569898216 0.00015
          0.011549090679959 0.00043919238601916 0.00015 0.011507246232172 0.00087204304167501 0.00015
          0.011046194733105 0.00090743319272295 0.0003 0.011064186406242 0.00044456569898216 0.0003
          0.011549090679959 0.00043919238601916 0.0003 0.011507246232172 0.00087204304167501 0.0003
          0.010695724673322 0.003201084864495 0 0.010922769205465 0.002821493997395 0
          0.010695724673322 0.003201084864495 0.00015 0.010922769205465 0.002821493997395 0.00015
          0.010695724673322 0.003201084864495 0.0003 0.010922769205465 0.002821493997395 0.0003
          0.0063972422249218 0.0045440807567198 0 0.0065062213292024 0.0050164807168814 0
          0.0062389906493372 0.0053128670028646 0 0.0060512178389602 0.0047929387822649 0
          0.0063972422249218 0.0045440807567198 0.00015 0.0065062213292024 0.0050164807168814 0.00015
          0.0062389906493372 0.0053128670028646 0.00015 0.0060512178389602 0.0047929387822649 0.00015
          0.0063972422249218 0.0045440807567198 0.0003 0.0065062213292024 0.0050164807168814 0.0003
          0.0062389906493372 0.0053128670028646 0.0003 0.0060512178389602 0.0047929387822649 0.0003
          0.0077450758336629 0.0014176167893871 0 0.0081853433575 0.0016343392489207 0
          0.0081296210030831 0.0020475545417094 0 0.0077097822266787 0.0019577759081516 0
          0.0077450758336629 0.0014176167893871 0.00015 0.0081853433575 0.0016343392489207 0.00015
          0.0081296210030831 0.0020475545417094 0.00015 0.0077097822266787 0.0019577759081516 0.00015
          0.0077450758336629 0.0014176167893871 0.0003 0.0081853433575 0.0016343392489207 0.0003
          0.0081296210030831 0.0020475545417094 0.0003 0.0077097822266787 0.0019577759081516 0.0003
          0.010163700921554 0.0050965322104848 0 0.010539876174215 0.0050107335132671 0
          0.010163700921554 0.0050965322104848 0.00015 0.010539876174215 0.0050107335132671 0.00015
          0.010163700921554 0.0050965322104848 0.0003 0.010539876174215 0.0050107335132671 0.0003
          0.0067145785472978 0.00092067788586619 0 0.0066311284750677 0.00045344715700039 0
          0.0071039644964018 0.00045254776362746 0 0.0071622170579096 0.00091220258976311 0
          0.0067145785472978 0.00092067788586619 0.00015 0.0066311284750677 0.00045344715700039 0.00015
          0.0071039644964018 0.00045254776362746 0.00015 0.0071622170579096 0.00091220258976311 0.00015
          0.0067145785472978 0.00092067788586619 0.0003 0.0066311284750677 0.00045344715700039 0.0003
          0.0071039644964018 0.00045254776362746 0.0003 0.0071622170579096 0.00091220258976311 0.0003
          0.011832021157187 0.0073476785459853 0 0.011779780861271 0.0068646395959748 0
          0.012243708910156 0.0068324173193727 0 0.011832021157187 0.0073476785459853 0.00015
          0.011779780861271 0.0068646395959748 0.00015 0.012243708910156 0.0068324173193727 0.00015
          0.011832021157187 0.0073476785459853 0.0003 0.011779780861271 0.0068646395959748 0.0003
          0.012243708910156 0.0068324173193727 0.0003 0.0084907788898463 0.00044286110481525 0
          0.0089555217282148 0.00046389179151574 0 0.0088246864415892 0.00090448805343066 0
          0.0084146790711037 0.00087434414493667 0 0.0084907788898463 0.00044286110481525 0.00015
          0.0089555217282148 0.00046389179151574 0.00015 0.0088246864415892 0.00090448805343066 0.00015
          0.0084146790711037 0.00087434414493667 0.00015 0.0084907788898463 0.00044286110481525 0.0003
          0.0089555217282148 0.00046389179151574 0.0003 0.0088246864415892 0.00090448805343066 0.0003
          0.0084146790711037 0.00087434414493667 0.0003 0.0073198391209489 0.002802975731369 0
          0.007729981097025 0.0028801564362105 0 0.0077015154526268 0.0033237594367458 0
          0.0072927827923603 0.0032114269239825 0 0.0073198391209489 0.002802975731369 0.00015
          0.007729981097025 0.0028801564362105 0.00015 0.0077015154526268 0.0033237594367458 0.00015
          0.0072927827923603 0.0032114269239825 0.00015 0.0073198391209489 0.002802975731369 0.0003
          0.007729981097025 0.0028801564362105 0.0003 0.0077015154526268 0.0033237594367458 0.0003
          0.0072927827923603 0.0032114269239825 0.0003 0.011061956134478 0.0014022262787872 0
          0.011061956134478 0.0014022262787872 0.00015 0.011061956134478 0.0014022262787872 0.0003
          0.0067262777673885 0.0043003855308917 0 0.0070184374453973 0.0044097475846897 0
          0.0069143452336461 0.0047780273607631 0 0.0067262777673885 0.0043003855308917 0.00015
          0.0070184374453973 0.0044097475846897 0.00015 0.0069143452336461 0.0047780273607631 0.00015
          0.0067262777673885 0.0043003855308917 0.0003 0.0070184374453973 0.0044097475846897 0.0003
          0.0069143452336461 0.0047780273607631 0.0003 0.0072966772765568 0.0023596996909359 0
          0.0077191611848381 0.0024307703640478 0 0.0072966772765568 0.0023596996909359 0.00015
          0.0077191611848381 0.0024307703640478 0.00015 0.0072966772765568 0.0023596996909359 0.0003
          0.0077191611848381 0.0024307703640478 0.0003 0.010569749843509 0.00092230265866691 0
          0.010578573679683 0.0013844170604281 0 0.010145320905195 0.0014335884987508 0
          0.01008894187929 0.00096115561381429 0 0.010569749843509 0.00092230265866691 0.00015
          0.010578573679683 0.0013844170604281 0.00015 0.010145320905195 0.0014335884987508 0.00015
          0.01008894187929 0.00096115561381429 0.00015 0.010569749843509 0.00092230265866691 0.0003
          0.010578573679683 0.0013844170604281 0.0003 0.010145320905195 0.0014335884987508 0.0003
          0.01008894187929 0.00096115561381429 0.0003 0.0061669869081239 0.00049673093518566 0
          0.0062913293509889 0.00097410606592609 0 0.0059245902968253 0.0010856763727913 0
          0.0057061681768373 0.00065177476244477 0 0.0061669869081239 0.00049673093518566 0.00015
          0.0062913293509889 0.00097410606592609 0.00015 0.0059245902968253 0.0010856763727913 0.00015
          0.0057061681768373 0.00065177476244477 0.00015 0.0061669869081239 0.00049673093518566 0.0003
          0.0062913293509889 0.00097410606592609 0.0003 0.0059245902968253 0.0010856763727913 0.0003
          0.0057061681768373 0.00065177476244477 0.0003 0.010613957240618 0.0022894151744625 0
          0.011031068838334 0.0023895404946521 0 0.01053554486979 0.0026566023779455 0
          0.010613957240618 0.0022894151744625 0.00015 0.011031068838334 0.0023895404946521 0.00015
          0.01053554486979 0.0026566023779455 0.00015 0.010613957240618 0.0022894151744625 0.0003
          0.011031068838334 0.0023895404946521 0.0003 0.01053554486979 0.0026566023779455 0.0003
          0.0055128205128194 0 0 0.0060256410256386 0 0
          0.0055128205128194 0 0.00015 0.0060256410256386 0 0.00015
          0.0055128205128194 0 0.0003 0.0060256410256386 0 0.0003
          0.0087932726011055 0.003543484648519 0 0.0081725565838686 0.0034418576035907 0
          0.0081844882448281 0.0029554535172717 0 0.0086653225286358 0.0029358056411338 0
          0.0087932726011055 0.003543484648519 0.00015 0.0081725565838686 0.0034418576035907 0.00015
          0.0081844882448281 0.0029554535172717 0.00015 0.0086653225286358 0.0029358056411338 0.00015
          0.0087932726011055 0.003543484648519 0.0003 0.0081725565838686 0.0034418576035907 0.0003
          0.0081844882448281 0.0029554535172717 0.0003 0.0086653225286358 0.0029358056411338 0.0003
          0.010609256891376 0.0018508518753275 0 0.011063963632424 0.0019108783312894 0
          0.010609256891376 0.0018508518753275 0.00015 0.011063963632424 0.0019108783312894 0.00015
          0.010609256891376 0.0018508518753275 0.0003 0.011063963632424 0.0019108783312894 0.0003
          0.0061614658010566 0.0029736343202522 0 0.0061372854142827 0.0036106222238676 0
          0.0061614658010566 0.0029736343202522 0.00015 0.0061372854142827 0.0036106222238676 0.00015
          0.0061614658010566 0.0029736343202522 0.0003 0.0061372854142827 0.0036106222238676 0.0003
          0.0091223832784702 0.0028108558594978 0 0.0093224708097351 0.0032450014434347 0
          0.0091223832784702 0.0028108558594978 0.00015 0.0093224708097351 0.0032450014434347 0.00015
          0.0091223832784702 0.0028108558594978 0.0003 0.0093224708097351 0.0032450014434347 0.0003
          0.010365654248251 0.0046741943492533 0 0.010130092133721 0.0048347586786618 0
          0.0098673679311407 0.0047157860708196 0 0.010078628200493 0.0044157313734999 0
          0.010365654248251 0.0046741943492533 0.00015 0.010130092133721 0.0048347586786618 0.00015
          0.0098673679311407 0.0047157860708196 0.00015 0.010078628200493 0.0044157313734999 0.00015
          0.010365654248251 0.0046741943492533 0.0003 0.010130092133721 0.0048347586786618 0.0003
          0.0098673679311407 0.0047157860708196 0.0003 0.010078628200493 0.0044157313734999 0.0003
          0.0074225055052033 0.0045889494028562 0 0.0073125071067115 0.0049521547682488 0
          0.0074225055052033 0.0045889494028562 0.00015 0.0073125071067115 0.0049521547682488 0.00015
          0.0074225055052033 0.0045889494028562 0.0003 0.0073125071067115 0.0049521547682488 0.0003
          0.0061231952422177 0.002444135475079 0 0.0061231952422177 0.002444135475079 0.00015
          0.0061231952422177 0.002444135475079 0.0003 0.007634491258567 0.0037589111207536 0
          0.0080978935956725 0.0039120786728548 0 0.007634491258567 0.0037589111207536 0.00015
          0.0080978935956725 0.0039120786728548 0.00015 0.007634491258567 0.0037589111207536 0.0003
          0.0080978935956725 0.0039120786728548 0.0003 0.0067400809843091 0.0034207975388345 0
          0.0067100713183769 0.0039836679330495 0 0.0063054236008776 0.0041223407032968 0
          0.0067400809843091 0.0034207975388345 0.00015 0.0067100713183769 0.0039836679330495 0.00015
          0.0063054236008776 0.0041223407032968 0.00015 0.0067400809843091 0.0034207975388345 0.0003
          0.0067100713183769 0.0039836679330495 0.0003 0.0063054236008776 0.0041223407032968 0.0003
          0.0064429727892239 0.0018594619814901 0 0.0065003657821779 0.0023397297588745 0
          0.0060722038988066 0.0019538017587265 0 0.0064429727892239 0.0018594619814901 0.00015
          0.0065003657821779 0.0023397297588745 0.00015 0.0060722038988066 0.0019538017587265 0.00015
          0.0064429727892239 0.0018594619814901 0.0003 0.0065003657821779 0.0023397297588745 0.0003
          0.0060722038988066 0.0019538017587265 0.0003 0.0068255396015086 0.0051581133306003 0
          0.0068255396015086 0.0051581133306003 0.00015 0.0068255396015086 0.0051581133306003 0.0003
          0.0065384615384579 0 0 0.0065384615384579 0 0.00015
          0.0065384615384579 0 0.0003 0.012879713087233 0.0060908484912964 0
          0.012982043505355 0.0056371881930815 0 0.012879713087233 0.0060908484912964 0.00015
          0.012982043505355 0.0056371881930815 0.00015 0.012879713087233 0.0060908484912964 0.0003
          0.012982043505355 0.0056371881930815 0.0003 0.0065699942646101 0.0028542668018424 0
          0.0065699942646101 0.0028542668018424 0.00015 0.0065699942646101 0.0028542668018424 0.0003
          0.0084683943974961 0.0045583446766593 0 0.0079943718437571 0.0043747262241866 0
          0.0085823759797054 0.0040943119694046 0 0.0084683943974961 0.0045583446766593 0.00015
          0.0079943718437571 0.0043747262241866 0.00015 0.0085823759797054 0.0040943119694046 0.00015
          0.0084683943974961 0.0045583446766593 0.0003 0.0079943718437571 0.0043747262241866 0.0003
          0.0085823759797054 0.0040943119694046 0.0003 0.0085830886495109 0.0024681574500846 0
          0.0090044137010858 0.0023542069269131 0 0.0085830886495109 0.0024681574500846 0.00015
          0.0090044137010858 0.0023542069269131 0.00015 0.0085830886495109 0.0024681574500846 0.0003
          0.0090044137010858 0.0023542069269131 0.0003 0.0098857235699117 0.0079055319030787 0
          0.0095144479526816 0.0076594245921199 0 0.0094715724969347 0.0073263583858313 0
          0.0099283521138692 0.0073475677072736 0 0.0098857235699117 0.0079055319030787 0.00015
          0.0095144479526816 0.0076594245921199 0.00015 0.0094715724969347 0.0073263583858313 0.00015
          0.0099283521138692 0.0073475677072736 0.00015 0.0098857235699117 0.0079055319030787 0.0003
          0.0095144479526816 0.0076594245921199 0.0003 0.0094715724969347 0.0073263583858313 0.0003
          0.0099283521138692 0.0073475677072736 0.0003 0.010833716827414 0.0069257207373803 0
          0.010357413059119 0.0069077241183533 0 0.010300982556592 0.0064274708783385 0
          0.010786080808085 0.0064391381968206 0 0.010833716827414 0.0069257207373803 0.00015
          0.010357413059119 0.0069077241183533 0.00015 0.010300982556592 0.0064274708783385 0.00015
          0.010786080808085 0.0064391381968206 0.00015 0.010833716827414 0.0069257207373803 0.0003
          0.010357413059119 0.0069077241183533 0.0003 0.010300982556592 0.0064274708783385 0.0003
          0.010786080808085 0.0064391381968206 0.0003 0.012723582323863 0.006509831652106 0
          0.012251440655851 0.0062918667587536 0 0.012542392069256 0.0059723735377719 0
          0.012723582323863 0.006509831652106 0.00015 0.012251440655851 0.0062918667587536 0.00015
          0.012542392069256 0.0059723735377719 0.00015 0.012723582323863 0.006509831652106 0.0003
          0.012251440655851 0.0062918667587536 0.0003 0.012542392069256 0.0059723735377719 0.0003
          0.0071151184692216 0.0040272738406853 0 0.0071151184692216 0.0040272738406853 0.00015
          0.0071151184692216 0.0040272738406853 0.0003 0.005927800859391 0.0043689372395662 0
          0.005927800859391 0.0043689372395662 0.00015 0.005927800859391 0.0043689372395662 0.0003
          0.0092411258002763 0.0078319639415625 0 0.0089588909882048 0.0073942383853577 0
          0.0092411258002763 0.0078319639415625 0.00015 0.0089588909882048 0.0073942383853577 0.00015
          0.0092411258002763 0.0078319639415625 0.0003 0.0089588909882048 0.0073942383853577 0.0003
          0.009874674666521 0.0068715373563056 0 0.010410157305432 0.007394545582291 0
          0.009874674666521 0.0068715373563056 0.00015 0.010410157305432 0.007394545582291 0.00015
          0.009874674666521 0.0068715373563056 0.0003 0.010410157305432 0.007394545582291 0.0003
          0.0075354000991736 0.004186248288406 0 0.0075354000991736 0.004186248288406 0.00015
          0.0075354000991736 0.004186248288406 0.0003 0.01131847387487 0.0058224977902188 0
          0.011696082283392 0.0060272916092408 0 0.011725204011411 0.0063910302275778 0
          0.011265055974573 0.0064250601080915 0 0.01131847387487 0.0058224977902188 0.00015
          0.011696082283392 0.0060272916092408 0.00015 0.011725204011411 0.0063910302275778 0.00015
          0.011265055974573 0.0064250601080915 0.00015 0.01131847387487 0.0058224977902188 0.0003
          0.011696082283392 0.0060272916092408 0.0003 0.011725204011411 0.0063910302275778 0.0003
          0.011265055974573 0.0064250601080915 0.0003 0.012000241143886 0.0058170880130831 0
          0.012000241143886 0.0058170880130831 0.00015 0.012000241143886 0.0058170880130831 0.0003
          0.011120492592586 0.0052514705902296 0 0.011120492592586 0.0052514705902296 0.00015
          0.011120492592586 0.0052514705902296 0.0003 0.0092910901193945 0.0039260363263486 0
          0.0090503465409481 0.0043132092761106 0 0.0092910901193945 0.0039260363263486 0.00015
          0.0090503465409481 0.0043132092761106 0.00015 0.0092910901193945 0.0039260363263486 0.0003
          0.0090503465409481 0.0043132092761106 0.0003 0.007889027184575 0.0048982243533992 0
          0.007889027184575 0.0048982243533992 0.00015 0.007889027184575 0.0048982243533992 0.0003
          0.0094935553236164 0.004533528646427 0 0.0097061514105808 0.0041851036755216 0
          0.0094935553236164 0.004533528646427 0.00015 0.0097061514105808 0.0041851036755216 0.00015
          0.0094935553236164 0.004533528646427 0.0003 0.0097061514105808 0.0041851036755216 0.0003
          0.007602124101561 0.0050930903063015 0 0.007602124101561 0.0050930903063015 0.00015
          0.007602124101561 0.0050930903063015 0.0003 0.010723762445737 0.0044202706845482 0
          0.010410164583979 0.0041181159817359 0 0.010723762445737 0.0044202706845482 0.00015
          0.010410164583979 0.0041181159817359 0.00015 0.010723762445737 0.0044202706845482 0.0003
          0.010410164583979 0.0041181159817359 0.0003 0.01095205032792 0.0047963590452232 0
          0.01095205032792 0.0047963590452232 0.00015 0.01095205032792 0.0047963590452232 0.0003
          0.011303178752756 0.0069106117689346 0 0.011303178752756 0.0069106117689346 0.00015
          0.011303178752756 0.0069106117689346 0.0003 0.01003253261535 0.0038623502872685 0
          0.01003253261535 0.0038623502872685 0.00015 0.01003253261535 0.0038623502872685 0.0003
          0.0076528923620256 0.0053996878686031 0 0.0072494384034052 0.005322441352826 0
          0.0076528923620256 0.0053996878686031 0.00015 0.0072494384034052 0.005322441352826 0.00015
          0.0076528923620256 0.0053996878686031 0.0003 0.0072494384034052 0.005322441352826 0.0003
          0.0096442187720765 0.0035928190702974 0 0.0096442187720765 0.0035928190702974 0.00015
          0.0096442187720765 0.0035928190702974 0.0003 0.012013949131265 0.002158444108951 0
          0.012018063243501 0.0027123142038817 0 0.012013949131265 0.002158444108951 0.00015
          0.012018063243501 0.0027123142038817 0.00015 0.012013949131265 0.002158444108951 0.0003
          0.012018063243501 0.0027123142038817 0.0003 0.0080144547016537 0.00086684480617367 0
          0.008304219624614 0.0012703006012415 0 0.0080327132462595 0.0011721512048422 0
          0.0080144547016537 0.00086684480617367 0.00015 0.008304219624614 0.0012703006012415 0.00015
          0.0080327132462595 0.0011721512048422 0.00015 0.0080144547016537 0.00086684480617367 0.0003
          0.008304219624614 0.0012703006012415 0.0003 0.0080327132462595 0.0011721512048422 0.0003
          0.0094736490244467 0.0005865877812969 0 0.010068957850501 0.00047856930843549 0
          0.0096358530086744 0.0010887425154837 0 0.0094736490244467 0.0005865877812969 0.00015
          0.010068957850501 0.00047856930843549 0.00015 0.0096358530086744 0.0010887425154837 0.00015
          0.0094736490244467 0.0005865877812969 0.0003 0.010068957850501 0.00047856930843549 0.0003
          0.0096358530086744 0.0010887425154837 0.0003 0.0071984303565192 0.0057392272964834 0
          0.0067200519522164 0.0055550541115669 0 0.0071984303565192 0.0057392272964834 0.00015
          0.0067200519522164 0.0055550541115669 0.00015 0.0071984303565192 0.0057392272964834 0.0003
          0.0067200519522164 0.0055550541115669 0.0003 0.013091675611077 0.0041736873632184 0
          0.012621380555602 0.004071395146678 0 0.012601464682814 0.0035037767307713 0
          0.013091675611077 0.0041736873632184 0.00015 0.012621380555602 0.004071395146678 0.00015
          0.012601464682814 0.0035037767307713 0.00015 0.013091675611077 0.0041736873632184 0.0003
          0.012621380555602 0.004071395146678 0.0003 0.012601464682814 0.0035037767307713 0.0003
          0.01153639784925 0.0020208067996516 0 0.011496246026306 0.0025480504488598 0
          0.01153639784925 0.0020208067996516 0.00015 0.011496246026306 0.0025480504488598 0.00015
          0.01153639784925 0.0020208067996516 0.0003 0.011496246026306 0.0025480504488598 0.0003
          0.011043213382792 0.0084269911709333 0 0.011043213382792 0.0084269911709333 0.00015
          0.011043213382792 0.0084269911709333 0.0003 0.010128205128191 0 0
          0.0096153846153732 0 0 0.010128205128191 0 0.00015
          0.0096153846153732 0 0.00015 0.010128205128191 0 0.0003
          0.0096153846153732 0 0.0003 0.0091025641025551 0 0
          0.0085897435897353 0 0 0.0091025641025551 0 0.00015
          0.0085897435897353 0 0.00015 0.0091025641025551 0 0.0003
          0.0085897435897353 0 0.0003 0.0085182476127008 0.0020437661198126 0
          0.0089029205554566 0.0019047336662455 0 0.0085182476127008 0.0020437661198126 0.00015
          0.0089029205554566 0.0019047336662455 0.00015 0.0085182476127008 0.0020437661198126 0.0003
          0.0089029205554566 0.0019047336662455 0.0003 0.0081522818828449 0.0024947087352937 0
          0.0081522818828449 0.0024947087352937 0.00015 0.0081522818828449 0.0024947087352937 0.0003
          0.010641025641009 0 0 0.010579843756946 0.00045349299099366 0
          0.010641025641009 0 0.00015 0.010579843756946 0.00045349299099366 0.00015
          0.010641025641009 0 0.0003 0.010579843756946 0.00045349299099366 0.0003
          0.011153846153828 0 0 0.011153846153828 0 0.00015
          0.011153846153828 0 0.0003 0.011760912133753 0.0054122119446059 0
          0.011760912133753 0.0054122119446059 0.00015 0.011760912133753 0.0054122119446059 0.0003
          0.011666666666648 0 0 0.011666666666648 0 0.00015
          0.011666666666648 0 0.0003 0.011547825504055 0.0049713459697514 0
          0.011547825504055 0.0049713459697514 0.00015 0.011547825504055 0.0049713459697514 0.0003
          0.011349632014182 0.0045239710214715 0 0.011349632014182 0.0045239710214715 0.00015
          0.011349632014182 0.0045239710214715 0.0003 0.011997463288521 0.00046572766410539 0
          0.012179487179468 0 0 0.011997463288521 0.00046572766410539 0.00015
          0.012179487179468 0 0.00015 0.011997463288521 0.00046572766410539 0.0003
          0.012179487179468 0 0.0003 0.01039056673058 0.0035410773695937 0
          0.010772622187787 0.0038062315725381 0 0.01039056673058 0.0035410773695937 0.00015
          0.010772622187787 0.0038062315725381 0.00015 0.01039056673058 0.0035410773695937 0.0003
          0.010772622187787 0.0038062315725381 0.0003 0.0089323359070786 0.0047421281357296 0
          0.0089323359070786 0.0047421281357296 0.00015 0.0089323359070786 0.0047421281357296 0.0003
          0.010891746765568 0.007407252260552 0 0.010891746765568 0.007407252260552 0.00015
          0.010891746765568 0.007407252260552 0.0003 0.011089383238376 0.0041358143249023 0
          0.011089383238376 0.0041358143249023 0.00015 0.011089383238376 0.0041358143249023 0.0003
          0.007205317033861 0.0036141963404016 0 0.007205317033861 0.0036141963404016 0.00015
          0.007205317033861 0.0036141963404016 0.0003 0.0080269839945158 0.0054023282425744 0
          0.0080269839945158 0.0054023282425744 0.00015 0.0080269839945158 0.0054023282425744 0.0003
          0.0077721363879251 0.0058968168784219 0 0.0077721363879251 0.0058968168784219 0.00015
          0.0077721363879251 0.0058968168784219 0.0003 0.0095370253310475 0.0025850582106885 0
          0.009732219723835 0.0029713438236062 0 0.0095370253310475 0.0025850582106885 0.00015
          0.009732219723835 0.0029713438236062 0.00015 0.0095370253310475 0.0025850582106885 0.0003
          0.009732219723835 0.0029713438236062 0.0003 0.0094100372761059 0.0021522308351028 0
          0.0094100372761059 0.0021522308351028 0.00015 0.0094100372761059 0.0021522308351028 0.0003
          0.0087313387484914 0.001424359608332 0 0.0084651319029022 0.0017289788972556 0
          0.0087313387484914 0.001424359608332 0.00015 0.0084651319029022 0.0017289788972556 0.00015
          0.0087313387484914 0.001424359608332 0.0003 0.0084651319029022 0.0017289788972556 0.0003
          0.011363196701121 0.0073867521895413 0 0.011894488312007 0.0078344841271679 0
          0.011431801070778 0.0078815011129823 0 0.011363196701121 0.0073867521895413 0.00015
          0.011894488312007 0.0078344841271679 0.00015 0.011431801070778 0.0078815011129823 0.00015
          0.011363196701121 0.0073867521895413 0.0003 0.011894488312007 0.0078344841271679 0.0003
          0.011431801070778 0.0078815011129823 0.0003 0.011511795106494 0.0083968566041475 0
          0.011511795106494 0.0083968566041475 0.00015 0.011511795106494 0.0083968566041475 0.0003
          0.0093066157528448 0.0017085494075796 0 0.0093066157528448 0.0017085494075796 0.00015
          0.0093066157528448 0.0017085494075796 0.0003 0.011737204813157 0.0042624504192267 0
          0.011920232844873 0.0047153506313134 0 0.011737204813157 0.0042624504192267 0.00015
          0.011920232844873 0.0047153506313134 0.00015 0.011737204813157 0.0042624504192267 0.0003
          0.011920232844873 0.0047153506313134 0.0003 0.0097199155871303 0.0015315099671301 0
          0.0098040259351994 0.0019696894002764 0 0.0097199155871303 0.0015315099671301 0.00015
          0.0098040259351994 0.0019696894002764 0.00015 0.0097199155871303 0.0015315099671301 0.0003
          0.0098040259351994 0.0019696894002764 0.0003 0.0099068743951204 0.0023814903757239 0
          0.0099068743951204 0.0023814903757239 0.00015 0.0099068743951204 0.0023814903757239 0.0003
          0.010196799496301 0.0018655242590307 0 0.010252080701677 0.0022738797315184 0
          0.010196799496301 0.0018655242590307 0.00015 0.010252080701677 0.0022738797315184 0.00015
          0.010196799496301 0.0018655242590307 0.0003 0.010252080701677 0.0022738797315184 0.0003
          0.0082479601882269 0.0062087007836213 0 0.0083721174281176 0.0058457654542534 0
          0.0087793359412623 0.006030240425184 0 0.0086690881028679 0.0063945203238097 0
          0.0082479601882269 0.0062087007836213 0.00015 0.0083721174281176 0.0058457654542534 0.00015
          0.0087793359412623 0.006030240425184 0.00015 0.0086690881028679 0.0063945203238097 0.00015
          0.0082479601882269 0.0062087007836213 0.0003 0.0083721174281176 0.0058457654542534 0.0003
          0.0087793359412623 0.006030240425184 0.0003 0.0086690881028679 0.0063945203238097 0.0003
          0.0098103305116681 0.0063862496116293 0 0.0098103305116681 0.0063862496116293 0.00015
          0.0098103305116681 0.0063862496116293 0.0003 0.0084248193747317 0.0050261658136402 0
          0.0084248193747317 0.0050261658136402 0.00015 0.0084248193747317 0.0050261658136402 0.0003
          0.0069463016830039 0.0027787422025108 0 0.0070048409545821 0.0031125297586922 0
          0.0069463016830039 0.0027787422025108 0.00015 0.0070048409545821 0.0031125297586922 0.00015
          0.0069463016830039 0.0027787422025108 0.0003 0.0070048409545821 0.0031125297586922 0.0003
          0.010028456835002 0.0032748409090605 0 0.010028456835002 0.0032748409090605 0.00015
          0.010028456835002 0.0032748409090605 0.0003 0.013084530633285 0.0046685927017207 0
          0.012657407202949 0.0045740785705039 0 0.013084530633285 0.0046685927017207 0.00015
          0.012657407202949 0.0045740785705039 0.00015 0.013084530633285 0.0046685927017207 0.0003
          0.012657407202949 0.0045740785705039 0.0003 0.0063788755008874 0.0014091508241809 0
          0.0060137569775388 0.0015029488511318 0 0.0063788755008874 0.0014091508241809 0.00015
          0.0060137569775388 0.0015029488511318 0.00015 0.0063788755008874 0.0014091508241809 0.0003
          0.0060137569775388 0.0015029488511318 0.0003 0.01196380743939 0.0083394019710021 0
          0.01196380743939 0.0083394019710021 0.00015 0.01196380743939 0.0083394019710021 0.0003
          0.010073855840534 0.0027196155419985 0 0.010289681297386 0.0025561678844121 0
          0.010073855840534 0.0027196155419985 0.00015 0.010289681297386 0.0025561678844121 0.00015
          0.010073855840534 0.0027196155419985 0.0003 0.010289681297386 0.0025561678844121 0.0003
          0.0093223919318803 0.0053434698815888 0 0.009764317340127 0.0054658727348424 0
          0.0097769212248058 0.0059119658621614 0 0.0093027527337708 0.0057939169389015 0
          0.0093223919318803 0.0053434698815888 0.00015 0.009764317340127 0.0054658727348424 0.00015
          0.0097769212248058 0.0059119658621614 0.00015 0.0093027527337708 0.0057939169389015 0.00015
          0.0093223919318803 0.0053434698815888 0.0003 0.009764317340127 0.0054658727348424 0.0003
          0.0097769212248058 0.0059119658621614 0.0003 0.0093027527337708 0.0057939169389015 0.0003
          0.0068882925124701 0.0023177669638962 0 0.0068882925124701 0.0023177669638962 0.00015
          0.0068882925124701 0.0023177669638962 0.0003 0.0092499592325966 0.0063238181416562 0
          0.0089620052424248 0.0065330227489775 0 0.0092499592325966 0.0063238181416562 0.00015
          0.0089620052424248 0.0065330227489775 0.00015 0.0092499592325966 0.0063238181416562 0.0003
          0.0089620052424248 0.0065330227489775 0.0003 0.0072168253422346 0.001397514094839 0
          0.0076041066380058 0.00089936619415626 0 0.0072168253422346 0.001397514094839 0.00015
          0.0076041066380058 0.00089936619415626 0.00015 0.0072168253422346 0.001397514094839 0.0003
          0.0076041066380058 0.00089936619415626 0.0003 0.0075718226613923 0.00044755222139025 0
          0.0075718226613923 0.00044755222139025 0.00015 0.0075718226613923 0.00044755222139025 0.0003
          0.012116660000204 0.0051206445675074 0 0.012116660000204 0.0051206445675074 0.00015
          0.012116660000204 0.0051206445675074 0.0003 0.0068338524094732 0.0018398489073113 0
          0.0068338524094732 0.0018398489073113 0.00015 0.0068338524094732 0.0018398489073113 0.0003
          0.0088473960481577 0.0056214227923259 0 0.0088473960481577 0.0056214227923259 0.00015
          0.0088473960481577 0.0056214227923259 0.0003 0.0081402125110085 0.0066115625704341 0
          0.0081402125110085 0.0066115625704341 0.00015 0.0081402125110085 0.0066115625704341 0.0003
          0.0067824993802385 0.0013824026215467 0 0.0072591856110724 0.0018865642034293 0
          0.0067824993802385 0.0013824026215467 0.00015 0.0072591856110724 0.0018865642034293 0.00015
          0.0067824993802385 0.0013824026215467 0.0003 0.0072591856110724 0.0018865642034293 0.0003
          0.0094035295411974 0.0068662830960629 0 0.0094035295411974 0.0068662830960629 0.00015
          0.0094035295411974 0.0068662830960629 0.0003 0.0080770297303238 0.0057078658228848 0
          0.0080770297303238 0.0057078658228848 0.00015 0.0080770297303238 0.0057078658228848 0.0003
          0.012455160230445 0.0055307966461266 0 0.012455160230445 0.0055307966461266 0.00015
          0.012455160230445 0.0055307966461266 0.0003 0.0092134396095011 0.0012639463069257 0
          0.0092134396095011 0.0012639463069257 0.00015 0.0092134396095011 0.0012639463069257 0.0003
          0.0085681017610313 0.0067725899286886 0 0.0085681017610313 0.0067725899286886 0.00015
          0.0085681017610313 0.0067725899286886 0.0003 0.010337781301114 0.0029713007827362 0
          0.010337781301114 0.0029713007827362 0.00015 0.010337781301114 0.0029713007827362 0.0003
          0.0080769230769162 0 0 0.0080362994401078 0.00044130282391618 0
          0.0075641025640979 0 0 0.0080769230769162 0 0.00015
          0.0080362994401078 0.00044130282391618 0.00015 0.0075641025640979 0 0.00015
          0.0080769230769162 0 0.0003 0.0080362994401078 0.00044130282391618 0.0003
          0.0075641025640979 0 0.0003 0.0084157309119158 0.0054663429893237 0
          0.0084157309119158 0.0054663429893237 0.00015 0.0084157309119158 0.0054663429893237 0.0003
          0.012625060394875 0.0050215313919928 0 0.012340535819996 0.0049145470001145 0
          0.012625060394875 0.0050215313919928 0.00015 0.012340535819996 0.0049145470001145 0.00015
          0.012625060394875 0.0050215313919928 0.0003 0.012340535819996 0.0049145470001145 0.0003
          0.0088807280393962 0.0051824777758032 0 0.0088807280393962 0.0051824777758032 0.00015
          0.0088807280393962 0.0051824777758032 0.0003 0.00978640191627 0.0050564284414982 0
          0.00978640191627 0.0050564284414982 0.00015 0.00978640191627 0.0050564284414982 0.0003
          0.007051282051278 0 0 0.007051282051278 0 0.00015
          0.007051282051278 0 0.0003 0.0089738769927721 0.0068608682916542 0
          0.0089738769927721 0.0068608682916542 0.00015 0.0089738769927721 0.0068608682916542 0.0003
          0.010464396561549 0.007914442793445 0 0.010959162019398 0.0079079830093058 0
          0.010464396561549 0.007914442793445 0.00015 0.010959162019398 0.0079079830093058 0.00015
          0.010464396561549 0.007914442793445 0.0003 0.010959162019398 0.0079079830093058 0.0003
          0.0093768424757788 0.0049206652486621 0 0.0093768424757788 0.0049206652486621 0.00015
          0.0093768424757788 0.0049206652486621 0.0003 0.0084364690699339 0.0071912877673881 0
          0.0084364690699339 0.0071912877673881 0.00015 0.0084364690699339 0.0071912877673881 0.0003
          0.011870414872976 0.00080294526771027 0 0.011870414872976 0.00080294526771027 0.00015
          0.011870414872976 0.00080294526771027 0.0003 0.013048655853798 0.0051555709380823 0
          0.013048655853798 0.0051555709380823 0.00015 0.013048655853798 0.0051555709380823 0.0003
          0.0091480378790118 0.00093783666102615 0 0.0091480378790118 0.00093783666102615 0.00015
          0.0091480378790118 0.00093783666102615 0.0003 0.012592651705639 0.0068198098450163 0
          0.012592651705639 0.0068198098450163 0.00015 0.012592651705639 0.0068198098450163 0.0003
          0.012272070002081 0.0045810549534562 0 0.012153081904124 0.0040944528080542 0
          0.012272070002081 0.0045810549534562 0.00015 0.012153081904124 0.0040944528080542 0.00015
          0.012272070002081 0.0045810549534562 0.0003 0.012153081904124 0.0040944528080542 0.0003
          0.011634800364854 0.0014122839921498 0 0.011634800364854 0.0014122839921498 0.00015
          0.011634800364854 0.0014122839921498 0.0003 0.012451479243686 0.0021914486022899 0
          0.012674188674928 0.0028095410694266 0 0.012451479243686 0.0021914486022899 0.00015
          0.012674188674928 0.0028095410694266 0.00015 0.012451479243686 0.0021914486022899 0.0003
          0.012674188674928 0.0028095410694266 0.0003 0.013121586466294 0.0036708577033715 0
          0.013121586466294 0.0036708577033715 0.00015 0.013121586466294 0.0036708577033715 0.0003
          0.013248150362312 0.0031919567697963 0 0.013248150362312 0.0031919567697963 0.00015
          0.013248150362312 0.0031919567697963 0.0003 0.012096711335481 0.0017058387426491 0
          0.012096711335481 0.0017058387426491 0.00015 0.012096711335481 0.0017058387426491 0.0003
          0.012692307692288 0 0 0.012542896420733 0.00061304595643839 0
          0.012692307692288 0 0.00015 0.012542896420733 0.00061304595643839 0.00015
          0.012692307692288 0 0.0003 0.012542896420733 0.00061304595643839 0.0003
          0.012384518900215 0.0018567382086698 0 0.012384518900215 0.0018567382086698 0.00015
          0.012384518900215 0.0018567382086698 0.0003 0.012087580163866 0.0010424427844857 0
          0.012087580163866 0.0010424427844857 0.00015 0.012087580163866 0.0010424427844857 0.0003
          <InformationKey name="L2_NORM_RANGE" location="vtkDataArray" length="2">
            <Value index="0">
              0.0055128205128
            </Value>
            <Value index="1">
              0.014586579917
            </Value>
          </InformationKey>
        </DataArray>
      </Points>
      <Cells>
        <DataArray type="Int64" Name="connectivity" format="ascii" RangeMin="0" RangeMax="773">
          0 1 2 3 4 5
          6 7 4 5 6 7
          8 9 10 11 12 13
          14 15 16 17 18 19
          16 17 18 19 20 21
          22 23 30 31 32 33
          34 35 36 37 34 35
          36 37 38 39 40 41
          15 14 42 43 19 18
          44 45 19 18 44 45
          23 22 46 47 48 49
          50 51 52 53 54 55
          52 53 54 55 56 57
          58 59 60 61 62 63
          64 65 66 67 64 65
          66 67 68 69 70 71
          3 72 73 0 7 74
          75 4 7 74 75 4
          11 76 77 8 78 79
          80 81 82 83 84 85
          82 83 84 85 86 87
          88 89 99 100 101 102
          103 104 105 106 103 104
          105 106 107 108 109 110
          111 112 113 114 115 116
          117 118 115 116 117 118
          119 120 121 122 744 123
          30 33 745 124 34 37
          745 124 34 37 746 125
          38 41 48 126 127 128
          52 129 130 131 52 129
          130 131 56 132 133 134
          135 136 112 111 137 138
          116 115 137 138 116 115
          139 140 120 119 141 142
          143 144 145 146 147 148
          145 146 147 148 149 150
          151 152 153 154 155 156
          157 158 159 160 157 158
          159 160 161 162 163 164
          165 166 43 167 168 169
          45 170 168 169 45 170
          171 172 47 173 174 175
          153 156 176 177 157 160
          176 177 157 160 178 179
          161 164 180 181 182 183
          184 185 186 187 184 185
          186 187 188 189 190 191
          166 165 192 193 169 168
          194 195 169 168 194 195
          172 171 196 197 112 182
          181 113 116 186 185 117
          116 186 185 117 120 190
          189 121 204 205 180 183
          206 207 184 187 206 207
          184 187 208 209 188 191
          210 211 212 213 214 215
          216 217 214 215 216 217
          218 219 220 221 222 223
          128 127 224 225 131 130
          224 225 131 130 226 227
          134 133 154 153 79 78
          158 157 83 82 158 157
          83 82 162 161 87 86
          231 113 181 232 233 117
          185 234 233 117 185 234
          235 121 189 236 237 238
          239 199 240 241 242 201
          240 241 242 201 243 244
          245 203 246 247 228 248
          249 250 229 251 249 250
          229 251 252 253 230 254
          255 49 48 128 256 53
          52 131 256 53 52 131
          257 57 56 134 175 258
          79 153 177 259 83 157
          177 259 83 157 179 260
          87 161 267 237 199 198
          268 240 201 200 268 240
          201 200 269 243 203 202
          270 271 232 272 273 274
          234 275 273 274 234 275
          276 277 236 278 267 198
          228 247 268 200 229 250
          268 200 229 250 269 202
          230 253 183 279 280 204
          187 281 282 206 187 281
          282 206 191 283 284 208
          285 286 287 288 289 290
          291 292 289 290 291 292
          293 294 295 296 297 298
          299 300 301 302 303 304
          301 302 303 304 305 306
          307 308 261 309 310 311
          263 312 313 314 263 312
          313 314 265 315 316 317
          238 318 127 126 241 319
          130 129 241 319 130 129
          244 320 133 132 324 325
          287 286 326 327 291 290
          326 327 291 290 328 329
          295 294 330 298 331 288
          332 302 333 292 332 302
          333 292 334 306 335 296
          318 336 222 127 319 337
          224 130 319 337 224 130
          320 338 226 133 339 340
          341 342 343 344 345 346
          343 344 345 346 347 348
          349 350 300 1 339 342
          304 5 343 346 304 5
          343 346 308 9 347 350
          351 310 341 340 352 313
          345 344 352 313 345 344
          353 316 349 348 354 339
          1 0 355 343 5 4
          355 343 5 4 356 347
          9 8 357 358 272 180
          359 360 275 184 359 360
          275 184 361 362 278 188
          48 239 238 126 52 242
          241 129 52 242 241 129
          56 245 244 132 336 271
          363 222 337 274 364 224
          337 274 364 224 338 277
          365 226 51 321 239 48
          55 322 242 52 55 322
          242 52 59 323 245 56
          366 367 213 212 368 369
          217 216 368 369 217 216
          370 371 221 220 223 222
          363 372 225 224 364 373
          225 224 364 373 227 226
          365 374 375 210 213 376
          377 214 217 378 377 214
          217 378 379 218 221 380
          375 381 73 210 377 382
          75 214 377 382 75 214
          379 383 77 218 381 354
          0 73 382 355 4 75
          382 355 4 75 383 356
          8 77 297 300 342 384
          301 304 346 385 301 304
          346 385 305 308 350 386
          376 213 367 387 378 217
          369 388 378 217 369 388
          380 221 371 389 223 372
          390 391 225 373 392 393
          225 373 392 393 227 374
          394 395 396 357 180 205
          397 359 184 207 397 359
          184 207 398 361 188 209
          387 367 357 396 388 369
          359 397 388 369 359 397
          389 371 361 398 399 747
          748 400 401 749 750 402
          401 749 750 402 403 751
          752 404 405 102 406 407
          408 106 409 410 408 106
          409 410 411 110 412 413
          180 272 232 181 184 275
          234 185 184 275 234 185
          188 278 236 189 414 415
          144 416 417 418 148 419
          417 418 148 419 420 421
          152 422 423 424 255 391
          425 426 256 393 425 426
          256 393 427 428 257 395
          429 430 431 753 432 433
          434 754 432 433 434 754
          435 436 437 755 438 399
          400 439 440 401 402 441
          440 401 402 441 442 403
          404 443 447 415 414 448
          449 418 417 450 449 418
          417 450 451 421 420 452
          453 100 99 454 455 104
          103 456 455 104 103 456
          457 108 107 458 279 459
          460 280 281 461 462 282
          281 461 462 282 283 463
          464 284 279 465 62 459
          281 466 66 461 281 466
          66 461 283 467 70 463
          448 414 100 453 450 417
          104 455 450 417 104 455
          452 420 108 457 468 469
          415 447 470 471 418 449
          470 471 418 449 472 473
          421 451 753 431 748 756
          754 434 750 757 754 434
          750 757 755 437 752 758
          400 748 431 12 402 750
          434 16 402 750 434 16
          404 752 437 20 474 31
          469 468 475 35 471 470
          475 35 471 470 476 39
          473 472 399 438 744 759
          401 440 745 760 401 440
          745 760 403 442 746 761
          339 477 351 340 343 478
          352 344 343 478 352 344
          347 479 353 348 367 366
          358 357 369 368 360 359
          369 368 360 359 371 370
          362 361 480 32 31 474
          481 36 35 475 481 36
          35 475 482 40 39 476
          483 477 339 354 484 478
          343 355 484 478 343 355
          485 479 347 356 486 483
          354 381 487 484 355 382
          487 484 355 382 488 485
          356 383 183 182 465 279
          187 186 466 281 187 186
          466 281 191 190 467 283
          762 763 489 490 764 765
          491 492 764 765 491 492
          766 767 493 494 490 489
          32 480 492 491 36 481
          492 491 36 481 494 493
          40 482 387 495 496 376
          388 497 498 378 388 497
          498 378 389 499 500 380
          501 270 272 358 502 273
          275 360 502 273 275 360
          503 276 278 362 504 331
          298 297 505 333 302 301
          505 333 302 301 506 335
          306 305 507 486 381 375
          508 487 382 377 508 487
          382 377 509 488 383 379
          318 238 237 510 319 241
          240 511 319 241 240 511
          320 244 243 512 50 49
          255 424 54 53 256 426
          54 53 256 426 58 57
          257 428 363 513 390 372
          364 514 392 373 364 514
          392 373 365 515 394 374
          516 423 391 390 517 425
          393 392 517 425 393 392
          518 427 395 394 519 520
          205 204 521 522 207 206
          521 522 207 206 523 524
          209 208 525 519 204 280
          526 521 206 282 526 521
          206 282 527 523 208 284
          528 460 459 529 530 462
          461 531 530 462 461 531
          532 464 463 533 534 90
          535 536 537 93 538 539
          537 93 538 539 540 96
          541 542 546 525 280 460
          547 526 282 462 547 526
          282 462 548 527 284 464
          759 768 747 399 760 769
          749 401 760 769 749 401
          761 770 751 403 507 375
          376 496 508 377 378 498
          508 377 378 498 509 379
          380 500 483 486 549 550
          484 487 551 552 484 487
          551 552 485 488 553 554
          231 232 271 336 233 234
          274 337 233 234 274 337
          235 236 277 338 391 255
          128 223 393 256 131 225
          393 256 131 225 395 257
          134 227 525 546 555 556
          526 547 557 558 526 547
          557 558 527 548 559 560
          519 525 556 561 521 526
          558 562 521 526 558 562
          523 527 560 563 561 556
          564 565 562 558 566 567
          562 558 566 567 563 560
          568 569 570 571 572 573
          574 575 576 577 574 575
          576 577 578 579 580 581
          2 1 300 299 6 5
          304 303 6 5 304 303
          10 9 308 307 582 299
          298 330 583 303 302 332
          583 303 302 332 584 307
          306 334 585 363 271 270
          586 364 274 273 586 364
          274 273 587 365 277 276
          555 416 144 143 557 419
          148 147 557 419 148 147
          559 422 152 151 588 589
          237 267 590 591 240 268
          590 591 240 268 592 593
          243 269 396 594 495 387
          397 595 497 388 397 595
          497 388 398 596 499 389
          594 396 205 520 595 397
          207 522 595 397 207 522
          596 398 209 524 597 598
          430 429 599 600 433 432
          599 600 433 432 601 602
          436 435 603 246 248 604
          605 249 251 606 605 249
          251 606 607 252 254 608
          72 211 210 73 74 215
          214 75 74 215 214 75
          76 219 218 77 536 535
          609 543 539 538 610 544
          539 538 610 544 542 541
          611 545 612 561 565 613
          614 562 567 615 614 562
          567 615 616 563 569 617
          618 619 620 621 622 623
          624 625 622 623 624 625
          626 627 628 629 630 588
          267 247 631 590 268 250
          631 590 268 250 632 592
          269 253 633 634 573 572
          635 636 577 576 635 636
          577 576 637 638 581 580
          60 639 81 640 64 641
          85 642 64 641 85 642
          68 643 89 644 561 612
          520 519 562 614 522 521
          562 614 522 521 563 616
          524 523 510 231 336 318
          511 233 337 319 511 233
          337 319 512 235 338 320
          640 81 80 645 642 85
          84 646 642 85 84 646
          644 89 88 647 550 648
          477 483 552 649 478 484
          552 649 478 484 554 650
          479 485 630 247 246 651
          631 250 249 652 631 250
          249 652 632 253 252 653
          633 572 654 621 635 576
          655 625 635 576 655 625
          637 580 656 629 15 43
          166 439 19 45 169 441
          19 45 169 441 23 47
          172 443 660 639 661 651
          662 641 663 652 662 641
          663 652 664 643 665 653
          666 330 288 287 667 332
          292 291 667 332 292 291
          668 334 296 295 603 660
          651 246 605 662 652 249
          605 662 652 249 607 664
          653 252 571 570 516 669
          575 574 517 670 575 574
          517 670 579 578 518 671
          672 262 261 311 673 264
          263 314 673 264 263 314
          674 266 265 317 416 555
          546 675 419 557 547 676
          419 557 547 676 422 559
          548 677 570 573 678 657
          574 577 679 658 574 577
          679 658 578 581 680 659
          495 42 14 496 497 44
          18 498 497 44 18 498
          499 46 22 500 61 529
          459 62 65 531 461 66
          65 531 461 66 69 533
          463 70 13 507 496 14
          17 508 498 18 17 508
          498 18 21 509 500 22
          114 510 237 589 118 511
          240 591 118 511 240 591
          122 512 243 593 513 669
          516 390 514 670 517 392
          514 670 517 392 515 671
          518 394 594 681 42 495
          595 682 44 497 595 682
          44 497 596 683 46 499
          114 589 588 111 118 591
          590 115 118 591 590 115
          122 593 592 119 510 114
          113 231 511 118 117 233
          511 118 117 233 512 122
          121 235 681 594 520 612
          682 595 522 614 682 595
          522 614 683 596 524 616
          684 685 645 686 687 688
          646 689 687 688 646 689
          690 691 647 692 693 654
          572 571 694 655 576 575
          694 655 576 575 695 656
          580 579 675 546 460 528
          676 547 462 530 676 547
          462 530 677 548 464 532
          439 400 12 15 441 402
          16 19 441 402 16 19
          443 404 20 23 696 672
          648 697 698 673 649 699
          698 673 649 699 700 674
          650 701 702 618 621 654
          703 622 625 655 703 622
          625 655 704 626 629 656
          72 705 212 211 74 706
          216 215 74 706 216 215
          76 707 220 219 182 112
          136 465 186 116 138 466
          186 116 138 466 190 120
          140 467 708 686 645 80
          709 689 646 84 709 689
          646 84 710 692 647 88
          91 341 310 92 94 345
          313 95 94 345 313 95
          97 349 316 98 135 630
          651 661 137 631 652 663
          137 631 652 663 139 632
          653 665 666 287 325 711
          667 291 327 712 667 291
          327 712 668 295 329 713
          444 25 714 715 445 27
          716 717 445 27 716 717
          446 29 718 719 705 720
          366 212 706 721 368 216
          706 721 368 216 707 722
          370 220 331 504 715 714
          333 505 717 716 333 505
          717 716 335 506 719 718
          13 549 486 507 17 551
          487 508 17 551 487 508
          21 553 488 509 571 669
          513 693 575 670 514 694
          575 670 514 694 579 671
          515 695 102 405 685 99
          106 408 688 103 106 408
          688 103 110 411 691 107
          672 351 477 648 673 352
          478 649 673 352 478 649
          674 353 479 650 693 513
          363 585 694 514 364 586
          694 514 364 586 695 515
          365 587 285 714 25 24
          289 716 27 26 289 716
          27 26 293 718 29 28
          143 142 192 564 147 146
          194 566 147 146 194 566
          151 150 196 568 726 489
          763 771 727 491 765 772
          727 491 765 772 728 493
          767 773 534 536 715 504
          537 539 717 505 537 539
          717 505 540 542 719 506
          165 565 564 192 168 567
          566 194 168 567 566 194
          171 569 568 196 78 81
          639 660 82 85 641 662
          82 85 641 662 86 89
          643 664 136 135 661 63
          138 137 663 67 138 137
          663 67 140 139 665 71
          729 262 672 696 730 264
          673 698 730 264 673 698
          731 266 674 700 630 135
          111 588 631 137 115 590
          631 137 115 590 632 139
          119 592 702 585 270 501
          703 586 273 502 703 586
          273 502 704 587 276 503
          585 702 654 693 586 703
          655 694 586 703 655 694
          587 704 656 695 61 406
          528 529 65 409 530 531
          65 409 530 531 69 412
          532 533 414 732 101 100
          417 733 105 104 417 733
          105 104 420 734 109 108
          63 62 465 136 67 66
          466 138 67 66 466 138
          71 70 467 140 501 720
          618 702 502 721 622 703
          502 721 622 703 503 722
          626 704 720 501 358 366
          721 502 360 368 721 502
          360 368 722 503 362 370
          685 684 454 99 688 687
          456 103 688 687 456 103
          691 690 458 107 685 405
          640 645 688 408 642 646
          688 408 642 646 691 411
          644 647 30 141 469 31
          34 145 471 35 34 145
          471 35 38 149 473 39
          598 738 739 430 600 740
          741 433 600 740 741 433
          602 742 743 436 43 42
          681 167 45 44 682 170
          45 44 682 170 47 46
          683 173 678 711 325 723
          679 712 327 724 679 712
          327 724 680 713 329 725
          619 618 720 705 623 622
          721 706 623 622 721 706
          627 626 722 707 102 101
          528 406 106 105 530 409
          106 105 530 409 110 109
          532 412 549 13 12 739
          551 17 16 741 551 17
          16 741 553 21 20 743
          711 678 573 634 712 679
          577 636 712 679 577 636
          713 680 581 638 80 79
          258 708 84 83 259 709
          84 83 259 709 88 87
          260 710 738 598 696 697
          740 600 698 699 740 600
          698 699 742 602 700 701
          714 285 288 331 716 289
          292 333 716 289 292 333
          718 293 296 335 672 311
          310 351 673 314 313 352
          673 314 313 352 674 317
          316 353 430 739 12 431
          433 741 16 434 433 741
          16 434 436 743 20 437
          193 438 439 166 195 440
          441 169 195 440 441 169
          197 442 443 172 489 726
          33 32 491 727 37 36
          491 727 37 36 493 728
          41 40 444 715 536 543
          445 717 539 544 445 717
          539 544 446 719 542 545
          3 619 705 72 7 623
          706 74 7 623 706 74
          11 627 707 76 633 666
          711 634 635 667 712 636
          635 667 712 636 637 668
          713 638 384 534 504 297
          385 537 505 301 385 537
          505 301 386 540 506 305
          726 771 744 33 727 772
          745 37 727 772 745 37
          728 773 746 41 167 613
          565 165 170 615 567 168
          170 615 567 168 173 617
          569 171 675 732 414 416
          676 733 417 419 676 733
          417 419 677 734 420 422
          550 549 739 738 552 551
          741 740 552 551 741 740
          554 553 743 742 732 675
          528 101 733 676 530 105
          733 676 530 105 734 677
          532 109 63 661 639 60
          67 663 641 64 67 663
          641 64 71 665 643 68
          384 91 90 534 385 94
          93 537 385 94 93 537
          386 97 96 540 123 744
          438 193 124 745 440 195
          124 745 440 195 125 746
          442 197 406 61 60 407
          409 65 64 410 409 65
          64 410 412 69 68 413
          154 78 660 603 158 82
          662 605 158 82 662 605
          162 86 664 607 91 384
          342 341 94 385 346 345
          94 385 346 345 97 386
          350 349 405 407 60 640
          408 410 64 642 408 410
          64 642 411 413 68 644
          648 550 738 697 649 552
          740 699 649 552 740 699
          650 554 742 701 735 92
          310 309 736 95 313 312
          736 95 313 312 737 98
          316 315 633 582 330 666
          635 583 332 667 635 583
          332 667 637 584 334 668
          167 681 612 613 170 682
          614 615 170 682 614 615
          173 683 616 617 620 2
          299 582 624 6 303 583
          624 6 303 583 628 10
          307 584 582 633 621 620
          583 635 625 624 583 635
          625 624 584 637 629 628
          141 144 415 469 145 148
          418 471 145 148 418 471
          149 152 421 473 143 564
          556 555 147 566 558 557
          147 566 558 557 151 568
          560 559 2 620 619 3
          6 624 623 7 6 624
          623 7 10 628 627 11
          729 696 598 597 730 698
          600 599 730 698 600 599
          731 700 602 601 141 30
          123 142 145 34 124 146
          145 34 124 146 149 38
          125 150 154 603 604 155
          158 605 606 159 158 605
          606 159 162 607 608 163
          193 192 142 123 195 194
          146 124 195 194 146 124
          197 196 150 125
        </DataArray>
        <DataArray type="Int64" Name="offsets" format="ascii" RangeMin="8" RangeMax="3616">
          8 16 24 32 40 48
          56 64 72 80 88 96
          104 112 120 128 136 144
          152 160 168 176 184 192
          200 208 216 224 232 240
          248 256 264 272 280 288
          296 304 312 320 328 336
          344 352 360 368 376 384
          392 400 408 416 424 432
          440 448 456 464 472 480
          488 496 504 512 520 528
          536 544 552 560 568 576
          584 592 600 608 616 624
          632 640 648 656 664 672
          680 688 696 704 712 720
          728 736 744 752 760 768
          776 784 792 800 808 816
          824 832 840 848 856 864
          872 880 888 896 904 912
          920 928 936 944 952 960
          968 976 984 992 1000 1008
          1016 1024 1032 1040 1048 1056
          1064 1072 1080 1088 1096 1104
          1112 1120 1128 1136 1144 1152
          1160 1168 1176 1184 1192 1200
          1208 1216 1224 1232 1240 1248
          1256 1264 1272 1280 1288 1296
          1304 1312 1320 1328 1336 1344
          1352 1360 1368 1376 1384 1392
          1400 1408 1416 1424 1432 1440
          1448 1456 1464 1472 1480 1488
          1496 1504 1512 1520 1528 1536
          1544 1552 1560 1568 1576 1584
          1592 1600 1608 1616 1624 1632
          1640 1648 1656 1664 1672 1680
          1688 1696 1704 1712 1720 1728
          1736 1744 1752 1760 1768 1776
          1784 1792 1800 1808 1816 1824
          1832 1840 1848 1856 1864 1872
          1880 1888 1896 1904 1912 1920
          1928 1936 1944 1952 1960 1968
          1976 1984 1992 2000 2008 2016
          2024 2032 2040 2048 2056 2064
          2072 2080 2088 2096 2104 2112
          2120 2128 2136 2144 2152 2160
          2168 2176 2184 2192 2200 2208
          2216 2224 2232 2240 2248 2256
          2264 2272 2280 2288 2296 2304
          2312 2320 2328 2336 2344 2352
          2360 2368 2376 2384 2392 2400
          2408 2416 2424 2432 2440 2448
          2456 2464 2472 2480 2488 2496
          2504 2512 2520 2528 2536 2544
          2552 2560 2568 2576 2584 2592
          2600 2608 2616 2624 2632 2640
          2648 2656 2664 2672 2680 2688
          2696 2704 2712 2720 2728 2736
          2744 2752 2760 2768 2776 2784
          2792 2800 2808 2816 2824 2832
          2840 2848 2856 2864 2872 2880
          2888 2896 2904 2912 2920 2928
          2936 2944 2952 2960 2968 2976
          2984 2992 3000 3008 3016 3024
          3032 3040 3048 3056 3064 3072
          3080 3088 3096 3104 3112 3120
          3128 3136 3144 3152 3160 3168
          3176 3184 3192 3200 3208 3216
          3224 3232 3240 3248 3256 3264
          3272 3280 3288 3296 3304 3312
          3320 3328 3336 3344 3352 3360
          3368 3376 3384 3392 3400 3408
          3416 3424 3432 3440 3448 3456
          3464 3472 3480 3488 3496 3504
          3512 3520 3528 3536 3544 3552
          3560 3568 3576 3584 3592 3600
          3608 3616
        </DataArray>
        <DataArray type="UInt8" Name="types" format="ascii" RangeMin="12" RangeMax="12">
          12 12 12 12 12 12
          12 12 12 12 12 12
          12 12 12 12 12 12
          12 12 12 12 12 12
          12 12 12 12 12 12
          12 12 12 12 12 12
          12 12 12 12 12 12
          12 12 12 12 12 12
          12 12 12 12 12 12
          12 12 12 12 12 12
          12 12 12 12 12 12
          12 12 12 12 12 12
          12 12 12 12 12 12
          12 12 12 12 12 12
          12 12 12 12 12 12
          12 12 12 12 12 12
          12 12 12 12 12 12
          12 12 12 12 12 12
          12 12 12 12 12 12
          12 12 12 12 12 12
          12 12 12 12 12 12
          12 12 12 12 12 12
          12 12 12 12 12 12
          12 12 12 12 12 12
          12 12 12 12 12 12
          12 12 12 12 12 12
          12 12 12 12 12 12
          12 12 12 12 12 12
          12 12 12 12 12 12
          12 12 12 12 12 12
          12 12 12 12 12 12
          12 12 12 12 12 12
          12 12 12 12 12 12
          12 12 12 12 12 12
          12 12 12 12 12 12
          12 12 12 12 12 12
          12 12 12 12 12 12
          12 12 12 12 12 12
          12 12 12 12 12 12
          12 12 12 12 12 12
          12 12 12 12 12 12
          12 12 12 12 12 12
          12 12 12 12 12 12
          12 12 12 12 12 12
          12 12 12 12 12 12
          12 12 12 12 12 12
          12 12 12 12 12 12
          12 12 12 12 12 12
          12 12 12 12 12 12
          12 12 12 12 12 12
          12 12 12 12 12 12
          12 12 12 12 12 12
          12 12 12 12 12 12
          12 12 12 12 12 12
          12 12 12 12 12 12
          12 12 12 12 12 12
          12 12 12 12 12 12
          12 12 12 12 12 12
          12 12 12 12 12 12
          12 12 12 12 12 12
          12 12 12 12 12 12
          12 12 12 12 12 12
          12 12 12 12 12 12
          12 12 12 12 12 12
          12 12 12 12 12 12
          12 12 12 12 12 12
          12 12 12 12 12 12
          12 12 12 12 12 12
          12 12 12 12 12 12
          12 12 12 12 12 12
          12 12 12 12 12 12
          12 12 12 12 12 12
          12 12 12 12 12 12
          12 12 12 12 12 12
          12 12 12 12 12 12
          12 12
        </DataArray>
      </Cells>
    </Piece>
  </UnstructuredGrid>
</VTKFile>
