<?xml version="1.0"?>
<VTKFile type="UnstructuredGrid" version="0.1" byte_order="LittleEndian" header_type="UInt32" compressor="vtkZLibDataCompressor">
  <UnstructuredGrid>
    <Piece NumberOfPoints="798" NumberOfCells="454">
      <PointData>
        <DataArray type="Int32" Name="libmesh_node_id" format="ascii" RangeMin="2250" RangeMax="5441">
          2250 2251 2252 2253 2254 2255
          2256 2257 2258 2259 2260 2261
          2274 2275 2276 2277 2278 2279
          2280 2281 2282 2283 2284 2285
          2298 2299 2300 2301 2302 2303
          2304 2305 2306 2307 2308 2309
          2328 2329 2330 2331 2332 2333
          2334 2335 2336 2337 2338 2339
          2352 2353 2354 2355 2356 2357
          2358 2359 2360 2361 2362 2363
          2376 2377 2378 2379 2380 2381
          2382 2383 2384 2385 2386 2387
          2424 2425 2426 2427 2428 2429
          2430 2431 2432 2445 2446 2447
          2448 2449 2450 2451 2452 2453
          2454 2455 2456 2457 2458 2459
          2460 2461 2462 2481 2482 2483
          2484 2485 2486 2493 2494 2495
          2496 2497 2498 2535 2536 2537
          2538 2539 2540 2541 2542 2543
          2544 2545 2546 2547 2548 2549
          2562 2563 2564 2565 2566 2567
          2568 2569 2570 2571 2572 2573
          2604 2605 2606 2607 2608 2609
          2610 2611 2612 2615 2619 2623
          2625 2626 2627 2628 2629 2630
          2631 2632 2633 2664 2665 2666
          2667 2668 2669 2670 2671 2672
          2787 2788 2789 2790 2791 2792
          2793 2794 2795 2820 2821 2822
          2823 2824 2825 2850 2851 2854
          2855 2858 2859 2880 2882 2884
          2886 2887 2888 2889 2890 2891
          2892 2893 2894 2895 2896 2897
          2898 2899 2900 2928 2929 2930
          2931 2932 2933 2934 2935 2936
          2937 2938 2939 2972 2975 2978
          2979 2980 2981 2982 2983 2984
          2985 2986 2987 2988 2989 2990
          3078 3079 3080 3111 3112 3113
          3114 3115 3116 3129 3130 3131
          3132 3133 3134 3135 3136 3137
          3138 3139 3140 3141 3142 3143
          3144 3145 3146 3147 3148 3149
          3150 3151 3152 3153 3154 3155
          3156 3157 3158 3159 3160 3161
          3162 3163 3164 3165 3166 3167
          3186 3188 3189 3191 3192 3194
          3259 3261 3263 3342 3343 3344
          3345 3346 3347 3435 3436 3437
          3438 3439 3440 3447 3448 3449
          3450 3451 3452 3513 3514 3515
          3519 3520 3521 3522 3523 3524
          3537 3538 3539 3540 3541 3542
          3714 3715 3716 3717 3718 3719
          3720 3721 3722 3792 3793 3794
          3822 3823 3824 3825 3826 3827
          3828 3829 3830 3831 3832 3833
          3855 3856 3857 3858 3859 3860
          3867 3868 3869 3870 3871 3872
          3873 3874 3875 3876 3877 3878
          3879 3880 3881 3883 3886 3889
          3921 3922 3923 3957 3961 3965
          4065 4066 4067 4077 4078 4079
          4086 4087 4088 4119 4120 4121
          4191 4192 4193 4206 4207 4210
          4211 4214 4215 4224 4225 4226
          4227 4228 4229 4251 4252 4253
          4260 4261 4262 4263 4264 4265
          4275 4276 4277 4278 4279 4280
          4296 4297 4298 4347 4348 4349
          4401 4402 4403 4404 4405 4406
          4407 4408 4409 4410 4411 4412
          4413 4414 4415 4431 4432 4433
          4452 4453 4454 4461 4462 4463
          4464 4465 4466 4533 4534 4535
          4551 4552 4553 4554 4555 4556
          4557 4558 4559 4560 4561 4562
          4590 4591 4592 4593 4594 4595
          4608 4609 4610 4617 4618 4619
          4620 4621 4622 4623 4624 4625
          4626 4627 4628 4629 4630 4631
          4665 4666 4667 4668 4669 4670
          4680 4681 4682 4683 4684 4685
          4719 4720 4721 4728 4729 4730
          4731 4732 4733 4734 4735 4736
          4752 4753 4754 4761 4762 4763
          4764 4765 4766 4767 4768 4769
          4773 4774 4775 4785 4786 4787
          4869 4870 4871 4881 4882 4883
          4887 4888 4889 4890 4891 4892
          4893 4894 4895 4917 4918 4919
          4920 4921 4922 4926 4927 4928
          4929 4930 4931 4962 4963 4964
          4965 4966 4967 4971 4972 4973
          4974 4975 4976 4995 4996 4997
          4998 4999 5000 5001 5002 5003
          5004 5005 5006 5022 5023 5024
          5031 5032 5033 5037 5038 5039
          5046 5047 5048 5049 5050 5051
          5052 5053 5054 5058 5059 5060
          5064 5065 5066 5067 5068 5069
          5070 5071 5072 5076 5077 5078
          5082 5083 5084 5085 5086 5087
          5091 5092 5093 5097 5098 5099
          5100 5101 5102 5106 5107 5108
          5109 5110 5111 5112 5113 5114
          5115 5116 5117 5118 5119 5120
          5121 5122 5123 5124 5125 5126
          5127 5128 5129 5130 5131 5132
          5133 5134 5135 5136 5137 5138
          5139 5140 5141 5142 5143 5144
          5145 5146 5147 5148 5149 5150
          5154 5155 5156 5157 5158 5159
          5163 5164 5165 5166 5167 5168
          5172 5173 5174 5175 5176 5177
          5181 5182 5183 5184 5185 5186
          5190 5191 5192 5193 5194 5195
          5196 5197 5198 5199 5200 5201
          5250 5251 5252 5277 5278 5279
          5304 5305 5306 5331 5332 5333
          2852 2853 2856 2857 2860 2861
          2970 2644 2971 2973 2647 2974
          2976 2650 2977 3187 3190 3193
          4662 4663 4664 3270 3271 3272
          5151 5152 5153 5160 5161 5162
          5169 5170 5171 5178 5179 5180
          5187 5188 5189 5202 5203 5204
          5205 5206 5207 5253 5254 5255
          5280 5281 5282 5307 5308 5309
          5334 5335 5336 5358 5359 5360
          5361 5362 5363 5385 5386 5387
          5412 5413 5414 5439 5440 5441
        </DataArray>
        <DataArray type="Float64" Name="resid_x" format="ascii" RangeMin="-3.0306623626273392" RangeMax="2.9054680120934844">
          0.00027822301024560403 0.0010337638428721263 0.003349592769400528 0.0033832709694325835 -0.0033715442719151056 -0.004892316772136418
          -0.0036408630616718562 -0.0005171036073923219 -0.013654200193202293 -0.012115072731552878 -0.013796384220656599 -0.01741713518032828
          0.0017431663325950808 0.0014299296249036253 -0.002015945845265099 0.005971895489222057 -0.0015543009880145675 -0.004496886906448783
          -0.001225722396229978 -0.009696053209331978 -0.0362019635377715 -0.03347071296654702 -0.02837757141901509 -0.043413030231636895
          -0.0002368168610846766 0.00010092654891380448 0.0009208022157523033 0.014949053042823124 0.0023378305903554164 -0.0024833235753307648
          -0.0002532552221943263 0.01595304660673058 -0.012119175588189535 -0.014580033944930904 -0.015662553948567748 -0.026560156050424055
          -0.004842749996275764 0.0045609475690664425 -0.006584655901035408 -0.016846196216822484 -0.02678784776849419 0.0027938225839845288
          -0.018450584900954414 -0.04642903643038254 -0.03377310716985882 -0.01974750264772851 -0.0332271890429634 -0.036908415691043306
          -0.0004548366669165915 0.0006061535536003859 0.0019562139001356726 0.003679046547841125 -0.007144961949870243 -0.005811482429789905
          -0.009612149479298893 -0.007123907626331416 -0.03637832237523764 -0.04011509435925653 -0.043088507920765906 -0.04075173356725159
          -0.0005488760052649866 0.0027681721983823238 -0.0009285276718919988 0.003809407197632453 -0.00552895040007062 -0.006462402470759798
          -0.006624847152640889 -0.0065079583246854256 -0.029958152418140926 -0.04020123243139295 -0.04265578941590409 -0.03717964977296884
          -0.02069837639684069 -0.004549395756920038 -0.00853122455638644 -0.009368557512835274 -0.006443307527477682 -0.013491436019005487
          -0.04441905880280839 -0.04479837343628734 -0.04831316715992262 -0.022662302075975305 -0.0126137236999595 -0.008593079468672826
          -0.002197294165338981 -0.04103185015776667 -0.0370008497326797 0.0009922706860390207 0.0047751568310119286 0.005005616380447719
          0.012124076951702811 -0.0014213197166070834 0.002160416134238785 0.001983863215440529 0.004521116918336121 -0.049522818840741056
          -0.0380054448985766 -0.04058258185659547 -0.05939083474751605 -0.012377725969539455 -0.009304076314286647 -0.0037023316261004524
          0.00038985397948732015 -0.020464473253650084 -0.03128214029387966 -0.03294466487304604 -0.016848058629113538 -0.010791442824242381
          -0.004905658375922162 -0.033586388996639016 -0.03446694334688738 -0.01730096422054217 -0.0031374345003518656 -0.0031658366018625372
          -0.006775314583054026 -0.003111909519343037 -0.007038123351491343 -0.024079671101118194 -0.02010717588502242 -0.02983029551595795
          -0.014994602394242218 -0.010207216678678854 -0.008188487077374518 -0.00714568631391721 -0.025238946722436983 -0.026160919663868576
          -0.015208148452539483 -0.00847575451677951 0.004217813119575808 0.0031440172597623217 -0.03198761314360965 -0.029638368335388243
          -0.004370544167088042 -0.01184019902047595 -0.05451298070139199 -0.05912056313698777 -0.04885091573852307 -0.04980698069871181
          -0.02799653693924231 -0.042126719286569525 -0.01734073686368731 -0.010116674136227743 -0.01996644721804408 -0.008586002115630542
          -0.041642307536418954 -0.04322607296513237 -0.038955267798252535 -0.03222279387439464 -0.027388035811064526 -0.04143432587645268
          -0.04163742868625597 -0.0486203814515882 -0.015374456232171596 -0.028610917971799488 -0.0361091030965186 -0.014606992028135313
          -0.04958427596325965 -0.03869878477683475 -0.037923897648387994 -0.03483201975493988 -0.003485501119832257 -0.02504260666852387
          -0.007613746274472533 0.002251200997482883 -0.008316172712652836 -0.046089265285482295 -0.0381271291580072 -0.05056216093378785
          -0.011836368916639195 -0.0035660850976979575 -0.012273957127541646 -0.004003079484607319 -0.0002201734108213671 -0.004995260168795035
          -0.020694243926869582 -0.012581163248167826 -0.0158286599138453 -0.012340760169415654 -0.009442831464038903 -0.0065669140736059894
          -0.0007740354394600857 -0.015859861398813013 -0.017277120740282648 -0.00788696063774097 -0.010415068228892821 -0.006530321000947303
          -0.03626718813505292 -0.03795477331921937 -0.05438054800254122 -0.009912125762426172 -0.018457423100802117 -0.007765320940398723
          -0.006566156786774968 -0.002693670416872962 -0.00387409461784749 -0.008824302576682541 -0.03807641710788179 -0.038697491193374844
          -0.02138391680757623 -0.038831233544313726 -0.008129913297584057 -0.01704076716327574 -0.034505916888415644 -0.03813434068062005
          -0.041617918583561675 -0.013215173846978345 -0.039080702173217574 -0.002893686643724358 0.0014971263814240743 0.0012548944132815265
          0.0021233592445444316 -0.009285296279395894 -0.009055123971940304 -0.007442455605014331 -0.009306919089984156 -0.028401871434475368
          -0.03412309454304285 -0.03676900463142463 -0.03363506637669378 -0.008061371713646182 -0.019959444650663016 -0.03029594580988615
          -0.013462075736979884 -0.017262415863212865 -0.015466071830536166 -0.026677559156357944 -0.01946111206079415 -0.03463559992912302
          -0.011815199965902856 -0.013446362892823416 -0.005417799230655884 -0.005737082473314281 -0.011009908432042748 -0.009679061492847474
          -0.03492857758069956 -0.008666018701403821 -0.041622494186259296 -0.030197060085869865 -0.03600762684715786 -0.014824964435453225
          -0.012226164184274246 -0.03815213795294348 -0.05228662550594265 -0.06590838589209103 -0.038510339643892166 -0.005599685860767423
          0.10352274997118194 -0.0780301747102996 -0.02841187978304127 0.08854430868243313 0.13002095233096256 -0.05502805720737314
          -0.02687684458562245 0.04230502711970807 -0.006690140091379249 -0.04636414876357442 -0.04512558985874737 -0.013173401904636783
          -0.01131606698634724 -0.026893555154300586 -0.019378520461992954 -0.014705013719102489 -0.001983182607375511 0.0010846068270637943
          -0.02013393041620226 -0.009905975515604126 -0.004480033207362233 -0.011707297264899275 -0.005703616014953283 -0.017390454215736817
          -0.01801495550347365 -0.02468636322022011 -0.0320373230077351 -0.016899184061236916 0.002849696474838126 -0.027263296051365238
          -0.013638227873232545 -0.017115644824054144 -0.00810892383145223 -0.016708596007791066 -0.019866224738098737 -0.034711258056208116
          -0.017091171934175087 0.004925755845986757 0.027457404624103177 0.010993091269728694 0.005607403802651234 -0.021410912703647256
          -0.050253136275291155 -0.08300377101686962 -0.048154407728421056 -0.03189550567710864 -0.0276913078077885 -0.026299208631394677
          -0.02388439105460427 -0.04333443718704677 -0.03669836517683889 -0.0213297765854481 -0.03471209723549151 -0.0057464969818980804
          -0.02258835156430994 -0.025953744319529015 -0.01925104707516212 -0.02217648040272735 0.002326954856186614 -0.0029862195770213873
          -0.02080563087988807 -0.020915450531062696 -0.056284812379783666 -0.01778178085555915 0.011156111699301974 -0.013644680575024992
          -0.0325094196274609 -0.017714911990313276 -0.0071603638526394064 -0.015462645238903505 -0.037415617828043146 -0.024430141198376276
          0.008562853948765436 -0.04842319815451912 -0.012402418485200073 -0.03469141159367517 -0.03871611844738787 -0.020293950036301744
          -0.005401445239869629 -0.02657092050962917 -0.0037527474701462005 -0.003929647332356456 -0.014432749593483285 0.00034203359595363914
          -0.01488517722663174 -0.030516039269693707 -0.023186391270995088 -0.015803148937499678 0.001078150855290616 -0.012977829074317881
          -0.038231761218082916 -0.03282749111613992 -0.014600421500781557 -0.010958061125681873 -0.037361297407258576 -0.033409016327386354
          -0.02406666183243855 -0.0375573767151991 -0.00832494956015406 -0.015562498975686179 -0.03533874211679944 -0.04032754556783802
          -0.04364239129631531 -0.02496828501347359 -0.005756155560619369 -0.00787222837887036 -0.02418229231445368 -0.02399088470253652
          -0.02319842942789352 -0.008220570795342219 -0.00421688324171976 -0.003004489637772778 -0.018725359582939305 -0.007829755176177677
          -0.009212494242166969 -0.014734561844700567 -0.01158621787293157 -0.015019804029336115 0.0006899739152947948 -0.006353597359712637
          -0.012621210751090572 -0.007843177840815896 -0.014226714571805132 -0.015257051185912474 -0.021569273041041725 -0.014366820831327232
          -0.022966140182430816 -0.004158916066246743 -0.032776851957437625 -0.022481029303041744 -0.025618279920285758 -0.00958533460086608
          -0.0156967583638008 -0.0044587838142600145 -0.007436429392086552 -0.0551184407667793 -0.028113447711269224 -0.04095965010706237
          -0.01668592417506609 -0.00087861651929666 -0.014142895703267655 -0.012195367082236785 -0.011724262069121139 -0.009394419162040535
          -0.010589164753876279 0.008268866139850672 -0.010651358436197356 -0.007680283721620995 -0.021709178714928612 -0.01740109645179544
          -0.03579102187944372 -0.011908443040779204 -0.026128659894570916 -0.0017944098774735906 -0.010891858400131404 -0.0019321168889563367
          -0.0060366253761841016 -0.005127712777841076 -0.014676599321792771 -0.020268558603413034 -0.022172146558590455 -0.013661430025022625
          -0.007088371127355941 -0.016847525222071447 -0.0021980694721221994 -0.0015430461148220331 -0.008914712715219153 -0.0152415671127768
          -0.02622499266639089 -0.017294656796916996 -0.00884195027578727 -0.008889806106052944 -0.018802304730618502 -0.037637023288468185
          -0.03558236448391838 -0.009628507426915789 -0.03507337937700861 -0.018851199855101974 -0.01772596765698431 -0.01167468433420904
          -0.02132301499606637 -0.008310674952659802 -0.01965005651405427 -0.002305700013822687 -0.03164750204967515 -0.025481295774725687
          -0.007768219199882687 -0.0055099122574002735 -0.0053410383463754485 -0.005304891909086784 -0.015882619825695166 -0.01726889787520225
          -0.021249532963093287 -0.007134318267199902 -0.011867222621385842 -0.025676234959903788 -0.024507039679229514 -0.019774561410958125
          -0.03616553017772439 0.0016434105382443498 0.0037595215001497984 -0.016345299828282478 -0.007685966129627353 -0.013327990888475583
          -0.004500582837688505 -0.026210758461757244 -0.01260950062046895 -0.044070000500560536 -0.01285109159718445 -0.03929291004753921
          -0.008531257022374561 -0.01856200461449209 0.00274246871584527 0.0032971296025436914 -0.007651655106402977 -0.008923645815068326
          0.0033802997746432695 -0.0007950902429980644 -0.016412702147148295 -0.03627556817258171 -0.020648874940673245 -0.014354169089211943
          -0.02967540186044637 -0.001983944826003281 -0.017297049742245996 -0.0008378154230879176 -0.03338670733314597 -0.021751734922621502
          -0.05990606833531498 -0.0240845290067071 -0.03962931516762769 -0.017734088334304232 -0.04004152442285491 -0.004079980514318571
          -0.024485850425312705 -0.02737197728773033 -0.04411110956724862 -0.030734168485155422 -0.01469567555329121 -0.004193102348482469
          -0.008306574812682044 -0.03841480006563103 -0.03436758493745096 -0.03623156176908626 -0.00009747196396769908 -0.026889224135404177
          -0.05810798889930857 -0.009680538830076024 -0.031262271835642785 -0.03826198832159883 -0.007072418721610962 -0.03742135563627669
          -0.023691468790022263 -0.012541213074716673 0.0020899754068253174 -0.00004573579688660345 -0.009109027459429875 -0.005621192482041515
          -0.04078237775717264 -0.006266022949335426 -0.03234487424367105 -0.00005394735002539619 -0.01739177974519368 -0.03112830368103614
          0.0026321902714379064 -0.01452505607005894 -0.008623556040975977 -0.019455023574222352 -0.03793970592605045 -0.035359936840053674
          -0.026414967962470226 -0.0077058372049048085 -0.018095340687237282 -0.0034411231337765358 -0.0008374487648405982 -0.012415689566540156
          -0.00003138453421858145 -0.0025933615520417064 -0.014339647220137142 -0.013459337446825259 -0.014224491679819984 -0.028701189438745
          -0.01539760583946137 -0.008877668146164197 -0.019417946930434304 -0.05920876918299545 -0.015469842943788947 -0.037695034582186704
          -0.05344508514560076 -0.009455608138047467 -0.018133494967424113 -0.023247958738266128 -0.01463264412114107 -0.015376720306367275
          -0.03816814275484015 -0.019971044763775758 -0.012157571392054312 -0.010017609209236333 -0.02032117682070611 -0.014599327907251602
          -0.029419233542247625 -0.0003143136050525186 -0.03320517460276484 -0.022746611130671113 -0.02644081329764525 -0.0018968160475258955
          -0.015206132195167754 -0.009639322800791383 -0.021594174905193775 -0.035221931833607556 -0.022166783588594363 -0.008655546774670064
          -0.011039073408913858 -0.017403999649488355 -0.01369015872567303 -0.03842735285549281 -0.04056105029025758 -0.0031595277106486463
          -0.011062290338474057 -0.016868948509562998 -0.026570853254687776 -0.019213204112787707 -0.013498495031190494 -0.009043408834865652
          -0.002954008556166343 -0.03195998485014773 -0.035639385500555676 -0.052913874920324844 -0.01198741140780335 -0.006536062580477342
          -0.019963082759704598 -0.005041369334819912 -0.00010887081487531702 -0.0315379708890795 -0.012053499620063413 -0.01120906579251546
          -0.048146776922655565 0.00031618290500157187 -0.024497739206413183 -0.016757551506666246 -0.008089000529877488 -0.012732622643418345
          -0.01890010248529883 -0.0015280633078766925 -0.011974843393350199 -0.059545429437898534 -0.015265728942100765 -0.03144130504928988
          -0.002647691015735809 -0.0074131366177043745 -0.02612990650380631 -0.0008161387068330583 -0.0061652551159525615 -0.01008080820090651
          -0.010018868577608586 -0.010004092278003363 -0.019281312159264985 -0.015428910586435585 -0.008718745206004463 -0.010933074736283466
          -0.02994343429176194 -0.011906761419246514 -0.02103025787874202 -0.04143560663178647 -0.0534489447939297 -0.019406914404234143
          -0.02426075726370769 -0.017337701282138518 -0.02797629355241682 -0.010427338043125012 -0.00227870065671798 -0.00856145458069868
          -0.0387905708145202 -0.012896733316299924 -0.01563098030970278 -0.03591154699890531 -0.02390915266807525 -0.0157815487365891
          -0.008364238619318343 0.0002563017095287279 -0.004800035221609988 -0.010811886482506416 0.006968828099576108 0.00653084213764199
          0.0030119987496615153 0.019145517369054232 -0.019982400706183512 -0.012032124106296394 -0.019672044726325666 0.017720342271136502
          0.006347957623784595 0.001675085832886225 0.005116923751575797 0.04471176652555542 0.13512285181844774 0.09360961217793218
          0.24173223851225245 0.044780151220662034 0.10339556194551314 -0.002216224660410049 -0.1426852169698467 0.011384373761901045
          -0.27881395961940036 0.13850131532250742 -0.0642071523549319 -0.02917905661374043 -0.003253027130066144 -0.009336304223765524
          -0.00024096884792434992 0.008328781023225318 0.016278073346521538 0.9706586277273814 1.9407216926506479 1.0229280145788682
          -0.021427910104298675 -0.006528040380757716 -0.006034248381364904 0.009216354743092126 0.03751377901625652 0.03510794926553196
          0.3380565341240498 0.6756119594424863 0.34022529267226886 -0.01848453396448413 -0.0072465384986610815 -0.005298693473635652
          -0.01740139326394541 -0.04356574904836741 -0.021565103005714903 0.05513700298537394 0.17201534191079126 0.1339550892067436
          -0.030000373032887495 -0.06458135513415186 -0.003565409673091935 -0.18051718572821507 -0.2980436460078817 0.02920101010664311
          -0.029535894370923188 -0.06016024212252802 0.12032145708012898 -0.06666072334046902 -0.13805543852707913 0.10686609617926379
          0.910849854238041 1.832671875662399 0.8994554432532116 -0.8393195424978899 -1.6631657420734296 -0.7746499228701254
          1.456658089044753 2.9054680120934844 1.400061223841794 -1.4590100776649848 -2.930262824899172 -1.4229065919221462
          0.19260227447371747 0.3701415529951646 0.1585585137400347 -0.2029658677631847 -0.39254917790018595 -0.17138522923389665
          -0.08878202162986959 -0.00014366949974053966 -0.17268336895409853 0.0013461644571588494 -0.08539620369054823 -0.00009294236969736858
          -0.928319587691826 -1.83945126748001 -0.9106646775810301 -0.40992822447447175 -0.8047028257322051 -0.37556368630993475
          0.10061627958111963 0.21776951696290858 0.15177709178798082 0.8139797494519136 1.6312582911293365 0.7853168483620117
          -0.047254478859512616 -0.006559892270885825 -0.037728811992138844 0.01976542789512692 -0.049015535164750546 -0.05428970458308058
          -0.010269184014228827 0.0038848815518264246 -0.009407578186820587 0.028742762263043176 0.00956834341381807 -0.00932788966100162
          0.008571535414331422 -0.03002382548389626 -0.014619197868350753 -0.03264858984640018 -0.05268681379060958 -0.04873833131352434
          -0.1322301950537561 -0.14146963972997373 0.0341266690508748 -0.018235940586852628 -0.017679373851148483 -0.01189709871438449
          -0.008576876571098069 0.0012902961294614101 -0.012659540820083137 -0.1198148633047893 -0.19646821084212718 -0.17570642387547153
          -1.4140736949304404 -2.7958524111095002 -1.4345468499193927 -1.5644094114161895 -3.0306623626273392 -1.4038720447595558
          -0.6002195606516398 -1.070576400866571 -0.44604704239495696 0.0009834762019025334 0.00025658052941679443 0.0021582388423624366
          0.00009026188838134885 0.0042920853681920335 0.0015733346768822543 0.0025314115908585677 0.004470879339869782 0.0033553185747408065
          0.0013074605627352298 0.003061609510965013 0.004516239091515217 -0.06952605615161289 -0.14236469030256416 -0.070991173915111
          -0.7974699159169916 -1.6026073492712385 -0.8198318683149743 0.7692441300391586 1.5334822844639078 0.7053619880922746
          -0.8735650999157745 -1.7327959667875739 -0.8702378757849569 0.06267063062102807 0.19009963021753862 0.04895912769221056
          -0.011460100431673226 0.1241318600263881 0.013085799060732484 -0.051379607214080636 -0.08068313288084994 -0.024153879367691644
        </DataArray>
        <DataArray type="Float64" Name="resid_y" format="ascii" RangeMin="-6.492497142331353" RangeMax="1.189926308709568">
          -0.00041357713397874307 0.0006594715887302501 0.0000776875103888075 -0.0007044980270582424 -0.00009552679014106225 0.0036807930217196893
          -0.0014224887286332089 -0.00024137091407278044 0.0007490117111445815 0.0035576837898988294 0.00186850862417276 0.0005439948920278881
          0.00022842282861783303 0.0008410606539295262 0.000032737357410494994 -0.0001555578376259692 0.0007971534173363409 -0.0020836099948555176
          -0.0006904028996995437 0.006800393468292865 0.0036604956616306805 0.0007847307295996142 0.0020886620334226447 0.006650220165230092
          -0.0005218038368997036 0.000020083846878127254 -0.0016782543589070609 0.0048001064656810755 -0.000838128238855429 -0.00293476237798429
          -0.0035494455618005905 0.010123814680761845 -0.011347973522394028 -0.0054520410331059255 0.0011770789573707363 -0.008099272421161263
          0.008196514173815728 0.003680648199947803 0.0003224683876358464 0.005139908768567852 0.021442702149496895 0.004333971097081002
          -0.005036570501225329 0.008641205484451315 0.013790353061925512 -0.0024491243568071364 -0.004933127654070085 0.003719368337243338
          -0.0009415493988767509 -0.0014396801874697052 0.0037913624952187197 0.0012877604107636165 -0.0016721055847314648 -0.0038778621709222028
          0.0036329609727934475 -0.0005494528965752088 -0.002916039094917111 -0.002594798004611959 -0.0006159431228436318 -0.0001843702900196087
          0.0013700498276279782 0.0029532976004119083 0.0016883523355057661 -0.00019846639954818057 0.003227702399222071 0.0038280111081687995
          0.0028914305646920435 0.0023749114853192504 0.0027029013486642717 0.0017116984062111318 0.0036389604276393928 0.001531078936532218
          -0.008238413102343078 -0.0034766926105292972 0.006587994494655303 -0.0031223003216817036 0.0017690508825720652 0.0014843997573449896
          0.004238792555713522 0.008748390537514805 0.006001412796303951 -0.0001541997735550471 -0.005217402666435 0.005544779229705615
          0.0027408875700037916 0.004438446499386073 0.006083300548315851 -0.0022131026879205207 -0.00004322110902305054 -0.0017127456297568733
          0.0006906035850154923 -0.006023427127103909 -0.0021848480827135197 -0.0009429416929415679 0.003991951518333092 -0.00788517363921104
          -0.0056089704068871815 -0.0002965689120746351 -0.005887363863756212 0.007378648808904709 0.010009911507046776 0.0018864076844439526
          0.00006849891882113046 0.001415145316294636 0.0013339324520391382 0.0025634445395802813 -0.007522463533724377 0.007595549147989239
          0.0012365442580786479 0.006928729191120142 0.006404862559242455 -0.008868660294586161 -0.0036680376313377727 -0.0010052527684306367
          -0.0035298916482211506 0.0022466307148735765 0.001197028781895454 -0.0037243351807511593 0.002735781505383228 0.0014602351864737573
          -0.004360464572422215 -0.006092697033082586 0.0020796106002947123 0.0016212705403234329 0.002554006734724834 0.002886822440918757
          0.002067602651985717 0.00015724349092186007 0.0009108740428357964 0.000010059078137752975 0.0008393263484945956 0.0034147411871134625
          0.004380860335758824 0.001417181892726077 0.0049588492406210105 0.009758749834121505 0.009449064520514971 0.0033018154634163743
          -0.0025111375704767736 0.007689093763723398 0.014151578428004075 -0.0005880394028968117 0.003037464726279193 0.010176389891840387
          0.0012405335692702302 0.00042767161914861185 0.0008987870600609682 0.004404552119266714 0.020598282596500317 0.010718440664713641
          -0.0020103055194029273 -0.0010044889020609724 0.005953823844855488 0.00709131865891377 -0.01520448579197391 0.000774911901915476
          0.01241765515188839 0.004701604098175712 0.007077899005540594 -0.00746338941297886 -0.0038142726070949373 0.00034650226583254895
          -0.002474466318417745 0.002294654718376088 -0.0006157799350464122 -0.0009663631561596109 0.00768743233118474 0.005110349101195677
          0.004230378086729922 0.001911050975020298 -0.0009467827091128866 0.0010998119822075436 -0.00008362578655206343 0.005796675476518229
          -0.0014760033755679969 -0.0007000148281846238 0.004099597000517229 -0.0006316412688006992 0.003811473253940316 -0.0005363209599108174
          0.0029767645296353527 -0.00010592422710588995 0.0017099340604356562 -0.025221500369232874 -0.007186784056606554 -0.045174855749318454
          -0.011044408515910986 -0.001159502147496938 -0.003987816189832349 0.004890843971673183 0.007007121385714923 0.002329698201419543
          -0.0069003925950488765 -0.001689188700720587 -0.0024504691369435783 -0.0007404849509629885 -0.001320799639011272 -0.004315610901490163
          -0.005218349819929247 0.010707392596611909 0.0018933659967539374 0.012558161249402428 0.0034737802003081686 0.008719098614051929
          0.013976817923293625 0.00561558183495478 0.0029105437496396713 0.0005722871334428829 -0.00008284862373550417 -0.00046282152412899236
          0.0012811194788609342 0.001424623147938047 0.0007162479951171308 -0.003275980313471094 0.0031285420220778376 0.0012854586114316446
          0.0005761500922461804 -0.00036401510622541267 0.0007777122902538867 0.002460929758840602 0.006000991124198607 -0.009722282260963944
          -0.004363653572008519 -0.0069976693849927996 0.018831001156620508 0.0007224071672323751 -0.003012098789860307 -0.00694841348157027
          -0.005861845362467838 -0.0030524237898431617 -0.0025139377135346974 0.0030816477025981323 0.0010648617510920638 0.003367497093686996
          -0.00006655098244251478 -0.005514914378679431 -0.003739686412778498 0.00262739387658531 -0.0072754236120659566 0.003505499894605718
          0.014085300378946786 0.002199311915361768 0.02296061522547277 0.0026463762774092993 0.018950351202176446 -0.046774390796507886
          -0.013513385100015401 0.0052928102419321854 0.05711300029828368 -0.08284003323198874 -0.022393705654745244 0.013163590204821017
          0.03294641340499242 -0.02960345674725723 -0.0012320330256921086 -0.0060619484384920735 -0.002737854461620115 -0.003692341105757363
          0.001445234129948736 -0.003470341710003752 -0.0007595899044248178 0.002974232068151783 0.0028962862835174574 0.00039845649308181685
          0.00782633992922957 -0.00008279975123620664 0.0005186311559352563 -0.0042410668129207185 -0.003956898378158623 -0.0029984236643325057
          -0.002621709742458289 -0.006423619566991501 -0.007337989131994074 0.005721387249360499 0.011773750531711341 0.004693045039191518
          0.0061950075155317585 0.012128394480708252 0.0058546419440148045 0.007772691385294031 0.001689309089321439 0.0006472670402148557
          0.010103947596665663 -0.043238257656756915 0.0025229836182596443 -0.07410838028105926 -0.006119985466478128 -0.004751618478236741
          0.02601114011191759 0.03488369114229022 0.008122686862468975 0.01704219925805677 0.01223037351555916 0.010392500233724164
          0.0029666342727100795 0.006382092943833878 0.0019261001514471188 0.002580530585105125 0.0035638591406331466 -0.0015975046646054883
          -0.0018052019908758044 0.002082871236687607 -0.00010632938631988109 -0.005247129358500691 -0.00721031089901536 -0.003011111494927249
          0.007809453308291969 0.0018752358152475945 0.0115830508544906 0.003963678059757336 0.0030489876343864353 0.004408278825586698
          0.00345950750458221 -0.0009326840211006018 0.0026427301916826518 0.0021928031597653196 0.00024557263583091515 0.0015906902341177563
          0.020834332201312013 -0.0016070150733960564 0.038958729747101586 0.018046054924284183 0.016826522254953905 0.024092449908324765
          -0.0004936199995329085 -0.0018394375861328777 0.0004673375589585582 -0.0016390327052630757 0.002719640526155427 -0.00945257557375423
          0.000001903774345675402 0.004826662969536613 -0.005427666066503765 -0.001353413799244474 -0.006366384837307809 -0.0010392914784072282
          0.0020133894504048844 -0.006311075797801546 0.0018810388429245373 -0.003248109093977297 0.002522059935817167 0.0007359778206221801
          -0.00498492070247894 0.009611733077376089 0.001841077782615469 0.01432536902923115 0.004577459748990681 0.013644127992465838
          -0.003754320214404472 -0.003116003509050419 -0.0011332735348456024 0.00031419670024807056 -0.005642592816027303 -0.0035935915949829866
          -0.0025740356876970127 -0.0011857940466074024 0.00289407763855358 0.0012177959037671174 0.0018404477367632288 0.00028004152134727955
          0.007904179293905106 0.003342447737991361 0.008584577163328153 0.012135651822304 0.004768361316424385 0.006248121876115564
          0.0031702481345749767 0.0023092110275318156 0.0013809479245984468 0.003817386929931818 0.007961749771183281 0.003791645012199349
          -0.004331643534689067 -0.00013272769872299528 0.0036871089451750994 0.007829845280534611 0.008943688213876248 0.006023906632194431
          -0.0017994451706045689 -0.0026121451693933984 -0.0014687682387762857 0.020337694086532188 0.011931544065510086 0.007041472132725712
          0.0016481009792889273 0.0029003918278075053 0.0017610463104843072 0.012024591253309402 0.018350867760343392 0.008444839234354018
          0.003930566205294278 0.001744174726120068 0.0010799943063697082 0.40943629876271426 -0.009908135363369448 0.8046806700448619
          -0.013725418648181687 0.3267108246940244 -0.0027613094710920855 0.26002266910111044 -0.0017727847097043642 0.5174033755744314
          -0.002039944476925931 0.27902120495182214 0.00007098422926855863 -0.007736940018286315 -0.01633269904959278 -0.006629112647202534
          0.1633419305763879 -0.001155461774774602 0.31593501411336894 0.0003633339885025788 0.1295802653572103 0.0007277807486505139
          -0.019918028507721286 -0.009460537224635468 -0.004989871489627706 0.009653224757850798 -0.009360414428576713 -0.0013512913391166004
          -0.006810508635586965 -0.007782636767570489 -0.008666794608245487 0.006411657862550238 0.009251795374376884 0.00431460759372339
          -0.0022458090955423393 -0.0055933502849851435 -0.0035160992862653118 -0.0024580781206439972 -0.005243154854489951 0.000014144760215578644
          -0.15422942284506697 -0.2215690886691541 -0.3096655810424125 -0.4481953366315955 -0.1639922715430713 -0.22754310096308628
          -0.000737899102328049 -0.003975985411347499 -0.0019221231621528445 0.002742354670047978 0.0070058697420220944 0.0063022868240571045
          0.002339806597185065 0.0036153054353502967 0.010619760154421176 -0.0025892309028648884 -0.04672019716066959 -0.001726101413477097
          -0.09911583787947051 -0.0006456442639242374 -0.07708080622249966 0.007094923796326313 0.0030758019668338243 0.006262495989897643
          -0.4892468031884962 -0.011257828608521259 0.0010393005279483725 -0.4861033081033368 -0.9810247910433215 -0.00944203145133296
          0.0038958802891625455 -0.9738560107012447 -0.4880420129660853 -0.003127471215281452 0.0015320392438099573 -0.47629643628310747
          -0.0019468136335586937 0.0020226152088922977 0.001605937959700713 -0.0007601285015058634 0.00232907718850223 0.000041510358466445574
          -0.009489862892595347 -0.00788082314048083 -0.0052951101357059105 0.016318268610904102 0.0006679055356390018 0.009861124835105067
          -0.009330216943969183 0.0026576952853842872 -0.006824546589771052 0.011003526162515473 0.004295771219613397 0.004993932065903581
          -0.0008521730098416218 0.007532144948642905 0.0015738176852777355 0.005391584396963189 0.009634761445884779 0.010479502910138716
          0.009521338049277822 0.017443003573658633 0.016491220017379293 0.002283927965237076 0.003383112831004176 -0.0002486894452406463
          0.0014520211086386722 0.06554860450844734 0.0009395204703536233 0.12155756666735976 0.0008017699140400666 0.016096232415660112
          0.002643507836540382 -0.0005211190780082253 -0.003575698002968586 -0.004911843862226817 -0.006310553021746268 -0.007518129661142403
          -0.011250123485062047 -0.03252915319385319 0.008560294357552956 -0.008808316515398429 -0.020396361874602253 0.005664947165575862
          -0.0036978063746582746 -0.004455380076998028 -0.0023770337374906525 -0.2985460353682492 -0.474207669316432 0.0007601355346451011
          -0.5996469152985148 -0.9526574890858105 -0.000006491714987982844 -0.2906495714070585 -0.45499465632225317 0.0017175779068775432
          -0.4952920385685951 -0.9939352821912776 -0.4948816556100609 0.004477297820076692 0.0036944774169918315 0.006227325523903954
          -0.004679596553504889 0.001307647655118177 -0.0038921250416869557 -0.251909623679425 -0.5036466473075487 -0.24803832069369902
          -0.011652734563885436 -0.49984140945020805 -0.007479631251835761 -0.994425151979647 -0.0034057379397106624 -0.47237160687795254
          -0.001010719270813601 0.002015753526769082 -0.0027249099491426787 0.0004730695225346887 0.00021047006120136075 -0.0005338702243793438
          0.0009364222591826052 -0.0005098194999363023 0.0001809254379757652 0.005523837153966701 0.0005187606556190799 -0.000863594484506635
          -0.0003112120486067106 -0.0007710435031008361 0.0017197585440210782 0.002929420486477109 -0.0015172139114725258 0.001608436547545354
          0.0035119854417807878 -0.0010745992833989006 0.0036322817092949017 -0.008570751111549924 -0.006806001417673291 -0.008468737055329578
          -0.00533164987637022 -0.007432398861042744 -0.00806793953213044 -0.006705700165996531 -0.4600374894960747 -0.45426588378703125
          -0.0022760282113604147 -0.9195575608907323 -0.915123253973942 -0.0031611843643774284 -0.46186419740632456 -0.479110117704672
          -0.008974031369916702 -0.007096823579345601 -0.010075671720228885 -0.47607301142857306 -0.9534168091679787 -0.5002442934145924
          -0.4848632279207775 -0.9704505337628018 -0.47644244617696835 -0.01623914617618155 -0.0017104624216346953 -0.003757184013306575
          -0.2577150150544882 -0.22746871040678152 -0.005846564578375943 -0.5234633489872156 -0.45655054045627586 -0.002020019102159272
          -0.3047816121571114 -0.3029076332966808 -0.0007630573743520122 -0.37937858584705597 -0.7616136092194368 -0.3878343907326229
          -0.0005346917413819874 -0.00021147234356193312 -0.001882740956457414 -0.009709380537901713 -0.01735104158381265 -0.022090290651811895
          -0.019753128729164238 -0.01159187395576089 -0.013107690897316199 -0.1447864941078921 -0.2602748258190459 -0.03861748889092026
          -0.004511675447511798 0.0005581445283536768 -0.0005724538935213963 0.009659681129574264 0.015411550635321347 0.004210142745762924
          -0.34220090199705977 -0.6365621297639839 -0.16456957116713877 -0.19990017673230487 -0.36474891786863295 -0.6370862095531733
          0.6398150604007993 1.189926308709568 -0.46408219529549355 -0.0012908732624348218 -1.5473069079818234 0.0008795449637182262
          -3.116090141113463 -0.009664741593263693 -1.3737176538771863 0.0036265640582952563 -1.929519921814454 0.011523757878517699
          -3.8877388480627277 -0.0025370134665962663 -2.002534388886958 -0.08666727957378129 -2.042796540782538 -0.17575857420897179
          -4.099084071064672 -0.10037439737764187 -2.355603213476447 -0.009237253471836127 -0.0017639923918149059 -0.010075983175392489
          -0.022124385473839325 -0.02709043856535806 -0.029523056965985228 0.020613186778739134 0.05686637739301248 0.01458596891571906
          -0.003270975768767115 0.01706027533418175 -0.012664986366660469 -0.025005754960960802 -0.029663248676336518 -0.026263706252124486
          0.2046582270888042 0.4162489860143372 0.1988725043742352 -0.02027078719930786 -0.019206756053932184 -0.017474850451064228
          0.017329871606903052 0.06530736513848101 0.032687178087993485 -0.00009089807581219578 0.030978321574009704 0.022635941813882177
          -0.02512361021357265 -0.023103343784053404 -0.011850125442919635 0.03745422988480285 0.10587113266581871 0.04393907737225411
          -0.09797938703591746 -0.1727410866691432 -0.10401024244057722 -0.022559099859948972 -0.03022153839523356 0.032149097020372275
          -0.4460118669581661 -0.8643542225185358 -0.4718724417046081 -0.5459397056106718 -1.0488594441933676 -0.5667023136182898
          0.19027436333764391 0.38700734307598955 0.16617186159558928 0.16530552969086454 0.3311243869767635 0.15828085246874601
          0.21472953430113995 0.47056484387588526 0.26098259603039475 0.25756255505999515 0.5387481864822915 0.2788318424441364
          -0.045833164115496317 -2.81340789849581 -0.0894568178634152 -5.6232381539858185 -0.04954697542540343 -2.9173625093498767
          -0.2689428222269239 -0.5287367436517152 -0.27723680531834827 0.24092388661329522 0.48757939705600917 0.23010578204656484
          -0.1363142081346871 -0.2586558636544627 -0.12446515683601378 -0.19131758750197791 -0.3699614399049047 -0.20204363424348393
          -0.018378806130347036 -0.025033326711360715 -0.018054126067380327 -0.02752158980694208 -0.000614956181616666 -0.022930741083743933
          -0.0135722097564559 -0.0018263876904290877 -0.02218454192756797 0.012884067879384786 -0.0012491428629113344 -0.025592596356155184
          -0.009193422598017476 -0.02313954250424899 -0.013232609517818572 0.0503584227267857 0.06079867626285629 0.05964855645706357
          0.03942318114538629 0.01636173751843606 0.08229882157560897 -0.024042459939510596 -0.02218979783511088 -0.006039928117614224
          -0.0028965064942649277 0.00963442705875528 0.008285493117154402 -0.28307896962083445 -0.5506834775799478 -0.2874946484242984
          -0.25743363509073247 -0.4780491563412004 -0.2908924127170389 0.14182579304157172 0.31159755999682165 0.1088623992095889
          0.3627842017552797 0.7820243177443369 0.39127758366092136 -0.00037193373693944487 -3.2453599878938206 -0.0010094078482458801
          -6.492497142331353 -0.005359829872706223 -3.2388128262562663 -0.0021413689405711533 -0.0015728107976349381 -0.006375147452194918
          -0.005220536460854852 -0.0008841945046875743 -0.003688251122178965 -0.09714387024939009 -0.19125419742189198 -0.09926624245833326
          -0.31382290007816227 -0.6174283577134241 -0.31395998113638246 0.4076331250197336 0.8284159756120936 0.3946274650071322
          0.27398268874759024 0.5596257913064164 0.26873249055979764 -0.014637771914337572 0.02042195122561763 -0.017965816829422554
          0.046662039360645835 0.047827517752251136 -0.011563769253022826 0.0008934223030760968 0.027814016497170968 0.0034688587656752645
        </DataArray>
        <DataArray type="Float64" Name="resid_z" format="ascii" RangeMin="0" RangeMax="0">
          0 0 0 0 0 0
          0 0 0 0 0 0
          0 0 0 0 0 0
          0 0 0 0 0 0
          0 0 0 0 0 0
          0 0 0 0 0 0
          0 0 0 0 0 0
          0 0 0 0 0 0
          0 0 0 0 0 0
          0 0 0 0 0 0
          0 0 0 0 0 0
          0 0 0 0 0 0
          0 0 0 0 0 0
          0 0 0 0 0 0
          0 0 0 0 0 0
          0 0 0 0 0 0
          0 0 0 0 0 0
          0 0 0 0 0 0
          0 0 0 0 0 0
          0 0 0 0 0 0
          0 0 0 0 0 0
          0 0 0 0 0 0
          0 0 0 0 0 0
          0 0 0 0 0 0
          0 0 0 0 0 0
          0 0 0 0 0 0
          0 0 0 0 0 0
          0 0 0 0 0 0
          0 0 0 0 0 0
          0 0 0 0 0 0
          0 0 0 0 0 0
          0 0 0 0 0 0
          0 0 0 0 0 0
          0 0 0 0 0 0
          0 0 0 0 0 0
          0 0 0 0 0 0
          0 0 0 0 0 0
          0 0 0 0 0 0
          0 0 0 0 0 0
          0 0 0 0 0 0
          0 0 0 0 0 0
          0 0 0 0 0 0
          0 0 0 0 0 0
          0 0 0 0 0 0
          0 0 0 0 0 0
          0 0 0 0 0 0
          0 0 0 0 0 0
          0 0 0 0 0 0
          0 0 0 0 0 0
          0 0 0 0 0 0
          0 0 0 0 0 0
          0 0 0 0 0 0
          0 0 0 0 0 0
          0 0 0 0 0 0
          0 0 0 0 0 0
          0 0 0 0 0 0
          0 0 0 0 0 0
          0 0 0 0 0 0
          0 0 0 0 0 0
          0 0 0 0 0 0
          0 0 0 0 0 0
          0 0 0 0 0 0
          0 0 0 0 0 0
          0 0 0 0 0 0
          0 0 0 0 0 0
          0 0 0 0 0 0
          0 0 0 0 0 0
          0 0 0 0 0 0
          0 0 0 0 0 0
          0 0 0 0 0 0
          0 0 0 0 0 0
          0 0 0 0 0 0
          0 0 0 0 0 0
          0 0 0 0 0 0
          0 0 0 0 0 0
          0 0 0 0 0 0
          0 0 0 0 0 0
          0 0 0 0 0 0
          0 0 0 0 0 0
          0 0 0 0 0 0
          0 0 0 0 0 0
          0 0 0 0 0 0
          0 0 0 0 0 0
          0 0 0 0 0 0
          0 0 0 0 0 0
          0 0 0 0 0 0
          0 0 0 0 0 0
          0 0 0 0 0 0
          0 0 0 0 0 0
          0 0 0 0 0 0
          0 0 0 0 0 0
          0 0 0 0 0 0
          0 0 0 0 0 0
          0 0 0 0 0 0
          0 0 0 0 0 0
          0 0 0 0 0 0
          0 0 0 0 0 0
          0 0 0 0 0 0
          0 0 0 0 0 0
          0 0 0 0 0 0
          0 0 0 0 0 0
          0 0 0 0 0 0
          0 0 0 0 0 0
          0 0 0 0 0 0
          0 0 0 0 0 0
          0 0 0 0 0 0
          0 0 0 0 0 0
          0 0 0 0 0 0
          0 0 0 0 0 0
          0 0 0 0 0 0
          0 0 0 0 0 0
          0 0 0 0 0 0
          0 0 0 0 0 0
          0 0 0 0 0 0
          0 0 0 0 0 0
          0 0 0 0 0 0
          0 0 0 0 0 0
          0 0 0 0 0 0
          0 0 0 0 0 0
          0 0 0 0 0 0
          0 0 0 0 0 0
          0 0 0 0 0 0
          0 0 0 0 0 0
          0 0 0 0 0 0
          0 0 0 0 0 0
          0 0 0 0 0 0
          0 0 0 0 0 0
          0 0 0 0 0 0
          0 0 0 0 0 0
          0 0 0 0 0 0
          0 0 0 0 0 0
          0 0 0 0 0 0
          0 0 0 0 0 0
        </DataArray>
        <DataArray type="Float64" Name="stress_zz" format="ascii" RangeMin="-6282438.360222932" RangeMax="7500114.091366867">
          -16216.099484483828 -318830.377763504 262752.18900038704 -428791.41733872716 18527.69322327299 -245348.46583283553
          432010.0182652095 -273055.5878525964 53271.48593102979 -171866.55390216695 601267.8475300319 -117319.7583664656
          239377.55479969122 -13233.153395328241 82605.50274226803 90140.64522522945 233506.3839086151 -79125.84368931234
          16470.26721611159 110445.99865821654 227635.21301753898 -145018.53398329637 -49664.968310044846 130751.35209120362
          2751330.2314462336 -2582062.7814177447 1921628.5677009886 4028423.595918963 2673121.0881457673 -2779918.956866614
          1874746.2039113252 4184085.549548237 2594911.944845301 -2977775.132315483 1827863.8401216618 4339747.5031775115
          310778.16353986243 24879.1538418851 -330016.5194392429 434697.6466465695 272163.8149569904 2766.558687541554
          -323172.6678971892 408755.2620301846 233549.46637411852 -19346.03646680202 -316328.8163551356 382812.8774137998
          568948.456593435 1050733.0539731358 1007270.8409634671 857547.5016645938 572116.0576051837 1062135.1799013785
          966515.1172814608 828673.680737133 575283.6586169325 1073537.305829621 925759.3935994544 799799.8598096722
          -747974.6818155122 -234546.20570850477 -373325.6176123206 -380715.12384703 -764728.0811795476 -233377.61426140138
          -404427.25604543247 -419990.7116703496 -781481.4805435829 -232209.02281429793 -435528.8944785443 -459266.29949366907
          345719.5326932742 487900.999180563 588252.1514799673 358223.4855119125 485619.8204068802 557895.4562080667
          370727.4383305508 483338.64163319726 527538.7609361659 264725.0895201265 -165271.8722893354 315389.7724300795
          -182193.56095377417 366054.4553400325 -199115.24961821298 1371052.9664464812 2188983.3066428606 1389949.9805567856
          287980.87347063236 1357919.8915231389 2207271.2641257155 1483171.5576896102 289482.3030538981 1344786.8165997963
          2225559.22160857 1576393.1348224345 290983.73263716383 -538559.1573802591 -758744.435724457 -544057.4577169105
          -744200.044125968 -549555.7580535619 -729655.6525274788 574333.7378038964 357905.3825762828 607613.4976275973
          357661.69610046013 640893.2574512981 357418.00962463755 4889458.10442729 3806750.3662768346 5059024.593519131
          4960247.145166877 3968929.6480707326 4777475.038492463 5031036.185906463 4131108.9298646315 4495925.483465795
          -773947.4451286049 -839080.4170881079 -791491.5958530414 -828146.3525691971 -809035.7465774775 -817212.2880502862
          548041.0395432936 616645.5219766521 592582.3758357121 219789.0163838723 596549.193670479 647578.4335326803
          616307.2505987291 255629.28339429985 645057.3477976642 678511.3450887084 640032.1253617463 291469.55040472734
          618154.4426144308 394221.85718654137 804343.1166298386 621956.8818707928 416169.97445611714 798496.5843142987
          625759.321127155 438118.09172569285 792650.0519987589 235710.71081140166 255162.30482704268 274613.89884268376
          537432.7151411804 276627.70553904714 239857.1455253594 522240.3616487852 273681.0970712624 149882.317465444
          507048.00815639005 270734.4886034777 59907.489405528555 901521.4418172702 289880.9034617489 566670.5287468383
          891322.6079542262 303820.1191644852 564536.5732673332 881123.7740911823 317759.3348672215 562402.617787828
          -575554.7332755439 -1251062.1565996846 -935883.9929735742 -546896.6868844645 -1213971.5540379123 -910769.6789848335
          -518238.6404933852 -1176880.95147614 -885655.3649960929 -59535.49911956784 -591870.6870849066 -71616.47100434685
          -635063.319123904 -83697.44288912587 -678255.9511629012 -928063.0140071331 -493854.5098074764 -962320.4265487253
          -523839.9378926511 -996577.8390903175 -553825.3659778258 -1487142.6957836905 -1571830.8974004998 -1656519.099017309
          -575040.5975447292 739704.5567202731 -564217.5976968321 565482.5523686497 -553394.597848935 391260.5480170264
          627078.2725261503 642268.5703905543 619056.7464495316 633007.6967468003 611035.2203729127 623746.8231030464
          119363.67872288954 94143.3310345971 68922.98334630462 -644951.520365665 -93096.2893591339 -62482.4475172087
          -685650.0507162386 -667315.7856370911 -112031.8411242983 -74019.97950091156 -720138.595214098 -689680.0509085172
          -130967.39288946272 -85557.5114846144 -754627.1397119574 3256054.321703134 3286719.3260797933 3317384.3304564524
          4126584.1813273346 3032837.9236417897 4166662.3634897196 3008250.416740465 4206740.545652104 2983662.9098391403
          -978213.4766824287 -573839.5879087343 -989607.02216604 -549661.7216667992 -1001000.5676496516 -525483.8554248639
          1089536.8846977325 1070005.21930156 1050473.5539053874 -418344.51444995665 -484176.49515097775 -453031.4998348253
          -468701.6367379859 -487718.48521969374 -453226.77832499397 -1039179.5442865691 -1449715.400590291 -933560.5042454554
          -70390.83948220097 -1064684.3365781954 -1557845.8681658416 -1062741.0823631443 -141632.5260949228 -1090189.1288698218
          -1665976.335741392 -1191921.6604808331 -212874.2127076445 1502015.9822548942 1907785.7527798612 1472712.6193698652
          1849827.4572726625 1443409.256484836 1791869.1617654643 2136038.1901885374 951776.8928624532 645720.7919550644
          1774309.8580625087 1869581.6465255357 856225.5574729226 727898.8025274997 1795460.1421375112 1603125.1028625343
          760674.2220833921 810076.8130999347 1816610.4262125134 227871.71132916398 244224.18239504672 260576.65346092946
          -1077748.5370093165 -724908.4285318122 -1055944.4877138494 -735212.0936409566 -1034140.4384183823 -745515.7587501009
          372684.1400199774 947220.3098042447 387693.18102780124 843151.3635249757 402702.22203562513 739082.4172457065
          564831.9369303168 613997.8394117735 663163.7418932302 181190.75058197268 -772232.0164688958 167260.84424863366
          -817189.159639512 153330.93791529466 -862146.3028101282 -140019.41857410016 -1072129.9110056518 -145045.1026341623
          -1131850.4772075827 -150070.7866942245 -1191571.0434095133 776692.3047011758 75532.4860696044 797733.6606516563
          62506.61677372985 818775.0166021369 49480.747477855184 462979.8844749042 404409.2601190171 345838.63576313003
          -179515.14737920216 -42738.56698360931 -167060.48121792372 -82001.8739213226 -154605.8150566453 -121265.18085903589
          -38854.16434921694 -130545.94875600451 -117120.90127687613 -177871.33476268227 -195387.63820453535 -225196.72076936002
          -100583.02873589068 -69037.03031681968 144959.3468831291 -71842.95783976506 -74983.09191011389 144112.6650682395
          -43102.88694363943 -80929.15350340807 143265.9832533499 -327091.4336125448 -285672.9544605226 -244254.47530850038
          -337510.6612272189 378873.2251585921 -338964.8281535685 436460.33110101934 -340418.9950799181 494047.4370434466
          554313.57270346 577997.6452237663 564176.204588746 583973.5089076891 574038.8364740319 589949.3725916118
          703798.9659115045 -906458.5147900613 722093.3116986653 -900593.5458032363 740387.6574858263 -894728.5768164113
          -764754.6297782948 -1472600.365470763 -757807.0772269226 -1434902.5415834824 -750859.5246755505 -1397204.7176962018
          -776896.6380450776 -783456.1103885745 -243600.16665458962 -801633.2331182549 -724756.1147204039 -278313.2049819551
          -826369.8281914324 -666056.1190522335 -313026.2433093206 -1771058.6486781137 -1806715.6501568526 -1842372.651635591
          402270.39736872894 422849.778727017 443429.160085305 352434.130118905 332039.17207435775 311644.21402981045
          -865267.754661647 -836358.1457565861 -807448.5368515252 684013.323462954 662917.449786279 641821.5761096039
          -1148371.2746993813 -1223977.3204231334 -1299583.3661468856 -1756854.4528724418 -1832114.0796918285 -1907373.7065112148
          321396.66876558715 346428.0513742651 371459.43398294307 -1076772.6767355094 -2372356.0637755427 -888156.3315854075
          -2307659.7395774983 -699539.9864353057 -2242963.415379454 -2780574.619419918 -2013109.739128904 -2866066.5460924166
          -2069381.7468542848 -2951558.472764916 -2125653.7545796656 -2307844.4906525575 -2419371.847662334 -2530899.20467211
          -2098761.3089641007 -1656717.1019725944 -2070018.2533024321 -1693159.235811463 -2041275.1976407636 -1729601.3696503323
          6869155.557042674 5676543.582427937 6904530.691912429 5774012.468792451 6939905.826782187 5871481.355156965
          959120.9363896768 972413.9714737752 985707.0065578739 -1724636.1028474204 -1719840.9339971987 -1715045.765146977
          1168538.569720758 569975.47682395 1031341.4738398157 579225.107324491 894144.3779588736 588474.7378250319
          -631972.7875345314 -233003.73710071383 -646498.4103647936 -259255.9442502236 -661024.0331950558 -285508.1513997334
          752891.9416510356 776787.3470926158 800682.7525341958 531359.1066566326 520802.56600886007 510246.0253610876
          -135601.91045285834 -256062.56136596602 -376523.2122790737 -1162161.7026285096 -854601.8282425175 -1148855.2675863097
          -837493.160748515 -1135548.83254411 -820384.4932545125 635702.4059789734 636908.5618548361 638114.7177306989
          731271.7951810074 776539.8106017413 662728.1955871091 950475.1673885605 752777.7035801689 780593.2104642339
          665494.4662180829 939231.9783193474 774283.6119793304 784646.6103267265 668260.7368490567 927988.7892501343
          322281.64649437816 517192.26039571327 370572.20139939594 592532.0892538128 418862.75630441366 667871.918111912
          680391.4407836406 695367.4213589196 710343.4019341986 278992.06315335596 627296.0686380483 307034.5423400913
          633654.2033018693 335077.02152682666 640012.3379656905 448218.4543453675 -173243.29692020454 474297.6681768405
          -155075.26515965426 500376.88200831355 -136907.233399104 379364.6963936746 343189.8025952814 307014.9087968882
          684296.4798222664 657820.9361135797 631345.392404893 679711.8708996354 645932.4971482804 612153.1233969256
          -1393211.9748480143 -1299776.8373882251 -1353259.421634668 -1206852.6961357691 -1313306.8684213213 -1113928.5548833131
          414684.7357203852 408643.22573394014 402601.71574749495 2830601.059685562 1978579.1491956213 344024.7459343372
          2747198.667275186 2001538.9285843757 314423.6765804264 2663796.2748648096 2024498.7079731298 284822.60722651577
          -306617.9410521336 -401498.8147647437 -496379.68847735407 327803.6245218062 452930.2027292772 659045.0112181602
          356531.61379663873 444316.90096384415 632436.1951796088 385259.60307147127 435703.5991984111 605827.3791410571
          628822.3134413012 629679.2831652563 630536.2528892112 619556.4257984308 621046.9801462817 622537.5344941325
          1097089.1251006697 1044792.4577657442 992495.7904308174 279081.93739184074 285678.9894552607 292276.0415186807
          733356.7725141302 1020724.4010358877 654960.4419752447 960910.4454221672 576564.1114363594 901096.4898084465
          836731.5684818826 797851.2952656486 758971.0220494148 -1753736.8371200934 -1408857.8261304616 -1744461.289220785
          -1403177.931572927 -1735185.741321477 -1397498.0370153924 -12518.57063773583 146842.510378949 -96163.01048710366
          78649.99430802772 -179807.4503364715 10457.478237106465 929482.7034475015 570121.9917654665 848252.6465280415
          508163.8376956185 767022.5896085813 446205.6836257706 4125484.6138416333 3523383.1526045576 4224593.941437597
          3548408.6347996937 4323703.2690335605 3573434.11699483 355447.65716776013 764840.1442411705 1433893.723174611
          364387.8240735991 781709.2057190258 1550348.460825801 373327.99097943807 798578.2671968812 1666803.1984769905
          1734511.017413238 1667469.1960422841 1600427.37467133 1462355.630413907 1519459.5275050672 1576563.4245962272
          391485.0359892814 378748.0219636705 366011.00793805957 4496088.621590148 4452670.8115852205 4409253.001580294
          1800790.6821828913 2593025.292735596 1544607.089163346 1994425.0301899503 2579992.6931079985 1427695.9816831716
          2188059.378197009 2566960.0934804007 1310784.874202997 724613.8255777387 824769.971801763 924926.1180257874
          4621586.573434408 4685637.346692717 4749688.119951026 5296592.558894039 3943954.9997693137 5444620.508345902
          3926745.6308540143 5592648.457797765 3909536.2619387144 1733752.7369215912 2015026.340544792 2296299.944167993
          2945183.081583118 2903270.0568612013 2861357.032139285 4406201.5316957235 4038072.4316411535 3669943.3315865826
          4545995.759167411 3946196.0159872742 3346396.272807137 5653267.512562403 5320471.252933894 4987674.993305385
          6271868.321488376 6885991.206427621 7500114.091366867 1347824.2990289968 2909337.9653312536 1291842.6278090307
          2828122.812016484 1235860.956589065 2746907.6587017155 -5381507.349394123 -6242779.480380927 -5382613.901119244
          -6262608.92030193 -5383720.4528443655 -6282438.360222932 -3472402.4523294214 -3594246.200761482 -3463258.2417778675
          -3587597.7630320946 -3454114.0312263127 -3580949.325302707 1191211.240867965 1146763.6614920248 1102316.0821160846
          -3533878.8601107844 -3528663.1212686645 -3523447.3824265446 -3660332.914338056 -3645283.8344320147 -3630234.7545259725
          2835846.370138331 2802747.2487680456 2769648.1273977603 -1064099.0001748363 -1074534.379370211 -1084969.7585655858
          -4265057.370459287 -4249086.827985885 -4233116.285512482 2940557.066960426 2933683.3903656914 2926809.713770956
          865461.5727175603 842958.0560888384 820454.5394601163 -2256301.8758858326 -2264333.7128511397 -2272365.549816448
          1383528.7034485678 1361614.2429434133 1339699.782438259 1861552.16779371 1825492.7576120126 1789433.3474303153
          2784211.5845969054 2765405.3962529204 2746599.207908936 3783348.662021242 3737854.60382609 3692360.545630939
          5852202.225304938 5855363.008490333 5858523.791675728 5043193.757470022 5020757.199605904 4998320.641741786
          4396677.966150254 4427126.997489357 4457576.028828463 3414893.9683213155 3412824.622187534 3410755.2760537528
          1201915.887957849 1231387.7949343924 1260859.7019109358 634397.2745258068 626715.8195205147 619034.3645152226
          793161.4342107315 795660.6928246286 757807.1517335306 760996.2796578717 722452.8692563296 726331.866491115
          122886.52893930138 93791.3431290415 64696.15731878151 -2468387.8332461296 -2480091.779672463 -2491795.7260987964
          -4139762.466999946 -4133286.5424298807 -4126810.6178598152 -1667002.912272143 -1644451.713547814 -1621900.5148234847
          -254219.2823836385 201030.4278396665 -237110.39749134867 202802.0917334169 -220001.51259905891 204573.7556271673
          2607175.4047301444 1514116.6958244354 1404729.1667457912 2626959.1973580196 1496085.8169729854 1376802.5307745712
          2646742.989985895 1478054.938121535 1348875.894803351 1743166.0483825018 1693461.8705084408 1643757.6926343795
          253745.29158900253 212171.07420058356 170596.85681216465 645730.6608301388 652862.4666780211 659994.2725259034
          2157817.3685722137 2155189.708404661 2152562.0482371077 1749393.1667431616 1754663.5581295413 1759933.9495159213
          3810257.509955193 3789699.674594354 3769141.8392335144 3945298.3009795747 3897431.9049390024 3849565.5088984305
          2258766.4210440377 2214249.322716822 2169732.224389606 -97188.43138628136 -456656.39064837235 -96997.8482436273
          -450239.54702075577 -96807.26510097325 -443822.7033931392 704218.3728803536 694817.0415532971 685415.7102262402
          401188.2208532366 383921.21319656254 366654.2055398883 -1416353.341822701 -1419692.6376679474 -1423031.9335131939
          -2034083.0126940021 -1993936.3337560135 -1953789.654818025 1587460.470888197 1573513.0701307124 1559565.6693732273
          -1132347.5386351119 -1118513.0166863052 -1104678.4947374985 5090122.926027321 5006236.036146254 4922349.146265188
          5167200.5435294295 5074889.906205474 4982579.26888152 2775443.6160990293 2699812.4444095497 2624181.2727200706
        </DataArray>
        <DataArray type="Float64" Name="peeq" format="ascii" RangeMin="0" RangeMax="0.0066092864603699165">
          0.005300509279902587 0.005633544869357163 0.005769147500428075 0.005330169269011573 0.005304310623232712 0.0056374143504034245
          0.005772069469340086 0.005335201593273291 0.005308111966562839 0.0056412838314496856 0.005774991438252097 0.005340233917535009
          0.005489257602838995 0.005361112421189734 0.005441728948092525 0.005557381762099729 0.005488108604842063 0.0053603257896944236
          0.005440053760408111 0.005555861693132295 0.005486959606845133 0.005359539158199112 0.0054383785727236955 0.005554341624164863
          0.0031171698981175694 0.003434143101504368 0.0032714720434872955 0.002211414438843593 0.003117076087499586 0.00343290398025484
          0.0032705088402810722 0.002213914663466345 0.0031169822768816018 0.003431664859005312 0.003269545637074849 0.0022164148880890965
          0.005978090122147403 0.005730997445825675 0.005798179392109706 0.006055403035306037 0.00597760819690626 0.005731262098581433
          0.005798859888602993 0.006055336683940222 0.005977126271665117 0.005731526751337194 0.005799540385096283 0.006055270332574407
          0.005576905810027207 0.005584245015111821 0.005641529949964979 0.005635680661801371 0.005576465115463176 0.005583352192320217
          0.005640246346224991 0.00563481386833537 0.005576024420899145 0.005582459369528613 0.005638962742485004 0.005633947074869371
          0.0049996699028770734 0.005095700511653567 0.005273310412522938 0.0051504901172202 0.005000347371181726 0.00509623521589554
          0.005273651751912938 0.005151109560070884 0.005001024839486379 0.005096769920137514 0.0052739930913029386 0.005151729002921568
          0.005568399303760519 0.005498855411063097 0.005422192291828 0.005567649109852404 0.005498245973836636 0.00542141674112707
          0.005566898915944289 0.005497636536610175 0.00542064119042614 0.0051907107852275005 0.005306877526367555 0.00519158186259204
          0.005307371682291353 0.00519245293995658 0.005307865838215151 0.004869394403235796 0.005298200890997249 0.005278718615813854
          0.004967674275636552 0.004868530105038337 0.005296638288714508 0.005277820419279211 0.004965936650778102 0.004867665806840878
          0.00529507568643177 0.00527692222274457 0.004964199025919653 0.005517727551150422 0.005579083750937344 0.0055183198129292515
          0.005579643574793415 0.005518912074708083 0.005580203398649486 0.005292216556769933 0.005358219885370523 0.005292807596237396
          0.005358848495012161 0.00529339863570486 0.005359477104653797 0.003930822636911489 0.0038514510372692954 0.0032504155332402137
          0.003929600669392624 0.003850096430252072 0.003246588810782451 0.003928378701873759 0.003848741823234849 0.0032427620883246876
          0.0050693904405132925 0.004927783650660034 0.00507082244078354 0.004928954845154155 0.005072254441053788 0.004930126039648275
          0.005154109564962433 0.0052946203761169985 0.005340462585844303 0.005246709685926707 0.005153604222995467 0.005295070723301058
          0.005340630473875505 0.005246303887637178 0.005153098881028502 0.005295521070485117 0.005340798361906707 0.005245898089347649
          0.005600365148361798 0.005619721711761727 0.0056333795727213955 0.005599566561199618 0.005618724644936678 0.005632212581394683
          0.005598767974037438 0.005617727578111629 0.005631045590067971 0.005858417571896077 0.005858788701202411 0.005859159830508745
          0.005404063820516709 0.005325809011548539 0.005475727659197177 0.005404305292509958 0.005326290498652411 0.005475544611183503
          0.005404546764503208 0.005326771985756285 0.005475361563169826 0.005554906904128664 0.005510173124214269 0.005531379563991457
          0.005553152764285515 0.005509238759039859 0.005530912656923927 0.005551398624442367 0.0055083043938654475 0.0055304457498563985
          0.005261030205279832 0.005254373712138256 0.005064089711664571 0.005262901823695221 0.0052568163559429375 0.005066223755105924
          0.005264773442110611 0.005259258999747619 0.005068357798547278 0.005086877050771859 0.005054954503118069 0.0050892175722412735
          0.005057823983043964 0.00509155809371069 0.005060693462969861 0.004462558300858803 0.004240869511738031 0.004461630395861047
          0.0042403780127474155 0.0044607024908632905 0.004239886513756798 0.0066092864603699165 0.006606302439661961 0.006603318418954007
          0.005343825723264733 0.005212532985333048 0.005342936710027161 0.005209638790573758 0.005342047696789587 0.005206744595814469
          0.005404000826641519 0.0053835984245032935 0.00540422846851199 0.0053834266527197595 0.0054044561103824594 0.005383254880936226
          0.005298708507068709 0.005298726433635275 0.0052987443602018425 0.004738511401873489 0.0048737776590220844 0.0049095405078121625
          0.004788454174374481 0.004739067247398197 0.004874205648553171 0.00491010211417465 0.00478905607431271 0.004739623092922904
          0.004874633638084259 0.004910663720537138 0.00478965797425094 0.002526791619703572 0.0025269751849307156 0.0025271587501578584
          0.002335000283336587 0.0028868649259255483 0.002335566264966293 0.0028871707316270616 0.0023361322465959996 0.002887476537328575
          0.005286834989301354 0.005113843289805027 0.005289589586921019 0.005116310655300989 0.005292344184540682 0.005118778020796951
          0.0055942253366991525 0.005592759126850503 0.005591292917001854 0.0051427333058868645 0.004893621208759705 0.00514082541956748
          0.004892087798672572 0.005138917533248095 0.004890554388585442 0.005088975165944386 0.004902563551481178 0.004712931767817335
          0.004996401636513412 0.005088642787022244 0.004901452522149866 0.004712058582506981 0.0049961556302937134 0.005088310408100103
          0.0049003414928185515 0.004711185397196626 0.0049959096240740145 0.0054763144525196705 0.005480736403022435 0.005475072980335186
          0.005478585593729311 0.005473831508150704 0.005476434784436188 0.0050573720930475125 0.004968026728011333 0.004664478643554272
          0.0046946612232852325 0.0050545850738339905 0.004966060775066042 0.0046646185676704095 0.004693795193573973 0.005051798054620468
          0.0049640948221207504 0.004664758491786545 0.004692929163862714 0.005612517956672644 0.005612962532426403 0.0056134071081801636
          0.004805696494927953 0.004874880772053105 0.004807086203154643 0.004875612981543405 0.004808475911381332 0.004876345191033705
          0.005263255003842719 0.005180341668107374 0.005263653306711543 0.00518132746699305 0.005264051609580368 0.005182313265878726
          0.00550210864004985 0.00550302442111907 0.00550394020218829 0.005465388865642101 0.0054307448267646545 0.0054658891236489685
          0.005431123035708139 0.005466389381655835 0.005431501244651625 0.005427826368455479 0.0054051660301879315 0.005428432526116379
          0.00540559086691234 0.005429038683777279 0.005406015703636747 0.005607822380880813 0.0057542892370059315 0.005608147452544993
          0.005754432278931165 0.005608472524209172 0.0057545753208564 0.0055335013695912115 0.005534146538530446 0.005534791707469681
          0.005129809572582855 0.005232451948497246 0.005130733657293743 0.005232770339994676 0.005131657742004631 0.005233088731492104
          0.005713963166926076 0.005653050876016391 0.005714400227543655 0.005653243442914953 0.005714837288161232 0.005653436009813515
          0.00558022550230232 0.005334012165336666 0.0056465530358398765 0.005581411985680724 0.005335010292256946 0.005646948774884139
          0.005582598469059129 0.005336008419177228 0.005647344513928403 0.0055492888665639815 0.0055508059780677195 0.005552323089571458
          0.0049787023280402085 0.005048025588657356 0.004979407888354793 0.005049209628060526 0.004980113448669377 0.005050393667463697
          0.0054220486086869355 0.0054381673805741675 0.00542210150762558 0.005437881040627021 0.005422154406564222 0.005437594700679875
          0.004094417587322623 0.004517272491966736 0.00409342782595047 0.004516539894795638 0.004092438064578316 0.004515807297624541
          0.004931673395306261 0.004799094416335101 0.0049332936027789275 0.004800892181387291 0.004934913810251593 0.004802689946439479
          0.005900047163778256 0.0055719693773287286 0.0058293521965870135 0.005899417648122844 0.005573610883702404 0.005829317811038213
          0.005898788132467432 0.005575252390076079 0.005829283425489411 0.005919210131982438 0.005919542069720458 0.005919874007458479
          0.005251271750950942 0.00525147141285916 0.005251671074767378 0.006004362268879693 0.006003062761177137 0.006001763253474582
          0.005604362456941731 0.005606925849612693 0.005609489242283655 0.005483529013572106 0.005483753066153438 0.00548397711873477
          0.0048757557233894844 0.00487747715096861 0.004879198578547734 0.006126563507910596 0.0061250315659305285 0.00612349962395046
          0.005827082857691237 0.005827477623136474 0.005827872388581711 0.005485781711353379 0.00555484916324001 0.005490412470588761
          0.0055595248919686644 0.00549504322982414 0.005564200620697318 0.005073245351741101 0.00505522449311083 0.0050757606013997385
          0.005058148859049097 0.005078275851058375 0.005061073224987363 0.0061322255080328274 0.00613245451250407 0.006132683516975312
          0.004791992916719931 0.0048179313427538254 0.004793833522291674 0.004819727870860295 0.0047956741278634175 0.004821524398966765
          0.0028905512962320275 0.0021380327440688753 0.0028910808938793406 0.002139270516467142 0.0028916104915266533 0.002140508288865409
          0.004345344303621811 0.004344966135741452 0.004344587967861093 0.005904689388628776 0.005906271333095343 0.005907853277561909
          0.005205975671784207 0.005373844644305554 0.005203017605958579 0.005372448248319842 0.005200059540132949 0.00537105185233413
          0.004723654778411294 0.004865391017691491 0.004724248622941694 0.004865785387736381 0.004724842467472094 0.004866179757781272
          0.005825614026244646 0.005825697487245156 0.005825780948245665 0.0060132146179807475 0.006012490841124602 0.006011767064268456
          0.005561857571660421 0.005561724668940432 0.005561591766220442 0.00466485563487504 0.004644284149704502 0.004666496286489968
          0.0046459071425298815 0.0046681369381048965 0.00464753013535526 0.005450437503854138 0.005450295948588639 0.005450154393323139
          0.00566202933145952 0.005659422397828324 0.0056356714692275085 0.005648739004439782 0.0056611059918390255 0.0056582272829521114
          0.0056336254622479124 0.00564667338332092 0.00566018265221853 0.005657032168075899 0.005631579455268316 0.005644607762202058
          0.005034440422929951 0.005206971123396191 0.005035564648179728 0.005207841979595577 0.005036688873429504 0.0052087128357949635
          0.005479535410425666 0.005479172338200244 0.0054788092659748214 0.005606066312264551 0.005648017499680515 0.0056042259204512265
          0.0056467436263149965 0.005602385528637904 0.005645469752949479 0.005422060481281941 0.0053628434754749 0.005421867477208426
          0.005361759447208631 0.005421674473134912 0.005360675418942361 0.00555959062726989 0.0055593527098896246 0.005559114792509358
          0.005466479263823796 0.00546638588413042 0.0054662925044370436 0.005398293487538102 0.005395927496987755 0.005393561506437409
          0.004686667451056304 0.00465638626955994 0.004688827356865727 0.0046586325247927 0.004690987262675148 0.00466087878002546
          0.005435681502165475 0.005433467440845092 0.00543125337952471 0.004509515853059528 0.004006710167642216 0.004719405812862816
          0.004508462636560183 0.004007362025068703 0.004717490084058506 0.004507409420060838 0.004008013882495188 0.004715574355254197
          0.0052893904572726925 0.005286992344885568 0.005284594232498444 0.0052190931269411375 0.005401705568919744 0.005391648169747286
          0.005219710255386337 0.00540054852068378 0.005390569012154987 0.005220327383831536 0.005399391472447815 0.005389489854562687
          0.005631120179179189 0.00563061240908795 0.005630104638996711 0.005401798963255419 0.005401932612488791 0.005402066261722164
          0.0037944614260791683 0.0037936557059799975 0.0037928499858808275 0.005038930317619367 0.00503988864928629 0.005040846980953213
          0.00554870492440638 0.005561447178141624 0.0055461142307003065 0.005558844318174006 0.0055435235369942345 0.005556241458206388
          0.005132235575439056 0.005130119624481143 0.00512800367352323 0.004750309371354799 0.004720934980916086 0.004752320771028153
          0.004722529446050481 0.004754332170701506 0.004724123911184876 0.005510527538750199 0.005392696774587781 0.005508167614349464
          0.0053914055616239714 0.00550580768994873 0.005390114348660164 0.005277863809831888 0.005038700143130933 0.005274795089091882
          0.005036031628812684 0.005271726368351876 0.005033363114494434 0.004091910486169463 0.004511341758409473 0.004092312417049185
          0.0045111391500850155 0.004092714347928907 0.0045109365417605575 0.005492419986868909 0.005497929569267803 0.005366639417579861
          0.00549202053809382 0.005497146098426564 0.005364859850861801 0.005491621089318731 0.005496362627585327 0.005363080284143741
          0.004833509509734644 0.004831550446023999 0.004829591382313354 0.0051686702669265505 0.00516575793812082 0.005162845609315089
          0.005576764813661051 0.005576302049606923 0.005575839285552793 0.003551171285391885 0.003550619768636293 0.0035500682518807016
          0.004631089369992722 0.004272982778908319 0.004304002997935508 0.00463079433783733 0.0042729957225204175 0.004303941121221169
          0.004630499305681939 0.0042730086661325155 0.00430387924450683 0.004921385722862397 0.00491956170714164 0.0049177376914208825
          0.004308823199714355 0.004309384382141211 0.0043099455645680676 0.003915808492128097 0.003398666921049106 0.003917126403111478
          0.0033989540844075227 0.00391844431409486 0.0033992412477659387 0.0038346974379740014 0.0038332162764404243 0.0038317351149068464
          0.004323184982885278 0.0043230494370963615 0.004322913891307446 0.0026180934629336378 0.0026180047826522192 0.0026179161023708003
          0.0032794466235041833 0.0032727182752500953 0.0032659899269960073 0.0025034858880246527 0.002503806501268625 0.0025041271145125974
          0.001684848239974595 0.0016910099983754982 0.0016971717567764015 0.0010521421059793692 0.0009353639055191031 0.0010526868171058129
          0.0009360568632519851 0.0010532315282322567 0.0009367498209848671 0.00035594660436998304 0.0002807935065853215 0.0003562489329848025
          0.0002809776616224329 0.00035655126159962205 0.00028116181665954445 0.00003352594342199788 0.000007600592069681372 0.00003385010340876801
          0.00000782793939229851 0.000034174263395538136 0.000008055286714915649 0.0013425158286498 0.0013427027803175466 0.0013428897319852932
          0.0005851969884852795 0.0005855531356965541 0.0005859092829078285 0.00011999836936487087 0.00012038844576216472 0.00012077852215945856
          0.001680007090900326 0.001679936567194126 0.0016798660434879258 0.0009299523402876554 0.0009301002782962851 0.0009302482163049148
          0.00030807820209375475 0.00030852531193055303 0.0003089724217673512 0.0019935018045270313 0.0019933839742958988 0.0019932661440647667
          0.0013237299264359452 0.0013236609531147928 0.0013235919797936408 0.0006400209622523905 0.0006403770130025023 0.0006407330637526141
          0.0017190707194450804 0.0017188859141550714 0.0017187011088650624 0.0010845287489759565 0.0010845009911265835 0.0010844732332772108
          0.0020819353846447328 0.0020816746707886372 0.0020814139569325417 0.0015747815713742176 0.0015744949866689612 0.0015742084019637046
          0.0024062894470127222 0.0024059168358132417 0.0024055442246137607 0.0020723914673835496 0.00207199292738723 0.0020715943873909097
          0.002703808344981493 0.002703436855863688 0.002703065366745883 0.0025799430720720097 0.0025793771530392474 0.002578811234006485
          0.002847616573449339 0.002847324970050976 0.002847033366652613 0.0028400398184461415 0.002839364468631781 0.0028386891188174205
          0 0 0 0 0 0
          0 0 0 0.00003422885487056812 0.00003440440331707576 0.00003457995176358341
          0.0001706080114709567 0.00017098983134451937 0.00017137165121808211 0.00046997171929122767 0.00047026006161799745 0.0004705484039447673
          0.0037282952156368794 0.004020681035107942 0.0037291046076050826 0.004020976980982269 0.0037299139995732858 0.004021272926856597
          0.0026669575995729496 0.0029575747150650073 0.002938393364950113 0.002667033280500236 0.002957380150954711 0.0029383688880512604
          0.0026671089614275214 0.0029571855868444144 0.002938344411152408 0.004887653615379854 0.0048865268442106514 0.004885400073041448
          0.00440643989501307 0.004405626388060113 0.004404812881107158 0.003401198662944334 0.003401821468982513 0.0034024442750206912
          0.0022602443574549816 0.0022601746033166083 0.0022601048491782344 0.00244719189590054 0.0024472109804967376 0.002447230065092936
          0.002565865900057097 0.002565898099557506 0.002565930299057915 0.002671626605181436 0.002671639274813671 0.0026716519444459053
          0.0027285172652531677 0.002728538708751587 0.002728560152250006 0 0 0
          0 0 0 0 0 0
          0 0 0 0.000010433512836835772 0.000010555026515592415 0.000010676540194349056
          0.00010655710869689815 0.00010687218814654102 0.00010718726759618389 0.0009485174670789392 0.0009485256357129957 0.0009485338043470522
          0.0003988849948135043 0.0003992245438145337 0.000399564092815563 0.0015509723006724148 0.0015506071122404004 0.0015502419238083865
          0.0022106364650225268 0.002209804391650517 0.0022089723182785064 0.002549178137476425 0.0025480965630651164 0.0025470149886538075
        </DataArray>
        <DataArray type="Float64" Name="pe11" format="ascii" RangeMin="0" RangeMax="0.00660512357925543">
          0.005298347466876064 0.005630686071083261 0.005766205936331682 0.005327831491840111 0.005302227745211094 0.00563462798927075
          0.005769195569933769 0.005332954705890042 0.005306108023546124 0.00563856990745824 0.0057721852035358566 0.0053380779199399715
          0.005487855299148569 0.005359939177682111 0.0054403509840382155 0.005555742441257159 0.005486717738200813 0.0053591578936437985
          0.005438694272627353 0.005554248368601265 0.00548558017725306 0.0053583766096054865 0.005437037561216492 0.005552754295945372
          0.0031146522606128654 0.003431430265602595 0.003269628864800376 0.0022092754150232915 0.0031145441614981477 0.0034301932690788896
          0.0032686303600656134 0.0022116746062916105 0.00311443606238343 0.0034289562725551836 0.0032676318553308504 0.0022140737975599296
          0.005974990527753234 0.005727447939500493 0.005794465386399173 0.006052371863863305 0.005974484060128542 0.005727672780608777
          0.005795118632516459 0.006052285117546246 0.005973977592503852 0.0057278976217170615 0.005795771878633745 0.00605219837122919
          0.005574626251338765 0.005581724016082159 0.0056391955669147 0.0056333606486476655 0.005574196625482589 0.005580850836456778
          0.005637936515888036 0.005632509816109583 0.005573766999626413 0.005579977656831398 0.005636677464861371 0.0056316589835715
          0.004998097324161487 0.0050941449971493484 0.0052708621749548165 0.005148209805041535 0.004998762076741459 0.005094656889845657
          0.005271181584075503 0.005148816511827587 0.0049994268293214305 0.005095168782541965 0.005271500993196189 0.0051494232186136395
          0.005566899982492253 0.005497614121672192 0.0054209608515864574 0.00556616357474733 0.005497007447720005 0.0054201789334388925
          0.005565427167002408 0.005496400773767818 0.005419397015291327 0.005189389231379997 0.005304864984544542 0.005190234306832428
          0.0053053377297305904 0.0051910793822848595 0.005305810474916638 0.004866980018590155 0.005296098390038786 0.005276675310704081
          0.004965669849087275 0.00486614093389167 0.005294556579625763 0.0052757908066994146 0.004963946589607757 0.004865301849193184
          0.00529301476921274 0.00527490630269475 0.00496222333012824 0.005514760563882641 0.005575934431903219 0.005515314589807346
          0.00557646058917289 0.005515868615732051 0.005576986746442561 0.005291036871840719 0.005356673284107726 0.005291599044341538
          0.005357275433359062 0.0052921612168423575 0.005357877582610398 0.00392945586855431 0.0038506438970988084 0.003248949199081172
          0.003928231812082536 0.0038492940968540426 0.0032450622515657924 0.003927007755610762 0.003847944296609276 0.0032411753040504144
          0.005067529446422612 0.0049263625608551 0.0050689711001740195 0.004927544000066792 0.005070412753925427 0.004928725439278483
          0.005153219484683144 0.005293842075099803 0.005339637891969708 0.005245468611556782 0.0051527113985348205 0.00529428198604588
          0.005339801720077665 0.0052450738727630244 0.005152203312386496 0.005294721896991959 0.0053399655481856205 0.005244679133969267
          0.005598735731850423 0.005617922867706564 0.0056313145149044916 0.005597956148304957 0.005616948160927115 0.005630173446354552
          0.0055971765647594915 0.005615973454147667 0.005629032377804611 0.005854632098474159 0.005854986365478564 0.005855340632482969
          0.005403148459301661 0.005324682335656883 0.005474477890993368 0.005403371121609138 0.005325153426780025 0.005474275875587316
          0.005403593783916615 0.0053256245179031676 0.005474073860181264 0.0055529331652061425 0.005508769498313508 0.0055301562041244505
          0.005551207260147165 0.005507850954724946 0.005529696494243456 0.005549481355088187 0.0055069324111363845 0.005529236784362461
          0.005258696090305784 0.005252239122009211 0.005062354577731029 0.005260579006733374 0.005254707162050767 0.0050645193550686906
          0.005262461923160964 0.005257175202092322 0.0050666841324063525 0.005084990590382879 0.005052900285835375 0.005087383011615295
          0.005055832411398807 0.005089775432847712 0.00505876453696224 0.004461089344299869 0.004239336668992815 0.0044601711115584836
          0.004238841588139704 0.004459252878817098 0.004238346507286593 0.00660512357925543 0.006602033170543052 0.006598942761830674
          0.005341680288500744 0.005210376987708912 0.005340825924040427 0.005207530261129081 0.00533997155958011 0.00520468353454925
          0.005402642058215283 0.0053824138569192855 0.005402842047799317 0.005382218730686548 0.00540304203738335 0.005382023604453809
          0.005297639436043759 0.005297642654235079 0.0052976458724264 0.004738208874367806 0.004873358599023263 0.0049088908587771665
          0.004787869638414153 0.004738760312137496 0.004873778005041811 0.004909440286103207 0.004788464334188963 0.004739311749907187
          0.00487419741106036 0.004909989713429248 0.004789059029963773 0.0025250957836759833 0.0025252694330980645 0.0025254430825201453
          0.0023329866312291284 0.002884940814325958 0.002333541525730255 0.002885221081318164 0.002334096420231382 0.0028855013483103696
          0.005284763406182464 0.005112043616869291 0.005287561441289763 0.0051145520186567555 0.005290359476397061 0.005117060420444221
          0.005591787562249348 0.005590352972419867 0.0055889183825903865 0.0051409388748419795 0.004892253191519693 0.00513906572133998
          0.004890731022173392 0.005137192567837979 0.00488920885282709 0.005088141354008432 0.004901529619907747 0.004711865907066697
          0.004995439155553303 0.005087806730336972 0.004900427088819637 0.004710999975386484 0.004995190326566823 0.005087472106665511
          0.004899324557731526 0.004710134043706272 0.004994941497580344 0.0054738814781619795 0.005478480387502776 0.005472662002460429
          0.0054763529831406465 0.005471442526758879 0.005474225578778517 0.005055264022063043 0.0049660259709049205 0.004663215901918398
          0.004693008032259729 0.005052515354028418 0.0049640914191660165 0.004663365401941898 0.004692152816123783 0.005049766685993793
          0.004962156867427113 0.004663514901965401 0.004691297599987838 0.005609549198430768 0.0056099661896259305 0.005610383180821094
          0.004804745939311266 0.004873900525074238 0.004806141616638382 0.004874622468095434 0.004807537293965498 0.004875344411116629
          0.005261883741583916 0.005178829479287396 0.005262273662309086 0.00517981625415947 0.005262663583034255 0.005180803029031542
          0.0055002785335811 0.005501182291559551 0.005502086049538 0.005463307098821819 0.005428271892023725 0.005463783312571691
          0.0054286243530263425 0.005464259526321563 0.005428976814028961 0.005424905793026135 0.005402548801780843 0.005425483191461748
          0.005402944952233539 0.0054260605898973635 0.005403341102686237 0.005605492103429666 0.005751165499507151 0.005605786085659433
          0.005751274867190804 0.0056060800678892015 0.005751384234874457 0.005531924710427214 0.0055325512337904125 0.005533177757153609
          0.0051289059535261135 0.005231517395955791 0.005129812451483088 0.005231831366472435 0.005130718949440061 0.005232145336989079
          0.005711953589269564 0.005651146641235113 0.005712357375036413 0.0056513015406963575 0.005712761160803262 0.005651456440157601
          0.005576981625359635 0.005331227795720092 0.0056430417447450336 0.005578168887335732 0.005332216185221544 0.005643410723229997
          0.0055793561493118265 0.005333204574722993 0.005643779701714962 0.005546577753140264 0.005548111593323177 0.005549645433506089
          0.0049777420195875645 0.005047323290587874 0.0049784289850771475 0.005048494806665147 0.00497911595056673 0.005049666322742419
          0.005420965623623908 0.00543708753457757 0.005420996656393447 0.005436789235856051 0.005421027689162987 0.005436490937134533
          0.004092211128494179 0.004514780953928317 0.004091228150239686 0.004514063325336562 0.0040902451719851945 0.004513345696744806
          0.004930127586396885 0.004797951388019081 0.004931779972761169 0.004799768748278427 0.004933432359125454 0.0048015861085377734
          0.0058982889412601954 0.005569522216575389 0.005826907454183275 0.00589764634703333 0.005571185243643965 0.005826888978031311
          0.0058970037528064635 0.005572848270712538 0.005826870501879347 0.005916956477653283 0.00591725831841016 0.005917560159167037
          0.005250287793764062 0.005250483628096382 0.005250679462428704 0.006002592869992185 0.006001297909097985 0.0060000029482037845
          0.005601821963089067 0.005604422342972095 0.005607022722855123 0.005481800344543684 0.005481998864277376 0.005482197384011068
          0.004874119275742519 0.004875876998647253 0.004877634721551988 0.006123714140298119 0.006122149351551094 0.006120584562804069
          0.005823952883500449 0.005824352219885925 0.005824751556271402 0.005480381349059149 0.0055508352085492695 0.005485196989602689
          0.005555596518089878 0.0054900126301462284 0.005560357827630488 0.005070228045109703 0.005052641011044351 0.005072844529501418
          0.005055650336123319 0.005075461013893134 0.0050586596612022874 0.006128460470926614 0.00612863179466255 0.006128803118398485
          0.004790591269248096 0.004816409096803639 0.004792493840655365 0.004818256524442447 0.004794396412062632 0.004820103952081256
          0.0028885830919132766 0.002136018055467765 0.0028890788914003275 0.0021372395130728845 0.0028895746908873775 0.002138460970678005
          0.00434302521800499 0.004342658194178744 0.0043422911703524985 0.005901742089827862 0.005903326971720084 0.0059049118536123055
          0.005203481862233669 0.005371700676859071 0.005200571757172657 0.005370338101854333 0.0051976616521116435 0.005368975526849595
          0.004723440955130451 0.004865023060958121 0.004724032159588224 0.004865412131673546 0.004724623364045997 0.0048658012023889705
          0.0058221078177257005 0.005822171874664325 0.005822235931602949 0.006010694660856658 0.006009968905533784 0.006009243150210911
          0.005560432257605191 0.005560273619311295 0.005560114981017401 0.004664492840876742 0.004644046182407277 0.004666144257775841
          0.004645681348806749 0.00466779567467494 0.00464731651520622 0.005449473722754216 0.005449328091441925 0.005449182460129634
          0.0056597543290760905 0.005657160205853289 0.005633456362353003 0.005646379021367604 0.005658851869878079 0.005655990244262616
          0.005631450335990289 0.005644353550200897 0.005657949410680068 0.005654820282671943 0.005629444309627576 0.005642328079034191
          0.005033891599715054 0.005206068495693837 0.005035007129567727 0.005206933997622741 0.005036122659420401 0.005207799499551646
          0.005477164713689992 0.005476819864319932 0.005476475014949871 0.005604145366032707 0.005645918257687245 0.005602340441398016
          0.005644672256122161 0.005600535516763325 0.005643426254557077 0.0054209922394205445 0.005361350448316848 0.005420804279330969
          0.005360293092010955 0.005420616319241394 0.0053592357357050615 0.005557927403506832 0.005557660552547005 0.005557393701587179
          0.0054652007090638735 0.005465082928709958 0.005464965148356043 0.0053962277420914395 0.00539389816899562 0.005391568595899799
          0.004685878673129145 0.004655751186556765 0.004688069767734948 0.004658037155629815 0.004690260862340749 0.0046603231247028636
          0.005433934380565714 0.005431755407020771 0.005429576433475829 0.004508273587531546 0.0040055323574667775 0.004717920514313748
          0.00450722441675055 0.004006166584790707 0.004716018868094753 0.004506175245969552 0.004006800812114638 0.004714117221875757
          0.005287455036971385 0.005285108833667669 0.005282762630363951 0.005218156805068517 0.005399922450953665 0.005390049597729624
          0.005218773896231514 0.005398787310866577 0.005388987240394602 0.005219390987394512 0.00539765217077949 0.005387924883059579
          0.005628905971519706 0.005628408045097475 0.005627910118675245 0.005400984149518817 0.0054011041534935056 0.005401224157468194
          0.0037920293071824554 0.0037912233809725407 0.003790417454762626 0.005038420907502406 0.005039373361874598 0.00504032581624679
          0.005546607434033835 0.005559111277865996 0.005544058626835087 0.005556552197137077 0.005541509819636336 0.005553993116408158
          0.005129818228026079 0.005127743881217171 0.005125669534408263 0.0047492244206512385 0.004720277398973585 0.004751257995373138
          0.004721879289417867 0.004753291570095037 0.004723481179862148 0.0055088447689264535 0.005391312123935167 0.005506515892687023
          0.005390031876999147 0.005504187016447593 0.005388751630063127 0.005275769642545414 0.005036716199974147 0.0052727544684544915
          0.0050340896475671035 0.00526973929436357 0.00503146309516006 0.0040903169698843795 0.004509505348992023 0.004090707778267297
          0.004509312974530242 0.004091098586650214 0.00450912060006846 0.005490347388991851 0.005495998980603888 0.00536457997702637
          0.0054899627991779 0.005495230407040972 0.0053628176185190665 0.005489578209363948 0.0054944618334780565 0.005361055260011764
          0.004831400862226874 0.004829469260787361 0.004827537659347849 0.005166499643836366 0.0051636010329645515 0.005160702422092735
          0.005574658213452371 0.005574205773432788 0.005573753333413206 0.003549219170539244 0.0035486380184105233 0.0035480568662818023
          0.004630269997425779 0.0042722967451725505 0.004303053681052114 0.0046299722174934985 0.004272305318439125 0.004302997075250948
          0.0046296744375612185 0.004272313891705697 0.004302940469449781 0.004919954388036144 0.004918138156028127 0.004916321924020111
          0.004307723158678286 0.004308278984388893 0.004308834810099498 0.00391470695929726 0.003396993830140289 0.003916002068665816
          0.003397247654319094 0.003917297178034372 0.0033975014784978982 0.0038340324117371698 0.0038325604823763355 0.0038310885530155013
          0.00432185466306586 0.004321729173537927 0.004321603684009992 0.002615743128754442 0.002615429580754746 0.0026151160327550493
          0.0032776550931760138 0.003270866405031884 0.0032640777168877547 0.0025006167495118144 0.0025006566125094377 0.0025006964755070614
          0.0016825583014855564 0.0016885014605475535 0.0016944446196095505 0.0010504196059613366 0.0009340355997815737 0.0010509544890012585
          0.0009347126826109134 0.0010514893720411803 0.0009353897654402531 0.0003550749870093761 0.0002802697189605272 0.0003553695296179075
          0.00028044383710692865 0.0003556640722264389 0.0002806179552533301 0.00003340787837855691 0.000007589350303756278 0.000033731080786094854
          0.000007816163930831474 0.0000340542831936328 0.00000804297755790667 0.0013401337969817593 0.001340317141489143 0.0013405004859965266
          0.0005833126509066259 0.0005836642041580675 0.0005840157574095093 0.00011939672949023801 0.00011978523327646343 0.00012017373706268887
          0.0016771458172982199 0.001677069116213268 0.0016769924151283158 0.0009266140596853509 0.0009267568187846197 0.0009268995778838882
          0.00030616234606121 0.0003066064253294624 0.0003070505045977148 0.0019905467649851344 0.0019904210343911757 0.0019902953037972157
          0.001319177848591921 0.0013191020547621954 0.0013190262609324695 0.0006357978264226031 0.0006361500300280699 0.0006365022336335367
          0.0017143627362529257 0.001714170578753523 0.001713978421254121 0.0010780925241370134 0.0010780616439041411 0.0010780307636712688
          0.002078122163771028 0.002077855299886809 0.00207758843600259 0.0015674124231590937 0.0015671224092464273 0.001566832395333761
          0.0024037151274779495 0.002403336495784646 0.0024029578640913426 0.002065295762016631 0.002064887804312162 0.002064479846607693
          0.002702263432968438 0.002701882855270314 0.0027015022775721898 0.002573377587339793 0.0025727913281538796 0.002572205068967965
          0.0028464880905853486 0.0028461858193803077 0.0028458835481752665 0.0028336414619403896 0.002832940256676791 0.0028322390514131917
          0 0 0 0 0 0
          0 0 0 0.00003388645285630105 0.000034060788583421174 0.00003423512431054129
          0.00016884350318730368 0.00016922241801884018 0.00016960133285037665 0.0004651914931675054 0.00046547668813877246 0.0004657618831100396
          0.003726920056359572 0.004019427261223729 0.00372771234636208 0.004019718566921219 0.0037285046363645887 0.00402000987261871
          0.0026657356946484367 0.0029566996114669484 0.002936936218502023 0.0026658044082246038 0.002956496870395401 0.0029368961956996427
          0.002665873121800771 0.0029562941293238554 0.0029368561728972628 0.004886565484432845 0.004885441145335649 0.0048843168062384515
          0.004405501298925878 0.004404687761272499 0.004403874223619121 0.0033998091906553576 0.0034004092904992484 0.0034010093903431397
          0.0022577902139579954 0.0022577132747492778 0.00225763633554056 0.002445528414931223 0.002445541549477059 0.002445554684022895
          0.0025649938421961776 0.0025650225825685647 0.002565051322940952 0.0026712701686388528 0.002671280793850648 0.002671291419062443
          0.0027282949320280537 0.0027283147959622266 0.0027283346598963995 0 0 0
          0 0 0 0 0 0
          0 0 0 0.000010284168792603077 0.000010404129076685188 0.000010524089360767298
          0.00010498471875485245 0.00010529581289778167 0.00010560690704071086 0.0009394428948609325 0.0009394512037799053 0.0009394595126988778
          0.00039247533996690336 0.0003928190932492359 0.00039316284653156855 0.0015375363733525545 0.0015371702626937023 0.0015368041520348501
          0.0021919166853551185 0.002191076289734597 0.0021902358941140758 0.0025271775280539875 0.002526084344234893 0.0025249911604157986
        </DataArray>
        <DataArray type="Float64" Name="pe22" format="ascii" RangeMin="-0.0034844167113286446" RangeMax="0">
          -0.0027622805496186256 -0.002958879411503538 -0.0030283573386860134 -0.002785725399099328 -0.00276128449673459 -0.0029584568139928644
          -0.0030274911569728924 -0.0027851981485899693 -0.002760288443850554 -0.0029580342164821894 -0.0030266249752597717 -0.0027846708980806107
          -0.002653253805369117 -0.0026030555329334864 -0.002626264612990769 -0.0026711743538804325 -0.0026534012412950795 -0.0026032680528522405
          -0.002626460119862452 -0.0026715512377522162 -0.0026535486772210418 -0.0026034805727709956 -0.0026266556267341345 -0.0026719281216239996
          -0.0015306856712040558 -0.0016657510619220196 -0.0016009534193181106 -0.001099313905851911 -0.0015305675212470837 -0.0016654892369069646
          -0.0016006800483321158 -0.0010997464086609347 -0.0015304493712901114 -0.0016652274118919093 -0.0016004066773461214 -0.0011001789114699584
          -0.0030347064837088654 -0.0028986483031915545 -0.0029257824735006324 -0.0030729214511859863 -0.0030355412877435557 -0.0028988412306161634
          -0.0029261012397958394 -0.003073655166847277 -0.003036376091778246 -0.0028990341580407723 -0.0029264200060910455 -0.003074388882508567
          -0.002655812638986405 -0.0026540262888595932 -0.002686745897699497 -0.002683766023110541 -0.0026560584417239267 -0.0026543350404859074
          -0.0026870823971266306 -0.002683975180931182 -0.0026563042444614484 -0.0026546437921122212 -0.002687418896553764 -0.0026841843387518226
          -0.0025100006115686864 -0.002540445721211051 -0.0026439790965994752 -0.002595940678035984 -0.0025094937062975554 -0.0025401084696457313
          -0.00264370008271721 -0.002595461123729916 -0.0025089868010264244 -0.0025397712180804115 -0.002643421068834945 -0.002594981569423847
          -0.0026832433991651147 -0.002665882063733805 -0.0026376763381831814 -0.0026835682886361834 -0.0026659683974501126 -0.0026374715593870516
          -0.002683893178107252 -0.0026660547311664192 -0.0026372667805909214 -0.0025727430326074044 -0.0026447411178369944 -0.0025725429490066724
          -0.002644600832371933 -0.00257234286540594 -0.002644460546906872 -0.002328895747336063 -0.002533757651088833 -0.0025232327226458575
          -0.0023887566665261838 -0.002329139510949781 -0.002533629767868444 -0.0025231763391227982 -0.002388696467599107 -0.002329383274563498
          -0.002533501884648056 -0.0025231199555997394 -0.002388636268672031 -0.002773612976017235 -0.002797725589544707 -0.0027735027536877166
          -0.0027975240234024315 -0.0027733925313581974 -0.0027973224572601547 -0.002606474560458852 -0.0026544072448450758 -0.002606227290724583
          -0.00265436404152674 -0.0026059800209903136 -0.002654320838208404 -0.0018992269205394346 -0.0018897619095769192 -0.001590927938128205
          -0.0018990477904979367 -0.00189032430848067 -0.0015902655265538589 -0.0018988686604564384 -0.0018908867073844213 -0.0015896031149795127
          -0.0025728682198596265 -0.002495930991817483 -0.002572185494393756 -0.0024951690186994554 -0.0025715027689278856 -0.002494407045581428
          -0.0025121256098289343 -0.002600337547409948 -0.002603623274923015 -0.002536304077642943 -0.002511781680824946 -0.00260021078895894
          -0.002603617961184121 -0.0025365515781177587 -0.002511437751820958 -0.0026000840305079338 -0.0026036126474452267 -0.002536799078592575
          -0.002691949686968758 -0.0026936987848175217 -0.002691498927039349 -0.0026923924263657327 -0.00269410342550425 -0.0026919672478365464
          -0.0026928351657627076 -0.0026945080661909785 -0.002692435568633744 -0.0029514314795318487 -0.0029513438068690936 -0.0029512561342063385
          -0.002667140111091553 -0.0026442648268691538 -0.0027239698947437926 -0.0026669348774133327 -0.002644132778234217 -0.002723746100767648
          -0.0026667296437351126 -0.0026440007295992812 -0.0027235223067915044 -0.0026593243083753585 -0.0026564515085593173 -0.0026764374089877727
          -0.0026595896097587855 -0.002656743656482824 -0.0026766411885957874 -0.002659854911142213 -0.0026570358044063318 -0.002676844968203803
          -0.002678971897067418 -0.002696783885955535 -0.002595079341575838 -0.0026784382171877626 -0.002696286333822208 -0.0025942034679759703
          -0.0026779045373081073 -0.002695788781688882 -0.0025933275943761016 -0.0026359844430339317 -0.0026282363614198705 -0.0026349289511116516
          -0.0026274737691479233 -0.0026338734591893707 -0.002626711176875976 -0.002166549213787229 -0.0020684746383511496 -0.0021662984444660157
          -0.0020683919027085777 -0.002166047675144803 -0.002068309167066007 -0.00348412429199734 -0.003484270501662992 -0.0034844167113286446
          -0.0025492316574038717 -0.00248968570851338 -0.0025499621110665984 -0.002490406823089459 -0.002550692564729325 -0.002491127937665539
          -0.002662673164396592 -0.0026355783858223966 -0.002662500997085072 -0.0026352573929505504 -0.002662328829773552 -0.0026349364000787037
          -0.0025917255101168745 -0.002591627221632858 -0.0025915289331488412 -0.002355926804625353 -0.0024019288554791743 -0.0024276328092958147
          -0.0023871933394894198 -0.0023550862332900493 -0.002401468693949976 -0.0024270940103406323 -0.0023863977342757216 -0.0023542456619547463
          -0.0024010085324207777 -0.0024265552113854495 -0.0023856021290620238 -0.0012507513212444473 -0.0012509226685812887 -0.0012510940159181296
          -0.0011555202346888434 -0.0014195764686601002 -0.0011557012714621092 -0.0014194974541815856 -0.0011558823082353747 -0.0014194184397030712
          -0.0027368309834241073 -0.002638058279926065 -0.0027361407757876266 -0.0026370725999743934 -0.0027354505681511454 -0.002636086920022721
          -0.0026635685633877517 -0.0026640437873794174 -0.0026645190113710826 -0.002468643425689635 -0.0023680917913311934 -0.002468919979186184
          -0.0023677420351190764 -0.0024691965326827333 -0.0023673922789069594 -0.0024983372667635373 -0.002382976455168438 -0.0022998978732149756
          -0.0024670366434656147 -0.0024981868095132293 -0.0023828255791662574 -0.0022997024487482415 -0.002467023660178244 -0.002498036352262922
          -0.002382674703164077 -0.002299507024281508 -0.0024670106768908736 -0.0026075830340409473 -0.0026150365072751445 -0.002607669038547746
          -0.0026148413622857605 -0.0026077550430545445 -0.002614646217296377 -0.002418134408679786 -0.0023787757201934106 -0.002262587526384565
          -0.0022631948742380115 -0.002419172825828098 -0.00237918195250397 -0.0022635424632007233 -0.0022638348281366046 -0.0024202112429764105
          -0.0023795881848145298 -0.0022644974000168815 -0.0022644747820351973 -0.0028099531336280804 -0.0028096313102704052 -0.00280930948691273
          -0.002425338617422377 -0.0024381232664639576 -0.0024246102521518057 -0.002437443981327328 -0.0024238818868812344 -0.002436764696190699
          -0.0026289609153452988 -0.0026024402648859167 -0.0026289444889295664 -0.0026025906873812284 -0.0026289280625138335 -0.00260274110987654
          -0.0027617300135766173 -0.0027617819464399646 -0.0027618338793033125 -0.002721994697500925 -0.0027138365043940177 -0.0027219238919636616
          -0.0027137097275455827 -0.002721853086426398 -0.002713582950697147 -0.0027373794765938866 -0.002707824627546887 -0.002737218174737607
          -0.0027076893069694174 -0.002737056872881328 -0.0027075539863919474 -0.0028029773992964543 -0.0028865121170615175 -0.0028027196116737615
          -0.0028864845593722568 -0.002802461824051068 -0.0028864570016829964 -0.0027682949388108218 -0.0027682986102075266 -0.002768302281604232
          -0.002521876345023229 -0.0025509225058398745 -0.0025218640953997558 -0.002551219174103565 -0.002521851845776282 -0.0025515158423672552
          -0.002860416956515087 -0.0028279057316146676 -0.0028607853821210833 -0.0028280440216276255 -0.00286115380772708 -0.002828182311640583
          -0.002851261600412572 -0.002702823514733199 -0.002869792376872656 -0.0028511748695542773 -0.0027024077539905336 -0.002869731434624821
          -0.002851088138695982 -0.0027019919932478693 -0.002869670492376986 -0.002845741018990668 -0.0028457269057327113 -0.0028457127924747545
          -0.0024692308773063398 -0.002478723856091819 -0.002468821457466318 -0.0024785708307850625 -0.002468412037626296 -0.002478417805478307
          -0.002663091102033427 -0.002652911448596265 -0.0026628306108987454 -0.0026527343339595158 -0.0026625701197640628 -0.0026525572193227664
          -0.001969272494829758 -0.002171002047855993 -0.0019692542748130093 -0.0021713739910204487 -0.001969236054796261 -0.002171745934184904
          -0.0025298401586126354 -0.00244205281335495 -0.0025290408777865567 -0.0024415029975174726 -0.0025282415969604772 -0.0024409531816799957
          -0.0030414800066051774 -0.00287819159380908 -0.002988826433419289 -0.00304198731866678 -0.002878427690824799 -0.002989254319655397
          -0.0030424946307283825 -0.0028786637878405177 -0.0029896822058915044 -0.003085632470581811 -0.003086509931517978 -0.0030873873924541443
          -0.0025521645181839927 -0.0025522927309249094 -0.0025524209436658266 -0.00305290414155939 -0.00305342565164703 -0.0030539471617346704
          -0.0029242747365023736 -0.0029244846310716084 -0.0029246945256408423 -0.002720665611080685 -0.002720498169492189 -0.002720330727903694
          -0.0025139965727852894 -0.002513421842587827 -0.002512847112390364 -0.003207760149048665 -0.003207194254025571 -0.0032066283590024775
          -0.0029813691302224975 -0.0029818117699087704 -0.0029822544095950434 -0.0029329897740059977 -0.0029362817254466275 -0.0029317232043304517
          -0.002936594673747356 -0.0029304566346549056 -0.0029369076220480844 -0.002672416635715007 -0.0026466239524081474 -0.00267112047510176
          -0.002645690133380716 -0.0026698243144885133 -0.002644756314353285 -0.0032299700662521743 -0.003230772133690089 -0.0032315742011280037
          -0.0024821878679762155 -0.002490728604990221 -0.002480633197355026 -0.0024896182260426255 -0.0024790785267338367 -0.00248850784709503
          -0.0014229011780503983 -0.0010609600760412743 -0.0014226574213229467 -0.0010611761831397872 -0.0014224136645954956 -0.0010613922902383
          -0.002092285008213233 -0.0020927845296835022 -0.002093284051153771 -0.0030999488404362305 -0.0031002020339349363 -0.003100455227433642
          -0.002473118402740496 -0.00256151489879198 -0.0024733932555687397 -0.002562127339511506 -0.0024736681083969837 -0.002562739780231032
          -0.002345719138223045 -0.002393272131045674 -0.002344881582381504 -0.0023929106409034564 -0.002344044026539964 -0.002392549150761239
          -0.002972371537801234 -0.0029726603186307037 -0.002972949099460174 -0.003055498102189464 -0.00305643662218011 -0.0030573751421707563
          -0.0027793713431993328 -0.002779282358181829 -0.0027791933731643255 -0.0023511259684993106 -0.0023399185269165467 -0.002350099694550993
          -0.002338740341448299 -0.002349073420602676 -0.0023375621559800514 -0.0026525293836094743 -0.0026524758203761785 -0.002652422257142883
          -0.002697780840635201 -0.0026969392217984773 -0.002687153682377506 -0.002689127341234337 -0.0026981211374176007 -0.0026972919242203865
          -0.002687551437948981 -0.0026894967537496907 -0.0026984614342 -0.0026976446266422966 -0.0026879491935204564 -0.0026898661662650442
          -0.0024688276194478015 -0.0025326117098668907 -0.002468802051057699 -0.002532873313666364 -0.0024687764826675966 -0.002533134917465837
          -0.0026076772414347135 -0.002608054854480952 -0.0026084324675271905 -0.0026828042163149868 -0.002696600710090537 -0.002683260446171883
          -0.002697027871962056 -0.002683716676028779 -0.0026974550338335745 -0.002627562854928292 -0.002580248839955143 -0.002627767724283499
          -0.002580813028184705 -0.002627972593638707 -0.002581377216414267 -0.0027704930828427008 -0.0027702650530656648 -0.0027700370232886283
          -0.002703817412740415 -0.002703552422767877 -0.002703287432795338 -0.0025857367168933107 -0.002585894234362343 -0.0025860517518313747
          -0.0023943027748001074 -0.002380942314521263 -0.002393221721789402 -0.0023794743045776395 -0.0023921406687786974 -0.0023780062946340166
          -0.0026097745808330293 -0.0026101403524173912 -0.002610506124001753 -0.0021931327388061876 -0.0019598925273070934 -0.002289380390924858
          -0.002193077883728691 -0.001960039135880659 -0.0022892326848952195 -0.002193023028651194 -0.0019601857444542237 -0.00228908497886558
          -0.0025292665297476633 -0.002529978608764255 -0.0025306906877808465 -0.0025366351820431884 -0.002590725343208606 -0.002591684995149682
          -0.002536993103476015 -0.002591021997135637 -0.0025919389648916343 -0.0025373510249088417 -0.0025913186510626678 -0.0025921929346335868
          -0.0026842244125574845 -0.00268439277262331 -0.002684561132689136 -0.0026468457703536993 -0.002646612556683001 -0.002646379343012303
          -0.0018382175056971695 -0.001838280197642934 -0.0018383428895886985 -0.0024682844582724264 -0.002468420885438446 -0.002468557312604465
          -0.0026492559663729978 -0.002648013481040776 -0.0026494882642992238 -0.002648234817359168 -0.002649720562225449 -0.00264845615367756
          -0.0024534435762706185 -0.0024537375372876325 -0.002454031498304646 -0.0024231918268900476 -0.0023803597644232568 -0.0024226237025394694
          -0.0023795762573376933 -0.002422055578188891 -0.0023787927502521298 -0.0026463147262689485 -0.0026005088328732106 -0.002646476556581555
          -0.002600585520125898 -0.002646638386894161 -0.002600662207378586 -0.002525832670701467 -0.0024192693598881704 -0.0025262783472432136
          -0.0024195760600287243 -0.002526724023784961 -0.002419882760169279 -0.001988554654367576 -0.0021713692718661848 -0.0019885482259617486
          -0.0021713264870040737 -0.001988541797555921 -0.002171283702141962 -0.0026202374817712363 -0.002627643109356749 -0.0025613418423731287
          -0.0026206564152821054 -0.0026279159162760244 -0.002561265691572629 -0.002621075348792975 -0.0026281887231952997 -0.0025611895407721295
          -0.002318577171358276 -0.002318639522099001 -0.0023187018728397252 -0.0024643251056967784 -0.0024632891037366217 -0.002462253101776465
          -0.002660592670341063 -0.0026608114708371387 -0.0026610302713332146 -0.001732316476572551 -0.0017318039757595037 -0.0017312914749464561
          -0.002268947218668462 -0.0021042495230390998 -0.0021018536501177013 -0.0022689088764414455 -0.0021044935267769916 -0.0021023225015219934
          -0.002268870534214429 -0.0021047375305148835 -0.002102791352926286 -0.0023760331986207965 -0.0023750736845998066 -0.0023741141705788168
          -0.0020955053666887073 -0.0020954371515914034 -0.0020953689364941 -0.0019095334278068515 -0.0016555727393362083 -0.001909538106869645
          -0.0016552848632489447 -0.001909542785932438 -0.0016549969871616805 -0.0018939420688429912 -0.0018950097905754526 -0.001896077512307914
          -0.0020893911809623683 -0.002089875426075877 -0.0020903596711893857 -0.0012774706035532048 -0.001276756772011265 -0.0012760429404693253
          -0.001595973681218039 -0.0015948392641337134 -0.0015937048470493877 -0.0012083254075400875 -0.0012076876363693913 -0.0012070498651986948
          -0.0008339052982199106 -0.0008352801828682741 -0.0008366550675166376 -0.0005130804170454708 -0.000457283772059086 -0.0005129363457414543
          -0.0004571152181200701 -0.0005127922744374377 -0.0004569466641810543 -0.00016401091422707414 -0.00012859221836738878 -0.00016401252200194463
          -0.00012855844320736672 -0.00016401412977681514 -0.00012852466804734463 -0.000015246303055167383 -0.0000034615648424909362 -0.00001538175647745069
          -0.0000035631060938651724 -0.000015517209899733995 -0.0000036646473452394085 -0.0006515748888421395 -0.0006514928139636532 -0.000651410739085167
          -0.000271695875994096 -0.0002717317618851559 -0.0002717676477762158 -0.000054333365483680236 -0.00005446480211198368 -0.000054596238740287126
          -0.0008143542435366621 -0.0008142997462103455 -0.0008142452488840288 -0.00043285774793997626 -0.0004328294362175635 -0.00043280112449515064
          -0.0001375289906972916 -0.00013764103708569016 -0.00013775308347408873 -0.0009694961918641239 -0.0009694865276483964 -0.0009694768634326688
          -0.0006182119274143632 -0.0006181446631467351 -0.000618077398879107 -0.0002835589817121548 -0.0002836150266001504 -0.0002836710714881459
          -0.0008095240611644278 -0.0008095034390385538 -0.0008094828169126799 -0.00048404451136445294 -0.00048397511758906423 -0.0004839057238136757
          -0.000992541261471145 -0.0009925635989433857 -0.0009925859364156263 -0.0007162987668056647 -0.0007162312792475431 -0.0007161637916894213
          -0.0011650961458573596 -0.0011650727248482021 -0.0011650493038390442 -0.0009693198683854002 -0.0009692242641071027 -0.0009691286598288052
          -0.0013245247486879533 -0.001324409272311534 -0.0013242937959351145 -0.0012328563433932486 -0.0012325533098080433 -0.0012322502762228378
          -0.001399562107124828 -0.0013994207915684598 -0.0013992794760120915 -0.0013652771326273638 -0.00136484759111069 -0.0013644180495940164
          0 0 0 0 0 0
          0 0 0 -0.000014237264475615593 -0.00001429655793783199 -0.000014355851400048386
          -0.00007090846617377134 -0.00007101250579118121 -0.00007111654540859108 -0.00019706665180792656 -0.00019709137383927398 -0.0001971160958706214
          -0.0018233571146201374 -0.001966666242606604 -0.0018234069386911763 -0.001966319803191045 -0.0018234567627622156 -0.0019659733637754865
          -0.0013235777251738537 -0.0014606394887556543 -0.0014463130568332036 -0.0013237673584576251 -0.001460697202237248 -0.0014463543316101356
          -0.0013239569917413967 -0.0014607549157188413 -0.001446395606387068 -0.0024320252461173184 -0.0024314631622754284 -0.0024309010784335384
          -0.00217134988449916 -0.002170706550109939 -0.0021700632157207176 -0.0016623331131033665 -0.001662437399785517 -0.001662541686467668
          -0.0011053807812867235 -0.0011054826680173616 -0.0011055845547479999 -0.0012041501775275827 -0.0012043269883340296 -0.0012045037991404764
          -0.0012696661643419927 -0.0012698259900152716 -0.0012699858156885505 -0.0013272421365603153 -0.0013273231852887419 -0.0013274042340171682
          -0.001357247349225711 -0.001357284748620846 -0.0013573221480159808 0 0 0
          0 0 0 0 0 0
          0 0 0 -0.000003981144526488795 -0.00000402367407776152 -0.000004066203629034244
          -0.000041823807862032285 -0.00004190802910617918 -0.00004199225035032607 -0.0004072565968360682 -0.00040719999209271854 -0.00040714338734936894
          -0.00016173193661375314 -0.00016178705497713823 -0.00016184217334052337 -0.0006935066952469805 -0.0006933034320736936 -0.0006931001689004068
          -0.001020863767664774 -0.0010203520645397596 -0.001019840361414745 -0.0011884364382881818 -0.0011877463971457197 -0.0011870563560032574
        </DataArray>
        <DataArray type="Float64" Name="pe33" format="ascii" RangeMin="-0.0031209992872580903" RangeMax="0">
          -0.002536066917257438 -0.002671806659579722 -0.0027378485976456684 -0.0025421060927407826 -0.002540943248476503 -0.0026761711752778853
          -0.002741704412960876 -0.0025477565573000724 -0.0025458195796955684 -0.0026805356909760493 -0.0027455602282760836 -0.002553407021859362
          -0.00283460149377945 -0.0027568836447486246 -0.0028140863710474457 -0.002884568087376725 -0.0028333164969057334 -0.002755889840791557
          -0.002812234152764901 -0.0028826971308490478 -0.0028320315000320163 -0.00275489603683449 -0.002810381934482356 -0.0028808261743213715
          -0.0015839665894088095 -0.0017656792036805753 -0.0016686754454822651 -0.0011099615091713802 -0.0015839766402510637 -0.0017647040321719248
          -0.0016679503117334972 -0.0011119281976306754 -0.0015839866910933183 -0.0017637288606632742 -0.0016672251779847288 -0.001113894886089971
          -0.0029402840440443667 -0.0028287996363089377 -0.0028686829128985393 -0.0029794504126773166 -0.0029389427723849858 -0.002828831549992613
          -0.002869017392720619 -0.002978629950698969 -0.0029376015007256053 -0.0028288634636762892 -0.002869351872542698 -0.002977809488720621
          -0.002918813612352359 -0.002927697727222565 -0.0029524496692152026 -0.0029495946255371245 -0.0029181381837586613 -0.0029265157959708706
          -0.002950854118761405 -0.0029485346351784004 -0.002917462755164963 -0.002925333864719175 -0.0029492585683076073 -0.0029474746448196762
          -0.002488096712592801 -0.002553699275938297 -0.0026268830783553396 -0.0025522691270055513 -0.002489268370443903 -0.002554548420199925
          -0.0026274815013582918 -0.002553355388097671 -0.0024904400282950057 -0.002555397564461552 -0.002628079924361244 -0.0025544416491897915
          -0.0028836565833271375 -0.002831732057938386 -0.002783284513403275 -0.0028825952861111456 -0.0028310390502698916 -0.00278270737405184
          -0.0028815339888951545 -0.0028303460426013973 -0.002782130234700405 -0.0026166461987725915 -0.002660123866707546 -0.002617691357825755
          -0.0026607368973586556 -0.002618736516878919 -0.0026613499280097653 -0.002538084271254092 -0.002762340738949953 -0.002753442588058223
          -0.002576913182561092 -0.0025370014229418886 -0.002760926811757318 -0.0027526144675766163 -0.0025752501220086496 -0.002535918574629685
          -0.0027595128845646828 -0.002751786347095009 -0.0025735870614562073 -0.002741147587865405 -0.0027782088423585114 -0.0027418118361196286
          -0.0027789365657704588 -0.0027424760843738523 -0.002779664289182406 -0.002684562311381867 -0.0027022660392626496 -0.002685371753616956
          -0.0027029113918323215 -0.002686181195852044 -0.002703556744401993 -0.0020302289480148747 -0.00196088198752189 -0.0016580212609529667
          -0.0020291840215845985 -0.001958969788373372 -0.0016547967250119338 -0.0020281390951543228 -0.001957057589224854 -0.0016515721890709013
          -0.002494661226562986 -0.0024304315690376176 -0.0024967856057802633 -0.002432374981367336 -0.0024989099849975407 -0.0024343183936970545
          -0.0026410938748542088 -0.0026935045276898556 -0.0027360146170466912 -0.002709164533913838 -0.002640929717709873 -0.0026940711970869402
          -0.002736183758893542 -0.002708522294645264 -0.0026407655605655373 -0.002694637866484025 -0.0027363529007403934 -0.002707880055376691
          -0.0029067860448816654 -0.0029242240828890416 -0.0029398155878651434 -0.0029055637219392244 -0.0029228447354228645 -0.0029382061985180055
          -0.002904341398996783 -0.002921465387956688 -0.0029365968091708675 -0.0029032006189423087 -0.0029036425586094696 -0.0029040844982766295
          -0.002736008348210109 -0.0026804175087877294 -0.0027505079962495756 -0.0027364362441958047 -0.002681020648545808 -0.0027505297748196674
          -0.0027368641401815013 -0.002681623788303886 -0.0027505515533897597 -0.0028936088568307845 -0.0028523179897541892 -0.002853718795136677
          -0.0028916176503883785 -0.00285110729824212 -0.002853055305647667 -0.002889626443945974 -0.002849896606730051 -0.0028523918161586573
          -0.002579724193238367 -0.002555455236053676 -0.0024672752361551906 -0.0025821407895456113 -0.0025584208282285574 -0.0024703158870927203
          -0.002584557385852856 -0.002561386420403439 -0.00247335653803025 -0.0024490061473489474 -0.0024246639244155047 -0.002452454060503644
          -0.0024283586422508847 -0.0024559019736583405 -0.002432053360086264 -0.002294540130512639 -0.002170862030641664 -0.002293872667092467
          -0.002170449685431125 -0.0022932052036722947 -0.0021700373402205857 -0.0031209992872580903 -0.00311776266888006 -0.0031145260505020295
          -0.0027924486310968717 -0.0027206912791955308 -0.002790863812973829 -0.002717123438039621 -0.002789278994850785 -0.0027135555968837116
          -0.0027399688938186907 -0.0027468354710968894 -0.0027403410507142443 -0.0027469613377359967 -0.002740713207609797 -0.002747087204375104
          -0.0027059139259268837 -0.002706015432602221 -0.0027061169392775582 -0.0023822820697424535 -0.0024714297435440885 -0.0024812580494813522
          -0.0024006762989247335 -0.0023836740788474465 -0.002472309311091835 -0.002482346275762575 -0.002402066599913241 -0.0023850660879524395
          -0.0024731888786395815 -0.0024834345020437985 -0.002403456900901748 -0.001274344462431536 -0.0012743467645167756 -0.0012743490666020153
          -0.0011774663965402844 -0.0014653643456658573 -0.0011778402542681457 -0.0014657236271365776 -0.0011782141119960074 -0.001466082908607298
          -0.0025479324227583567 -0.0024739853369432265 -0.002551420665502135 -0.002477479418682363 -0.002554908908245914 -0.002480973500421499
          -0.002928218998861596 -0.00292630918504045 -0.0029243993712193043 -0.0026722954491523445 -0.0025241614001884987 -0.0026701457421537947
          -0.0025229889870543145 -0.002667996035155244 -0.0025218165739201294 -0.0025898040872448943 -0.0025185531647393083 -0.0024119680338517214
          -0.002528402512087688 -0.0025896199208237415 -0.0025176015096533785 -0.0024112975266382427 -0.002528166666388579 -0.0025894357544025887
          -0.0025166498545674486 -0.0024106270194247633 -0.00252793082068947 -0.0028662984441210314 -0.002863443880227632 -0.0028649929639126825
          -0.0028615116208548855 -0.002863687483704333 -0.00285957936148214 -0.002637129613383256 -0.0025872502507115094 -0.0024006283755338316
          -0.0024298131580217167 -0.0026333425282003184 -0.0025849094666620465 -0.0023998229387411753 -0.0024283179879871783 -0.002629555443017382
          -0.0025825686826125836 -0.002399017501948519 -0.002426822817952639 -0.0027995960648026863 -0.0028003348793555253 -0.0028010736939083638
          -0.002379407321888888 -0.0024357772586102804 -0.002381531364486576 -0.0024371784867681053 -0.002383655407084264 -0.0024385797149259303
          -0.0026329228262386172 -0.00257638921440148 -0.0026333291733795193 -0.0025772255667782414 -0.002633735520520421 -0.002578061919155002
          -0.0027385485200044826 -0.0027394003451195843 -0.002740252170234686 -0.0027413124013208946 -0.002714435387629706 -0.002741859420608029
          -0.00271491462548076 -0.002742406439895164 -0.002715393863331815 -0.0026875263164322484 -0.0026947241742339557 -0.0026882650167241416
          -0.002695255645264122 -0.0026890037170160344 -0.0026957871162942896 -0.0028025147041332112 -0.0028646533824456333 -0.002803066473985672
          -0.0028647903078185466 -0.0028036182438381328 -0.00286492723319146 -0.0027636297716163915 -0.0027642526235828846 -0.0027648754755493768
          -0.0026070296085028847 -0.0026805948901159164 -0.0026079483560833313 -0.0026806121923688693 -0.002608867103663777 -0.0026806294946218217
          -0.002851536632754477 -0.0028232409096204457 -0.0028515719929153296 -0.0028232575190687316 -0.002851607353076182 -0.002823274128517018
          -0.0027257200249470627 -0.0026284042809868935 -0.0027732493678723777 -0.0027269940177814538 -0.0026298084312310083 -0.0027736792886051773
          -0.0027282680106158444 -0.0026312125814751232 -0.002774109209337977 -0.002700836734149595 -0.002702384687590464 -0.0027039326410313335
          -0.0025085111422812247 -0.002568599434496055 -0.0025096075276108284 -0.0025699239758800825 -0.002510703912940433 -0.002571248517264111
          -0.0027578745215904804 -0.002784176085981304 -0.0027581660454947016 -0.0027840549018965347 -0.0027584575693989227 -0.0027839337178117655
          -0.00212293863366442 -0.002343778906072323 -0.0021219738754266766 -0.0023426893343161123 -0.0021210091171889323 -0.0023415997625599017
          -0.002400287427784251 -0.0023558985746641305 -0.0024027390949746133 -0.0023582657507609547 -0.002405190762164977 -0.002360632926857778
          -0.0028568089346550176 -0.0026913306227663095 -0.002838081020763986 -0.002855659028366549 -0.0026927575528191646 -0.002837634658375914
          -0.00285450912207808 -0.002694184482872019 -0.002837188295987842 -0.002831324007071472 -0.0028307483868921816 -0.0028301727667128912
          -0.0026981232755800685 -0.0026981908971714717 -0.002698258518762876 -0.0029496887284327948 -0.0029478722574509553 -0.002946055786469114
          -0.0026775472265866927 -0.0026799377119004855 -0.0026823281972142786 -0.0027611347334629984 -0.0027615006947851856 -0.0027618666561073724
          -0.002360122702957229 -0.0023624551560594265 -0.0023647876091616245 -0.0029159539912494534 -0.0029149550975255227 -0.002913956203801592
          -0.0028425837532779514 -0.0028425404499771547 -0.0028424971466763575 -0.002547391575053151 -0.002614553483102641 -0.002553473785272236
          -0.0026190018443425214 -0.0025595559954913207 -0.002623450205582402 -0.002397811409394695 -0.0024060170586362034 -0.0024017240543996567
          -0.0024099602027426023 -0.0024056366994046185 -0.002413903346849001 -0.0028984904046744395 -0.0028978596609724604 -0.0028972289172704817
          -0.00230840340127188 -0.002325680491813417 -0.002311860643300337 -0.0023286382983998214 -0.0023153178853287937 -0.0023315961049862255
          -0.0014656819138628783 -0.0010750579794264904 -0.00146642147007738 -0.0010760633299330973 -0.001467161026291882 -0.0010770686804397042
          -0.0022507402097917567 -0.002249873664495242 -0.002249007119198727 -0.002801793249391631 -0.0028031249377851474 -0.0028044566261786635
          -0.0027303634594931727 -0.00281018577806709 -0.002727178501603916 -0.002808210762342827 -0.0027239935437146606 -0.0028062357466185637
          -0.0023777218169074056 -0.0024717509299124465 -0.002379150577206718 -0.002472501490770089 -0.0023805793375060317 -0.002473252051627731
          -0.0028497362799244663 -0.0028495115560336205 -0.0028492868321427743 -0.0029551965586671934 -0.0029535322833536735 -0.0029518680080401535
          -0.002781060914405857 -0.0027809912611294666 -0.0027809216078530743 -0.0023133668723774306 -0.0023041276554907307 -0.0023160445632248467
          -0.0023069410073584488 -0.002318722254072263 -0.0023097543592261677 -0.0027969443391447405 -0.0027968522710657456 -0.0027967602029867504
          -0.002961973488440889 -0.0029602209840548107 -0.0029463026799754957 -0.0029572516801332667 -0.0029607307324604785 -0.002958698320042229
          -0.0029438988980413075 -0.002954856796451206 -0.002959487976480068 -0.0029571756560296462 -0.0029414951161071184 -0.0029524619127691454
          -0.002565063980267252 -0.0026734567858269455 -0.0025662050785100277 -0.0026740606839563766 -0.0025673461767528032 -0.0026746645820858077
          -0.0028694874722552783 -0.0028687650098389796 -0.0028680425474226813 -0.002921341149717719 -0.0029493175475967075 -0.0029190799952261317
          -0.002947644384160105 -0.0029168188407345448 -0.0029459712207235023 -0.002793429384492251 -0.002781101608361705 -0.002793036555047469
          -0.0027794800638262494 -0.0027926437256026865 -0.002777858519290793 -0.0027874343206641316 -0.0027873954994813406 -0.0027873566782985497
          -0.0027613832963234593 -0.002761530505942081 -0.002761677715560703 -0.0028104910251981283 -0.0028080039346332756 -0.0028055168440684233
          -0.002291575898329037 -0.0022748088720355017 -0.0022948480459455446 -0.0022785628510521745 -0.002298120193562052 -0.002282316830068847
          -0.002824159799732684 -0.0028216150546033795 -0.0028190703094740747 -0.002315140848725358 -0.0020456398301596838 -0.0024285401233888892
          -0.0023141465330218576 -0.0020461274489100485 -0.002426786183199533 -0.0023131522173183566 -0.002046615067660413 -0.0024250322430101764
          -0.0027581885072237218 -0.002755130224903412 -0.002752071942583103 -0.002681521623025329 -0.002809197107745059 -0.0027983646025799406
          -0.0026817807927554988 -0.00280776531373094 -0.0027970482755029667 -0.002682039962485669 -0.00280633351971682 -0.0027957319484259923
          -0.002944681558962221 -0.0029440152724741647 -0.0029433489859861084 -0.0027541383791651183 -0.002754491596810504 -0.0027548448144558897
          -0.0019538118014852854 -0.0019529431833296058 -0.001952074565173927 -0.0025701364492299794 -0.0025709524764361523 -0.002571768503642325
          -0.002897351467660837 -0.002911097796825219 -0.0028945703625358615 -0.0029083173797779093 -0.002891789257410886 -0.0029055369627305986
          -0.00267637465175546 -0.002674006343929538 -0.0026716380361036154 -0.00232603259376119 -0.0023399176345503285 -0.002328634292833668
          -0.0023423030320801727 -0.002331235991906146 -0.002344688429610017 -0.002862530042657505 -0.0027908032910619568 -0.002860039336105468
          -0.0027894463568732485 -0.0028575486295534308 -0.0027880894226845407 -0.002749936971843947 -0.002617446840085976 -0.0027464761212112774
          -0.002614513587538378 -0.002743015270578607 -0.002611580334990781 -0.002101762315516804 -0.002338136077125838 -0.0021021595523055487
          -0.0023379864875261677 -0.0021025567890942936 -0.002337836897926498 -0.002870109907220615 -0.002868355871247138 -0.0028032381346532395
          -0.002869306383895794 -0.002867314490764947 -0.0028015519269464374 -0.002868502860570973 -0.002866273110282756 -0.0027998657192396343
          -0.0025128236908685967 -0.0025108297386883596 -0.002508835786508123 -0.002702174538139587 -0.0027003119292279285 -0.0026984493203162695
          -0.0029140655431113076 -0.0029133943025956488 -0.0029127230620799895 -0.0018169026939666932 -0.00181683404265102 -0.001816765391335346
          -0.002361322778757317 -0.002168047222133451 -0.0022012000309344125 -0.0023610633410520525 -0.002167811791662132 -0.0022006745737289534
          -0.002360803903346788 -0.0021675763611908134 -0.0022001491165234946 -0.0025439211894153465 -0.00254306447142832 -0.002542207753441293
          -0.002212217791989579 -0.0022128418327974886 -0.002213465873605397 -0.002005173531490409 -0.0017414210908040808 -0.002006463961796171
          -0.001741962791070149 -0.002007754392101933 -0.0017425044913362163 -0.0019400903428941794 -0.001937550691800883 -0.001935011040707587
          -0.0022324634821034913 -0.002231853747462049 -0.0022312440128206064 -0.001338272525201237 -0.0013386728087434803 -0.0013390730922857239
          -0.0016816814119579749 -0.0016760271408981706 -0.0016703728698383665 -0.0012922913419717266 -0.0012929689761400466 -0.0012936466103083664
          -0.000848653003265646 -0.0008532212776792795 -0.0008577895520929129 -0.0005373391889158655 -0.0004767518277224875 -0.000538018143259804
          -0.0004775974644908432 -0.0005386970976037425 -0.00047844310125919894 -0.00019106407278230193 -0.0001516775005931383 -0.00019135700761596284
          -0.00015188539389956183 -0.00019164994244962367 -0.00015209328720598538 -0.00001816157532338953 -0.000004127785461265339 -0.000018349324308644165
          -0.000004253057836966302 -0.000018537073293898798 -0.000004378330212667264 -0.0006885589081396198 -0.0006888243275254896 -0.0006890897469113594
          -0.0003116167749125298 -0.00031193244227291155 -0.0003122481096332932 -0.00006506336400655778 -0.00006532043116447975 -0.00006557749832240171
          -0.0008627915737615577 -0.0008627693700029225 -0.0008627471662442871 -0.0004937563117453747 -0.0004939273825670561 -0.0004940984533887376
          -0.00016863335536391837 -0.00016896538824377218 -0.000169297421123626 -0.0010210505731210106 -0.0010209345067427788 -0.0010208184403645473
          -0.0007009659211775577 -0.0007009573916154601 -0.0007009488620533624 -0.0003522388447104481 -0.0003525350034279194 -0.0003528311621453907
          -0.0009048386750884975 -0.0009046671397149693 -0.000904495604341441 -0.0005940480127725604 -0.0005940865263150767 -0.0005941250398575932
          -0.0010855809022998826 -0.001085291700943423 -0.0010850024995869637 -0.0008511136563534289 -0.0008508911299988844 -0.0008506686036443397
          -0.0012386189816205899 -0.0012382637709364437 -0.0012379085602522977 -0.001095975893631231 -0.0010956635402050593 -0.0010953511867788873
          -0.0013777386842804844 -0.00137747358295878 -0.0013772084816370753 -0.001340521243946544 -0.0013402380183458358 -0.001339954792745127
          -0.00144692598346052 -0.0014467650278118475 -0.0014466040721631747 -0.001468364329313025 -0.0014680926655661001 -0.0014678210018191748
          0 0 0 0 0 0
          0 0 0 -0.000019649188380685455 -0.000019764230645589178 -0.000019879272910492898
          -0.00009793503701353235 -0.00009820991222765892 -0.00009848478744178554 -0.0002681248413595788 -0.00026838531429949854 -0.0002686457872394182
          -0.0019035629417394338 -0.002052761018617125 -0.0019043054076709031 -0.0020533987637301743 -0.0019050478736023725 -0.0020540365088432236
          -0.0013421579694745831 -0.0014960601227112936 -0.0014906231616688198 -0.0013420370497669786 -0.0014957996681581537 -0.0014905418640895072
          -0.0013419161300593737 -0.001495539213605014 -0.0014904605665101943 -0.002454540238315528 -0.00245397798306022 -0.002453415727804912
          -0.0022341514144267175 -0.0022339812111625604 -0.0022338110078984033 -0.0017374760775519902 -0.0017379718907137305 -0.0017384677038754705
          -0.0011524094326712717 -0.001152230606731916 -0.00115205178079256 -0.0012413782374036397 -0.0012412145611430292 -0.0012410508848824185
          -0.001295327677854185 -0.001295196592553293 -0.0012950655072524009 -0.0013440280320785375 -0.0013439576085619064 -0.0013438871850452749
          -0.0013710475828023429 -0.0013710300473413805 -0.001371012511880418 0 0 0
          0 0 0 0 0 0
          0 0 0 -0.00000630302426611428 -0.0000063804549989236655 -0.000006457885731733051
          -0.00006316091089282015 -0.00006338778379160246 -0.00006361465669038477 -0.0005321862980248643 -0.0005322512116871865 -0.0005323161253495089
          -0.0002307434033531502 -0.00023103203827209764 -0.00023132067319104512 -0.000844029678105574 -0.0008438668306200086 -0.0008437039831344432
          -0.0011710529176903444 -0.0011707242251948373 -0.0011703955326993302 -0.0013387410897658055 -0.0013383379470891734 -0.001337934804412541
        </DataArray>
        <DataArray type="Float64" Name="disp_x" format="ascii" RangeMin="0.00005834697769576998" RangeMax="0.00015615982924308428">
          0.00006787591915453124 0.00006541569057823472 0.0000639151592110251 0.00006690730901176964 0.00006787305655097505 0.00006541125422188446
          0.00006390826403581449 0.00006690366951092574 0.00006786539243249934 0.00006539924031080096 0.00006388822107065566 0.0000668938961941657
          0.00009720445393014769 0.00009369103234525365 0.0000950962539012406 0.00009853038357216125 0.00009720595401997291 0.00009369286559210434
          0.00009509835209462242 0.00009853088485723812 0.00009721022759257594 0.00009369915698127744 0.00009510558721217115 0.0000985336801859758
          0.0001360405632699577 0.00013504071128017585 0.00013664141403867518 0.00014153733547887237 0.00013603364640184172 0.00013503530312165284
          0.00013663424912466017 0.00014153210425526928 0.00013601193273645712 0.00013502069760557462 0.0001366111980851447 0.0001415165029383458
          0.00007342668177726917 0.0000771399579320314 0.00007968070143543049 0.00007616247543813537 0.0000734251509838458 0.00007713886741361222
          0.00007967955526252526 0.00007616072823096349 0.00007342125970706725 0.0000771355109435489 0.00007967611503259941 0.00007615578683281046
          0.00011197442068679113 0.00011097578458658282 0.00010718422794619 0.00010824943414265161 0.00011197289474492716 0.00011097428324744469
          0.00010718351975086795 0.00010824829509135859 0.0001119697484873114 0.00011097057622624206 0.00010718207961252749 0.00010824593796337333
          0.00007966039260538063 0.00008310514373600918 0.00008131471015484605 0.00007782096024572775 0.00007966101344462441 0.00008310530335366417
          0.00008131471060746573 0.00007782084081975685 0.00007966315527485145 0.00008310663293489651 0.00008131530989723141 0.00007782141135645373
          0.00010107628298624996 0.00009960741821925852 0.00009574573055024557 0.00010107734384394408 0.00009960788891933573 0.0000957468394618551
          0.00010107994216805717 0.00009960995177010453 0.00009575065486484507 0.00008686855939866126 0.00008563582004090068 0.00008686959158164009
          0.00008563626806686174 0.00008687154057570299 0.00008563679532826189 0.00012180987919186096 0.00011708795290284597 0.00011831294337759603
          0.000123542075322436 0.00012180634297122357 0.00011708485032949066 0.00011831073431245387 0.00012353888552728843 0.00012179648237361674
          0.00011707557934040169 0.00011830403538153189 0.00012353113550563785 0.00008000959341041557 0.00008260086376598235 0.00008000926310426498
          0.0000826005041548373 0.00008000811877395847 0.00008259885871635616 0.0000905846049554212 0.00008926740672939089 0.00009058619382679319
          0.00008926798588611188 0.00009059009108981906 0.00008926899936039235 0.00013327847549111384 0.00013468519988926657 0.0001375908639955448
          0.00013327365101278228 0.00013468067876107998 0.00013758479945869028 0.00013325950404063225 0.00013466133201723746 0.0001375756325815046
          0.00007494687752884192 0.00007672222268439802 0.0000749471095403772 0.00007672254602233225 0.0000749469751597652 0.00007672311435903486
          0.00010666109097542652 0.00010262753322664896 0.00010423134449739684 0.0001080083937882104 0.00010666027508370695 0.00010262681393875348
          0.00010423086038055678 0.00010800805608452152 0.00010665807784194832 0.00010262519935128688 0.00010423023732411648 0.00010800793360563591
          0.00010528205086856388 0.00010228831276065043 0.00010630171703951958 0.00010528274476865807 0.00010228943637487665 0.00010630204327458883
          0.00010528356648791298 0.00010229074791204005 0.00010630241162562376 0.00008319085140739735 0.00008319023293852155 0.00008318779544009959
          0.00009880929306866491 0.00010027649626420033 0.00009686803712500711 0.00009880876082295705 0.00010027529571513398 0.00009686658180464133
          0.00009880650782450538 0.00010027128465998157 0.00009686182483784895 0.00011054593045179532 0.0001078615638696498 0.00010368444179456762
          0.0001105457544390851 0.00010786156000380757 0.00010368523600806388 0.0001105448390348673 0.00010786221911938108 0.00010368664583612588
          0.0000727697807826545 0.00007060007270900492 0.0000724563693720838 0.0000727690952015725 0.00007059830737428297 0.00007245576666959888
          0.00007276695381993685 0.00007059314971998407 0.00007245388804405709 0.00007052912622830041 0.00007011752994350692 0.00007052780084511961
          0.00007011614820088848 0.0000705231852492187 0.00007011197253609053 0.00011340077367804655 0.00011819843063858687 0.0001133976696375715
          0.0001181944053372942 0.00011338860360619394 0.00011818328119145252 0.00005836450444769405 0.00005835994913946036 0.00005834697769576998
          0.00011871400594569298 0.0001223818952515732 0.00011871298952996574 0.0001223790925643509 0.00011870938750216908 0.00012237337819202663
          0.00009289402764682498 0.00009429340203081317 0.00009289451228473074 0.000094295229567303 0.00009289550482432907 0.00009429884788771017
          0.0000921062578107798 0.00009210903171554537 0.00009211485837574439 0.00008193785274481154 0.00008501427499338221 0.00008469872407783877
          0.0000815040117384659 0.00008193955925046412 0.0000850157349910162 0.00008469972629174086 0.00008150504271674155 0.00008194494514440945
          0.00008502125049928683 0.00008470373666332965 0.0000815093221439156 0.00013621885562746313 0.00013621699366742686 0.0001362116192531016
          0.00013836026763710638 0.0001339210144997161 0.0001383578619030969 0.00013391772299237904 0.00013835062184995234 0.0001339076356832278
          0.00006900606519480342 0.00007068030855165866 0.00006900428009334922 0.00007067947715805285 0.0000689971552238627 0.00007067440206224677
          0.00011037823562052838 0.00011037797171615432 0.00011037618135861313 0.0001117145084763989 0.00011140019295785398 0.00011171394475178491
          0.00011139865661184144 0.00011171157614598518 0.00011139295536287898 0.00010529373058818356 0.00010840421443250013 0.0001088833622980332
          0.00010457434422868826 0.00010529357027118421 0.00010840300828218845 0.00010888170715460987 0.00010457176318236262 0.00010529211206700705
          0.00010839835608832789 0.00010887529184957955 0.00010456625941448645 0.00011434048002896346 0.00011414276396974072 0.0001143391849168288
          0.00011414247822686504 0.00011433241381546508 0.0001141370705661228 0.0001249696825007409 0.00012566978653871162 0.00012840772746377577
          0.0001268909964205401 0.00012496628123190052 0.00012566526012019755 0.00012840266543577173 0.0001268863350464133 0.0001249519623510552
          0.00012565009002550465 0.00012838995106480492 0.0001268699919764679 0.00008607312199268599 0.00008607280264587377 0.00008607111014512198
          0.00007798233949080838 0.00008084772847763707 0.00007798296370340016 0.0000808489290853337 0.0000779847379276429 0.00008085181269955009
          0.000100217043213883 0.00009990446437645152 0.00010021643882797628 0.00009990107722221758 0.0001002122474138984 0.00009989475352958023
          0.0000959196894859345 0.00009591785636989584 0.00009591239451777022 0.00008792176254656169 0.00008449072712027222 0.00008792192942413111
          0.0000844910602914346 0.00008792180341648602 0.00008449063920212252 0.00007781929512998871 0.00008202580185476801 0.0000778195858632683
          0.0000820267469915535 0.00007781895961033306 0.00008202693084915555 0.00008999187555197323 0.00008850697381199302 0.00008999172786674279
          0.00008850562719609884 0.00008999073666875965 0.00008850164699317616 0.000095662068120327 0.00009566053432847104 0.00009565448487874007
          0.00008849449391928771 0.00009131443197660958 0.0000884964619613278 0.00009131703549520905 0.00008850201449974822 0.00009132388071330452
          0.00009180272915586345 0.00009236577306816161 0.00009180064011463953 0.00009236555572470031 0.00009179406877976323 0.00009236326737691286
          0.00007279752716829509 0.00007535528001823172 0.0000750512644349512 0.00007279651813007494 0.00007535566296726542 0.00007505074497695795
          0.00007279417627698737 0.00007535500988583468 0.00007504848526303927 0.00007025115914828536 0.00007025006908555866 0.0000702453098879555
          0.0000841865623763764 0.00008808541219516569 0.00008418874843790786 0.00008808805180299776 0.0000841925963482799 0.00008809369818999253
          0.0000966081793217076 0.00009801683891304494 0.00009660829859097089 0.00009801809399621525 0.00009660873987668929 0.0000980200524935155
          0.00013111164223120986 0.00012727195117468996 0.0001311075329414862 0.00012726781825746786 0.0001310951196124014 0.00012725296062287482
          0.00007386328825011889 0.00007601683106517943 0.00007386323668236309 0.00007601714310265103 0.00007386126084410169 0.00007601713878409956
          0.00006439058305616018 0.00006802301506719353 0.00006797833931536836 0.00006438836318854043 0.00006802093182328284 0.00006797677595903984
          0.00006438225231878594 0.00006801281771125347 0.00006797095480005994 0.00006359251739482526 0.00006358879881301694 0.00006357618178009537
          0.00009189121002746217 0.00009189478129570235 0.00009190436191729247 0.00006641429325564145 0.00006641398710454355 0.00006641291577473857
          0.00006651015115881195 0.0000665072260079212 0.00006649739143051407 0.00009154764994690485 0.00009154837077297815 0.00009154829551043653
          0.00007316880000396276 0.00007316827126715391 0.00007316522786422095 0.00006159114958766349 0.00006158599159925335 0.00006156825878580242
          0.00007085798038342278 0.00007085734111813652 0.00007085327887165947 0.00006664817439461157 0.00006561911482992196 0.0000666444334609296
          0.00006561354073533 0.00006663712361702239 0.00006559665002345798 0.00007002280230060032 0.00006978791198052071 0.00007002110301675604
          0.00006978598918169541 0.0000700152091197128 0.00006978039416722108 0.00006217697798825018 0.00006217027747224787 0.00006214489228804789
          0.00007318844701639038 0.00007306739706006495 0.00007318731874397113 0.00007306692809991609 0.00007318194800709327 0.0000730638901548346
          0.00013569727271515796 0.00014005909114223414 0.00013569225255024957 0.00014005683491273663 0.00013567674975097248 0.00014005047827517173
          0.00012727842731598523 0.00012727457299731426 0.00012726137245634014 0.00006351144025033704 0.00006350730680218739 0.00006349127938929698
          0.0001226840937056863 0.00011921401720024974 0.00012268137553201014 0.00011921260657022444 0.00012267338061777366 0.0001192087524409341
          0.00008232923144444323 0.00008545225722509959 0.00008233141393752181 0.0000854544376922539 0.00008233718400855077 0.00008546049990000445
          0.00007307047058104652 0.00007307053432485791 0.00007306819057179467 0.0000696334235299351 0.0000696329376427621 0.00006962997504157354
          0.00009506306449725336 0.0000950630395113553 0.00009506005671689568 0.00007894150322389837 0.00007927055025169171 0.00007894271228309486
          0.00007927223186106513 0.0000789459595943809 0.00007927654363257603 0.00010191248462145804 0.00010191326661261317 0.00010191435125807429
          0.00010605653214501134 0.00010465430208722853 0.00010103739783173542 0.00010246889692879162 0.0001060560382994972 0.00010465438493915846
          0.00010103770029765982 0.00010246861250288527 0.00010605438538566344 0.00010465353535670554 0.00010103948383203637 0.00010246833261331824
          0.00008829092836033133 0.00009136601762604226 0.00008829337068221019 0.00009136892572980768 0.00008829869624896251 0.00009137779057560967
          0.000114872624469446 0.00011487204534382769 0.00011486747599948626 0.00009981398047011794 0.00010343522333123022 0.0000998153639220883
          0.00010343612800629021 0.00009981797460640494 0.00010343697887755663 0.00010580947580996282 0.00010936920172665875 0.00010581052927734265
          0.00010936946527095839 0.00010581152895753682 0.00010937079743115613 0.0000936400832014993 0.0000936401202693968 0.00009363830361811736
          0.00009520442404326282 0.000095205123516903 0.00009520389615225023 0.00011445539097005807 0.00011445388567471374 0.00011444842196338439
          0.0000760596437984019 0.0000762404024575404 0.00007606010078183035 0.00007624094320649253 0.00007605959768960903 0.0000762415808873665
          0.00011153311742292885 0.00011153344228983996 0.00011153258105901614 0.00012062869214787453 0.00012271976137602492 0.0001166238046749965
          0.0001206235076592722 0.00012271538055746932 0.00011662121886905745 0.0001206091602672784 0.00012270105884583184 0.00011661328510044147
          0.00011176889679626478 0.00011176911478142638 0.00011176737667110863 0.00009197557860535609 0.0000953916919268802 0.00009397945486289545
          0.00009197859276520059 0.00009539419008852702 0.0000939826332053193 0.00009198724313062907 0.00009540230838660372 0.00009399244915366774
          0.00010962976414425204 0.00010962990233623026 0.00010962788986008202 0.00010041695679148292 0.00010041803091690729 0.00010041828941840629
          0.00013163024732398381 0.0001316261693760022 0.00013161379850923477 0.00008866219257468879 0.00008866546626382863 0.00008867244692343951
          0.00009763495509159896 0.00009889790882050721 0.00009763765816475502 0.00009890017287159676 0.00009764286201082742 0.0000989036457381825
          0.00011745218089635418 0.00011744915414294757 0.00011743888348335526 0.00007598089903888566 0.00007863261974715414 0.00007598149929037677
          0.00007863419381561616 0.00007598057195311202 0.00007863693328465558 0.00009640373999620574 0.00009420808820107587 0.00009640703867035172
          0.0000942119480062979 0.00009641250930456771 0.000094221618978436 0.00011402929451601887 0.00011547067416324482 0.00011402814465835978
          0.00011546840951703073 0.00011402291924364582 0.00011545994285505956 0.00012692618720783934 0.00012297835670217603 0.00012692232307530958
          0.00012297373822977548 0.0001269112495034554 0.00012296006376460918 0.00011554626633412692 0.0001167020728603321 0.00012016767189943955
          0.00011554621673181555 0.00011670069492372907 0.00012016594802565358 0.00011554279686558246 0.00011669622373658397 0.00012015980805847731
          0.000119213648617899 0.00011921021795129389 0.00011919776527668685 0.00012353353811462415 0.00012353080144022295 0.00012352172984023092
          0.00011318018306718685 0.00011318048691353152 0.000113177889228635 0.0001311730996524067 0.00013116892518569962 0.0001311552723068597
          0.00012988799055830305 0.00013281675087990752 0.00013161590708350897 0.00012988364860856076 0.00013281208748393094 0.0001316112317126639
          0.0001298698282341496 0.0001327986499595131 0.00013159768010912446 0.00012677380330464852 0.00012677029483353623 0.00012675729766656533
          0.00012315451003585195 0.0001231499956819897 0.00012313191404559573 0.00012562513846616004 0.0001294270957231025 0.00012562162463291765
          0.00012942490499085192 0.00012561077123193537 0.00012941835323594694 0.0001355480680863405 0.00013554537202564037 0.00013553482423648053
          0.00013073138172181858 0.00013072774269975944 0.00013071584388210585 0.0001396645978931921 0.00013965655663114538 0.00013962738559990533
          0.00013810239473242207 0.00013809298749576653 0.00013807062324825133 0.00014029851061950273 0.00014028538263764808 0.00014023131999054078
          0.00014188169161114707 0.00014187738285204848 0.00014186786572984158 0.00014600025792028658 0.00014616944186264484 0.0001459981244315181
          0.00014616836631349965 0.00014599166559557732 0.00014616426606602257 0.00014911003935908794 0.00014919084363230545 0.00014910813862279492
          0.00014918837057136623 0.00014910237564793035 0.0001491810681292993 0.00015129752593722544 0.0001512815056439171 0.00015129736506045119
          0.00015128167842531448 0.00015129692782277115 0.00015128226180289455 0.00014520593235979357 0.00014520347730250598 0.000145195825146198
          0.00014887548175482082 0.00014887271170725325 0.00014886435833302066 0.00015135310816039537 0.00015135231823379324 0.00015134993544742317
          0.00014393122824820072 0.00014392911102681813 0.00014392282848583055 0.00014827608996344352 0.00014827324767942372 0.0001482645880074932
          0.0001512809578094681 0.0001512792714138641 0.00015127421423111683 0.0001422349706495927 0.00014223330458847547 0.00014222817064672466
          0.00014721287988670373 0.0001472103366663953 0.00014720275399823232 0.00015093762010784655 0.0001509353382802556 0.0001509283388585176
          0.0001456608702728916 0.00014565902331993062 0.00014565348088660764 0.00015017501768904576 0.0001501727590203399 0.00015016587169980688
          0.00014359883747607622 0.00014359782946564314 0.0001435948589128497 0.00014889931993137322 0.0001488973882621173 0.00014889162512020997
          0.00014113511283170096 0.0001411346083921988 0.00014113308548921496 0.00014709681168140887 0.00014709561418666084 0.00014709196388245805
          0.00013840012564198472 0.0001383998559503204 0.0001383989920066504 0.00014497988457265178 0.00014497953362311826 0.0001449785495613861
          0.00013542695708024921 0.00013542804759132386 0.00013543164430901265 0.00014272277128458128 0.00014272336867310375 0.00014272498469885864
          0.00015322215699912754 0.0001531903736912213 0.00015322231883548512 0.0001531905670466102 0.00015322279525001363 0.00015319112614357245
          0.00015325513675473217 0.0001532554428129911 0.00015325640763039471 0.00015335007223309354 0.00015335000511366734 0.00015334982731977082
          0.00015348691280304963 0.00015348592788251588 0.0001534829451461 0.0001534965349348868 0.00015349422832342948 0.0001534871887627171
          0.00011955394956903545 0.00011457870085577153 0.00011955121926002554 0.00011457513386114616 0.00011954216842450713 0.0001145642483235246
          0.0001337619879355211 0.00012937227408414166 0.00013165732241547767 0.00013376061991731666 0.00012937070597432695 0.00013165529030116567
          0.00013375624656157217 0.000129366005701758 0.00013164888422143248 0.00010408372339812782 0.0001040821491626327 0.00010407625763264487
          0.00010931116241680345 0.00010930795003971435 0.00010929736385074206 0.00012585648633391106 0.0001258544108838684 0.000125848501573143
          0.00014011516402518838 0.00014011388685348307 0.00014011011104278498 0.00013761779622474394 0.0001376169769731756 0.00013761435164077565
          0.00013470147761166003 0.00013470177175937815 0.00013470267148861883 0.00013158860413027402 0.0001315895345140384 0.0001315920611521761
          0.00012847732454675134 0.00012847837447333658 0.00012848094469860167 0.00015510781474190852 0.00015506802838383802 0.0001551077392294988
          0.00015506793051832594 0.0001551074936074098 0.0001550676336304496 0.00015517837632172794 0.00015517841138949298 0.00015517850265574814
          0.00015531397462991602 0.00015531409106509493 0.0001553144622778367 0.0001555233604854242 0.00015552336413481545 0.0001555234321273373
          0.00015581000629562823 0.0001558094162781126 0.00015580774880249207 0.00015312443656589168 0.00015312174841605725 0.00015311359397968065
          0.00015615982924308428 0.00015615811117429882 0.00015615286681049884 0.00015233086169229835 0.00015232879500253128 0.00015232256173064
          0.00015129811371798483 0.00015129635512463126 0.00015129080411188975 0.0001501111045432154 0.00015010931029120492 0.0001501041158305436
        </DataArray>
        <DataArray type="Float64" Name="disp_y" format="ascii" RangeMin="-0.000020463351717537538" RangeMax="0">
          -0.000004653262271455705 -0.000005564443923347496 -0.000004678703091991528 -0.0000035449750158145095 -0.000004651571884290409 -0.000005562789524248067
          -0.000004678272874265866 -0.000003543594012522015 -0.000004645961041320008 -0.000005556158668352097 -0.000004675377308973947 -0.0000035403088919755325
          -0.000005206735957542075 -0.000004538326805534781 -0.0000033576136416356932 -0.0000038479329667116826 -0.000005207337662617334 -0.000004538718719633884
          -0.0000033578936238256965 -0.000003848322625269799 -0.000005209201044056422 -0.000004540043368268657 -0.000003358966722894643 -0.0000038500606355877335
          -0.000004392244130288453 -0.0000035574480287703017 -0.000002466544057250775 -0.0000019087317320914236 -0.000004393872815572561 -0.0000035584937391993557
          -0.0000024678415926224464 -0.000001907372827011088 -0.000004400434780813696 -0.000003559589983402769 -0.0000024714386602080137 -0.0000019029439341898528
          -0.000011975773775228747 -0.000010770662417553205 -0.000011957579802117112 -0.000013276477770659557 -0.000011973211942345398 -0.000010768296693651858
          -0.000011955713050930103 -0.000013274624459585097 -0.000011964951702122523 -0.000010761026777839892 -0.000011949799660689135 -0.000013269413796451312
          -0.0000015203690498326778 -0.0000030891461733167512 -0.00000299150235597924 -0.0000014681470589315158 -0.0000015203025568640613 -0.0000030892663802170863
          -0.0000029915064688517228 -0.0000014683214183542704 -0.0000015204005067867435 -0.0000030892742191263663 -0.00000299201799497352 -0.0000014681036478465253
          -0.000005083752832281053 -0.000005681966896169347 -0.000007484044696751574 -0.000006447418663693139 -0.000005082193982940736 -0.00000568062003391625
          -0.000007482352343082616 -0.000006445404819996098 -0.000005076791857452829 -0.000005676589742416004 -0.000007477152961216138 -0.000006439790045750254
          -0.000005813249900056202 -0.000007328320082230808 -0.000006580184831815814 -0.000005813764273862701 -0.000007329037172466782 -0.0000065807836592505285
          -0.0000058159046760746305 -0.00000733152992194354 -0.000006582110638178354 -0.000006341376121299351 -0.000007900671590785907 -0.000006340327627200207
          -0.000007899326993180151 -0.0000063375541361875904 -0.000007894883638687026 -0.000007436435398021563 -0.000006465090172330844 -0.000004772460059256528
          -0.0000047375647757466985 -0.000007437888583726719 -0.000006465399022820908 -0.0000047734218207624566 -0.000004738720775376513 -0.000007442027767799564
          -0.000006465289533950167 -0.0000047767886943704766 -0.000004742068473330036 -0.000009653399609408092 -0.000010648746729380692 -0.000009651615104888974
          -0.000010647406696487544 -0.000009646109105268959 -0.000010642609315172328 -0.0000071217841817573595 -0.00000859354003349917 -0.000007121255783724592
          -0.000008592514862367599 -0.000007119582513388632 -0.000008589636321988357 -0.0000024375745548255136 -0.0000011857902628104966 -0.0000011802846314153775
          -0.000002438146592028165 -0.0000011861648175400042 -0.0000011812674929043384 -0.000002439748631741772 -0.0000011880421837086997 -0.000001187116900946172
          -0.000005760082031941934 -0.000004515154226029654 -0.000005757935749027771 -0.000004513224005055568 -0.000005751577977202393 -0.000004507740326450511
          -0.000014367583310464043 -0.000013725286847312636 -0.00001200179974584248 -0.000012603890187866731 -0.000014368975055739314 -0.000013726097870043987
          -0.000012002817378174349 -0.000012605495530393149 -0.000014372948646679301 -0.000013728819618552862 -0.00001200589008931236 -0.000012610211646479931
          -0.000006340610006490656 -0.0000042768237438080725 -0.0000046259557868552676 -0.00000634141921998367 -0.000004277592467984753 -0.000004626510557075921
          -0.000006343930475897712 -0.000004279392925246266 -0.000004627672671533794 -0.000013569132962087531 -0.000013567443982772697 -0.000013562757926370477
          -0.00001276129532826707 -0.000015800504467320294 -0.000014167780698023472 -0.000012761380843571454 -0.00001580114896307254 -0.00001416810075569237
          -0.000012762080110843109 -0.000015802788569256588 -0.000014168538246503017 -0.000006786186366990181 -0.00000876503301684342 -0.00000804063568198163
          -0.000006786795223842165 -0.000008765941025893581 -0.000008041721732066433 -0.000006789003751858278 -0.000008768918661463417 -0.000008045072166174282
          -0.000007044953679647733 -0.0000063618848901836216 -0.000005240849036712922 -0.000007042753368236552 -0.000006359632249005635 -0.000005238829466393927
          -0.000007035743311150164 -0.000006352980345609555 -0.000005233354763440742 -0.000004076844006288357 -0.000002878261589524673 -0.000004075363963025881
          -0.000002877542800385409 -0.000004071660704596613 -0.0000028747453162150954 -0.00001643128433101973 -0.000014636424695133685 -0.00001643379578619606
          -0.000014638828412567715 -0.00001644091314160042 -0.000014646497531016186 -0.0000056348699646516054 -0.000005636271821461949 -0.000005639744904339715
          -0.0000030778785620059967 -0.0000028184166899914773 -0.000003078723369111578 -0.0000028190194263811657 -0.000003082521364585947 -0.0000028229023384889565
          -0.000009399009855609839 -0.000007975392731252422 -0.000009398689960669443 -0.000007975384364396978 -0.00000939762687934978 -0.000007975620022919946
          -0.000005760197019531223 -0.000005760465744746053 -0.00000576090231267386 -0.000001216760953449627 -0.0000012989901520810209 -0.00000267063656266823
          -0.0000024572880711020715 -0.0000012163461666828088 -0.000001298751386372855 -0.0000026701587119662055 -0.000002456304313076074 -0.0000012149640444196007
          -0.0000012980516485346938 -0.0000026684961474667622 -0.0000024535802760478986 -0.000008578634449632501 -0.000008578040911547868 -0.000008576204037044542
          -0.0000062342347357818985 -0.00000809574442909396 -0.000006233267230331456 -0.000008095293750911478 -0.000006230341031242888 -0.000008093943861883173
          -0.000005595362719350751 -0.000004953214961856558 -0.0000055931893336532244 -0.000004951363135811475 -0.000005586993305494546 -0.000004945980213086966
          -0.00000474804587670072 -0.000004748343538811248 -0.000004749095244950274 -0.000012607349236121677 -0.000014757146484542687 -0.00001260945393752631
          -0.000014759037957214773 -0.000012617141889214158 -0.000014764686423599669 -0.00001625541046520317 -0.00001636542887282668 -0.000017677897958603057
          -0.00001821410166073906 -0.00001625636124680951 -0.000016366635957612908 -0.000017679672604193852 -0.00001821516049482301 -0.000016258925954794643
          -0.00001637008502789654 -0.00001768589799529283 -0.000018218650081848288 -0.000004703287836654676 -0.000005919573153391811 -0.000004703633162243191
          -0.0000059198376217165344 -0.000004703716446685515 -0.0000059223465771071165 -0.000002423965521658015 -0.0000013447680272142608 -0.0000013525862373337572
          -0.0000031258431081451674 -0.0000024245533129975203 -0.0000013446673358850323 -0.0000013526412821326928 -0.000003127246917310435 -0.0000024272872319426193
          -0.0000013418952178325738 -0.0000013525683537683735 -0.0000031312744461500627 -0.000011585283172595846 -0.000011584095567383723 -0.000011580419478550714
          -0.0000033754256895088248 -0.0000037394657435153334 -0.0000033741146078259268 -0.0000037382934728985142 -0.000003369831906414154 -0.000003734294784672795
          -0.00001829963841276879 -0.000020458244762864114 -0.00001830031076618823 -0.000020459412757320448 -0.000018301856954660723 -0.000020463351717537538
          -0.000018302537926888477 -0.000018302923563624353 -0.000018303847856186047 -0.000010066458113830174 -0.000009328501300330602 -0.00001006555845376355
          -0.00000932723527963441 -0.00001006252756263514 -0.00000932334005030921 -0.00000864599292172314 -0.000008879589381001536 -0.000008643857734812392
          -0.00000887806607923709 -0.000008637024000938014 -0.000008873031717832934 -0.000012413391280981231 -0.000014104150593023888 -0.000012412319462654876
          -0.000014102672789737714 -0.000012409783949699427 -0.000014098145939536227 -0.00001634316022407772 -0.000016343241968030972 -0.00001634415231354591
          -0.00000457366906058017 -0.0000039644551691648 -0.0000045730715963735764 -0.000003964258435542027 -0.000004571489943338123 -0.0000039632789877221895
          -0.00001625028587558138 -0.000014626949081070355 -0.00001624995919833759 -0.000014626169427783047 -0.000016248836981580937 -0.000014624040528974886
          -0.000009048603530464136 -0.000007760228464609813 -0.00000978416624794647 -0.000009045875944155242 -0.0000077576918908371 -0.000009781904004433987
          -0.00000903747912037705 -0.000007750346920038285 -0.000009774300135505606 -0.00000840329024192172 -0.000008400627599737522 -0.000008391968585349502
          -0.0000041482339065042365 -0.000002773196737650677 -0.0000041471669917962416 -0.000002772803125187952 -0.000004143915079873134 -0.0000027716403377833403
          -0.000010272425649278239 -0.000008796705558403425 -0.000010272416088755557 -0.000008797166354413015 -0.000010272967475829423 -0.000008798816948341926
          -0.000004117591500641224 -0.000005293787339383495 -0.000004118395401405305 -0.000005294969161831872 -0.000004120604232642865 -0.000005297746142716417
          -0.000003824862608603188 -0.0000031098283473201305 -0.000003823511902926548 -0.0000031084794597986603 -0.000003819863678657522 -0.0000031045128732802744
          -0.000009354352536339478 -0.000007604321949787367 -0.000010000165354802983 -0.000009352886994023314 -0.000007601821767209074 -0.000009997946533236738
          -0.000009348413577594571 -0.000007593844284383034 -0.00000999020516052371 -0.0000074940028720306905 -0.000007492735225671375 -0.000007487774805361902
          -0.000002701547159350758 -0.000002701454544663664 -0.0000027006008788102197 -0.000011774005623933296 -0.000011771895884947285 -0.000011765630777219452
          -0.000006554807388306491 -0.000006552418150842594 -0.000006545250137139936 -0.000010876249087429221 -0.000010875909023271004 -0.00001087418974748562
          -0.0000024666654129068834 -0.0000024655528839736267 -0.000002462287072277062 -0.000006230570274197881 -0.000006229717973017638 -0.0000062256753136834684
          -0.000010417548696973488 -0.000010414771091085025 -0.00001040605430873835 0 -0.000002079744313506535 0
          -0.00000207860452713073 0 -0.000002075517203978466 0 -0.0000014788337431125347 0
          -0.0000014783161815794553 0 -0.0000014774908319941483 -0.000003820286638917333 -0.000003819913917070023 -0.000003821757921260511
          0 -0.0000012460712027511615 0 -0.000001245387893891075 0 -0.0000012421627408853033
          -0.000005943576243613934 -0.000004029959165644803 -0.000005943988396982558 -0.0000040289982447185676 -0.000005944797261476795 -0.0000040262942234513904
          -0.000006739240393066131 -0.000006741322116768719 -0.000006748349762393066 -0.000006409609520240387 -0.000006408414080352846 -0.000006403607450612962
          -0.0000013852561498395218 -0.0000014898889492248923 -0.0000013855293454816 -0.000001490074035352926 -0.0000013841197301833138 -0.0000014897208258551818
          0 0 0 0 0 0
          -0.00001066619544182557 -0.0000106634218212886 -0.000010654403299110142 -0.000011911350497572038 -0.000011908881300754962 -0.000011900973491968833
          -0.00001505421317002387 -0.000015054016052392227 -0.000015053712541846482 -0.0000011488361961112922 0 -0.000001148195899030655
          0 -0.00000114629284040831 0 -0.0000096147975668179 -0.000009615841718942588 -0.00000961873029518521
          0 -0.0000013759192241339935 -0.0000012532420032435626 0 0 -0.0000013760067505238392
          -0.0000012533138975460585 0 0 -0.0000013762931654608062 -0.0000012541678300091778 0
          -0.0000013335297158046924 -0.0000012636150047380593 -0.0000013333538587729581 -0.000001263379959676733 -0.0000013337729137106949 -0.0000012634364845003394
          -0.000003109646772188608 -0.0000031096749870265833 -0.000003110020169801741 -0.0000025362097476206696 -0.0000027965385606871186 -0.000002536710395898202
          -0.000002796983076533524 -0.0000025378776246478303 -0.0000027979254919240458 -0.00001038360216941491 -0.000011026113296677842 -0.000010384699142718187
          -0.000011027520309704287 -0.000010388249916396745 -0.00001103137205080735 -0.000013203270081737005 -0.000013202863920912563 -0.000013201749893958007
          -0.000011760993118815126 -0.000011760804786527927 -0.000011760039899637284 -0.000008040895038154503 -0.000008041434970696846 -0.000008042582100990397
          -0.0000011527607791234937 0 -0.0000011520694777990298 0 -0.000001149349173973652 0
          -0.000009558623537791359 -0.000009559665042694588 -0.000009563083741678195 -0.000011689963470801345 -0.000012469610319880574 -0.000013266587290238284
          -0.000011692059705132296 -0.000012471376574702993 -0.000013268978957851273 -0.00001169828444163323 -0.000012475890951548898 -0.000013277259206592081
          -0.000011400169691235206 -0.00001140188586235095 -0.000011406576279388481 0 0 -0.000001096977413509354
          0 0 -0.0000010972658180031263 0 0 -0.0000010973844615748708
          0 0 0 -0.000011181568408898646 -0.000011182276786190851 -0.000011184447043297657
          -0.00000579832288645967 -0.000005799586527349208 -0.000005803612468941339 0 0 0
          -0.000001138549914323638 0 -0.000001138489009812102 0 -0.0000011389367961839282 0
          -0.000009184772811095503 -0.00000918579503962598 -0.000009189476191827448 -0.0000022822843829875625 -0.0000022861570284806148 -0.0000022810632837304977
          -0.0000022851494461171294 -0.0000022775363283399354 -0.0000022818032928166384 -0.0000022368278187126116 -0.000001978393676320373 -0.0000022371090181323913
          -0.0000019788152168350654 -0.0000022377170425404544 -0.000001979512081106995 -0.000010546166200664451 -0.00001180939402075881 -0.000010547428324658459
          -0.000011811321888440599 -0.000010551015377440138 -0.000011817548215407481 -0.000008607391511318244 -0.000009396055722155818 -0.000008609972293978697
          -0.00000939793358036587 -0.00000861808692497642 -0.000009404163030874045 -0.000001525325541260223 0 0
          -0.0000015253836455548042 0 0 -0.0000015262337446429788 0 0
          -0.000010507452697745841 -0.000010509055621307704 -0.00001051350444161719 0 0 0
          0 0 0 -0.0000075676597364714315 -0.000007569071437080564 -0.000007573704849519104
          0 0 -0.000001190979400587203 0 0 -0.0000011917381792303043
          0 0 -0.0000011917755526763865 0 0 0
          -0.000010550394624872172 -0.000010552153540762205 -0.000010557475035309477 -0.000010457785555035853 -0.000009700354063796215 -0.000010459430510552894
          -0.0000097014288806201 -0.000010464798531905914 -0.00000970473414343238 0 0 0
          -0.000002152760691098617 -0.0000021529456968902176 -0.0000021569515880247257 -8.789866671071057e-7 -8.787363126866395e-7 -8.765586837589299e-7
          0 0 0 0 0 0
          0 0 0 -0.0000010855429822477945 0 -0.0000010847285209502065
          0 -0.0000010823974134528092 0 -5.922413550079968e-7 0 -5.915688361266277e-7
          0 -5.89540853712048e-7 0 -4.1336964099774766e-7 0 -4.1326689273737156e-7
          0 -4.1296434352887344e-7 0 -0.000002356815785694763 -0.000002355155765118845 -0.000002350015278960606
          -0.0000013053352942424652 -0.0000013038955452978042 -0.0000012995267494299086 -8.371673469144329e-7 -8.367649248360609e-7 -8.356330029642551e-7
          -0.000003948406605809974 -0.000003947268839424942 -0.000003944007083070193 -0.000002260785188923951 -0.00000225908324007528 -0.0000022539599249130323
          -0.0000013255184545352914 -0.0000013241465813597875 -0.0000013199574573475073 -0.000005806755091110547 -0.0000058056009336502645 -0.000005802158872560051
          -0.0000035194703866050554 -0.0000035177817884696925 -0.0000035127493492070835 -0.000001998871799105995 -0.0000019968384301506647 -0.000001990703873331624
          -0.000005089488444188666 -0.000005087960396589572 -0.0000050834542874776745 -0.000002975586541716862 -0.000002973359626736874 -0.0000029666874719811406
          -0.0000069432560452013454 -0.000006941834787982771 -0.000006937560949767528 -0.0000043232833172362435 -0.000004321296682250333 -0.000004315319250680829
          -0.000009063234551842061 -0.000009062198548570193 -0.000009059139204153878 -0.000006052508235095207 -0.000006051051650973615 -0.000006046914133064708
          -0.000011421965998739067 -0.000011421038514654053 -0.000011418298178542197 -0.000008169973386729627 -0.000008167799813056195 -0.000008161302564923665
          -0.000013999822199717128 -0.00001399832640437124 -0.000013993922402074975 -0.000010696480898061133 -0.000010693172473094025 -0.000010683310752810719
          -3.634104793563051e-7 0 -3.63507023765503e-7 0 -3.6380319933718155e-7 0
          -7.13832020981091e-7 -7.139369341974571e-7 -7.142989827891351e-7 -0.0000010339753128221397 -0.00000103366836899139 -0.0000010327879350738376
          -0.0000013863524003301939 -0.0000013853894700586374 -0.00000138251053182947 -0.0000018565748819532659 -0.0000018548069698529632 -0.0000018494829862682906
          -0.000015753859060789525 -0.000017816897927106367 -0.000015756119044447276 -0.000017819413829352025 -0.000015763255948075866 -0.000017827939070150024
          -0.000011058772117911694 -0.000012870765162254321 -0.000010515119174823074 -0.000011058251992052077 -0.000012870972895876178 -0.000010515025257168148
          -0.000011056808981513703 -0.000012871420443330883 -0.000010514935315148368 -0.000020254671566131707 -0.000020255900489856033 -0.000020259372876540924
          -0.00001978189734232467 -0.00001978372697259277 -0.000019788423894574455 -0.000012758245329101215 -0.000012759109812617359 -0.000012761743520061576
          -0.000007903596898897292 -0.000007902756088757397 -0.000007900211527283857 -0.000010185501791082468 -0.000010185249799087751 -0.00001018453916640851
          -0.000012543001321017887 -0.000012542663159538328 -0.000012541738123514523 -0.000014975842229517522 -0.000014975253088571645 -0.000014973431599846603
          -0.000017483587714881812 -0.000017483486552019582 -0.000017483663996246866 -3.340100796674333e-7 0 -3.3394336515768324e-7
          0 -3.3373338269498534e-7 0 -6.639008352934685e-7 -6.637878927707134e-7 -6.634315519583209e-7
          -9.906280570213017e-7 -9.905855812982026e-7 -9.904634990315227e-7 -0.0000012968588366879741 -0.0000012969477408343884 -0.0000012972801657279712
          -0.0000015885688920654455 -0.0000015879150747207271 -0.0000015860390766777759 -0.000002599854978529528 -0.000002597189428477284 -0.000002589086161593742
          -0.000001962715779170492 -0.0000019606710846814747 -0.0000019544058421596904 -0.0000037897103557780327 -0.000003787037500544038 -0.0000037790661156984837
          -0.00000552652681969673 -0.0000055239684216110204 -0.000005516157501073929 -0.000007806312007260077 -0.000007802584813874889 -0.000007791626762782244
        </DataArray>
        <DataArray type="Float64" Name="disp_z" format="ascii" RangeMin="-0.0000010578857323189214" RangeMax="0">
          0 0 0 0 -4.33983907730718e-7 -4.515119186071635e-7
          -4.568592152216972e-7 -4.2878781475184564e-7 -8.695093899049711e-7 -9.049311986565681e-7 -9.163022072060492e-7 -8.597856607616334e-7
          0 0 0 0 -4.858981511438598e-7 -4.737401404367156e-7
          -4.854118111282503e-7 -4.954117869867317e-7 -9.71399167516245e-7 -9.470878611686429e-7 -9.698887476943129e-7 -9.90233700917588e-7
          0 0 0 0 -3.058635403520228e-7 -3.443432099285412e-7
          -3.1124059428575727e-7 -1.9338062955788224e-7 -6.117443383028636e-7 -6.880110732385206e-7 -6.224721774125156e-7 -3.873769665215392e-7
          0 0 0 0 -5.001099640699837e-7 -4.808284407098996e-7
          -4.877500936297305e-7 -5.05303791480925e-7 -9.99638520658084e-7 -9.618200415661672e-7 -9.756899803984484e-7 -0.000001010367091723402
          0 0 0 0 -4.997637959375143e-7 -5.010096484113869e-7
          -5.054603632344393e-7 -5.043256743115003e-7 -9.99467691089305e-7 -0.0000010017310251715412 -0.0000010103365210916112 -0.0000010083616669443621
          0 0 0 0 -4.30750035495368e-7 -4.41073258427988e-7
          -4.513147409967672e-7 -4.4011434121011765e-7 -8.617354272464886e-7 -8.823306357255161e-7 -9.027125083738716e-7 -8.805278137246488e-7
          0 0 0 -4.944476838409202e-7 -4.852692605988828e-7 -4.784077713074837e-7
          -9.885487841767543e-7 -9.703471463107044e-7 -9.565680002351125e-7 0 0 -4.480002671931383e-7
          -4.572964403409948e-7 -8.964752264435192e-7 -9.147153604478285e-7 0 0 0
          0 -4.446581356174491e-7 -4.7393764790754435e-7 -4.6830650448400623e-7 -4.525948305747577e-7 -8.889796358582033e-7
          -9.475986118584642e-7 -9.369824477575462e-7 -9.04417901912762e-7 0 0 -4.6708772416654636e-7
          -4.729184965824231e-7 -9.34398765493752e-7 -9.461406071103764e-7 0 0 -4.589617345125292e-7
          -4.6367168785085926e-7 -9.184615517665275e-7 -9.275595188237503e-7 0 0 0
          -3.6613041199930207e-7 -3.513654744006404e-7 -3.049263394301809e-7 -7.313972368895649e-7 -7.032903813733016e-7 -6.0697886964568e-7
          0 0 -4.30510707774978e-7 -4.1896559101839654e-7 -8.615514204447488e-7 -8.385334337634703e-7
          0 0 0 0 -4.560900079912065e-7 -4.62034713013732e-7
          -4.69767494916663e-7 -4.6633895630221585e-7 -9.121568695937258e-7 -9.242943650159657e-7 -9.395305450731129e-7 -9.325977526483018e-7
          0 0 0 -4.993816952135278e-7 -5.007151115526479e-7 -5.026057036481481e-7
          -9.98426783681326e-7 -0.0000010011812583365017 -0.0000010047762417957057 0 -4.91901965370182e-7 -9.838729490865024e-7
          0 0 0 -4.6819928317769477e-7 -4.577753657287671e-7 -4.7253006387496854e-7
          -9.3668450761614e-7 -9.160588244242139e-7 -9.448746846508909e-7 0 0 0
          -4.9707802873013e-7 -4.900313123384435e-7 -4.883414188685754e-7 -9.936014871800022e-7 -9.798203267383215e-7 -9.765391291396904e-7
          0 0 0 -4.4087335047390475e-7 -4.3542433156928915e-7 -4.2449824935143595e-7
          -8.827449291419504e-7 -8.719770450971414e-7 -8.500492304067012e-7 0 0 -4.2091871188776874e-7
          -4.178870023863796e-7 -8.428068527720992e-7 -8.367257988537814e-7 0 0 -4.0781532329194625e-7
          -3.9100770355006186e-7 -8.150299617110112e-7 -7.817290581064915e-7 0 -5.296267316383196e-7 -0.0000010578857323189214
          0 0 -4.809726301528816e-7 -4.7597862241576425e-7 -9.616546473517602e-7 -9.50267644929341e-7
          0 0 -4.693441731194506e-7 -4.7119866062084354e-7 -9.38757965946257e-7 -9.424089304505166e-7
          0 -4.6506791378941403e-7 -9.302484001985369e-7 0 0 0
          0 -4.140822999677892e-7 -4.2894942536649953e-7 -4.305447498843753e-7 -4.1740605915780703e-7 -8.285631504448318e-7
          -8.57914469128242e-7 -8.614778659545433e-7 -8.350894768589218e-7 0 -2.4705706412825e-7 -4.941005656251708e-7
          0 0 -2.3193421435445115e-7 -2.8409142388802603e-7 -4.640083841181447e-7 -5.682483145166249e-7
          0 0 -4.3746380910254726e-7 -4.24609492091285e-7 -8.760562344833402e-7 -8.502909275402787e-7
          0 -5.035068203331623e-7 -0.0000010060949471616187 0 0 -4.6679037587080355e-7
          -4.396189152122906e-7 -9.328398388689337e-7 -8.790083785341608e-7 0 0 0
          0 -4.475290591048543e-7 -4.444998039804757e-7 -4.2623466180003066e-7 -4.40509006060349e-7 -8.94869758370473e-7
          -8.883236496949267e-7 -8.526367616306617e-7 -8.809920137136352e-7 0 0 -4.96197145500306e-7
          -4.956751936832403e-7 -9.918407487250475e-7 -9.905838274027334e-7 0 0 0
          0 -4.734397828782539e-7 -4.505006037167957e-7 -4.1876465262419733e-7 -4.280096833513615e-7 -9.452930966252451e-7
          -8.999812450454932e-7 -8.372796528631371e-7 -8.557056122569119e-7 0 -4.7623330489795005e-7 -9.527140222836017e-7
          0 0 -4.133465205212333e-7 -4.2201570362749407e-7 -8.275068415651778e-7 -8.444386025789106e-7
          0 0 -4.544802817515331e-7 -4.4544546192228114e-7 -9.088232236139171e-7 -8.905804078575933e-7
          0 -4.669513861113882e-7 -9.344524807728498e-7 0 0 -4.6875604767985324e-7
          -4.6604227014985933e-7 -9.376746009673943e-7 -9.319938940567171e-7 0 0 -4.593813314397252e-7
          -4.6436125507784186e-7 -9.189547303415825e-7 -9.290753607022823e-7 0 0 -4.7682474922876425e-7
          -4.861160865363643e-7 -9.540768716468667e-7 -9.723998338050448e-7 0 -4.719992184857958e-7 -9.442365987007709e-7
          0 0 -4.4876137632641793e-7 -4.619117839869326e-7 -8.978065289414945e-7 -9.239330756300866e-7
          0 0 -4.872679969465564e-7 -4.790820467921736e-7 -9.748068451949429e-7 -9.58442243925034e-7
          0 0 0 -4.6515179383932087e-7 -4.4893173982687827e-7 -4.736403644732249e-7
          -9.308708418664158e-7 -8.982174896271894e-7 -9.473830250746325e-7 0 -4.589997989249147e-7 -9.187620685488639e-7
          0 0 -4.334658384809479e-7 -4.410266596196783e-7 -8.672939066384314e-7 -8.826913245442068e-7
          0 0 -4.7229240904246764e-7 -4.773769359619975e-7 -9.448509251118244e-7 -9.546429820290884e-7
          0 0 -3.7539190430729635e-7 -4.246961354215149e-7 -7.506593007459241e-7 -8.493793394174101e-7
          0 0 -4.147449100824792e-7 -4.0834946000360844e-7 -8.302032341895643e-7 -8.172188903759609e-7
          0 0 0 -4.872688071465989e-7 -4.576124508754685e-7 -4.821980676876582e-7
          -9.739639398069501e-7 -9.155481460095354e-7 -9.642624506132114e-7 0 -4.804628364635517e-7 -9.607433376559984e-7
          0 -4.611389673316848e-7 -9.225175505882658e-7 0 -5.019801639371026e-7 -0.0000010033059658418003
          0 -4.5582312216170554e-7 -9.124086113104582e-7 0 -4.731842084329907e-7 -9.464629201008057e-7
          0 -4.113147343054191e-7 -8.230489655631387e-7 0 -4.978145830058627e-7 -9.946390485083792e-7
          0 -4.806649569543561e-7 -9.615705056998755e-7 0 0 -4.2384375887282345e-7
          -4.379604210162003e-7 -8.497715444502696e-7 -8.779990224733655e-7 0 0 -4.174275271223105e-7
          -4.120448372181986e-7 -8.354930166500343e-7 -8.253605654596922e-7 0 -4.917043563355382e-7 -9.824735794239187e-7
          0 0 -3.961854135852489e-7 -4.040299308845555e-7 -7.935843776444513e-7 -8.087718719893855e-7
          0 0 -2.704499704393716e-7 -2.1153252406311498e-7 -5.419592367451673e-7 -4.2320800837194505e-7
          0 -4.0001803993004026e-7 -7.994894773688489e-7 0 -4.748793008043408e-7 -9.505362447506558e-7
          0 0 -4.769816838664392e-7 -4.850714460799602e-7 -9.524952373561987e-7 -9.6928182758131e-7
          0 0 -4.1509790103339265e-7 -4.305598539652807e-7 -8.306542736685122e-7 -8.613217426417636e-7
          0 -4.816776723864611e-7 -9.633155102161625e-7 0 -5.02259785513585e-7 -0.0000010039320043188644
          0 -4.784347834766527e-7 -9.56461559807522e-7 0 0 -4.02184783244672e-7
          -4.011927264466395e-7 -8.053566632342057e-7 -8.031599229672539e-7 0 -4.791670303190791e-7 -9.58296858006768e-7
          0 0 0 0 -5.052776671589699e-7 -5.06457611666708e-7
          -5.0463729895171e-7 -5.072058423429401e-7 -0.0000010104101673747613 -0.0000010125086902722406 -0.0000010084832813296565 -0.000001013633723892122
          0 0 -4.4308975864221996e-7 -4.5499510041373737e-7 -8.867577214112516e-7 -9.10407014776411e-7
          0 -4.903772275292983e-7 -9.807228889465644e-7 0 0 -4.995645298721618e-7
          -5.047606665660778e-7 -9.984610781646032e-7 -0.0000010089962706159736 0 0 -4.782174450800056e-7
          -4.781796299650971e-7 -9.565201978890796e-7 -9.558787220378312e-7 0 -4.778632654813419e-7 -9.555043759282453e-7
          0 -4.72824088886891e-7 -9.454924645910357e-7 0 -4.895503723019255e-7 -9.778330485677389e-7
          0 0 -3.977641420469662e-7 -3.934314929331985e-7 -7.965752265425365e-7 -7.884492937585648e-7
          0 -4.869025134530628e-7 -9.72923136334061e-7 0 0 0
          -4.1569541916901193e-7 -3.6489702701972227e-7 -4.282448895598634e-7 -8.306200614000277e-7 -7.302516361437452e-7 -8.558187244198851e-7
          0 -4.806431989277986e-7 -9.601971366995579e-7 0 0 0
          -4.638675641824178e-7 -4.895811854102104e-7 -4.784908459570655e-7 -9.277282124179508e-7 -9.78936889564856e-7 -9.563714992823554e-7
          0 -5.014425750506479e-7 -0.0000010029149642353047 0 -4.7222492892125613e-7 -9.446003469731071e-7
          0 -3.5354320436080565e-7 -7.062392262981794e-7 0 -4.465137070875269e-7 -8.932217667916723e-7
          0 0 -4.965132778461327e-7 -5.029372837411825e-7 -9.919755964187961e-7 -0.0000010049220487576098
          0 -4.685614057287987e-7 -9.366623541039372e-7 0 0 -4.042122876830851e-7
          -4.064493658717208e-7 -8.093510635508288e-7 -8.136687824318389e-7 0 0 -4.924209819509203e-7
          -4.831998404539869e-7 -9.837996268187079e-7 -9.665027434656063e-7 0 0 -4.775487562695755e-7
          -4.588646527352305e-7 -9.534147742048531e-7 -9.165459399088044e-7 0 0 -3.75829610770808e-7
          -4.078626880787343e-7 -7.52173941287473e-7 -8.156893841195225e-7 0 0 0
          -4.936239398623742e-7 -4.902177446015746e-7 -4.772171760163555e-7 -9.873730505559727e-7 -9.798330438197562e-7 -9.54073100737421e-7
          0 -4.393505158364816e-7 -8.779428687798181e-7 0 -4.613596093817274e-7 -9.223516102084177e-7
          0 -4.975136024368784e-7 -9.947367125213462e-7 0 -3.3395116876536626e-7 -6.674477054549198e-7
          0 0 0 -4.04089516857555e-7 -3.738094986501337e-7 -4.0073481166235996e-7
          -8.078740308784199e-7 -7.475629434910162e-7 -8.00990277844557e-7 0 -4.363562370312723e-7 -8.734085812936952e-7
          0 -3.8819201551126135e-7 -7.7693512634022e-7 0 0 -3.4855399525996206e-7
          -3.1881900094460317e-7 -6.98059195105691e-7 -6.376501709228703e-7 0 -3.4644418083151974e-7 -6.93042626526084e-7
          0 -3.978806505133588e-7 -7.95934034697924e-7 0 -2.9774396963422377e-7 -5.982126744914548e-7
          0 -3.230518127854586e-7 -6.394537539916573e-7 0 -2.3814835686165085e-7 -4.793438552224164e-7
          0 -1.4385854256401443e-7 -2.88875731404208e-7 0 0 -1.3493742905899683e-7
          -1.428046909377993e-7 -2.7020569473480503e-7 -2.8589845252128677e-7 0 0 -7.943121694819714e-8
          -7.297054211748133e-8 -1.589930325264817e-7 -1.4596479576770447e-7 0 0 -5.733362392600412e-8
          -5.408693167485337e-8 -1.1487816247837089e-7 -1.0842328464117407e-7 0 -1.6968622448527875e-7 -3.393754079224809e-7
          0 -1.0094854732353626e-7 -2.020836987505946e-7 0 -5.868762674016918e-8 -1.1763077496491963e-7
          0 -1.9205777678918697e-7 -3.8395119852953794e-7 0 -1.3298530248724814e-7 -2.660186668292114e-7
          0 -7.645298278215385e-8 -1.5324674556815775e-7 0 -2.1606888596192707e-7 -4.3213751849521194e-7
          0 -1.6586351947158547e-7 -3.316308643558095e-7 0 -1.107032224352087e-7 -2.216509761358818e-7
          0 -1.9693923040802808e-7 -3.9375045166658776e-7 0 -1.5314971108211805e-7 -3.0640229818914337e-7
          0 -2.2445746330503824e-7 -4.487398206292406e-7 0 -1.945086618812552e-7 -3.8893620898622677e-7
          0 -2.5057252822815427e-7 -5.010519149666796e-7 0 -2.268442610964193e-7 -4.5350751417773904e-7
          0 -2.657119059293817e-7 -5.313285024647607e-7 0 -2.563571871549486e-7 -5.126095196109435e-7
          0 -2.900293236508023e-7 -5.801720215439705e-7 0 -3.126300524467799e-7 -6.252161097179031e-7
          0 0 -6.148009400495675e-8 -6.145997679491677e-8 -1.2295406264886362e-7 -1.228331226508834e-7
          0 -5.809621928584998e-8 -1.1623470419373857e-7 0 -5.931438757836796e-8 -1.1876857030062953e-7
          0 -7.067707409526766e-8 -1.4155888003778923e-7 0 -9.718233937738824e-8 -1.9455459015337017e-7
          0 0 -3.4390689919863827e-7 -3.649195632539343e-7 -6.882855974934084e-7 -7.301433835163281e-7
          0 0 0 -2.5769298502289705e-7 -2.877813279111791e-7 -2.851085170267691e-7
          -5.153305559310502e-7 -5.755073005504928e-7 -5.700897002768978e-7 0 -4.278026522966262e-7 -8.556419803104753e-7
          0 -3.971520094152926e-7 -7.940822182472988e-7 0 -3.1493834834614835e-7 -6.301157040952354e-7
          0 -2.3410990329484464e-7 -4.6810879793375843e-7 0 -2.4670072346520985e-7 -4.933794706319908e-7
          0 -2.473557636129809e-7 -4.94648825791836e-7 0 -2.6187603798475567e-7 -5.234404996678651e-7
          0 -2.6450952666665316e-7 -5.290247208126329e-7 0 0 -6.038520397888677e-8
          -6.022824728945829e-8 -1.207457788591308e-7 -1.2046125976523997e-7 0 -6.29258585999126e-8 -1.2583801148637622e-7
          0 -6.439353071823953e-8 -1.2876293017371572e-7 0 -6.39958780136036e-8 -1.2806210011793241e-7
          0 -6.503500053598833e-8 -1.3029516297806867e-7 0 -1.3997427260602085e-7 -2.7994932288856005e-7
          0 -9.246817819342991e-8 -1.8518065453344146e-7 0 -1.9663574109401544e-7 -3.9322419470101775e-7
          0 -2.4188409572811945e-7 -4.839022086838104e-7 0 -3.054633289642742e-7 -6.107748222912542e-7
        </DataArray>
      </PointData>
      <CellData>
        <DataArray type="Int32" Name="libmesh_elem_id" format="ascii" RangeMin="1386" RangeMax="3465">
          1386 1387 1390 1391 1394 1395
          1400 1401 1406 1407 1410 1411
          1420 1421 1424 1425 1426 1427
          1432 1433 1436 1437 1444 1445
          1446 1447 1450 1451 1462 1463
          1466 1467 1474 1475 1498 1499
          1504 1505 1508 1509 1514 1515
          1524 1525 1526 1527 1530 1531
          1540 1541 1550 1551 1552 1553
          1554 1555 1578 1579 1588 1589
          1592 1593 1594 1595 1596 1597
          1598 1599 1600 1601 1606 1607
          1662 1663 1698 1699 1702 1703
          1712 1713 1726 1727 1730 1731
          1734 1735 1748 1749 1752 1753
          1774 1775 1778 1779 1834 1835
          1854 1855 1872 1873 1892 1893
          1894 1895 1896 1897 1902 1903
          1914 1915 1920 1921 1922 1923
          1932 1933 1942 1943 1944 1945
          1988 1989 2000 2001 2010 2011
          2024 2025 2070 2071 2100 2101
          2112 2113 2132 2133 2140 2141
          2150 2151 2166 2167 2206 2207
          2218 2219 2238 2239 2242 2243
          2244 2245 2256 2257 2258 2259
          2268 2269 2278 2279 2284 2285
          2306 2307 2334 2335 2340 2341
          2360 2361 2372 2373 2392 2393
          2396 2397 2398 2399 2418 2419
          2422 2423 2426 2427 2432 2433
          2434 2435 2436 2437 2476 2477
          2480 2481 2482 2483 2518 2519
          2534 2535 2540 2541 2542 2543
          2546 2547 2556 2557 2562 2563
          2568 2569 2574 2575 2584 2585
          2588 2589 2598 2599 2612 2613
          2638 2639 2656 2657 2664 2665
          2678 2679 2682 2683 2702 2703
          2704 2705 2708 2709 2720 2721
          2724 2725 2734 2735 2738 2739
          2742 2743 2746 2747 2774 2775
          2788 2789 2790 2791 2804 2805
          2806 2807 2834 2835 2840 2841
          2844 2845 2850 2851 2854 2855
          2858 2859 2872 2873 2888 2889
          2892 2893 2896 2897 2908 2909
          2912 2913 2916 2917 2918 2919
          2924 2925 2932 2933 2944 2945
          2972 2973 2984 2985 2996 2997
          3000 3001 3002 3003 3022 3023
          3024 3025 3030 3031 3032 3033
          3044 3045 3048 3049 3080 3081
          3092 3093 3108 3109 3120 3121
          3130 3131 3136 3137 3140 3141
          3142 3143 3146 3147 3150 3151
          3160 3161 3162 3163 3164 3165
          3170 3171 3172 3173 3174 3175
          3178 3179 3186 3187 3188 3189
          3198 3199 3216 3217 3218 3219
          3228 3229 3232 3233 3238 3239
          3242 3243 3246 3247 3250 3251
          3256 3257 3260 3261 3262 3263
          3266 3267 3268 3269 3270 3271
          3272 3273 3274 3275 3276 3277
          3278 3279 3280 3281 3282 3283
          3284 3285 3286 3287 3288 3289
          3290 3291 3292 3293 3294 3295
          3298 3299 3300 3301 3304 3305
          3306 3307 3310 3311 3312 3313
          3316 3317 3318 3319 3320 3321
          3322 3323 3338 3339 3340 3341
          3356 3357 3358 3359 3374 3375
          3376 3377 3392 3393 3394 3395
          3410 3411 3412 3413 3428 3429
          3446 3447 3464 3465
        </DataArray>
        <DataArray type="Int32" Name="subdomain_id" format="ascii" RangeMin="107" RangeMax="109">
          107 107 107 107 107 107
          107 107 107 107 107 107
          107 107 107 107 107 107
          107 107 107 107 107 107
          107 107 107 107 107 107
          107 107 107 107 107 107
          107 107 107 107 107 107
          107 107 107 107 107 107
          107 107 107 107 107 107
          107 107 107 107 107 107
          107 107 107 107 107 107
          107 107 107 107 107 107
          107 107 107 107 107 107
          107 107 107 107 107 107
          107 107 107 107 107 107
          107 107 107 107 107 107
          107 107 107 107 107 107
          107 107 107 107 107 107
          107 107 107 107 107 107
          107 107 107 107 107 107
          107 107 107 107 107 107
          107 107 107 107 107 107
          107 107 107 107 107 107
          107 107 107 107 107 107
          107 107 107 107 107 107
          107 107 107 107 107 107
          107 107 107 107 107 107
          107 107 107 107 107 107
          107 107 107 107 107 107
          107 107 107 107 107 107
          107 107 107 107 107 107
          107 107 107 107 107 107
          107 107 107 107 107 107
          107 107 107 107 107 107
          107 107 107 107 107 107
          107 107 107 107 107 107
          107 107 107 107 107 107
          107 107 107 107 107 107
          107 107 107 107 107 107
          107 107 107 107 107 107
          107 107 107 107 107 107
          107 107 107 107 107 107
          107 107 107 107 107 107
          107 107 107 107 107 107
          107 107 107 107 107 107
          107 107 107 107 107 107
          107 107 107 107 107 107
          107 107 107 107 107 107
          107 107 107 107 107 107
          107 107 107 107 107 107
          107 107 107 107 107 107
          107 107 107 107 107 107
          107 107 107 107 107 107
          107 107 107 107 107 107
          107 107 107 107 107 107
          107 107 107 107 107 107
          107 107 107 107 107 107
          107 107 107 107 107 107
          107 107 107 107 107 107
          107 107 107 107 107 107
          107 107 107 107 107 107
          107 107 107 107 107 107
          107 107 107 107 107 107
          108 108 108 108 108 108
          108 108 108 108 108 108
          108 108 108 108 108 108
          108 108 108 108 108 108
          108 108 108 108 108 108
          108 108 108 108 108 108
          108 108 108 108 108 108
          108 108 108 108 109 109
          109 109 109 109 109 109
          109 109 109 109 109 109
          109 109 109 109 109 109
          109 109 109 109 109 109
          109 109 109 109
        </DataArray>
        <DataArray type="Int32" Name="processor_id" format="ascii" RangeMin="1" RangeMax="1">
          1 1 1 1 1 1
          1 1 1 1 1 1
          1 1 1 1 1 1
          1 1 1 1 1 1
          1 1 1 1 1 1
          1 1 1 1 1 1
          1 1 1 1 1 1
          1 1 1 1 1 1
          1 1 1 1 1 1
          1 1 1 1 1 1
          1 1 1 1 1 1
          1 1 1 1 1 1
          1 1 1 1 1 1
          1 1 1 1 1 1
          1 1 1 1 1 1
          1 1 1 1 1 1
          1 1 1 1 1 1
          1 1 1 1 1 1
          1 1 1 1 1 1
          1 1 1 1 1 1
          1 1 1 1 1 1
          1 1 1 1 1 1
          1 1 1 1 1 1
          1 1 1 1 1 1
          1 1 1 1 1 1
          1 1 1 1 1 1
          1 1 1 1 1 1
          1 1 1 1 1 1
          1 1 1 1 1 1
          1 1 1 1 1 1
          1 1 1 1 1 1
          1 1 1 1 1 1
          1 1 1 1 1 1
          1 1 1 1 1 1
          1 1 1 1 1 1
          1 1 1 1 1 1
          1 1 1 1 1 1
          1 1 1 1 1 1
          1 1 1 1 1 1
          1 1 1 1 1 1
          1 1 1 1 1 1
          1 1 1 1 1 1
          1 1 1 1 1 1
          1 1 1 1 1 1
          1 1 1 1 1 1
          1 1 1 1 1 1
          1 1 1 1 1 1
          1 1 1 1 1 1
          1 1 1 1 1 1
          1 1 1 1 1 1
          1 1 1 1 1 1
          1 1 1 1 1 1
          1 1 1 1 1 1
          1 1 1 1 1 1
          1 1 1 1 1 1
          1 1 1 1 1 1
          1 1 1 1 1 1
          1 1 1 1 1 1
          1 1 1 1 1 1
          1 1 1 1 1 1
          1 1 1 1 1 1
          1 1 1 1 1 1
          1 1 1 1 1 1
          1 1 1 1 1 1
          1 1 1 1 1 1
          1 1 1 1 1 1
          1 1 1 1 1 1
          1 1 1 1 1 1
          1 1 1 1 1 1
          1 1 1 1 1 1
          1 1 1 1 1 1
          1 1 1 1 1 1
          1 1 1 1 1 1
          1 1 1 1 1 1
          1 1 1 1 1 1
          1 1 1 1
        </DataArray>
      </CellData>
      <Points>
        <DataArray type="Float64" Name="Points" NumberOfComponents="3" format="ascii" RangeMin="0.011720201602553146" RangeMax="0.03445906060790294">
          0.012969222910182 0.0014853020742274 0 0.012627852011276 0.0016898182928561 0
          0.01236786906931 0.0013587217336166 0 0.012783325134333 0.0011067100297067 0
          0.012969222910182 0.0014853020742274 0.00015 0.012627852011276 0.0016898182928561 0.00015
          0.01236786906931 0.0013587217336166 0.00015 0.012783325134333 0.0011067100297067 0.00015
          0.012969222910182 0.0014853020742274 0.0003 0.012627852011276 0.0016898182928561 0.0003
          0.01236786906931 0.0013587217336166 0.0003 0.012783325134333 0.0011067100297067 0.0003
          0.017563073004652 0.0017425656775748 0 0.017044554764736 0.0015497457581888 0
          0.017260149731535 0.0011385367421141 0 0.017760141546291 0.0012815461285561 0
          0.017563073004652 0.0017425656775748 0.00015 0.017044554764736 0.0015497457581888 0.00015
          0.017260149731535 0.0011385367421141 0.00015 0.017760141546291 0.0012815461285561 0.00015
          0.017563073004652 0.0017425656775748 0.0003 0.017044554764736 0.0015497457581888 0.0003
          0.017260149731535 0.0011385367421141 0.0003 0.017760141546291 0.0012815461285561 0.0003
          0.023776898874178 0.0022456328082928 0 0.023504823460796 0.0016933718681226 0
          0.023764932341086 0.0012053538973125 0 0.025 0.0014444444444417 0
          0.023776898874178 0.0022456328082928 0.00015 0.023504823460796 0.0016933718681226 0.00015
          0.023764932341086 0.0012053538973125 0.00015 0.025 0.0014444444444417 0.00015
          0.023776898874178 0.0022456328082928 0.0003 0.023504823460796 0.0016933718681226 0.0003
          0.023764932341086 0.0012053538973125 0.0003 0.025 0.0014444444444417 0.0003
          0.014128459199836 0.0039835282877348 0 0.014611363502717 0.0036877867763913 0
          0.015005639561329 0.0040763460944633 0 0.014554004584986 0.0044253882271801 0
          0.014128459199836 0.0039835282877348 0.00015 0.014611363502717 0.0036877867763913 0.00015
          0.015005639561329 0.0040763460944633 0.00015 0.014554004584986 0.0044253882271801 0.00015
          0.014128459199836 0.0039835282877348 0.0003 0.014611363502717 0.0036877867763913 0.0003
          0.015005639561329 0.0040763460944633 0.0003 0.014554004584986 0.0044253882271801 0.0003
          0.019696280766899 0.00050763342021358 0 0.019550033943553 0.0010320458815065 0
          0.01900444612813 0.00098950685152215 0 0.019158982336274 0.00048623495360749 0
          0.019696280766899 0.00050763342021358 0.00015 0.019550033943553 0.0010320458815065 0.00015
          0.01900444612813 0.00098950685152215 0.00015 0.019158982336274 0.00048623495360749 0.00015
          0.019696280766899 0.00050763342021358 0.0003 0.019550033943553 0.0010320458815065 0.0003
          0.01900444612813 0.00098950685152215 0.0003 0.019158982336274 0.00048623495360749 0.0003
          0.014859009547347 0.0018414606933245 0 0.015407964407671 0.0020438178723745 0
          0.01515544156871 0.0026588338800995 0 0.014598102610542 0.0022982704245768 0
          0.014859009547347 0.0018414606933245 0.00015 0.015407964407671 0.0020438178723745 0.00015
          0.01515544156871 0.0026588338800995 0.00015 0.014598102610542 0.0022982704245768 0.00015
          0.014859009547347 0.0018414606933245 0.0003 0.015407964407671 0.0020438178723745 0.0003
          0.01515544156871 0.0026588338800995 0.0003 0.014598102610542 0.0022982704245768 0.0003
          0.018126604709057 0.0019215066283495 0 0.017910174904861 0.0024312076221655 0
          0.017342980714859 0.0022157520731189 0 0.018126604709057 0.0019215066283495 0.00015
          0.017910174904861 0.0024312076221655 0.00015 0.017342980714859 0.0022157520731189 0.00015
          0.018126604709057 0.0019215066283495 0.0003 0.017910174904861 0.0024312076221655 0.0003
          0.017342980714859 0.0022157520731189 0.0003 0.015995561521593 0.0022418351865966 0
          0.01581460170494 0.0027743126456578 0 0.015995561521593 0.0022418351865966 0.00015
          0.01581460170494 0.0027743126456578 0.00015 0.015995561521593 0.0022418351865966 0.0003
          0.01581460170494 0.0027743126456578 0.0003 0.021203243478062 0.0026574159093233 0
          0.020454986610371 0.0022211941162512 0 0.020632218270446 0.001642443645643 0
          0.021442904813338 0.0016925342242502 0 0.021203243478062 0.0026574159093233 0.00015
          0.020454986610371 0.0022211941162512 0.00015 0.020632218270446 0.001642443645643 0.00015
          0.021442904813338 0.0016925342242502 0.00015 0.021203243478062 0.0026574159093233 0.0003
          0.020454986610371 0.0022211941162512 0.0003 0.020632218270446 0.001642443645643 0.0003
          0.021442904813338 0.0016925342242502 0.0003 0.015000171033694 0.0033600360828681 0
          0.015396645228865 0.0036775895732469 0 0.015000171033694 0.0033600360828681 0.00015
          0.015396645228865 0.0036775895732469 0.00015 0.015000171033694 0.0033600360828681 0.0003
          0.015396645228865 0.0036775895732469 0.0003 0.016564676280502 0.0024636417082771 0
          0.016363912484153 0.0029730068966809 0 0.016564676280502 0.0024636417082771 0.00015
          0.016363912484153 0.0029730068966809 0.00015 0.016564676280502 0.0024636417082771 0.0003
          0.016363912484153 0.0029730068966809 0.0003 0.023072410624366 0.001035238244058 0
          0.023303887517976 0.00051385162283572 0 0.023907474886085 0.00057797945625648 0
          0.023072410624366 0.001035238244058 0.00015 0.023303887517976 0.00051385162283572 0.00015
          0.023907474886085 0.00057797945625648 0.00015 0.023072410624366 0.001035238244058 0.0003
          0.023303887517976 0.00051385162283572 0.0003 0.023907474886085 0.00057797945625648 0.0003
          0.014126846853415 0.0020250855845452 0 0.014376196219822 0.0016213258676016 0
          0.014126846853415 0.0020250855845452 0.00015 0.014376196219822 0.0016213258676016 0.00015
          0.014126846853415 0.0020250855845452 0.0003 0.014376196219822 0.0016213258676016 0.0003
          0.018981322625637 0.0048047339747308 0 0.018357141436072 0.0045551651420339 0
          0.018591751365599 0.0039752866369835 0 0.01916753543825 0.0042045163914746 0
          0.018981322625637 0.0048047339747308 0.00015 0.018357141436072 0.0045551651420339 0.00015
          0.018591751365599 0.0039752866369835 0.00015 0.01916753543825 0.0042045163914746 0.00015
          0.018981322625637 0.0048047339747308 0.0003 0.018357141436072 0.0045551651420339 0.0003
          0.018591751365599 0.0039752866369835 0.0003 0.01916753543825 0.0042045163914746 0.0003
          0.018733892370512 0.0020905204418308 0 0.018302277235643 0.001411928503633 0
          0.018878430913296 0.0015272195647153 0 0.018733892370512 0.0020905204418308 0.00015
          0.018302277235643 0.001411928503633 0.00015 0.018878430913296 0.0015272195647153 0.00015
          0.018733892370512 0.0020905204418308 0.0003 0.018302277235643 0.001411928503633 0.0003
          0.018878430913296 0.0015272195647153 0.0003 0.015535554193674 0.0045828394817383 0
          0.015535554193674 0.0045828394817383 0.00015 0.015535554193674 0.0045828394817383 0.0003
          0.017780760549951 0.0042442262797048 0 0.018018112537919 0.0052480329433742 0
          0.017497318700769 0.0047182001999379 0 0.017780760549951 0.0042442262797048 0.00015
          0.018018112537919 0.0052480329433742 0.00015 0.017497318700769 0.0047182001999379 0.00015
          0.017780760549951 0.0042442262797048 0.0003 0.018018112537919 0.0052480329433742 0.0003
          0.017497318700769 0.0047182001999379 0.0003 0.019494677591535 0.00226139088066 0
          0.019117853172676 0.0029004952170283 0 0.018505903140776 0.002650294613165 0
          0.019494677591535 0.00226139088066 0.00015 0.019117853172676 0.0029004952170283 0.00015
          0.018505903140776 0.002650294613165 0.00015 0.019494677591535 0.00226139088066 0.0003
          0.019117853172676 0.0029004952170283 0.0003 0.018505903140776 0.002650294613165 0.0003
          0.013829014690192 0.0024142080164891 0 0.013458574547778 0.0021218274131508 0
          0.013711742209243 0.0017918189860839 0 0.013829014690192 0.0024142080164891 0.00015
          0.013458574547778 0.0021218274131508 0.00015 0.013711742209243 0.0017918189860839 0.00015
          0.013829014690192 0.0024142080164891 0.0003 0.013458574547778 0.0021218274131508 0.0003
          0.013711742209243 0.0017918189860839 0.0003 0.0133672983588 0.0013583262253912 0
          0.013268156677071 0.00095273786274694 0 0.0133672983588 0.0013583262253912 0.00015
          0.013268156677071 0.00095273786274694 0.00015 0.0133672983588 0.0013583262253912 0.0003
          0.013268156677071 0.00095273786274694 0.0003 0.020151989638292 0.0057951577471947 0
          0.020929132214341 0.005368110675239 0 0.020151989638292 0.0057951577471947 0.00015
          0.020929132214341 0.005368110675239 0.00015 0.020151989638292 0.0057951577471947 0.0003
          0.020929132214341 0.005368110675239 0.0003 0.011634800364854 0.0014122839921498 0
          0.011634800364854 0.0014122839921498 0.00015 0.011634800364854 0.0014122839921498 0.0003
          0.020690070611507 0.0010537467946972 0 0.021241463234904 0.0010007048777636 0
          0.020690070611507 0.0010537467946972 0.00015 0.021241463234904 0.0010007048777636 0.00015
          0.020690070611507 0.0010537467946972 0.0003 0.021241463234904 0.0010007048777636 0.0003
          0.01690585017332 0.0031962434076044 0 0.017120511962154 0.0027019865785896 0
          0.01690585017332 0.0031962434076044 0.00015 0.017120511962154 0.0027019865785896 0.00015
          0.01690585017332 0.0031962434076044 0.0003 0.017120511962154 0.0027019865785896 0.0003
          0.016801656731456 0.0019822328720047 0 0.016801656731456 0.0019822328720047 0.00015
          0.016801656731456 0.0019822328720047 0.0003 0.015193226280812 0.00045041659473928 0
          0.015698309574236 0.00047366638839958 0 0.015648437383567 0.00097128418016613 0
          0.015127663000402 0.00090574444628299 0 0.015193226280812 0.00045041659473928 0.00015
          0.015698309574236 0.00047366638839958 0.00015 0.015648437383567 0.00097128418016613 0.00015
          0.015127663000402 0.00090574444628299 0.00015 0.015193226280812 0.00045041659473928 0.0003
          0.015698309574236 0.00047366638839958 0.0003 0.015648437383567 0.00097128418016613 0.0003
          0.015127663000402 0.00090574444628299 0.0003 0.025 0.0057777777777625 0
          0.025 0.0057777777777625 0.00015 0.025 0.0057777777777625 0.0003
          0.025 0.0043333333333224 0 0.023896353247243 0.0043894596145303 0
          0.025 0.0043333333333224 0.00015 0.023896353247243 0.0043894596145303 0.00015
          0.025 0.0043333333333224 0.0003 0.023896353247243 0.0043894596145303 0.0003
          0.013179014717582 0.001822526704721 0 0.013420070576712 0.0016525675047962 0
          0.013179014717582 0.001822526704721 0.00015 0.013420070576712 0.0016525675047962 0.00015
          0.013179014717582 0.001822526704721 0.0003 0.013420070576712 0.0016525675047962 0.0003
          0.01946472134525 0.0015844882179861 0 0.01946472134525 0.0015844882179861 0.00015
          0.01946472134525 0.0015844882179861 0.0003 0.019738918970445 0.0042679072806348 0
          0.019737200842686 0.0050366958134185 0 0.019738918970445 0.0042679072806348 0.00015
          0.019737200842686 0.0050366958134185 0.00015 0.019738918970445 0.0042679072806348 0.0003
          0.019737200842686 0.0050366958134185 0.0003 0.018801022408002 0.0054477015438504 0
          0.019301386887175 0.0055580415356932 0 0.019427042946373 0.0060730727381959 0
          0.018733542944404 0.0061279994653871 0 0.018801022408002 0.0054477015438504 0.00015
          0.019301386887175 0.0055580415356932 0.00015 0.019427042946373 0.0060730727381959 0.00015
          0.018733542944404 0.0061279994653871 0.00015 0.018801022408002 0.0054477015438504 0.0003
          0.019301386887175 0.0055580415356932 0.0003 0.019427042946373 0.0060730727381959 0.0003
          0.018733542944404 0.0061279994653871 0.0003 0.020038894590203 0.0015918984718873 0
          0.020014763899096 0.0020069766457038 0 0.020038894590203 0.0015918984718873 0.00015
          0.020014763899096 0.0020069766457038 0.00015 0.020038894590203 0.0015918984718873 0.0003
          0.020014763899096 0.0020069766457038 0.0003 0.02163606673442 0.0008902471917336 0
          0.021744201350165 0.00049421716196859 0 0.022190644598282 0.0005058615377216 0
          0.021944604947084 0.0011684672971015 0 0.02163606673442 0.0008902471917336 0.00015
          0.021744201350165 0.00049421716196859 0.00015 0.022190644598282 0.0005058615377216 0.00015
          0.021944604947084 0.0011684672971015 0.00015 0.02163606673442 0.0008902471917336 0.0003
          0.021744201350165 0.00049421716196859 0.0003 0.022190644598282 0.0005058615377216 0.0003
          0.021944604947084 0.0011684672971015 0.0003 0.015913060403389 0.0039637658470315 0
          0.015913060403389 0.0039637658470315 0.00015 0.015913060403389 0.0039637658470315 0.0003
          0.014558693053864 0.0012292895498017 0 0.015031644896308 0.0013689537442351 0
          0.014558693053864 0.0012292895498017 0.00015 0.015031644896308 0.0013689537442351 0.00015
          0.014558693053864 0.0012292895498017 0.0003 0.015031644896308 0.0013689537442351 0.0003
          0.018057579772584 0.0060827128421873 0 0.018070157245618 0.0068021820766994 0
          0.018057579772584 0.0060827128421873 0.00015 0.018070157245618 0.0068021820766994 0.00015
          0.018057579772584 0.0060827128421873 0.0003 0.018070157245618 0.0068021820766994 0.0003
          0.017413401850906 0.0060417176080878 0 0.017413401850906 0.0060417176080878 0.00015
          0.017413401850906 0.0060417176080878 0.0003 0.016169389215855 0.0034677229039223 0
          0.015655980876909 0.003250339095381 0 0.016169389215855 0.0034677229039223 0.00015
          0.015655980876909 0.003250339095381 0.00015 0.016169389215855 0.0034677229039223 0.0003
          0.015655980876909 0.003250339095381 0.0003 0.014652329158707 0.0030238496825634 0
          0.015285307382498 0.0031101507370722 0 0.014652329158707 0.0030238496825634 0.00015
          0.015285307382498 0.0031101507370722 0.00015 0.014652329158707 0.0030238496825634 0.0003
          0.015285307382498 0.0031101507370722 0.0003 0.016487808895433 0.0042010147125967 0
          0.016291762387835 0.0047307906783276 0 0.016487808895433 0.0042010147125967 0.00015
          0.016291762387835 0.0047307906783276 0.00015 0.016487808895433 0.0042010147125967 0.0003
          0.016291762387835 0.0047307906783276 0.0003 0.017341722495578 0.0054175123203669 0
          0.017341722495578 0.0054175123203669 0.00015 0.017341722495578 0.0054175123203669 0.0003
          0.016251164393845 0.0016133033435965 0 0.016687160352932 0.001374608348519 0
          0.016251164393845 0.0016133033435965 0.00015 0.016687160352932 0.001374608348519 0.00015
          0.016251164393845 0.0016133033435965 0.0003 0.016687160352932 0.001374608348519 0.0003
          0.01678493258985 0.0053840721103251 0 0.016848637368385 0.0048798435935376 0
          0.01678493258985 0.0053840721103251 0.00015 0.016848637368385 0.0048798435935376 0.00015
          0.01678493258985 0.0053840721103251 0.0003 0.016848637368385 0.0048798435935376 0.0003
          0.013915703094631 0.0030656560250288 0 0.01425441565673 0.0027053116394345 0
          0.014277331184122 0.0033493109511997 0 0.013915703094631 0.0030656560250288 0.00015
          0.01425441565673 0.0027053116394345 0.00015 0.014277331184122 0.0033493109511997 0.00015
          0.013915703094631 0.0030656560250288 0.0003 0.01425441565673 0.0027053116394345 0.0003
          0.014277331184122 0.0033493109511997 0.0003 0.013503308513005 0.0027817056572273 0
          0.013503308513005 0.0027817056572273 0.00015 0.013503308513005 0.0027817056572273 0.0003
          0.015571407447371 0.001500509245043 0 0.016188320748251 0.0009824473909215 0
          0.015571407447371 0.001500509245043 0.00015 0.016188320748251 0.0009824473909215 0.00015
          0.015571407447371 0.001500509245043 0.0003 0.016188320748251 0.0009824473909215 0.0003
          0.017456683820944 0.0034405145363726 0 0.017671289470578 0.0029336357035204 0
          0.017456683820944 0.0034405145363726 0.00015 0.017671289470578 0.0029336357035204 0.00015
          0.017456683820944 0.0034405145363726 0.0003 0.017671289470578 0.0029336357035204 0.0003
          0.022716879195272 0.001694170750475 0 0.022069698771397 0.0020298487038736 0
          0.022716879195272 0.001694170750475 0.00015 0.022069698771397 0.0020298487038736 0.00015
          0.022716879195272 0.001694170750475 0.0003 0.022069698771397 0.0020298487038736 0.0003
          0.013893710777701 0.0013389894450257 0 0.014229820502632 0.0011148528015907 0
          0.013893710777701 0.0013389894450257 0.00015 0.014229820502632 0.0011148528015907 0.00015
          0.013893710777701 0.0013389894450257 0.0003 0.014229820502632 0.0011148528015907 0.0003
          0.012674188674928 0.0028095410694266 0 0.013119330518162 0.0024349279719224 0
          0.013248150362312 0.0031919567697963 0 0.012674188674928 0.0028095410694266 0.00015
          0.013119330518162 0.0024349279719224 0.00015 0.013248150362312 0.0031919567697963 0.00015
          0.012674188674928 0.0028095410694266 0.0003 0.013119330518162 0.0024349279719224 0.0003
          0.013248150362312 0.0031919567697963 0.0003 0.012451479243686 0.0021914486022899 0
          0.012451479243686 0.0021914486022899 0.00015 0.012451479243686 0.0021914486022899 0.0003
          0.016782084774574 0.00093367828557597 0 0.016782084774574 0.00093367828557597 0.00015
          0.016782084774574 0.00093367828557597 0.0003 0.013121586466294 0.0036708577033715 0
          0.013121586466294 0.0036708577033715 0.00015 0.013121586466294 0.0036708577033715 0.0003
          0.012837862818801 0.0020433604618052 0 0.012837862818801 0.0020433604618052 0.00015
          0.012837862818801 0.0020433604618052 0.0003 0.016706746155521 0.0036970402910047 0
          0.016706746155521 0.0036970402910047 0.00015 0.016706746155521 0.0036970402910047 0.0003
          0.013749164985008 0.00086088989331873 0 0.013749164985008 0.00086088989331873 0.00015
          0.013749164985008 0.00086088989331873 0.0003 0.012096711335481 0.0017058387426491 0
          0.012096711335481 0.0017058387426491 0.00015 0.012096711335481 0.0017058387426491 0.0003
          0.013693266362936 0.0034326845509566 0 0.013693266362936 0.0034326845509566 0.00015
          0.013693266362936 0.0034326845509566 0.0003 0.012692307692288 0 0
          0.012542896420733 0.00061304595643839 0 0.012692307692288 0 0.00015
          0.012542896420733 0.00061304595643839 0.00015 0.012692307692288 0 0.0003
          0.012542896420733 0.00061304595643839 0.0003 0.013205128205107 0 0
          0.013181655749567 0.00048421972568225 0 0.013205128205107 0 0.00015
          0.013181655749567 0.00048421972568225 0.00015 0.013205128205107 0 0.0003
          0.013181655749567 0.00048421972568225 0.0003 0.012087580163866 0.0010424427844857 0
          0.012087580163866 0.0010424427844857 0.00015 0.012087580163866 0.0010424427844857 0.0003
          0.013717948717925 0 0 0.013709151553936 0.00043508888993868 0
          0.013717948717925 0 0.00015 0.013709151553936 0.00043508888993868 0.00015
          0.013717948717925 0 0.0003 0.013709151553936 0.00043508888993868 0.0003
          0.023934294716764 0.0032087575652495 0 0.025 0.0028888888888822 0
          0.023934294716764 0.0032087575652495 0.00015 0.025 0.0028888888888822 0.00015
          0.023934294716764 0.0032087575652495 0.0003 0.025 0.0028888888888822 0.0003
          0.022119784948444 0.002618759724243 0 0.022119784948444 0.002618759724243 0.00015
          0.022119784948444 0.002618759724243 0.0003 0.012384518900215 0.0018567382086698 0
          0.012384518900215 0.0018567382086698 0.00015 0.012384518900215 0.0018567382086698 0.0003
          0.021279978971931 0.00049482730399591 0 0.020757556768826 0.00050973095909409 0
          0.021279978971931 0.00049482730399591 0.00015 0.020757556768826 0.00050973095909409 0.00015
          0.021279978971931 0.00049482730399591 0.0003 0.020757556768826 0.00050973095909409 0.0003
          0.015256410256382 0 0 0.015769230769205 0 0
          0.015256410256382 0 0.00015 0.015769230769205 0 0.00015
          0.015256410256382 0 0.0003 0.015769230769205 0 0.0003
          0.014025581742285 0.0035717972510793 0 0.014025581742285 0.0035717972510793 0.00015
          0.014025581742285 0.0035717972510793 0.0003 0.013590285783394 0.0038446716816234 0
          0.013590285783394 0.0038446716816234 0.00015 0.013590285783394 0.0038446716816234 0.0003
          0.017243082343815 0.0050067004105205 0 0.017243082343815 0.0050067004105205 0.00015
          0.017243082343815 0.0050067004105205 0.0003 0.014691316585943 0.00042340821879555 0
          0.014743589743561 0 0 0.014691316585943 0.00042340821879555 0.00015
          0.014743589743561 0 0.00015 0.014691316585943 0.00042340821879555 0.0003
          0.014743589743561 0 0.0003 0.018245486290569 0.0031782516753476 0
          0.018245486290569 0.0031782516753476 0.00015 0.018245486290569 0.0031782516753476 0.0003
          0.018846153846135 0 0 0.018644197304734 0.00045373129675669 0
          0.01812656348281 0.00041497632726255 0 0.018333333333313 0 0
          0.018846153846135 0 0.00015 0.018644197304734 0.00045373129675669 0.00015
          0.01812656348281 0.00041497632726255 0.00015 0.018333333333313 0 0.00015
          0.018846153846135 0 0.0003 0.018644197304734 0.00045373129675669 0.0003
          0.01812656348281 0.00041497632726255 0.0003 0.018333333333313 0 0.0003
          0.016222123693441 0.00047331176344161 0 0.016700854199337 0.00043557402690065 0
          0.016222123693441 0.00047331176344161 0.00015 0.016700854199337 0.00043557402690065 0.00015
          0.016222123693441 0.00047331176344161 0.0003 0.016700854199337 0.00043557402690065 0.0003
          0.020119253581834 0.0010505613075795 0 0.020119253581834 0.0010505613075795 0.00015
          0.020119253581834 0.0010505613075795 0.0003 0.017948162073368 0.00084248305268282 0
          0.018468108748109 0.00092264731154686 0 0.017948162073368 0.00084248305268282 0.00015
          0.018468108748109 0.00092264731154686 0.00015 0.017948162073368 0.00084248305268282 0.0003
          0.018468108748109 0.00092264731154686 0.0003 0.018823294200687 0.0034327213803771 0
          0.019357958441624 0.0036753812238739 0 0.018823294200687 0.0034327213803771 0.00015
          0.019357958441624 0.0036753812238739 0.00015 0.018823294200687 0.0034327213803771 0.0003
          0.019357958441624 0.0036753812238739 0.0003 0.017020820655581 0.0044256808272369 0
          0.017020820655581 0.0044256808272369 0.00015 0.017020820655581 0.0044256808272369 0.0003
          0.017246333426457 0.0039469397271967 0 0.017246333426457 0.0039469397271967 0.00015
          0.017246333426457 0.0039469397271967 0.0003 0.020078691259254 0.0027314397537426 0
          0.020078691259254 0.0027314397537426 0.00015 0.020078691259254 0.0027314397537426 0.0003
          0.014206101807249 0.00041708713844452 0 0.014230769230743 0 0
          0.014206101807249 0.00041708713844452 0.00015 0.014230769230743 0 0.00015
          0.014206101807249 0.00041708713844452 0.0003 0.014230769230743 0 0.0003
          0.019663480844036 0.0032045589214632 0 0.019663480844036 0.0032045589214632 0.00015
          0.019663480844036 0.0032045589214632 0.0003 0.021168425648455 0.0043064684914555 0
          0.021635594211814 0.0048272474453844 0 0.020555573714582 0.0046911399787169 0
          0.021168425648455 0.0043064684914555 0.00015 0.021635594211814 0.0048272474453844 0.00015
          0.020555573714582 0.0046911399787169 0.00015 0.021168425648455 0.0043064684914555 0.0003
          0.021635594211814 0.0048272474453844 0.0003 0.020555573714582 0.0046911399787169 0.0003
          0.019723975353689 0.0038421555098755 0 0.019723975353689 0.0038421555098755 0.00015
          0.019723975353689 0.0038421555098755 0.0003 0.01679487179485 0 0
          0.017307692307672 0 0 0.017098243235352 0.00037703288126221 0
          0.01679487179485 0 0.00015 0.017307692307672 0 0.00015
          0.017098243235352 0.00037703288126221 0.00015 0.01679487179485 0 0.0003
          0.017307692307672 0 0.0003 0.017098243235352 0.00037703288126221 0.0003
          0.019358974358957 0 0 0.019358974358957 0 0.00015
          0.019358974358957 0 0.0003 0.018021318366412 0.0037089471112668 0
          0.018021318366412 0.0037089471112668 0.00015 0.018021318366412 0.0037089471112668 0.0003
          0.022914230268928 0.0025172233828488 0 0.022914230268928 0.0025172233828488 0.00015
          0.022914230268928 0.0025172233828488 0.0003 0.016282051282027 0 0
          0.016282051282027 0 0.00015 0.016282051282027 0 0.0003
          0.017636327566636 0.00038375181151782 0 0.017820512820494 0 0
          0.017636327566636 0.00038375181151782 0.00015 0.017820512820494 0 0.00015
          0.017636327566636 0.00038375181151782 0.0003 0.017820512820494 0 0.0003
          0.020545307319607 0.0031941956482125 0 0.020545307319607 0.0031941956482125 0.00015
          0.020545307319607 0.0031941956482125 0.0003 0.014207774647908 0.00082121811907846 0
          0.014649951203035 0.00083908958777153 0 0.014207774647908 0.00082121811907846 0.00015
          0.014649951203035 0.00083908958777153 0.00015 0.014207774647908 0.00082121811907846 0.0003
          0.014649951203035 0.00083908958777153 0.0003 0.017453973974276 0.00075538641526017 0
          0.017131504825278 0.00067680946789985 0 0.017453973974276 0.00075538641526017 0.00015
          0.017131504825278 0.00067680946789985 0.00015 0.017453973974276 0.00075538641526017 0.0003
          0.017131504825278 0.00067680946789985 0.0003 0.020049549059284 0.0035870308776452 0
          0.020306231316884 0.0040846257713005 0 0.020049549059284 0.0035870308776452 0.00015
          0.020306231316884 0.0040846257713005 0.00015 0.020049549059284 0.0035870308776452 0.0003
          0.020306231316884 0.0040846257713005 0.0003 0.022163023796879 0.0034061119862663 0
          0.021471654866651 0.0034951402573089 0 0.022163023796879 0.0034061119862663 0.00015
          0.021471654866651 0.0034951402573089 0.00015 0.022163023796879 0.0034061119862663 0.0003
          0.021471654866651 0.0034951402573089 0.0003 0.020216848120139 0.00051365536395203 0
          0.020384615384602 0 0 0.020897435897425 0 0
          0.020216848120139 0.00051365536395203 0.00015 0.020384615384602 0 0.00015
          0.020897435897425 0 0.00015 0.020216848120139 0.00051365536395203 0.0003
          0.020384615384602 0 0.0003 0.020897435897425 0 0.0003
          0.020867240059882 0.0037570922548429 0 0.020867240059882 0.0037570922548429 0.00015
          0.020867240059882 0.0037570922548429 0.0003 0.021410256410247 0 0
          0.021410256410247 0 0.00015 0.021410256410247 0 0.0003
          0.01987179487178 0 0 0.01987179487178 0 0.00015
          0.01987179487178 0 0.0003 0.022975084693504 0.003367305376383 0
          0.022975084693504 0.003367305376383 0.00015 0.022975084693504 0.003367305376383 0.0003
          0.022435897435893 0 0 0.022948717948713 0 0
          0.022737844672879 0.00047743690091317 0 0.022435897435893 0 0.00015
          0.022948717948713 0 0.00015 0.022737844672879 0.00047743690091317 0.00015
          0.022435897435893 0 0.0003 0.022948717948713 0 0.0003
          0.022737844672879 0.00047743690091317 0.0003 0.02192307692307 0 0
          0.02192307692307 0 0.00015 0.02192307692307 0 0.0003
          0.021567010772127 0.0039949981403974 0 0.021567010772127 0.0039949981403974 0.00015
          0.021567010772127 0.0039949981403974 0.0003 0.02205136800235 0.0041574599345453 0
          0.022874799944018 0.0043411431204517 0 0.02205136800235 0.0041574599345453 0.00015
          0.022874799944018 0.0043411431204517 0.00015 0.02205136800235 0.0041574599345453 0.0003
          0.022874799944018 0.0043411431204517 0.0003 0.023461538461532 0 0
          0.023461538461532 0 0.00015 0.023461538461532 0 0.0003
          0.022597273609822 0.0008601076908125 0 0.022597273609822 0.0008601076908125 0.00015
          0.022597273609822 0.0008601076908125 0.0003 0.024392416230449 0.00057909033861659 0
          0.024392416230449 0.00057909033861659 0.00015 0.024392416230449 0.00057909033861659 0.0003
          0.023974358974355 0 0 0.023974358974355 0 0.00015
          0.023974358974355 0 0.0003 0.024487179487177 0 0
          0.024487179487177 0 0.00015 0.024487179487177 0 0.0003
          0.025 0 0 0.025 0 0.00015
          0.025 0 0.0003 0.026666666666664 0.0014444444444417 0
          0.026666666666663 0 0 0.026666666666664 0.0014444444444417 0.00015
          0.026666666666663 0 0.00015 0.026666666666664 0.0014444444444417 0.0003
          0.026666666666663 0 0.0003 0.028333333333331 0.0014444444444417 0
          0.02833333333333 0 0 0.028333333333331 0.0014444444444417 0.00015
          0.02833333333333 0 0.00015 0.028333333333331 0.0014444444444417 0.0003
          0.02833333333333 0 0.0003 0.03 0.0014444444444417 0
          0.03 0 0 0.03 0.0014444444444417 0.00015
          0.03 0 0.00015 0.03 0.0014444444444417 0.0003
          0.03 0 0.0003 0.026666666666665 0.0028888888888822 0
          0.026666666666665 0.0028888888888822 0.00015 0.026666666666665 0.0028888888888822 0.0003
          0.028333333333331 0.0028888888888822 0 0.028333333333331 0.0028888888888822 0.00015
          0.028333333333331 0.0028888888888822 0.0003 0.03 0.0028888888888822 0
          0.03 0.0028888888888822 0.00015 0.03 0.0028888888888822 0.0003
          0.026666666666666 0.0043333333333224 0 0.026666666666666 0.0043333333333224 0.00015
          0.026666666666666 0.0043333333333224 0.0003 0.028333333333332 0.0043333333333224 0
          0.028333333333332 0.0043333333333224 0.00015 0.028333333333332 0.0043333333333224 0.0003
          0.03 0.0043333333333224 0 0.03 0.0043333333333224 0.00015
          0.03 0.0043333333333224 0.0003 0.026666666666666 0.0057777777777625 0
          0.026666666666666 0.0057777777777625 0.00015 0.026666666666666 0.0057777777777625 0.0003
          0.028333333333333 0.0057777777777625 0 0.028333333333333 0.0057777777777625 0.00015
          0.028333333333333 0.0057777777777625 0.0003 0.03 0.0057777777777625 0
          0.03 0.0057777777777625 0.00015 0.03 0.0057777777777625 0.0003
          0.028333333333334 0.0072222222222063 0 0.028333333333334 0.0072222222222063 0.00015
          0.028333333333334 0.0072222222222063 0.0003 0.03 0.0072222222222063 0
          0.03 0.0072222222222063 0.00015 0.03 0.0072222222222063 0.0003
          0.028333333333334 0.0086666666666559 0 0.028333333333334 0.0086666666666559 0.00015
          0.028333333333334 0.0086666666666559 0.0003 0.03 0.0086666666666559 0
          0.03 0.0086666666666559 0.00015 0.03 0.0086666666666559 0.0003
          0.028333333333335 0.010111111111103 0 0.028333333333335 0.010111111111103 0.00015
          0.028333333333335 0.010111111111103 0.0003 0.03 0.010111111111103 0
          0.03 0.010111111111103 0.00015 0.03 0.010111111111103 0.0003
          0.028333333333336 0.011555555555552 0 0.028333333333336 0.011555555555552 0.00015
          0.028333333333336 0.011555555555552 0.0003 0.03 0.011555555555552 0
          0.03 0.011555555555552 0.00015 0.03 0.011555555555552 0.0003
          0.028333333333337 0.013 0 0.028333333333337 0.013 0.00015
          0.028333333333337 0.013 0.0003 0.03 0.013 0
          0.03 0.013 0.00015 0.03 0.013 0.0003
          0.031601181467612 0.0014508094753802 0 0.03158989866902 0 0
          0.031601181467612 0.0014508094753802 0.00015 0.03158989866902 0 0.00015
          0.031601181467612 0.0014508094753802 0.0003 0.03158989866902 0 0.0003
          0.031612464266204 0.0029016189507591 0 0.031612464266204 0.0029016189507591 0.00015
          0.031612464266204 0.0029016189507591 0.0003 0.031623747064796 0.0043524284261377 0
          0.031623747064796 0.0043524284261377 0.00015 0.031623747064796 0.0043524284261377 0.0003
          0.031635029863388 0.0058032379015163 0 0.031635029863388 0.0058032379015163 0.00015
          0.031635029863388 0.0058032379015163 0.0003 0.031646312661979 0.0072540473768985 0
          0.031646312661979 0.0072540473768985 0.00015 0.031646312661979 0.0072540473768985 0.0003
          0.021356284292895 0.0061182113295331 0 0.020489019208248 0.0065103794253073 0
          0.021356284292895 0.0061182113295331 0.00015 0.020489019208248 0.0065103794253073 0.00015
          0.021356284292895 0.0061182113295331 0.0003 0.020489019208248 0.0065103794253073 0.0003
          0.025 0.0072222222222063 0 0.023816654948859 0.0069324696013164 0
          0.023829479378086 0.0056593315311521 0 0.025 0.0072222222222063 0.00015
          0.023816654948859 0.0069324696013164 0.00015 0.023829479378086 0.0056593315311521 0.00015
          0.025 0.0072222222222063 0.0003 0.023816654948859 0.0069324696013164 0.0003
          0.023829479378086 0.0056593315311521 0.0003 0.018734278863615 0.0068564365277259 0
          0.018734278863615 0.0068564365277259 0.00015 0.018734278863615 0.0068564365277259 0.0003
          0.019611341590458 0.0069319215290848 0 0.019611341590458 0.0069319215290848 0.00015
          0.019611341590458 0.0069319215290848 0.0003 0.022477642087048 0.0055533155338694 0
          0.022477642087048 0.0055533155338694 0.00015 0.022477642087048 0.0055533155338694 0.0003
          0.026666666666667 0.0072222222222063 0 0.026666666666667 0.0072222222222063 0.00015
          0.026666666666667 0.0072222222222063 0.0003 0.026666666666668 0.0086666666666559 0
          0.026666666666668 0.0086666666666559 0.00015 0.026666666666668 0.0086666666666559 0.0003
          0.026666666666669 0.010111111111103 0 0.026666666666669 0.010111111111103 0.00015
          0.026666666666669 0.010111111111103 0.0003 0.026666666666669 0.011555555555552 0
          0.026666666666669 0.011555555555552 0.00015 0.026666666666669 0.011555555555552 0.0003
          0.02666666666667 0.013 0 0.02666666666667 0.013 0.00015
          0.02666666666667 0.013 0.0003 0.033201501647561 0.0014698753983525 0
          0.033179797338052 0 0 0.033201501647561 0.0014698753983525 0.00015
          0.033179797338052 0 0.00015 0.033201501647561 0.0014698753983525 0.0003
          0.033179797338052 0 0.0003 0.033223205957069 0.0029397507967035 0
          0.033223205957069 0.0029397507967035 0.00015 0.033223205957069 0.0029397507967035 0.0003
          0.033244910266578 0.0044096261950543 0 0.033244910266578 0.0044096261950543 0.00015
          0.033244910266578 0.0044096261950543 0.0003 0.033266614576087 0.0058795015934051 0
          0.033266614576087 0.0058795015934051 0.00015 0.033266614576087 0.0058795015934051 0.0003
          0.033288318885596 0.0073493769917596 0 0.033288318885596 0.0073493769917596 0.00015
          0.033288318885596 0.0073493769917596 0.0003 0.031657595460571 0.0087048568522863 0
          0.031657595460571 0.0087048568522863 0.00015 0.031657595460571 0.0087048568522863 0.0003
          0.033310023195106 0.0088192523901195 0 0.033310023195106 0.0088192523901195 0.00015
          0.033310023195106 0.0088192523901195 0.0003 0.031668878259163 0.010155666327672 0
          0.031668878259163 0.010155666327672 0.00015 0.031668878259163 0.010155666327672 0.0003
          0.031680161057755 0.011606475803059 0 0.031680161057755 0.011606475803059 0.00015
          0.031680161057755 0.011606475803059 0.0003 0.031691443856347 0.013057285278446 0
          0.031691443856347 0.013057285278446 0.00015 0.031691443856347 0.013057285278446 0.0003
          <InformationKey name="L2_NORM_RANGE" location="vtkDataArray" length="2">
            <Value index="0">
              0.011720201603
            </Value>
            <Value index="1">
              0.034459060608
            </Value>
          </InformationKey>
        </DataArray>
      </Points>
      <Cells>
        <DataArray type="Int64" Name="connectivity" format="ascii" RangeMin="0" RangeMax="797">
          0 1 2 3 4 5
          6 7 4 5 6 7
          8 9 10 11 12 13
          14 15 16 17 18 19
          16 17 18 19 20 21
          22 23 24 25 26 27
          28 29 30 31 28 29
          30 31 32 33 34 35
          36 37 38 39 40 41
          42 43 40 41 42 43
          44 45 46 47 48 49
          50 51 52 53 54 55
          52 53 54 55 56 57
          58 59 60 61 62 63
          64 65 66 67 64 65
          66 67 68 69 70 71
          72 73 74 12 75 76
          77 16 75 76 77 16
          78 79 80 20 61 81
          82 62 65 83 84 66
          65 83 84 66 69 85
          86 70 87 88 89 90
          91 92 93 94 91 92
          93 94 95 96 97 98
          37 99 100 38 41 101
          102 42 41 101 102 42
          45 103 104 46 81 105
          106 82 83 107 108 84
          83 107 108 84 85 109
          110 86 26 111 112 113
          30 114 115 116 30 114
          115 116 34 117 118 119
          63 120 121 60 67 122
          123 64 67 122 123 64
          71 124 125 68 126 127
          128 129 130 131 132 133
          130 131 132 133 134 135
          136 137 138 72 139 140
          141 75 142 143 141 75
          142 143 144 78 145 146
          150 127 151 152 153 131
          154 155 153 131 154 155
          156 135 157 158 159 160
          161 138 162 163 164 141
          162 163 164 141 165 166
          167 144 120 168 169 170
          122 171 172 173 122 171
          172 173 124 174 175 176
          15 139 72 12 19 142
          75 16 19 142 75 16
          23 145 78 20 177 0
          3 178 179 4 7 180
          179 4 7 180 181 8
          11 182 183 184 726 727
          185 186 728 729 185 186
          728 729 187 188 730 731
          192 193 90 89 194 195
          94 93 194 195 94 93
          196 197 98 97 198 106
          105 199 200 108 107 201
          200 108 107 201 202 110
          109 203 204 13 12 74
          205 17 16 77 205 17
          16 77 206 21 20 80
          207 208 209 210 211 212
          213 214 211 212 213 214
          215 216 217 218 732 733
          734 219 735 736 737 220
          735 736 737 220 738 739
          740 221 222 219 734 223
          224 220 737 225 224 220
          737 225 226 221 740 227
          228 229 170 169 230 231
          173 172 230 231 173 172
          232 233 176 175 234 140
          50 49 235 143 54 53
          235 143 54 53 236 146
          58 57 129 237 238 126
          133 239 240 130 133 239
          240 130 137 241 242 134
          243 244 245 246 247 248
          249 250 247 248 249 250
          251 252 253 254 255 256
          159 234 257 258 162 235
          257 258 162 235 259 260
          165 236 261 262 263 264
          265 266 267 268 265 266
          267 268 269 270 271 272
          273 147 38 100 274 148
          42 102 274 148 42 102
          275 149 46 104 121 276
          277 60 123 278 279 64
          123 278 279 64 125 280
          281 68 282 246 741 283
          284 250 742 285 284 250
          742 285 286 254 743 287
          291 292 82 106 293 294
          84 108 293 294 84 108
          295 296 86 110 99 297
          62 298 101 299 66 300
          101 299 66 300 103 301
          70 302 303 304 147 273
          305 306 148 274 305 306
          148 274 307 308 149 275
          105 204 74 199 107 205
          77 201 107 205 77 201
          109 206 80 203 288 309
          151 282 289 310 154 284
          289 310 154 284 290 311
          157 286 312 313 13 204
          314 315 17 205 314 315
          17 205 316 317 21 206
          99 298 292 100 101 300
          294 102 101 300 294 102
          103 302 296 104 292 298
          62 82 294 300 66 84
          294 300 66 84 296 302
          70 86 151 127 126 243
          154 131 130 247 154 131
          130 247 157 135 134 251
          246 282 151 243 250 284
          154 247 250 284 154 247
          254 286 157 251 100 292
          291 273 102 294 293 274
          102 294 293 274 104 296
          295 275 324 325 297 326
          327 328 299 329 327 328
          299 329 330 331 301 332
          325 63 62 297 328 67
          66 299 328 67 66 299
          331 71 70 301 333 168
          325 324 334 171 328 327
          334 171 328 327 335 174
          331 330 168 120 63 325
          171 122 67 328 171 122
          67 328 174 124 71 331
          312 336 209 337 314 338
          213 339 314 338 213 339
          316 340 217 341 88 256
          255 89 92 258 257 93
          92 258 257 93 96 260
          259 97 342 198 199 343
          344 200 201 345 344 200
          201 345 346 202 203 347
          90 264 348 349 94 268
          350 351 94 268 350 351
          98 272 352 353 354 355
          276 121 356 357 278 123
          356 357 278 123 358 359
          280 125 360 361 333 362
          363 364 334 365 363 364
          334 365 366 367 335 368
          336 277 210 209 338 279
          214 213 338 279 214 213
          340 281 218 217 73 72
          138 161 76 75 141 164
          76 75 141 164 79 78
          144 167 372 14 13 313
          373 18 17 315 373 18
          17 315 374 22 21 317
          168 333 361 169 171 334
          364 172 171 334 364 172
          174 335 367 175 378 361
          360 369 379 364 363 370
          379 364 363 370 380 367
          366 371 381 291 106 198
          382 293 108 200 382 293
          108 200 383 295 110 202
          354 177 178 384 356 179
          180 385 356 179 180 385
          358 181 182 386 37 326
          297 99 41 329 299 101
          41 329 299 101 45 332
          301 103 324 390 362 333
          327 391 365 334 327 391
          365 334 330 392 368 335
          394 393 399 400 396 395
          401 402 396 395 401 402
          398 397 403 404 2 387
          189 405 6 388 190 406
          6 388 190 406 10 389
          191 407 400 399 408 409
          402 401 410 411 402 401
          410 411 404 403 412 413
          414 24 27 415 416 28
          31 417 416 28 31 417
          418 32 35 419 420 87
          90 349 421 91 94 351
          421 91 94 351 422 95
          98 353 199 74 73 343
          201 77 76 345 201 77
          76 345 203 80 79 347
          336 61 60 277 338 65
          64 279 338 65 64 279
          340 69 68 281 426 193
          192 427 428 195 194 429
          428 195 194 429 430 197
          196 431 207 432 433 208
          211 434 435 212 211 434
          435 212 215 436 437 216
          326 438 390 324 329 439
          391 327 329 439 391 327
          332 440 392 330 441 375
          362 390 442 376 365 391
          442 376 365 391 443 377
          368 392 381 303 273 291
          382 305 274 293 382 305
          274 293 383 307 275 295
          348 111 26 25 350 114
          30 29 350 114 30 29
          352 117 34 33 319 444
          309 318 321 445 310 320
          321 445 310 320 323 446
          311 322 432 207 447 448
          434 211 449 450 434 211
          449 450 436 215 451 452
          238 244 243 126 240 248
          247 130 240 248 247 130
          242 252 251 134 140 234
          159 138 143 235 162 141
          143 235 162 141 146 236
          165 144 161 453 343 73
          164 454 345 76 164 454
          345 76 167 455 347 79
          456 457 458 459 460 461
          462 463 460 461 462 463
          464 465 466 467 61 336
          312 81 65 338 314 83
          65 338 314 83 69 340
          316 85 81 312 204 105
          83 314 205 107 83 314
          205 107 85 316 206 109
          468 469 372 337 470 471
          373 339 470 471 373 339
          472 473 374 341 468 337
          209 208 470 339 213 212
          470 339 213 212 472 341
          217 216 474 255 234 49
          475 257 235 53 475 257
          235 53 476 259 236 57
          372 313 312 337 373 315
          314 339 373 315 314 339
          374 317 316 341 152 151
          309 444 155 154 310 445
          155 154 310 445 158 157
          311 446 477 478 139 15
          479 480 142 19 479 480
          142 19 481 482 145 23
          483 484 129 128 485 486
          133 132 485 486 133 132
          487 488 137 136 489 319
          304 303 490 321 306 305
          490 321 306 305 491 323
          308 307 744 741 246 245
          745 742 250 249 745 742
          250 249 746 743 254 253
          492 381 198 342 493 382
          200 344 493 382 200 344
          494 383 202 346 88 495
          159 256 92 496 162 258
          92 496 162 258 96 497
          165 260 498 499 448 447
          500 501 450 449 500 501
          450 449 502 503 452 451
          223 414 415 222 225 416
          417 224 225 416 417 224
          227 418 419 226 354 121
          120 170 356 123 122 173
          356 123 122 173 358 125
          124 176 394 3 2 405
          396 7 6 406 396 7
          6 406 398 11 10 407
          453 161 160 483 454 164
          163 485 454 164 163 485
          455 167 166 487 495 504
          160 159 496 505 163 162
          496 505 163 162 497 506
          166 165 492 489 303 381
          493 490 305 382 493 490
          305 382 494 491 307 383
          264 90 193 261 268 94
          195 265 268 94 195 265
          272 98 197 269 507 508
          184 509 510 511 186 512
          510 511 186 512 513 514
          188 515 237 129 484 516
          239 133 486 517 239 133
          486 517 241 137 488 518
          469 519 520 521 471 522
          523 524 471 522 523 524
          473 525 526 527 457 456
          528 51 461 460 529 55
          461 460 529 55 465 464
          530 59 531 342 343 453
          532 344 345 454 532 344
          345 454 533 346 347 455
          238 183 245 244 240 185
          249 248 240 185 249 248
          242 187 253 252 1 378
          369 423 5 379 370 424
          5 379 370 424 9 380
          371 425 504 484 483 160
          505 486 485 163 505 486
          485 163 506 488 487 166
          453 483 128 531 454 485
          132 532 454 485 132 532
          455 487 136 533 747 726
          184 508 748 728 186 511
          748 728 186 511 749 730
          188 514 478 457 51 50
          480 461 55 54 480 461
          55 54 482 465 59 58
          400 409 384 178 402 411
          385 180 402 411 385 180
          404 413 386 182 420 349
          348 534 421 351 350 535
          421 351 350 535 422 353
          352 536 468 537 519 469
          470 538 522 471 470 538
          522 471 472 539 525 473
          509 184 183 238 512 186
          185 240 512 186 185 240
          515 188 187 242 170 229
          177 354 173 231 179 356
          173 231 179 356 176 233
          181 358 499 498 409 408
          501 500 411 410 501 500
          411 410 503 502 413 412
          540 541 459 458 542 543
          463 462 542 543 463 462
          544 545 467 466 87 546
          495 88 91 547 496 92
          91 547 496 92 95 548
          497 96 228 169 361 378
          230 172 364 379 230 172
          364 379 232 175 367 380
          549 550 276 355 551 552
          278 357 551 552 278 357
          553 554 280 359 478 50
          140 139 480 54 143 142
          480 54 143 142 482 58
          146 145 540 555 556 521
          542 557 558 524 542 557
          558 524 544 559 560 527
          36 441 390 438 40 442
          391 439 40 442 391 439
          44 443 392 440 561 562
          237 516 563 564 239 517
          563 564 239 517 565 566
          241 518 152 444 319 489
          155 445 321 490 155 445
          321 490 158 446 323 491
          567 568 87 420 569 570
          91 421 569 570 91 421
          571 572 95 422 150 492
          342 531 153 493 344 532
          153 493 344 532 156 494
          346 533 477 15 14 555
          479 19 18 557 479 19
          18 557 481 23 22 559
          531 128 127 150 532 132
          131 153 532 132 131 153
          533 136 135 156 24 534
          348 25 28 535 350 29
          28 535 350 29 32 536
          352 33 504 495 546 561
          505 496 547 563 505 496
          547 563 506 497 548 565
          474 192 89 255 475 194
          93 257 475 194 93 257
          476 196 97 259 573 574
          575 427 576 577 578 429
          576 577 578 429 579 580
          581 431 546 582 562 561
          547 583 564 563 547 583
          564 563 548 584 566 565
          561 516 484 504 563 517
          486 505 563 517 486 505
          565 518 488 506 555 540
          458 477 557 542 462 479
          557 542 462 479 559 544
          466 481 550 210 277 276
          552 214 279 278 552 214
          279 278 554 218 281 280
          744 245 183 727 745 249
          185 729 745 249 185 729
          746 253 187 731 210 550
          447 207 214 552 449 211
          214 552 449 211 218 554
          451 215 427 575 585 426
          429 578 586 428 429 578
          586 428 431 581 587 430
          150 152 489 492 153 155
          490 493 153 155 490 493
          156 158 491 494 48 588
          574 573 52 589 577 576
          52 589 577 576 56 590
          580 579 573 474 49 48
          576 475 53 52 576 475
          53 52 579 476 57 56
          562 509 238 237 564 512
          240 239 564 512 240 239
          566 515 242 241 372 556
          555 14 373 558 557 18
          373 558 557 18 374 560
          559 22 534 591 567 420
          535 592 569 421 535 592
          569 421 536 593 571 422
          521 556 372 469 524 558
          373 471 524 558 373 471
          527 560 374 473 178 3
          394 400 180 7 396 402
          180 7 396 402 182 11
          398 404 263 594 595 596
          267 597 598 599 267 597
          598 599 271 600 601 602
          549 355 354 384 551 357
          356 385 551 357 356 385
          553 359 358 386 0 228
          378 1 4 230 379 5
          4 230 379 5 8 232
          380 9 426 585 603 262
          428 586 604 266 428 586
          604 266 430 587 605 270
          582 546 87 568 583 547
          91 570 583 547 91 570
          584 548 95 572 474 573
          427 192 475 576 429 194
          475 576 429 194 476 579
          431 196 262 603 594 263
          266 604 597 267 266 604
          597 267 270 605 600 271
          537 468 208 433 538 470
          212 435 538 470 212 435
          539 472 216 437 36 438
          326 37 40 439 329 41
          40 439 329 41 44 440
          332 45 541 540 521 520
          543 542 524 523 543 542
          524 523 545 544 527 526
          1 423 387 2 5 424
          388 6 5 424 388 6
          9 425 389 10 498 447
          550 549 500 449 552 551
          500 449 552 551 502 451
          554 553 228 0 177 229
          230 4 179 231 230 4
          179 231 232 8 181 233
          507 582 568 606 510 583
          570 607 510 583 570 607
          513 584 572 608 588 48
          51 528 589 52 55 529
          589 52 55 529 590 56
          59 530 609 567 591 610
          611 569 592 612 611 569
          592 612 613 571 593 614
          596 595 615 112 599 598
          616 115 599 598 616 115
          602 601 617 118 414 591
          534 24 416 592 535 28
          416 592 535 28 418 593
          536 32 262 261 193 426
          266 265 195 428 266 265
          195 428 270 269 197 430
          223 610 591 414 225 612
          592 416 225 612 592 416
          227 614 593 418 477 458
          457 478 479 462 461 480
          479 462 461 480 481 466
          465 482 610 747 508 609
          612 748 511 611 612 748
          511 611 614 749 514 613
          549 384 409 498 551 385
          411 500 551 385 411 500
          553 386 413 502 223 734
          747 610 225 737 748 612
          225 737 748 612 227 740
          749 614 596 618 264 263
          599 619 268 267 599 619
          268 267 602 620 272 271
          507 606 609 508 510 607
          611 511 510 607 611 511
          513 608 613 514 582 507
          509 562 583 510 512 564
          583 510 512 564 584 513
          515 566 113 621 27 26
          116 622 31 30 116 622
          31 30 119 623 35 34
          112 615 624 113 115 616
          625 116 115 616 625 116
          118 617 626 119 609 606
          568 567 611 607 570 569
          611 607 570 569 613 608
          572 571 112 111 618 596
          115 114 619 599 115 114
          619 599 118 117 620 602
          113 624 627 621 116 625
          628 622 116 625 628 622
          119 626 629 623 111 348
          264 618 114 350 268 619
          114 350 268 619 117 352
          272 620 27 621 627 630
          31 622 628 631 31 622
          628 631 35 623 629 632
          633 27 630 634 635 31
          631 636 635 31 631 636
          637 35 632 638 639 633
          634 640 641 635 636 642
          641 635 636 642 643 637
          638 644 645 639 640 646
          647 641 642 648 647 641
          642 648 649 643 644 650
          651 415 27 633 652 417
          31 635 652 417 31 635
          653 419 35 637 654 651
          633 639 655 652 635 641
          655 652 635 641 656 653
          637 643 657 654 639 645
          658 655 641 647 658 655
          641 647 659 656 643 649
          660 222 415 651 661 224
          417 652 661 224 417 652
          662 226 419 653 663 660
          651 654 664 661 652 655
          664 661 652 655 665 662
          653 656 666 663 654 657
          667 664 655 658 667 664
          655 658 668 665 656 659
          669 219 222 660 670 220
          224 661 670 220 224 661
          671 221 226 662 672 669
          660 663 673 670 661 664
          673 670 661 664 674 671
          662 665 675 672 663 666
          676 673 664 667 676 673
          664 667 677 674 665 668
          750 732 219 669 751 735
          220 670 751 735 220 670
          752 738 221 671 678 750
          669 672 679 751 670 673
          679 751 670 673 680 752
          671 674 681 678 672 675
          682 679 673 676 682 679
          673 676 683 680 674 677
          684 753 750 678 685 754
          751 679 685 754 751 679
          686 755 752 680 687 684
          678 681 688 685 679 682
          688 685 679 682 689 686
          680 683 690 756 753 684
          691 757 754 685 691 757
          754 685 692 758 755 686
          693 690 684 687 694 691
          685 688 694 691 685 688
          695 692 686 689 696 759
          756 690 697 760 757 691
          697 760 757 691 698 761
          758 692 699 696 690 693
          700 697 691 694 700 697
          691 694 701 698 692 695
          702 762 759 696 703 763
          760 697 703 763 760 697
          704 764 761 698 705 702
          696 699 706 703 697 700
          706 703 697 700 707 704
          698 701 708 645 646 709
          710 647 648 711 710 647
          648 711 712 649 650 713
          765 708 709 766 767 710
          711 768 767 710 711 768
          769 712 713 770 714 657
          645 708 715 658 647 710
          715 658 647 710 716 659
          649 712 771 714 708 765
          772 715 710 767 772 715
          710 767 773 716 712 769
          717 666 657 714 718 667
          658 715 718 667 658 715
          719 668 659 716 774 717
          714 771 775 718 715 772
          775 718 715 772 776 719
          716 773 720 675 666 717
          721 676 667 718 721 676
          667 718 722 677 668 719
          777 720 717 774 778 721
          718 775 778 721 718 775
          779 722 719 776 723 681
          675 720 724 682 676 721
          724 682 676 721 725 683
          677 722 780 723 720 777
          781 724 721 778 781 724
          721 778 782 725 722 779
          783 687 681 723 784 688
          682 724 784 688 682 724
          785 689 683 725 786 783
          723 780 787 784 724 781
          787 784 724 781 788 785
          725 782 789 693 687 783
          790 694 688 784 790 694
          688 784 791 695 689 785
          792 699 693 789 793 700
          694 790 793 700 694 790
          794 701 695 791 795 705
          699 792 796 706 700 793
          796 706 700 793 797 707
          701 794
        </DataArray>
        <DataArray type="Int64" Name="offsets" format="ascii" RangeMin="8" RangeMax="3632">
          8 16 24 32 40 48
          56 64 72 80 88 96
          104 112 120 128 136 144
          152 160 168 176 184 192
          200 208 216 224 232 240
          248 256 264 272 280 288
          296 304 312 320 328 336
          344 352 360 368 376 384
          392 400 408 416 424 432
          440 448 456 464 472 480
          488 496 504 512 520 528
          536 544 552 560 568 576
          584 592 600 608 616 624
          632 640 648 656 664 672
          680 688 696 704 712 720
          728 736 744 752 760 768
          776 784 792 800 808 816
          824 832 840 848 856 864
          872 880 888 896 904 912
          920 928 936 944 952 960
          968 976 984 992 1000 1008
          1016 1024 1032 1040 1048 1056
          1064 1072 1080 1088 1096 1104
          1112 1120 1128 1136 1144 1152
          1160 1168 1176 1184 1192 1200
          1208 1216 1224 1232 1240 1248
          1256 1264 1272 1280 1288 1296
          1304 1312 1320 1328 1336 1344
          1352 1360 1368 1376 1384 1392
          1400 1408 1416 1424 1432 1440
          1448 1456 1464 1472 1480 1488
          1496 1504 1512 1520 1528 1536
          1544 1552 1560 1568 1576 1584
          1592 1600 1608 1616 1624 1632
          1640 1648 1656 1664 1672 1680
          1688 1696 1704 1712 1720 1728
          1736 1744 1752 1760 1768 1776
          1784 1792 1800 1808 1816 1824
          1832 1840 1848 1856 1864 1872
          1880 1888 1896 1904 1912 1920
          1928 1936 1944 1952 1960 1968
          1976 1984 1992 2000 2008 2016
          2024 2032 2040 2048 2056 2064
          2072 2080 2088 2096 2104 2112
          2120 2128 2136 2144 2152 2160
          2168 2176 2184 2192 2200 2208
          2216 2224 2232 2240 2248 2256
          2264 2272 2280 2288 2296 2304
          2312 2320 2328 2336 2344 2352
          2360 2368 2376 2384 2392 2400
          2408 2416 2424 2432 2440 2448
          2456 2464 2472 2480 2488 2496
          2504 2512 2520 2528 2536 2544
          2552 2560 2568 2576 2584 2592
          2600 2608 2616 2624 2632 2640
          2648 2656 2664 2672 2680 2688
          2696 2704 2712 2720 2728 2736
          2744 2752 2760 2768 2776 2784
          2792 2800 2808 2816 2824 2832
          2840 2848 2856 2864 2872 2880
          2888 2896 2904 2912 2920 2928
          2936 2944 2952 2960 2968 2976
          2984 2992 3000 3008 3016 3024
          3032 3040 3048 3056 3064 3072
          3080 3088 3096 3104 3112 3120
          3128 3136 3144 3152 3160 3168
          3176 3184 3192 3200 3208 3216
          3224 3232 3240 3248 3256 3264
          3272 3280 3288 3296 3304 3312
          3320 3328 3336 3344 3352 3360
          3368 3376 3384 3392 3400 3408
          3416 3424 3432 3440 3448 3456
          3464 3472 3480 3488 3496 3504
          3512 3520 3528 3536 3544 3552
          3560 3568 3576 3584 3592 3600
          3608 3616 3624 3632
        </DataArray>
        <DataArray type="UInt8" Name="types" format="ascii" RangeMin="12" RangeMax="12">
          12 12 12 12 12 12
          12 12 12 12 12 12
          12 12 12 12 12 12
          12 12 12 12 12 12
          12 12 12 12 12 12
          12 12 12 12 12 12
          12 12 12 12 12 12
          12 12 12 12 12 12
          12 12 12 12 12 12
          12 12 12 12 12 12
          12 12 12 12 12 12
          12 12 12 12 12 12
          12 12 12 12 12 12
          12 12 12 12 12 12
          12 12 12 12 12 12
          12 12 12 12 12 12
          12 12 12 12 12 12
          12 12 12 12 12 12
          12 12 12 12 12 12
          12 12 12 12 12 12
          12 12 12 12 12 12
          12 12 12 12 12 12
          12 12 12 12 12 12
          12 12 12 12 12 12
          12 12 12 12 12 12
          12 12 12 12 12 12
          12 12 12 12 12 12
          12 12 12 12 12 12
          12 12 12 12 12 12
          12 12 12 12 12 12
          12 12 12 12 12 12
          12 12 12 12 12 12
          12 12 12 12 12 12
          12 12 12 12 12 12
          12 12 12 12 12 12
          12 12 12 12 12 12
          12 12 12 12 12 12
          12 12 12 12 12 12
          12 12 12 12 12 12
          12 12 12 12 12 12
          12 12 12 12 12 12
          12 12 12 12 12 12
          12 12 12 12 12 12
          12 12 12 12 12 12
          12 12 12 12 12 12
          12 12 12 12 12 12
          12 12 12 12 12 12
          12 12 12 12 12 12
          12 12 12 12 12 12
          12 12 12 12 12 12
          12 12 12 12 12 12
          12 12 12 12 12 12
          12 12 12 12 12 12
          12 12 12 12 12 12
          12 12 12 12 12 12
          12 12 12 12 12 12
          12 12 12 12 12 12
          12 12 12 12 12 12
          12 12 12 12 12 12
          12 12 12 12 12 12
          12 12 12 12 12 12
          12 12 12 12 12 12
          12 12 12 12 12 12
          12 12 12 12 12 12
          12 12 12 12 12 12
          12 12 12 12 12 12
          12 12 12 12 12 12
          12 12 12 12 12 12
          12 12 12 12 12 12
          12 12 12 12 12 12
          12 12 12 12 12 12
          12 12 12 12 12 12
          12 12 12 12 12 12
          12 12 12 12 12 12
          12 12 12 12 12 12
          12 12 12 12
        </DataArray>
      </Cells>
    </Piece>
  </UnstructuredGrid>
</VTKFile>
