<?xml version="1.0"?>
<VTKFile type="UnstructuredGrid" version="0.1" byte_order="LittleEndian" header_type="UInt32" compressor="vtkZLibDataCompressor">
  <UnstructuredGrid>
    <Piece NumberOfPoints="795" NumberOfCells="454">
      <PointData>
        <DataArray type="Int32" Name="libmesh_node_id" format="ascii" RangeMin="2220" RangeMax="4979">
          2220 2221 2222 2223 2224 2225
          2226 2227 2228 2229 2230 2231
          2388 2389 2390 2391 2392 2393
          2394 2395 2396 2397 2398 2399
          2402 2405 2408 2409 2410 2411
          2463 2464 2465 2466 2467 2468
          2469 2470 2471 2472 2473 2474
          2475 2476 2477 2478 2479 2480
          2499 2500 2501 2502 2503 2504
          2505 2506 2507 2508 2509 2510
          2511 2512 2513 2514 2515 2516
          2517 2518 2519 2520 2521 2522
          2613 2614 2616 2617 2618 2620
          2621 2622 2624 2652 2653 2654
          2655 2656 2657 2658 2659 2660
          2661 2662 2663 2697 2701 2705
          2721 2722 2723 2724 2725 2726
          2736 2737 2738 2739 2740 2741
          2742 2743 2744 2745 2746 2747
          2748 2749 2750 2751 2752 2753
          2754 2755 2756 2757 2758 2759
          2760 2761 2762 2763 2764 2765
          2778 2779 2780 2781 2782 2783
          2784 2785 2786 2862 2863 2864
          2865 2866 2867 2868 2869 2870
          2871 2872 2873 2922 2923 2924
          2925 2926 2927 2940 2941 2942
          2943 2944 2945 2946 2947 2948
          2958 2959 2960 2961 2962 2963
          2964 2965 2966 2967 2968 2969
          2992 2993 2996 2997 3000 3001
          3018 3019 3020 3021 3022 3023
          3036 3039 3040 3043 3044 3047
          3060 3061 3062 3063 3064 3065
          3066 3067 3068 3069 3070 3071
          3072 3073 3074 3075 3076 3077
          3180 3181 3182 3183 3184 3185
          3204 3205 3206 3207 3208 3209
          3240 3242 3244 3258 3260 3262
          3273 3274 3275 3276 3277 3278
          3279 3280 3281 3282 3283 3284
          3285 3286 3287 3288 3289 3290
          3291 3292 3293 3294 3295 3296
          3297 3298 3299 3348 3349 3350
          3351 3352 3353 3354 3355 3356
          3357 3358 3359 3360 3361 3362
          3363 3364 3365 3369 3370 3371
          3372 3373 3374 3399 3400 3401
          3402 3403 3404 3405 3406 3407
          3408 3409 3410 3411 3412 3413
          3414 3415 3416 3417 3418 3419
          3420 3421 3422 3462 3463 3464
          3486 3487 3488 3489 3490 3491
          3507 3508 3509 3510 3511 3512
          3527 3530 3533 3534 3535 3536
          3555 3556 3557 3558 3559 3560
          3561 3562 3563 3579 3580 3581
          3594 3595 3596 3597 3598 3599
          3603 3604 3605 3606 3607 3608
          3621 3622 3623 3624 3625 3626
          3627 3628 3629 3642 3643 3644
          3645 3646 3647 3648 3649 3650
          3651 3652 3653 3669 3670 3671
          3672 3673 3674 3675 3676 3677
          3678 3679 3680 3681 3682 3683
          3750 3751 3752 3753 3754 3755
          3756 3757 3758 3759 3760 3761
          3780 3781 3782 3783 3784 3785
          3909 3910 3911 3912 3913 3914
          3915 3916 3917 3918 3919 3920
          3951 3952 3953 3966 3967 3968
          3975 3976 3977 3978 3979 3980
          3981 3982 3983 3984 3985 3986
          3987 3988 3989 3990 3991 3992
          4008 4009 4010 4011 4012 4013
          4014 4015 4016 4017 4018 4019
          4020 4021 4022 4023 4024 4025
          4026 4027 4028 4029 4030 4031
          4041 4042 4043 4044 4045 4046
          4047 4048 4049 4050 4051 4052
          4068 4069 4070 4080 4081 4082
          4092 4093 4094 4095 4096 4097
          4098 4099 4100 4101 4102 4103
          4122 4123 4124 4125 4126 4127
          4146 4147 4148 4149 4150 4151
          4152 4153 4154 4155 4156 4157
          4158 4159 4160 4173 4174 4175
          4176 4177 4178 4179 4180 4181
          4182 4183 4184 4188 4189 4190
          4194 4195 4196 4197 4198 4199
          4200 4201 4202 4203 4204 4205
          4218 4219 4220 4221 4222 4223
          4230 4231 4232 4266 4267 4268
          4281 4282 4283 4299 4300 4301
          4305 4306 4307 4308 4309 4310
          4311 4312 4313 4335 4336 4337
          4341 4342 4343 4395 4396 4397
          4455 4456 4457 4473 4474 4475
          4476 4477 4478 4515 4516 4517
          4578 4579 4580 4581 4582 4583
          4614 4615 4616 4704 4705 4706
          4707 4708 4709 4710 4711 4712
          4713 4714 4715 4737 4738 4739
          4740 4741 4742 4821 4822 4823
          4842 4843 4844 4845 4846 4847
          4854 4855 4856 4857 4858 4859
          4860 4861 4862 4863 4864 4865
          4866 4867 4868 4875 4876 4877
          4878 4879 4880 4908 4909 4910
          4914 4915 4916 4932 4933 4934
          4941 4942 4943 4977 4978 4979
          2400 2401 2403 2404 2406 2407
          2615 2619 2623 2698 2699 2700
          2702 2703 2704 2706 2707 2708
          2991 2994 2995 2998 2999 3002
          2331 2330 2335 2334 2339 2338
          3241 3243 3245 3259 3186 3188
          3261 3189 3191 3263 3192 3194
          3448 3450 3452 3525 3526 3528
          3529 3531 3532 3537 3538 3539
          3540 3541 3542 3654 3657 3660
          2328 2332 2336 3852 3853 3854
          3993 3994 3995 4338 4339 4340
          3513 3514 3515 4458 4321 4459
          4324 4460 4327 4584 4585 4586
          4587 4588 4589 4791 4792 4793
          4794 4795 4796 4797 4798 4799
          4431 4432 4433 3495 3187 3499
          3190 3503 3193 3954 3957 3958
          3961 3962 3965 4899 4900 4901
          4968 4969 4970 4911 4912 4913
          3498 3502 3506 4902 4903 4904
          4434 4436 4438
        </DataArray>
        <DataArray type="Float64" Name="resid_x" format="ascii" RangeMin="-0.05346368041014582" RangeMax="0.03540606023585102">
          -0.002259187315610589 0.0016260473610190118 0.002681120973177187 0.0026987124525188477 -0.005128601779638586 0.0022997348924667094
          0.0025481244127378844 0.0029485294533575512 -0.005984957930028401 -0.0013820237767427912 -0.0005397264783431055 -0.0003507632304469155
          0.00026687772947209254 -0.003511502905503505 -0.0032732017743262176 -0.000994204447261282 -0.0012340284184508832 -0.01247132458117406
          -0.00897282393081511 -0.00941951001256669 -0.01715222339569067 -0.019233566542661507 -0.017287691767235103 -0.02069391712021673
          -0.02067455089989778 -0.031048498858641693 -0.02206335541279003 -0.020749302965493932 -0.026214729984907592 -0.018463804004826834
          -0.002027778540034997 -0.003836929839083514 -0.0003440582701450534 -0.003824583413974514 -0.001663130832434856 -0.003445367491828444
          -0.000605494901460002 0.0006543438185002692 0.0005558335109308032 0.0008238336859502926 -0.0024327285953456013 -0.0016468891856509238
          -0.004978413636743895 -0.0038981633188608367 -0.010135014365754369 -0.013131566926047444 -0.010957257429277334 -0.007213461008572564
          -0.00020902126150357248 -0.00009716419790617437 -0.00015237902351472599 0.0007277591517902415 -0.001520845031992124 -0.0011933471237624005
          -0.003429652763109914 -0.0010434975440327676 -0.005310978927040466 -0.005389972212817007 -0.004977141453190725 -0.003958168526529082
          -0.00043730586348589284 0.0009791185629763888 0.000966284092223546 0.0005537283431236162 -0.0022140812791970887 -0.003654792378688043
          -0.0016350538914799984 -0.0029893311194255645 -0.00866626852321728 -0.011035642761873632 -0.008900029610354743 -0.009627404601733502
          -0.0010384444457871567 -0.007978913003127808 -0.000049275090717060266 -0.00442587847029241 -0.01723304108101953 -0.01116635597841853
          -0.014805792912707005 -0.016202038971139032 -0.022867672932782135 -0.0006184427003015358 0.0011493833765943151 0.0010737507211314168
          0.00279012317084959 -0.0024344763393209234 -0.0025752544653654397 -0.0003378556337806371 -0.002621311173108154 -0.017915820476148703
          -0.012380028384990638 -0.019684512668912857 -0.021545658414840574 -0.02119495227128043 -0.03197359046363779 -0.02424070716298221
          -0.0006929395883468192 -0.0004217771051067132 0.0003752516042347942 0.0005181502814490813 -0.002035816481845032 -0.0031522553134575304
          -0.0008209557813270152 -0.0027439548472862896 -0.001105288557648798 -0.001441500726506284 -0.0046946074532652204 -0.0025261759100523307
          -0.002046767550085704 -0.004087501715096309 -0.004548793451723654 -0.00012021811222229228 -0.000989185261389025 -0.0011521728760985894
          0.0005982520414511971 -0.001447293009123718 -0.004241021111243803 -0.0047850489976193344 -0.0022570308882081946 -0.005129949796274458
          -0.008053349828269774 -0.01108276265768815 -0.008564230603672063 -0.0012982338763842804 -0.001929581442342343 -0.0010963054714938636
          -0.003468951325410252 -0.00234911782659486 -0.0034909695058580326 -0.0054474995334441445 -0.0036381297547030123 -0.005937339259076246
          -0.002971812270502916 -0.0026180463576701563 -0.00030503100833279007 -0.002983550984573924 -0.0026271397670654117 -0.0000522465839818409
          -0.0028505039735637894 -0.0033429485888882837 -0.004738580093248679 -0.0039403036058685 0.00046219595646634914 -0.0006537825536374886
          -0.006847860736185707 -0.0043897362948612795 -0.0003300716781988733 -0.002127666759747071 -0.007753437544200992 -0.009725574897228029
          -0.005457088446760405 -0.008853196350301962 -0.015705219316198837 -0.00017553644442802607 -0.001951279235968606 -0.00035468031894492213
          -0.005517780423872409 -0.017055156663800197 -0.01985461393107535 -0.0029739214474187037 -0.0027465545442995065 -0.009336152648950602
          -0.00404018426777597 -0.006799190957557322 -0.007150690437811136 -0.013495195608451027 -0.010880167221837489 -0.007767406745508687
          0.0015379119667824348 0.00150945476456954 -0.0018901697836266607 -0.006375732745569351 0.004318418304650962 0.001526430714902105
          -0.0032899874584710886 -0.0040626070225213695 0.0009961353562619735 -0.0020633666395601935 -0.006760710007601034 -0.006943285891465756
          0.0037868465016561714 0.002375980137188094 -0.00016700399377267416 -0.0008256560492636567 -0.002741614387102409 -0.003767826984844902
          -0.004705184543637664 -0.006200961824579743 -0.004601458061813446 -0.007531743136858893 -0.009385619990367466 -0.005567652743382112
          -0.012339540646300051 -0.010217625948547138 -0.015191990128165855 -0.013342039007758544 -0.010156567304976605 -0.010057764704402672
          -0.005469456598293121 -0.00345929731591621 -0.004808732133538385 -0.0030558932515698523 -0.010854090346430922 -0.00851713301055046
          -0.004923109278301752 -0.00045433947571504874 -0.0017054324624954376 -0.0026215855213234107 0.0009487321054590936 0.003050769678187848
          -0.003020398020351145 -0.0013948966045944644 -0.0008122778417547494 -0.004638301724842364 -0.01659290138961733 -0.01921724653485768
          -0.006942781521972807 -0.010716171825006171 -0.00218635800562611 -0.018723926664566015 -0.013408931240091904 -0.020908188558269813
          -0.007117987182292618 -0.012040123133417957 0.0020667510731056105 -0.021612758199791138 -0.011072127513206631 -0.021199491919486668
          -0.005181387420542194 -0.0033746158514968982 -0.001541600661735032 -0.013595506511520306 -0.027980382084784594 -0.013100280727628366
          -0.01798581184830006 -0.01264340641312156 -0.018218304843832023 -0.008357503865715543 -0.015284887907308864 -0.023790465199192035
          -0.018314178416042104 -0.005742856311504951 -0.011968773552545997 -0.011332611619193855 -0.014728206332590865 -0.006987074097946078
          -0.0047613259457190416 -0.0027691232798048304 -0.007192803624400668 -0.004041629521447543 -0.0018801797768031037 -0.005279787323419161
          -0.006084657019190143 -0.008042249120082445 -0.012359552595789136 -0.007750713098430728 -0.006521200412168859 -0.004609808131571469
          -0.0036001807906203 -0.010093817244010705 -0.013607757679150012 -0.007712364175887387 -0.0039498564410962445 -0.0043070558991162855
          -0.000029007768396205336 0.0005283002681082394 -0.004206077621702775 -0.0053397806259338765 -0.0008539519364889614 0.00000659400558511436
          -0.00884337313838568 -0.006832120439114853 -0.007413298370492427 -0.009717714071638461 -0.014845555126258958 -0.012630881079261691
          -0.015175456408512922 -0.007090395185219478 -0.014329224729952017 -0.014419235038405809 -0.00625836875539143 -0.010091975452797719
          -0.030545319066862753 -0.03570107215072227 -0.020916491082872746 -0.00794126829591324 -0.002877089889421036 -0.0039442774943854175
          -0.002885533290104547 -0.0009998872792591484 -0.000042452152626992756 0.0007567830122496844 -0.002012459853334647 0.009508982475681549
          0.005266599493674029 0.0035917164778282995 -0.000788502079069886 -0.008863261778290443 -0.009923062832633889 -0.0031604322019189723
          -0.002371582440350739 -0.012087770640003548 -0.010723253671693467 -0.004136408752472676 -0.0025328648239515417 -0.002390687900962085
          -0.0008832852409330627 -0.00271163643089789 -0.0031822681960154142 -0.008330461631223418 -0.004365303497184003 -0.011906029336603119
          -0.004632793302579152 -0.005575741655767352 0.0028882008824595573 0.0016392979212713765 0.0008295553127304345 0.0022142417663628677
          -0.004228046677528408 -0.002782289360443002 -0.0036856115683175927 -0.0013387356635075065 -0.005059250247013425 -0.0019511827261400327
          -0.013975640687565516 -0.023050591089794015 -0.019899663539917345 -0.014862308492242349 -0.005236045805395051 -0.015137904310425832
          -0.004505603625006627 -0.0018518255489832214 -0.0032876459408763825 -0.0011794698867149123 -0.003993134621295358 -0.0010398404489624369
          -0.011152982473102924 0.0016420462657009693 -0.010611445929924912 -0.019990760970735266 -0.022051503389471705 -0.010300111851265115
          -0.02340161257243345 -0.024458027776224966 0.0006621859717075296 0.0006510367933447725 -0.013287779768450747 -0.010428629075421192
          -0.012623516173406735 -0.0062221041273051725 -0.004007937926746585 -0.003299443694676718 -0.011110054688494575 -0.01286176248569948
          -0.002974706781122549 -0.004758715186964579 -0.003485145416002311 -0.0010409457099038733 -0.0044932246879341164 -0.003044963242724741
          -0.002157259143004353 -0.0033766089667874866 -0.002441297203415793 -0.003279047704307203 0.00024966469125686785 -0.002619529672702292
          -0.007622142259847919 -0.0025235481905578894 -0.000713508869172319 -0.0018575817849093568 -0.010913276625725388 -0.014689232779271144
          -0.009420813728129307 -0.01230999228102192 -0.020822196852352093 -0.00007368816514841114 -0.0002867824348840031 -0.0032348536817101703
          0.0016343812527725987 -0.0026285115539002035 -0.0005134302382510114 -0.0121108528430387 -0.002645625998758838 -0.01630181745919934
          -0.018659429846577424 -0.019798557520936733 -0.01791895970304669 -0.021507914455725086 -0.004352814125458515 -0.016104832234205446
          -0.004316698132413199 -0.006347805253561489 -0.0018875810412344318 -0.0039677694740332115 -0.01591719264839142 -0.0157897897076289
          -0.007425368134259536 -0.011482601229521272 -0.009777224124442263 -0.024101819044218153 -0.01550323085912897 -0.016062326483502254
          -0.004504961130721075 -0.007703373425133109 -0.0018530401991529999 -0.0033193248248590823 -0.015339135904200774 -0.01840339244893463
          -0.00802051372306778 -0.015428979335138315 -0.000475089703561693 -0.008967826772539489 -0.01583110445317537 -0.018517152782389523
          -0.007013556219106043 -0.0050813898920569756 -0.0011701409935147566 -0.0012985936318550273 -0.0162046077420408 -0.012811557276086294
          -0.020349070350405896 -0.008329738361844363 -0.013361423544336226 -0.015717504789499515 -0.0052949118237406445 -0.014729005554541708
          -0.0008570003140708771 -0.005346004286131745 -0.00873402621740027 -0.006767699428007035 -0.0004922487224456873 -0.00562771843329557
          -0.009307176349216295 -0.005333708506835677 -0.010767319827269528 -0.006587050135808958 -0.01453374773642313 -0.014546558252622077
          -0.01869240616286172 -0.007555740739091377 -0.02894771533807594 0.0003369758241582588 -0.02175613427205425 -0.009331864763304942
          -0.013253676944278148 -0.007581350699545908 -0.00019167583426682455 -0.009071052589257 -0.028213091220800735 -0.017089869152556503
          -0.0006190174939231241 -0.018851197736531766 -0.017293854571466483 -0.014513560956519456 -0.006098348309346413 -0.013005066936009335
          -0.017494556577383413 -0.01276268113770751 -0.014795380992850049 -0.020257185548254952 -0.02108379453265563 -0.019423993832209163
          -0.015838309011648732 -0.0128697568890912 -0.013479027560878265 -0.018455691387027073 -0.008822659695359558 -0.026067855079079383
          -0.009875677689459295 -0.007963094563962658 -0.006878586314402746 -0.004118799783524807 -0.006245134118152862 -0.0034174458215986414
          -0.017122639788663463 -0.012130827034221525 -0.00840243789115025 -0.006377417604827684 -0.01778841349716398 -0.013472377773739552
          -0.013638592395034621 -0.0037141954943145095 -0.0157223509991109 -0.025623517344994795 -0.0038554581111309716 -0.008737210523904082
          -0.011619042985186567 -0.006495547301556215 -0.003574419981989152 -0.0051432929157355645 -0.012008092468181353 -0.007523171350651836
          -0.015011632932941943 -0.014485022077854737 -0.0074477614898693645 -0.021026562640358293 -0.010166086473624603 -0.013920326240674186
          -0.011489676760452205 -0.008785290237243615 -0.01818317326657848 -0.01552544487843388 -0.012594643614448842 -0.010962154836083648
          -0.007168218581671937 -0.005331644168170335 -0.003796479916145401 -0.011723384104722179 -0.004420847209258838 -0.007428323421491356
          -0.008889042019103677 -0.006644088505373347 -0.005577967950182838 -0.011518196154334248 -0.009779462716162257 -0.009211197182812825
          -0.00657954325545429 -0.009924128224215067 -0.010351259069333985 -0.012379605322512255 -0.009219781031275076 -0.007316176382112793
          -0.006731444230694272 -0.012261654655350007 -0.011977971853867508 -0.005214910391099892 -0.0023741441502780347 -0.0023378937629461305
          -0.0019626363858211704 -0.004123851296808034 -0.0023636789190035756 -0.013355774307985513 -0.013403277000451297 -0.014266531457386655
          0.0009509826959108736 -0.0028311633824413818 0.01305036667567716 0.012167737418789848 0.004159781346432467 -0.005555330618311594
          0.026289199455217904 0.02741907817082101 0.00014753967603819973 -0.0002978592191231755 0.014188416218382294 0.012954532629080084
          0.011133495512526181 -0.001083309474885219 0.025908777205200018 0.005676623114936774 0.011068353923303853 0.0034067150173742178
          -0.004861552153606397 -0.0005693515306779418 -0.0034296846207499954 0.0007512177023460964 0.0035952289124647763 0.00029772441319053655
          -0.009012215126206868 -0.003991361787027081 -0.01310948080208263 -0.015513518783444091 -0.011106037052917905 -0.017922125731535843
          -0.013779202367540933 -0.005952605220564955 -0.012948073617994993 -0.007504990629903396 -0.0046388575667100085 -0.0040806943791347194
          -0.0030254853593190134 -0.008035420600632115 -0.004734739881798511 -0.009704171569838493 -0.004020029122359325 -0.007247365993324095
          -0.011055681616900515 -0.0059332886630931725 0.002579535086925766 -0.021446783031397132 -0.02829221813531646 -0.021307892944077977
          -0.01874422859573155 -0.010573411816046097 -0.009997511812084525 -0.02446621492438439 -0.019155077197664738 -0.031029313035877415
          -0.023809568507903833 -0.02421489735255289 -0.020810479521906622 -0.02474300077846836 -0.004681410973379041 -0.010203496059196127
          -0.011350318445510155 -0.005641448972623309 -0.012741450470091564 -0.006613428332205906 -0.0025376260871343703 -0.002866667445056592
          -0.011998606515698285 0.0014296488004710284 -0.006804479622095627 -0.029627638185033334 -0.04462487401076487 -0.0051645350876574625
          -0.011514365986685426 -0.0039506006534670846 0.003972542363994691 0.005152596030794321 0.015959871653197233 0.011423525055148431
          0.03540606023585102 -0.006720470908050835 0.015713456293172 -0.002057780049117053 0.003194920670168244 -0.0019256513987024881
          0.006910414505463258 -0.003214093474618984 0.002453942817635557 -0.01067388380251355 -0.004724086266268301 -0.002773419216784312
          -0.014158865700493628 -0.017998576858033744 -0.011746293631547111 -0.020997933229695676 -0.03465490071587496 -0.01970060139819818
          0.0012600908192546 0.0023882028834680824 -0.0019926169689474804 0.004959249569194135 -0.05346368041014582 -0.013406112109185742
          0.008444070432147122 -0.0016285331460812458 0.012971066029876965 0.016958649640688606 -0.0024780371964352454 0.02452064255101316
          0.0063957299110311006 -0.0033298677214688155 0.008567825282678854 0.013416530603240773 -0.003380593126090403 0.026898263115395782
          -0.0016635689148243316 0.01103254112829477 -0.0036773990841458826 -0.00618301928769327 -0.005301713218375248 0.002641075497575862
          -0.0029168270320596434 -0.0026811990507908945 -0.0026806634528013795 0.004637526588781249 0.010762324228990927 0.004669189049810285
          -0.02503093229616038 -0.029510961002650493 -0.018703729930093616 -0.00919432038056156 -0.0008760168113153277 -0.0047004253947298125
          -0.02015174969325706 -0.004061267460865103 -0.028370925166901984 -0.006213046682320922 -0.02238953416216649 -0.01162141456236565
          -0.014980282655987942 -0.019198023640013773 -0.026016979974258447 -0.010189722536079415 -0.012256215906236712 -0.0049218075634147596
          -0.01968759191208136 -0.008103881086144682 -0.001279125588683705 -0.018999030538594752 -0.016407751828269035 -0.0096987019292607
          -0.005167565794728546 -0.002177175334214354 -0.0004220864782311651 -0.00196193331688832 0.006324233908895138 0.0009044647959770558
          -0.010562789940015804 -0.0005856790240714727 -0.02899427663679166 -0.005477758369294428 -0.023916745949490004 -0.01647364776008553
          -0.003840224112330759 -0.008362577077724254 -0.0016713516340276513 -0.02074341405031266 -0.009161476511026834 -0.020214171806259174
          -0.019319225054399425 0.0009198496846245519 -0.03478276874967534 -0.009725855170890085 -0.010260020085894439 -0.00609210883376754
          -0.013150975887746608 -0.010307186146462755 -0.01626202682334643 -0.010946001091614477 -0.016609070303800877 -0.02490821844000024
          -0.0261590922036099 -0.020730197868946476 -0.018986932515158372 -0.023284656381315827 -0.01937996058448288 -0.0271390443357582
          -0.013224698168256666 -0.014480932072095776 -0.010316792000278241 -0.007042242563787937 -0.015973139415750737 -0.016733431286400702
          -0.008453263106516395 -0.020030956289948776 -0.01892414648700047 -0.0030423776136725422 -0.005114939227524928 -0.001628575513205277
          -0.012630545675914817 -0.012606153297062939 -0.015279296460343872 -0.005220049959445916 -0.00605629364931648 -0.014005938983419064
          -0.016994190297580758 -0.01354710294326189 -0.014187314012395369 -0.01555804944643846 -0.01254269217928261 -0.03084269917142457
          -0.027535206528135348 -0.02492085136251987 -0.024694905755472618 -0.004829518636761065 -0.0025578142489797173 -0.008202037168942411
          -0.0062383050538219464 -0.0022119503655524397 -0.0023754531162856196 -0.004161430722036563 -0.0018820262538827848 -0.0014513650572141046
          0.013076237934356527 -0.01899801963274328 0.026867266656173783 -0.037880425309310795 0.015717124586514863 -0.01042569493730916
          -0.01576942622509181 -0.015902750450391245 -0.012209370007627562 0.01648687594418341 -0.017352613068004175 0.012574068631394653
          -0.019155734032644034 -0.0084913912125959 -0.01682426273940152 -0.013153593364823024 -0.0170958860747219 -0.02808415729649738
          -0.024584359386330412 -0.018803150015227033 -0.013258316247799051 -0.01654183834802936 -0.017082026474877665 0.0268446788738963
          -0.018669348118939055 -0.025662463104866973 -0.016860572947489327 -0.0120158325251154 -0.013954741871295084 -0.006616330026655959
          -0.011901598320811502 -0.02998121157505551 -0.014643889714346159 -0.022468157123148202 -0.029384528035979685 -0.018895491822592092
          -0.015098326671964202 -0.030587415982672894 -0.022091501114061884
        </DataArray>
        <DataArray type="Float64" Name="resid_y" format="ascii" RangeMin="-0.0259853430728665" RangeMax="0.02677347948249459">
          0.0004649062844841248 0.0005555696829425416 -0.0007688815224358644 -0.004151750225303379 0.0008754891440308013 0.0009755968051766602
          -0.0007608782650758844 -0.0085273478389344 0.0006819129553269458 0.0012352183300565374 -0.000031818256576776616 -0.004639445091369243
          0.0003459630108782613 0.0037894444237929203 0.006429714470793768 0.005686081768604967 0.000659826478302275 0.008456321642070136
          0.015219738683140582 0.01820372191248304 0.006788572951976823 0.008361316417704462 0.012420751945599107 0.015390626197664403
          0.011987371038490818 0.0227678826916472 0.014083789157346455 0.012643693034309483 0.016175077668391546 0.008898066380795294
          0.001967348917580644 0.00045743652700570153 0.001137886656761511 -0.001975257696944569 0.0015800519182989775 -0.00033593065483450424
          0.0005418264876839128 -0.0003832192185049821 -0.0014367786077129907 -0.0009966396948148503 0.0022929087146278185 -0.00013670803059892545
          -0.00028309758476555147 0.0008234160439032738 0.005936479075631794 0.0057493750737029475 0.003529052856261025 0.0036520761053033257
          -0.00018397898439082017 -0.00037503095864440533 0.0003799052379324791 -0.0009876167223176816 0.0008905481705434037 0.0007143058378843714
          0.002218062747433039 -0.0006065579636682708 0.003291178321590607 0.0033303676111492153 0.003207850646130231 0.0016378230354466422
          -0.000020391835553204563 0.0003261894287120981 -0.00019747950202923803 -0.0003480023657599779 0.0012918379010481429 0.002497785507519862
          0.0017326314902666867 0.0037190179540159546 0.005185824170995557 0.005986206676230538 0.004951885777920106 0.006685496984503728
          0.003655040088120198 0.004399293072619936 0.004321204943331575 0.007102755633861071 0.010170695688264064 0.009159127987798943
          0.006874144781030957 0.009534864641127322 0.008733050090714276 0.0003795063596728626 -0.0005035522913269946 -0.00012442995795505785
          -0.0007023759895168069 0.0017741969749395445 0.00014261212286406644 0.0008890918705154738 0.004453135621661192 0.009199884997194013
          0.0054086998122266985 0.011300101498921467 0.01292908669766435 0.012568015284103645 0.02417343372573294 0.015766592572018484
          0.00029055661044623954 0.0002828710640692539 0.0011177136113694544 0.0013457496308200978 0.0013598356957802704 0.0019609682661061167
          0.0001682891917551277 0.0017873168441488868 0.0009313664077917616 0.000027711406915653658 0.004010620257580422 0.000676491161203191
          0.0008830726014313617 0.003141531398959549 0.0005490192984299452 0.0011557678546629847 0.0004265766480392053 -0.00009470271863665225
          0.0004159402256701944 0.002634108520941904 0.002709443484399037 0.00016242935615668266 0.0021784408394972185 0.0037227140006532208
          0.004349299108350205 0.0051955371126920225 0.004545934273608549 0.0006365614137547639 0.000861638605350587 0.003201118253844247
          0.0004148108861809531 0.0016933169403288012 0.0033002516393095677 0.0020524613382113324 0.002672640916705299 0.0034169655988075393
          0.002003638463477543 0.0016303290726416859 0.0008908642437388953 0.0015511395833481198 0.002411691191260496 0.0011853206459909588
          0.0012722800268453321 0.002096594350064429 0.0028167983007469366 0.007446843686999827 0.0017420489258036173 -0.0007001887056203755
          0.0041837693743774565 0.005956641222576782 0.0022421242261152635 -0.0007809890353985549 0.005814245449181334 0.0055214920924106774
          0.0033934788961695883 0.004026378937487578 0.009541913792772378 0.004482849063877442 0.007379844052607332 0.002477416469099575
          0.0030181029668364667 0.009438753641524557 0.008541839744832469 0.0029682652796815256 -0.00026297117207613185 -0.0018773255513989395
          -0.00019380320384454475 -0.004452609947131703 -0.0051136361155215415 0.004173465924431297 0.0003265787024044897 0.0015172170215893288
          -0.0022463169174047476 -0.0007789619021533606 -0.001834618761332521 -0.0007698513323086686 -0.0038835932685179347 -0.00012010329193580527
          -0.002573166838098259 -0.0019415911439563949 0.0001528380288472464 0.0024020754888839507 0.0014302492371834064 0.0024026559676032233
          0.0009933900006471041 0.0018267921578858093 -0.00022579895410404505 0.006055555479960395 -0.0014509274888060697 0.005753698875844093
          -0.0018149801445103697 0.0012087100139624996 -0.004517158075519279 0.0025896510955519814 -0.002908492406301255 0.0010637307496714765
          0.008664768155003336 0.0035877024024248416 0.003168765930582171 0.002169705470328638 0.003801106954526026 0.004381605930647415
          0.0008936512972035904 -0.0004207116540170912 -0.00020703211242430186 0.0012171391504435247 0.0019683881983133533 -0.0013022026687862995
          -0.00297189828344456 -0.00009284597979236642 0.0003462067999333296 -0.0008634058332265965 -0.0025806017382051794 -0.0005176020712345242
          0.004893301515558987 -0.0015298781158818442 -0.00010007833731864868 -0.004566828133734546 0.004793283948128238 0.004244119294323445
          0.009637953866137056 0.005510975769317247 0.007614245550275789 0.001332872063589752 0.010698444915514582 0.006154533128064823
          0.007793476333851593 0.0027515953330914493 0.0014704504366482851 -0.004480845472743359 0.008520714978836677 0.0034951319365095906
          -0.0016400581418421281 -0.00009964440836801591 0.001018039623480925 0.004853304962778138 0.010858314416988923 0.008548335580013389
          0.002632001955888641 0.004559120776606265 0.00556574819428951 0.0015175132945294267 0.004747249970840778 0.011359044950211547
          0.006508902405055694 -0.002850632184330293 0.006457159188066525 0.007390988705545276 0.003171710522929916 -0.0002214104317525556
          0.004967195376290614 0.003923444276570992 0.0046050254182464015 0.00361553006787993 0.0036659973729075484 0.0037013224179719972
          0.003406941988126742 0.0042736982983487826 0.006522812652175365 0.002545443141248202 0.00011954463188612596 0.0033271010651786947
          -0.0002714621613049209 0.005990410866878268 0.007215348163086513 -0.0019661105792663225 -0.0067855927653919235 -0.0010439511572217786
          0.00003482909900666062 -0.0005858351256162603 -0.0010719893199762631 0.0006231207794427374 0.0014807411706784408 0.0026136377373328253
          0.0006211789801619828 0.002550185701539566 0.006247605963739227 0.008830812969178859 0.007049885604031671 0.007707378927287463
          0.0024096894416887338 -0.0054731737684214354 0.0030656748623117402 0.0013242546451175397 -0.006599945999577528 -0.0035744457115990946
          0.00883346165698562 0.012888239915842092 0.007911783506700187 -0.005448326312333429 0.0006800263983873789 -0.009592337236652844
          0.001281812136289917 -0.0050531106194950035 0.00024109587174918345 -0.000045675912169418353 -0.0024094168720145692 0.002265209658083911
          -0.00517513581334661 0.003254428013742261 -0.002522707205528829 0.00471652953996346 0.0016922501582294913 0.0034928087300444416
          0.0007339783898300256 0.008095195521695256 0.006906449864569515 -0.0010090369400578073 0.0006706791847575805 0.0006980384532658465
          0.002370608367961324 0.00268184578233309 0.003290127208285403 0.006492150872527089 0.003889600903713576 0.007196069104482242
          0.0034282612315730335 0.0009095562888852687 0.0027467938941685213 0.0006151083567946351 0.0029318499313682467 0.0007418751533994072
          0.0016190283414728949 0.002470134749564829 0.0026265533397942242 0.002819786687104536 0.0032761854311900325 0.0020021685287044504
          0.004211260268669848 0.00037432338554864095 0.00557615233258224 0.005430119194286764 -0.0010620092070295628 0.004898593037004156
          0.0037363185166522095 0.0012431198185429947 0.0029433045465378574 0.0013460534748840451 0.003332990223791174 0.0008821491354326725
          0.009322264551429427 0.003393177101189984 0.008114740973707818 0.002917716660885472 0.004374316418069846 0.0010331408663046826
          0.009864080057489996 0.00916119559419936 0.004211844228034264 0.005379987591243581 0.010080970566105546 0.008542033045226806
          0.006575520144134296 0.004336329575420836 0.002236117873442467 0.0019333980834129322 0.007347771501177394 0.00894608076685173
          0.0018542866244440574 0.002258401331075837 0.0031786765278506296 0.002215548112436398 0.0010379037926301973 0.0032969653591478354
          0.0016561264402572828 0.00120578545105203 0.0020770880281108794 0.0029123459084106074 0.00027313086594241143 0.00636075549648818
          0.00562737152647147 0.00033767073107757173 -0.00025560385658091045 0.005924682829593297 0.007411529258489771 0.004350232874715199
          0.0029647787372106826 0.008334034984998212 0.012774361642434603 -0.00004942573456637178 0.002030766234805511 -0.000029513436812265287
          -0.0013281492702696754 0.0006244972657322434 0.004951356200148607 0.0024900054604786205 0.0017717907624254237 0.007696919029825
          0.014342839845597213 0.009829931163537572 0.00937318873240163 0.013222110751218569 0.0049105536996979365 0.00876358869285307
          0.007076146890392154 0.0067079418478962205 0.001972808525879305 0.0025778411404771134 0.008109519205215993 0.007700895929486709
          0.009235628884245145 0.006135048903209858 0.01865524455257167 0.013136015006169663 0.012472660698757243 0.00836601847361712
          0.006083122040889094 0.006991312676209893 0.00009660960180979394 -0.00012208017559396656 0.006224149115497762 0.00751059219833114
          0.01018787995197798 0.015981159624675667 0.004419051994597162 0.00490961485930605 0.009073774652617606 0.0071803202564851565
          0.0068804072842081065 0.0010073308595091868 0.0035398129045860274 0.0025882767680363017 0.009750777028166395 0.006819163650332513
          0.006662814194306539 0.004054767559613662 0.00787585419657117 0.0057974658390209655 -0.0011991013500057546 0.004460504680484034
          0.002801589158479667 0.003914899802284905 0.005017593342102798 -0.00011831918647621509 0.0008309452106075171 0.005689542949866858
          0.004773470864075326 -0.0023311269795730227 0.005970072241097926 0.006478424084330664 0.008640202948897668 0.004042533831360773
          0.006676770429309177 0.009554582850957498 0.002115227489602564 0.0012167690296649505 0.00477511461196313 0.0041759858788618515
          -0.00035624709903259166 0.001249453083195115 -0.00006652840708639557 -0.00023990146189659806 0.0011469953821353976 0.002126510229831624
          -0.00019250926141779756 0.00467524347607088 0.003876654438764289 0.004448790920860861 0.003648182901121573 0.007723164795943463
          0.011686900196193811 0.010253649566126483 -0.000915137052913309 0.017899839109975862 0.020502490639894344 -0.0028260130105046133
          0.012992802510774115 0.012324417644349592 0.0011243416914594323 0.006878323603443898 0.0010180531597891174 0.011836542007861273
          0.006654992471171399 0.006355446626488046 0.0037470588556482963 0.006150114168949342 0.0035516425182140522 0.004693838398832879
          0.00921501854345465 0.0014558769602554533 0.0027476336868769934 -0.0012247374235792308 0.008965303015065856 0.005414856586604143
          0.012826837987898437 0.0020892187285010133 0.0059474716970362995 0.011603897841982305 0.002529584164885662 0.0056508226908733444
          0.0047261318990242385 0.003158512454391693 0.001108946115362247 0.002175635282500976 0.005532795206045965 0.0028858082132832696
          0.0029388210099937154 0.001894561501618059 0.0006934771516183616 0.0039450794070111095 0.0042118153949695925 0.005270688540209949
          0.004100278715499714 0.004205362962768737 0.0009336382992881156 0.0016557144469596385 0.0016431153730545323 0.0018156237561341992
          0.0023738122713584248 0.0009865271598475112 -0.0004164975646165081 0.00011710490549614316 0.00004695302770488241 -0.00022217026888836366
          0.0013557752007525986 0.0021803803986518433 0.0008541567023929164 0.0037479634713652316 0.00273799737246494 0.002867096851787654
          0.0011528167834714692 0.00484899985739172 0.004392254876172799 0.008047471786196123 0.004909713352130463 0.004632575402310567
          0.0015208595103594243 0.005517863021387889 0.005544909953710764 0.004006928911455682 0.00010232140088217712 0.003216480800403855
          -0.00045740145240755203 0.002867578837374679 -0.0000021864322400644287 0.004256408530208575 -0.001786841709946023 0.0043687736697895115
          -0.00038920649154254583 0.0021972884427216843 -0.001012306598719169 -0.00048117349137270435 0.0022327131266402095 0.005759351221268166
          -0.002124433583505135 0.001082185606882972 0.0025663154349410966 0.002148320179937907 -0.001143456811314801 0.0015358169205593394
          0.001773702571295277 0.0024757076440069248 0.0034094685617806833 0.006610386001034668 0.0017774022065899855 0.0007441300546486562
          0.0031450355136113974 0.00023640732533226905 0.0018358511021444035 0.001388268691409733 -0.00003984741185694696 0.00006568087739985962
          0.00612544993028627 0.0001541825384335921 0.005041116182832456 0.012791443307495903 0.01618248749799514 0.01221278018577851
          0.008203789605735534 -0.0014510647760869327 0.00330730449938485 0.003470936356364328 0.004428788821470853 0.0005612067501720719
          0.003067585760928568 0.0040445221670782905 0.0036230575196672526 0.0074163354367082004 0.0011722094987841672 0.002853555535001659
          0.0023750908017331485 0.006452288466144429 0.003781653888113856 0.01260928173783131 0.011948826494502879 0.008241412176228965
          0.006883494432093351 0.006809274384980468 0.005217388382788263 0.009108835031035822 0.003734308193979352 0.011557188715976219
          0.0003768487697845546 0.010581896777291044 0.004008776517123502 0.008923245336123063 0.0003212567395810854 0.003961333271450127
          0.007903378762549318 -0.00008876761527254473 0.0037084102191120016 0.005870605808801277 0.0033228769578942663 0.0025782154873580237
          0.009588041470291325 0.003239893929226856 0.0033946561038992185 0.0028745516536340943 0.008360496154774466 0.002710656951704915
          0.0092894425064583 0.017276660999662435 0.006167977108215539 0.0028861508716287315 -0.00032987020058650174 0.005981208996302917
          -0.006589912834821188 -0.0259853430728665 -0.009932227883324873 0.0014585797461868083 -0.00016961453367356216 0.0007034131160773005
          -0.0006189681149623982 0.0012763420566748174 -0.00023850160435257006 -0.0016300588363845972 -0.002457865639693829 -0.0010464535329650637
          0.00622619951465965 0.0038747576457240016 0.0037642083965441983 0.009489708988172628 0.019320767095871244 0.011455590452675146
          -0.005940104070939922 -0.005326451521958944 -0.01833922689254247 -0.005432091564718189 0.010627235217306963 0.00037457045051435267
          -0.0002377243984577615 0.00025699126110129145 -0.0006777529891678867 -0.0009277082968601746 -0.00012002757129742081 -0.0005259170295481112
          -0.0007480943540043583 -0.0006443537167177549 -0.0005477773196359906 0.0014800489829971068 0.0009725098818862826 0.0014099863043071422
          0.0008704510285220957 -0.00017293808692583727 -0.00012327287245648706 0.0016187678120938437 0.0054921065568759725 0.0007186352864020917
          0.0009122299692325697 0.00034937725627118277 0.0005004215883146479 0.00045816834723651223 0.00021606257237939686 0.00014386406558142273
          0.007265839816103653 0.0031972084502950027 0.003638266653759381 0.010218854807735357 0.004033986570293836 0.004319555589021938
          0.011688518303143325 0.006891391179515982 0.014989241544971388 0.013909154161031306 0.00968260412047639 0.008653355561095477
          0.005147716886168566 0.020660380670613265 0.015680418051610717 -0.0013314100398991446 0.011925144063579918 0.010055684306268506
          -0.0002807707548301841 0.007617812497801024 0.009126307539861267 0.006879278012808743 0.008080631900945767 0.006805034446984937
          -0.00248133306007349 -0.001138498973511981 0.005366488060919938 -0.0015142155643762638 0.00419209164203993 0.0002652177393284213
          0.00683184426652168 0.005408300006784848 0.01752296475417954 0.007620797134624574 0.01209257801395311 0.005793797836200529
          -0.0003131540866853112 -0.0014222906059104395 -0.0010200279503460247 0.004036179971843648 -0.004517218614960183 0.0025258644797631347
          0.004887204023156122 -0.01230404607580382 0.003726632957580578 0.0010636284062736923 -0.007674400032212425 0.0020778848750694634
          0.006426746469275671 0.021646153063509088 0.014275106735659696 0.0007321682523395018 0.009081808479913356 0.003436204941786633
          0.008341271614994927 0.006753030186110551 0.007937198332540779 0.002116876415353547 0.0007438472418335729 0.009213767134490763
          0.005508174141215905 0.006917947961774577 0.004340252058291194 -0.00009051854117766989 0.002323674408460402 0.005679561144168524
          0.012662802902008441 0.02677347948249459 0.015556466995576362 -0.0012530747256501683 -0.003893833207022253 -0.00285478210757064
          0.012220173801977957 0.01726600135233236 0.009803550152055751 0.011853983099846865 0.01460673137327348 0.00977350875482036
          0.0037648636339260855 0.0035929276779123054 0.001585427020593666 0.011776095517633256 0.0030892507424847004 0.02079306401194614
          0.01039167701531632 0.01245865445387312 0.012166757193714212 -0.0005741531951938827 -0.0013050012517991927 -0.0011414648040198316
          -0.0017639693589292516 -0.0009995919862764713 -0.0007660657704576523 -0.0000705315606357032 0.0017684136603584172 -0.0005926225959679218
          0.004903357848950948 0.0014458194200605012 0.013672816573779 0.011332419124637803 0.004552614978174205 0.006685258152908116
          0.01025770612277635 0.01744359922389839 0.010431475828618211 0.002389180959512016 0.0004706683445461213 0.023977770307057417
          0.009537718350871471 0.01048159800855028 0.012485184241242953 0.0058815409523564205 0.01072034380194592 0.012110708444320939
          0.014396089447638392 0.009315728385899447 0.00825241695139673 -0.0020163620971558605 0.001024091427250698 0.021958924128074195
          0.012793724821331731 0.01759638091648233 0.00985981119536336 -0.0033876181301467356 -0.00320898225806987 -0.0024838399510770937
          0.004984166143201296 0.0091635966351854 -0.009461703576382985 0.008555747526740654 0.001469939544608334 0.003163499339855394
          0.002610743819533981 0.003363628463767393 0.005913060816326615
        </DataArray>
        <DataArray type="Float64" Name="resid_z" format="ascii" RangeMin="0" RangeMax="0">
          0 0 0 0 0 0
          0 0 0 0 0 0
          0 0 0 0 0 0
          0 0 0 0 0 0
          0 0 0 0 0 0
          0 0 0 0 0 0
          0 0 0 0 0 0
          0 0 0 0 0 0
          0 0 0 0 0 0
          0 0 0 0 0 0
          0 0 0 0 0 0
          0 0 0 0 0 0
          0 0 0 0 0 0
          0 0 0 0 0 0
          0 0 0 0 0 0
          0 0 0 0 0 0
          0 0 0 0 0 0
          0 0 0 0 0 0
          0 0 0 0 0 0
          0 0 0 0 0 0
          0 0 0 0 0 0
          0 0 0 0 0 0
          0 0 0 0 0 0
          0 0 0 0 0 0
          0 0 0 0 0 0
          0 0 0 0 0 0
          0 0 0 0 0 0
          0 0 0 0 0 0
          0 0 0 0 0 0
          0 0 0 0 0 0
          0 0 0 0 0 0
          0 0 0 0 0 0
          0 0 0 0 0 0
          0 0 0 0 0 0
          0 0 0 0 0 0
          0 0 0 0 0 0
          0 0 0 0 0 0
          0 0 0 0 0 0
          0 0 0 0 0 0
          0 0 0 0 0 0
          0 0 0 0 0 0
          0 0 0 0 0 0
          0 0 0 0 0 0
          0 0 0 0 0 0
          0 0 0 0 0 0
          0 0 0 0 0 0
          0 0 0 0 0 0
          0 0 0 0 0 0
          0 0 0 0 0 0
          0 0 0 0 0 0
          0 0 0 0 0 0
          0 0 0 0 0 0
          0 0 0 0 0 0
          0 0 0 0 0 0
          0 0 0 0 0 0
          0 0 0 0 0 0
          0 0 0 0 0 0
          0 0 0 0 0 0
          0 0 0 0 0 0
          0 0 0 0 0 0
          0 0 0 0 0 0
          0 0 0 0 0 0
          0 0 0 0 0 0
          0 0 0 0 0 0
          0 0 0 0 0 0
          0 0 0 0 0 0
          0 0 0 0 0 0
          0 0 0 0 0 0
          0 0 0 0 0 0
          0 0 0 0 0 0
          0 0 0 0 0 0
          0 0 0 0 0 0
          0 0 0 0 0 0
          0 0 0 0 0 0
          0 0 0 0 0 0
          0 0 0 0 0 0
          0 0 0 0 0 0
          0 0 0 0 0 0
          0 0 0 0 0 0
          0 0 0 0 0 0
          0 0 0 0 0 0
          0 0 0 0 0 0
          0 0 0 0 0 0
          0 0 0 0 0 0
          0 0 0 0 0 0
          0 0 0 0 0 0
          0 0 0 0 0 0
          0 0 0 0 0 0
          0 0 0 0 0 0
          0 0 0 0 0 0
          0 0 0 0 0 0
          0 0 0 0 0 0
          0 0 0 0 0 0
          0 0 0 0 0 0
          0 0 0 0 0 0
          0 0 0 0 0 0
          0 0 0 0 0 0
          0 0 0 0 0 0
          0 0 0 0 0 0
          0 0 0 0 0 0
          0 0 0 0 0 0
          0 0 0 0 0 0
          0 0 0 0 0 0
          0 0 0 0 0 0
          0 0 0 0 0 0
          0 0 0 0 0 0
          0 0 0 0 0 0
          0 0 0 0 0 0
          0 0 0 0 0 0
          0 0 0 0 0 0
          0 0 0 0 0 0
          0 0 0 0 0 0
          0 0 0 0 0 0
          0 0 0 0 0 0
          0 0 0 0 0 0
          0 0 0 0 0 0
          0 0 0 0 0 0
          0 0 0 0 0 0
          0 0 0 0 0 0
          0 0 0 0 0 0
          0 0 0 0 0 0
          0 0 0 0 0 0
          0 0 0 0 0 0
          0 0 0 0 0 0
          0 0 0 0 0 0
          0 0 0 0 0 0
          0 0 0 0 0 0
          0 0 0 0 0 0
          0 0 0 0 0 0
          0 0 0 0 0 0
          0 0 0 0 0 0
          0 0 0 0 0 0
          0 0 0
        </DataArray>
        <DataArray type="Float64" Name="stress_zz" format="ascii" RangeMin="-2887972.2731233486" RangeMax="4281890.910427307">
          -585062.7504724255 -769877.0876218446 976011.2496471684 934599.5759047504 -540253.5601862643 -808929.6977953897
          1001284.8437030192 949200.794472392 -495444.3699001031 -847982.307968935 1026558.43775887 963802.0130400334
          -1110314.8790399695 -925569.5207645628 -1103679.682651424 -661226.2877017357 -1171392.4031330333 -976298.7251522433
          -1118870.9743268115 -725665.0469980403 -1232469.9272260973 -1027027.9295399241 -1134062.266002199 -790103.8062943448
          -817760.7373129347 -818032.5695531134 -818304.4017932921 -985649.0936564999 -937811.6316146944 -889974.1695728886
          933150.3459007605 1138046.2116898343 932426.0999840247 1147434.9316808044 931701.854067289 1156823.6516717742
          2012082.8642206043 1751198.6890299458 1846209.1301577187 2289043.9765447243 1974966.433530794 1717541.0826894979
          1835231.477100012 2302028.290896176 1937850.002840985 1683883.4763490497 1824253.8240423051 2315012.6052476275
          -219337.71020985662 146890.55573212632 1395588.3991435668 1871122.941493896 -251464.87667277327 174978.55632363242
          1498735.5068616213 2001434.4581107623 -283592.0431356899 203066.55691513856 1601882.6145796757 2131745.9747276288
          -2165440.0520002646 -1201763.7061900895 -15896.578503076278 48820.25568325503 -2182795.6965527795 -1230279.8089813925
          -19070.148283969378 27021.905247907474 -2200151.3411052944 -1258795.9117726956 -22243.718064862478 5223.554812559858
          1894677.75570005 2065019.5966905989 327476.1147668285 1950641.3753160057 2105839.8591271946 341617.99949877406
          2006604.9949319612 2146660.1215637904 355759.8842307196 1230529.6686824379 1744303.9259567854 883274.0699560266
          469881.07510763337 1291117.5683426636 1822904.3302960924 938990.8629743252 474572.95388442406 1351705.4680028893
          1901504.734635399 994707.6559926238 479264.8326612147 902081.0620822712 911484.8398053127 920888.617528354
          620329.8572293924 906078.5201279022 592731.8211557771 846773.100619617 565133.7850821617 787467.681111332
          -436403.5915036348 -208628.7353756826 -275050.15972010675 -431573.9760086145 -184313.85388947648 -215872.3388272934
          -426744.3605135943 -159998.97240327037 -156694.51793448013 549006.1117577198 172240.10574087923 1376729.3894276533
          1476038.6929643215 538199.9502942606 199462.68481368409 1382060.5494324116 1457817.147578658 527393.7888308015
          226685.26388648883 1387391.7094371694 1439595.602192995 898027.3866377807 2203004.8915505544 -40525.476678523584
          954104.5986773728 2324292.6555502657 -160379.2111815976 1010181.810716965 2445580.4195499774 -280232.9456846717
          3892752.9470380857 1664011.196194057 1757968.0582998004 4085981.6305886228 1623304.1712889876 1700630.0941353526
          4279210.31413916 1582597.1463839188 1643292.1299709054 -227328.06565209074 -1478539.9764949004 -1107596.9981790069
          52630.713118902 -184008.9890173617 -1634404.302692074 -1158414.734405828 44711.1683183535 -140689.91238263267
          -1790268.6288892478 -1209232.470632649 36791.62351780494 60207.45227147662 897072.977984091 181654.46160733787
          849439.6280901878 303101.4709431991 801806.2781962845 1329652.8262112946 1186140.2272173006 2332741.33110601
          1297521.0442796927 1214700.4772776277 2363791.6320517617 1265389.2623480908 1243260.727337955 2394841.932997512
          2247743.278962907 656335.4194383067 1502319.498430518 2472120.6312345914 2217215.43319903 654254.1048080862
          1472891.6884682747 2495910.5106897154 2186687.5874351524 652172.7901778657 1443463.8785060314 2519700.39014484
          -313222.5280938177 -296796.36686008034 -357255.6675700612 -322628.108944317 -401288.80704630475 -348459.8510285537
          271831.8739729735 -878793.1490660341 265701.0151251213 -901948.5362418046 259570.15627726904 -925103.9234175751
          110816.6093251057 -99265.88953544531 145757.69645070814 -63290.01097021316 180698.78357631058 -27314.132404981006
          473184.69343794964 310407.4983381945 399395.1085411405 259651.9569373129 498170.6087905025 316956.3818577505
          378272.43992665753 307318.6236420506 523156.52414305543 323505.2653773064 357149.77131217456 354985.29034678836
          869011.9455996015 173219.65225802193 860290.7197429583 157166.27404402383 851569.4938863153 141112.8958300257
          1418600.7714346484 1604725.0590884613 1396992.9792259436 1547440.5390274683 1375385.1870172385 1490156.0189664748
          1411098.4762230385 1215313.6424578382 1368482.2076009456 1155165.1675638382 1325865.938978853 1095016.6926698382
          476341.64619431685 466605.2628020488 456868.8794097806 281586.182398481 261920.76951434073 242255.35663020046
          -109385.73616940447 -15321.20257019464 397009.65221293585 374895.35733899643 -117222.30200987909 -11104.7907061968
          402906.7464490242 407602.72856039344 -125058.86785035371 -6888.378842198974 408803.8406851124 440310.09978179046
          2077786.7411689886 2514972.929451175 2339108.152596404 2048549.4513924133 2549450.0158433258 2387997.8489245055
          2019312.161615839 2583927.1022354765 2436887.5452526067 -49237.633772877896 64365.668240532104 -310185.43460506335
          -34081.7133105534 -571133.2354372487 -132529.0948616389 2529316.194325038 2523377.9608412334 2517439.727357428
          102636.42325426509 -149999.2253239455 -793602.6520754194 21700.227832508855 112852.08870040592 -138712.00756465184
          -705726.6371820876 38782.54250980112 123067.7541465468 -127424.78980535822 -617850.622288756 55864.85718709341
          511179.03430084937 478900.5747848546 446622.1152688598 1212484.9123495985 1215206.2848347477 1217927.6573198969
          -838051.855125996 -882360.5698138867 -926669.2845017774 152095.28988266137 -8162.601505444308 118667.47655362729
          -57876.40449457018 85239.66322459329 -107590.20748369605 1403719.4087595406 1734600.2326527354 1406300.2733257068
          1799878.2266121726 1408881.1378918735 1865156.2205716097 631422.3715313897 791262.9407938699 450529.48832620564
          709506.2767407643 269636.6051210215 627749.6126876586 560963.5728205828 111414.43559656254 557783.7409938192
          92989.42096786106 554603.9091670556 74564.40633915947 1642624.2229751525 1670280.156231364 1697936.0894875755
          -104008.4961752891 -125409.51198672474 -166067.64092462987 -157236.9578980009 -228126.7856739707 -189064.40380927705
          -557523.4856592029 -538595.1540422428 -581122.4038752608 -643985.4576848974 -604721.3220913187 -749375.7613275518
          852449.7511592044 851421.9093700096 850394.0675808145 879406.1305807618 853111.771896156 826817.4132115502
          -1260031.3420114631 -1831906.0411098858 -1267885.5475138044 -1997744.7899686221 -1275739.7530161457 -2163583.538827359
          1552616.9131101053 1550183.130927881 1547749.3487456564 707002.8192657406 703167.4664917684 699332.113717796
          1484033.9456177002 1570073.530628265 1494895.9453819038 1593764.1786190334 1505757.9451461073 1617454.8266098017
          1400209.5918857907 -575897.2899767348 1430958.647958011 -560013.6835534885 1461707.7040302316 -544130.077130242
          1201455.2382887308 43754.31755919845 -1649176.1764372978 1170469.1749326198 36702.811991551076 -1767832.7468166025
          1139483.111576509 29651.306423903676 -1886489.3171959075 -434805.1091835041 571660.0614298877 1106733.228316256
          -699278.6860658709 -438965.5828914335 397286.0614018557 941398.6090670452 -674383.7798671961 -443126.056599363
          222912.06137382373 776063.9898178341 -649488.8736685212 351466.89301307325 211022.7335507324 589768.7506078696
          663624.328248634 393225.53928210476 184084.4953644414 569720.829500354 669296.0041323461 434984.1855511365
          157146.2571781504 549672.9083928386 674967.6800160585 1387519.7140566166 1314369.7767308406 1241219.839405065
          856720.5767179132 201173.17052512994 838205.4072255723 86716.29311713303 819690.2377332314 -27740.584290863888
          1646043.6035231543 643859.8710819995 1601385.229770141 578312.3318771924 1556726.8560171276 512764.7926723852
          1130828.9804523042 394887.3536823899 1048759.2827240047 346661.0426423876 966689.5849957055 298434.7316023853
          184058.95531788902 559906.6267841442 240703.32319878624 614654.9144974493 297347.6910796835 669403.202210755
          -391745.0972293117 -25247.83164647949 -432307.9394408309 -52025.15239856411 -472870.7816523501 -78802.47315064876
          1607582.6748189074 1689604.6077055878 1771626.540592268 1514059.9451231812 1508236.075328153 1502412.205533125
          -564420.8721457033 -2034378.7807668056 -441465.5781276096 107999.66995891163 -565059.6808411982 -2037911.0301935736
          -377456.9424766933 145405.4369737488 -565698.4895366932 -2041443.279620342 -313448.306825777 182811.2039885859
          898309.4904947105 1539214.3427522215 921601.4160422238 1510632.8618708514 944893.341589737 1482051.3809894812
          243062.1064864679 233310.10649786066 37587.51004754336 291525.7325642672 214212.4149409127 226435.9073008158
          39031.58722139943 272945.73889855656 185362.72339535752 219561.7081037709 40475.66439525549 254365.74523284606
          -55385.64925390345 -354104.57624816836 -651274.6997005334 -56913.189802784895 -375738.80144648196 -703749.7886587026
          -58440.73035166634 -397373.0266447956 -756224.8776168718 -257846.3891536168 -185578.44249740287 -113310.49584118905
          1221020.9787439227 133636.90910130244 1165558.7829730948 129632.59777052018 1110096.5872022673 125628.28643973789
          235259.1255269405 563162.3698465327 259167.47702406946 616161.9459978185 283075.8285211983 669161.522149104
          699820.1308839314 673569.2416303735 647318.3523768157 1694176.5632352277 1769146.3163251942 1844116.0694151602
          1666813.754126649 2612577.906240968 1737106.7063572768 2475663.263180072 1807399.6585879046 2338748.6201191754
          16142.289112916296 195461.1629470285 6945.257049132029 190402.9894188963 -2251.775014652234 185344.81589076412
          1018626.1852713681 1117950.9788680086 981561.4247957058 1092302.4081031915 944496.6643200436 1066653.8373383745
          1105817.911037744 268885.2680161551 1216743.3116897366 1135036.188782427 244788.08390464945 1244918.9738508582
          1164254.4665271097 220690.89979314368 1273094.6360119795 40657.847133471514 -25808.84973700937 49535.42588926068
          49437.772902769386 58413.00464504986 124684.39554254821 -797971.3227175395 -857505.3085440344 -871432.9472821858
          -943598.4770113913 -944894.5718468322 -1029691.6454787485 568900.8256210778 1860200.1671519023 475130.8659575937
          1829950.8268612744 381360.90629410965 1799701.4865706468 46883.09041134306 53585.83499842117 60288.57958549922
          1155793.9185456834 993871.7902383092 1334236.951752725 1555170.882305323 1134296.8696686453 1011792.2904795416
          1311933.8224992412 1499348.9620057952 1112799.8207916075 1029712.790720774 1289630.6932457574 1443527.0417062673
          863545.8166454687 918248.1296806915 860733.5628935606 901612.7353790267 857921.3091416525 884977.3410773622
          -893377.3680859068 -907740.3969540288 -922103.4258221505 3272132.110273744 3250644.2748159207 3229156.4393580984
          -246816.41737672413 -229037.00762870727 -211257.5978806904 370493.6943029413 439149.59017364925 507805.4860443571
          126237.21343086967 164919.79485396735 203602.37627706502 -1401841.1237105953 -1324579.0324777677 -1340926.9108345993
          -1438612.2281148778 -1280012.6979586033 -1552645.4237519877 -1560893.3049091313 -1567053.5789318106 -1573213.85295449
          -293133.22374319145 -259916.5221442468 -226699.82054530224 -966256.9619708781 -1031687.659974563 -1097118.357978248
          2621300.9137622397 2611868.319728834 2602435.7256954284 238029.1709658363 1423340.1771579732 133422.77053616394
          1344118.35369574 28816.370106491508 1264896.5302335073 2205669.9005331006 2204628.050306537 2203586.200079974
          2380773.939487174 2301702.136945437 2222630.3344037 -2494637.630201734 -2691304.9516625414 -2887972.2731233486
          1936506.6729806927 2140141.5288975253 2343776.3848143574 336155.02224891126 342953.4299260954 349751.8376032794
          11735.624334527878 43665.185106077246 75594.74587762682 337833.0168118391 475595.0458948567 303820.23661249725
          433963.5779078348 269807.4564131555 392332.1099208129 1361620.7134942545 4159724.816778781 1346684.1293181293
          4220807.863603044 1331747.545142004 4281890.910427307 600365.042041251 603831.4141079546 607297.7861746581
          537375.4536579063 517425.9609832629 497476.4683086196 851548.2160071724 857665.5012355833 863782.7864639944
          -58244.15772593999 405035.4370706177 -86321.73834969374 374122.6687166155 -114399.3189734474 343209.90036261326
          1519089.0562514663 1319612.0633600994 947895.1395554497 1435907.5979959646 1225172.5700903824 980927.5707704197
          1352726.1397404629 1130733.0768206657 1013960.0019853897 987856.1437450611 899243.9656533325 966841.1025216018
          863002.0420019845 945826.0612981424 826760.1183506366 615249.3622934193 619791.9759562557 624334.5896190922
          1349897.6081979359 1320391.3724231124 1290885.136648289 2810287.544788913 2775436.9585034656 2740586.3722180184
          874409.9277574257 913480.7212092418 952551.5146610576 -564734.690477651 -557512.9572821999 -550291.224086749
          -1185128.488388196 -662426.9043701745 -1253631.468332068 -619358.9657401721 -1322134.4482759398 -576291.0271101694
          365635.0773324268 383745.44279967446 401855.8082669222 1199536.761642766 1285784.8112911512 2552706.7401092597
          1159408.0905243596 1219524.1511519968 2681625.734335319 1119279.419405953 1153263.4910128424 2810544.7285613785
          -390996.8864314266 -303517.3709751708 -405796.8402489164 -271245.09621471283 -420596.79406640603 -238972.8214542549
          916209.2339470846 -219958.9489627345 886639.6575983906 -215521.40897157814 857070.0812496966 -211083.86898042177
          164616.49085812186 167654.5841490742 170692.67744002648 293362.85235311324 74756.23177951472 485208.7476871599
          320254.71750091837 103557.36010914642 500710.00365971687 347146.5826487235 132358.48843877812 516211.2596322738
          -474769.10795580747 -473393.2980379054 -472017.48812000314 126619.332818945 479055.14592411974 56449.2979908766
          483181.023706618 -13720.736837192148 487306.90148911614 -967274.8629621328 -1183605.247325322 -977506.6250806942
          -1187779.9298130637 -987738.3871992553 -1191954.6123008053 1492667.7140231791 1543159.1614951114 1593650.608967044
          644785.6957989446 605469.3739806714 566153.052162398 -455945.5919035257 -404664.7324913214 -353383.8730791171
          171630.30928636173 163621.57361286096 155612.83793936015 412231.3033354523 386139.98733062425 360048.67132579617
          -649873.0504709819 -649816.8864576162 -649760.7224442502 625749.5697454348 536031.1524110918 693472.9509146466
          540903.3246818751 761196.3320838582 545775.4969526583 1194226.699940443 1156594.037626616 1204120.8312037191
          1211125.5422316117 1214014.9624669952 1265657.046836607 322602.40687764983 381342.8222638937 440083.23765013734
          91796.51521027688 35883.11572881084 72068.64376652856 13235.20618194982 52340.77232278025 -9412.703364911256
          965011.8569243946 947991.0026680836 930970.1484117728 -240916.47735689845 766478.9258566038 -268946.60312294844
          777648.2970361394 -296976.72888899845 788817.668215675 825524.003912159 725687.6598088014 894007.4151008339
          700511.7932041766 962490.8262895085 675335.9265995517 -275719.78043521964 -308836.7620909597 -341953.74374669965
          2918614.2435195833 3183352.4616811736 3448090.679842764 -769627.9640358615 -782835.5208598943 -796043.077683927
          -1597815.7199484645 -1653308.0198809302 -1708800.3198133959 95638.55689351328 120276.99032727862 144915.42376104402
          78185.42473484314 145295.13518884053 212404.84564283796
        </DataArray>
        <DataArray type="Float64" Name="peeq" format="ascii" RangeMin="0.0021425234453180727" RangeMax="0.005957144436732292">
          0.0039041538021060912 0.00429977196799612 0.004307360334100211 0.004002220538675969 0.0039031552430557302 0.004297540856302537
          0.0043058516260900586 0.004001258164522347 0.003902156684005368 0.004295309744608956 0.004304342918079906 0.004000295790368726
          0.0028846783286698746 0.0025435547037861105 0.0025954194350692513 0.0030037629815948185 0.0028848216708488505 0.0025431665130646354
          0.002595549488843196 0.0030038840681124107 0.0028849650130278277 0.0025427783223431603 0.0025956795426171414 0.0030040051546300034
          0.002213704358904449 0.0022142999846573004 0.002214895610410152 0.0022162546634111723 0.0022169990364600445 0.0022177434095089162
          0.004166731178053963 0.0038841285701905763 0.004165881022582147 0.003883597815139996 0.004165030867110331 0.0038830670600894144
          0.005516884596691286 0.005642196302689635 0.005435780597627542 0.005416525496144713 0.005514471166116747 0.0056402292556392035
          0.005433507229462583 0.0054140030732240775 0.005512057735542209 0.0056382622085887745 0.005431233861297626 0.005411480650303444
          0.0032064245261987307 0.003546373175689994 0.003750576432217282 0.003450539286784145 0.0032056971635056842 0.0035448869665746954
          0.0037497176648151847 0.003450203670693867 0.0032049698008126373 0.0035434007574593977 0.0037488588974130873 0.003449868054603589
          0.0025668914049798864 0.002773823609514147 0.0024621994578092445 0.002332048812681559 0.0025680145256260813 0.0027740886078762936
          0.0024631904508640575 0.002333168900726287 0.002569137646272276 0.002774353606238441 0.0024641814439188706 0.002334288988771015
          0.005529380958944329 0.00545048229799632 0.005270679461206849 0.005529253406467432 0.005450561353616379 0.00527051339710238
          0.005529125853990536 0.005450640409236438 0.005270347332997909 0.005270968246308091 0.00556084282661926 0.005515426712097392
          0.005108694436986235 0.005269563274583179 0.005558692523432136 0.005512778832550658 0.005107321107655319 0.005268158302858268
          0.005556542220245014 0.005510130953003925 0.0051059477783244045 0.004811419209766286 0.004810411765152368 0.00480940432053845
          0.004631313187160546 0.00451452602149528 0.004628762151220879 0.004512587015897643 0.0046262111152812115 0.004510648010300005
          0.00356437474070279 0.003945658701821917 0.003510289511454728 0.003563409854733017 0.003944008886896567 0.0035101231578197486
          0.003562444968763244 0.003942359071971218 0.003509956804184768 0.005102250252868215 0.004914852407043447 0.005079224540209898
          0.005279256727081221 0.005099672362432455 0.004913510796790671 0.005078192189772273 0.0052773296465536456 0.005097094471996695
          0.0049121691865378955 0.005077159839334646 0.005275402566026072 0.004202341835316729 0.003900119866922358 0.004061108521005724
          0.004202160496220353 0.0038996467516757088 0.00405947001352951 0.004201979157123978 0.0038991736364290593 0.004057831506053297
          0.003667869101623761 0.0036208006280060274 0.003129747244797259 0.0036672713406333355 0.0036194846210257864 0.0031295064913701904
          0.00366667357964291 0.003618168614045545 0.0031292657379431215 0.004562425892669196 0.004300681489905981 0.004411515822716658
          0.004770254672945921 0.004561742154793642 0.00429838721596734 0.004409607485356119 0.0047688377101953 0.004561058416918088
          0.0042960929420287 0.00440769914799558 0.00476742074744468 0.005250912424274995 0.004961934355770522 0.005248838828308845
          0.004959447713709215 0.005246765232342694 0.004956961071647907 0.0054489883186808075 0.005096019005352029 0.005129176858009702
          0.005447116537582793 0.005095335958930426 0.005127734400643209 0.005445244756484779 0.005094652912508822 0.005126291943276717
          0.004854580859377111 0.005007864041456386 0.0053035491427177485 0.0052063007001171445 0.00485311924298534 0.005005611703794865
          0.005300828334495052 0.00520420904389415 0.004851657626593569 0.005003359366133345 0.005298107526272356 0.005202117387671153
          0.0032027135611676625 0.003400776248742543 0.003202851404563624 0.003400363257175924 0.0032029892479595846 0.0033999502656093055
          0.003402329703651825 0.0037107619482062656 0.0034021575239186817 0.003709973119461611 0.0034019853441855374 0.003709184290716957
          0.002190167588683304 0.002228721958553328 0.0021905953171036585 0.0022292676919637815 0.002191023045524013 0.002229813425374235
          0.003506096363995821 0.0033050833981450724 0.0036172750621225537 0.003869575511891249 0.0035071270319559956 0.003306061823528378
          0.003617496471990543 0.003869923285844289 0.0035081576999161698 0.003307040248911684 0.003617717881858532 0.003870271059797329
          0.005660484076017928 0.005386260553909602 0.005659581364972691 0.005385476493037384 0.005658678653927454 0.005384692432165165
          0.005815503545948276 0.005662445947460092 0.005812044516760647 0.005659362466004508 0.005808585487573018 0.005656278984548924
          0.005957144436732292 0.005856993920490345 0.005953643357843205 0.0058530567609731245 0.005950142278954119 0.005849119601455904
          0.0036336482301276966 0.0036330546853395014 0.0036324611405513063 0.0043493681102079055 0.004350426361023132 0.00435148461183836
          0.0050652244303279964 0.004728116111142362 0.004712482159784253 0.005081582405941625 0.005064822896043433 0.004728480558271086
          0.004713038096682418 0.005081253495132763 0.00506442136175887 0.004728845005399809 0.004713594033580586 0.005080924584323901
          0.005474301862541675 0.00542339685458041 0.005567643103954143 0.005471813455169901 0.005421958212718202 0.00556647633657254
          0.005469325047798128 0.005420519570855993 0.005565309569190939 0.0056740823815981 0.005487526940178015 0.0056693399211152394
          0.005484125704918903 0.00566459746063238 0.005480724469659791 0.004739569439753811 0.004739235883642084 0.004738902327530356
          0.0022118597050788304 0.002365739175704162 0.0024427519441546325 0.0022513077831053667 0.0022124409108271945 0.0023662977964040805
          0.0024444236038551745 0.0022524628380572297 0.002213022116575558 0.0023668564171039994 0.0024460952635557177 0.0022536178930090927
          0.005441109477983095 0.005439778668210144 0.005438447858437194 0.004704073367750189 0.004704546202439104 0.004705019037128019
          0.0050047761789838285 0.005004440413929332 0.005004104648874836 0.003712974113618154 0.0035629557424610332 0.003712005035641464
          0.0035619965466697906 0.0037110359576647744 0.0035610373508785484 0.004400629966485045 0.004280552843388496 0.00440067447169937
          0.004281745313151718 0.004400718976913694 0.004282937782914941 0.005845109146841493 0.005669652003856723 0.005840979907275447
          0.005666987993466114 0.005836850667709401 0.005664323983075506 0.004898653352278315 0.004843619735685809 0.0048956794227688685
          0.004841066171233268 0.004892705493259422 0.004838512606780728 0.005239363715612528 0.005238296949759184 0.005237230183905843
          0.004642280210499228 0.004226566531082507 0.004640660693530797 0.0042261750696134855 0.004639041176562365 0.004225783608144464
          0.004769600327982263 0.004587177185678962 0.0047671058828694214 0.004584053501937337 0.0047646114377565794 0.004580929818195711
          0.005884744940911027 0.005881263447805479 0.005877781954699929 0.005735622494166247 0.005734211428124806 0.005732800362083365
          0.0045265160164284605 0.004483880048820281 0.004525219559102101 0.004480954762883225 0.004523923101775741 0.004478029476946168
          0.005917848762564784 0.005915415889880203 0.005912983017195622 0.004299223366005581 0.0043004303899453 0.004301637413885019
          0.005931410571215841 0.005843021691968993 0.005929020275078524 0.005841649582969907 0.005926629978941207 0.00584027747397082
          0.005439324283558035 0.005234893231360895 0.005437830679224826 0.005232731968887716 0.005436337074891618 0.0052305707064145375
          0.003957463756502405 0.00425172573179473 0.004261435925106119 0.003955917932600222 0.004250807015234492 0.004259073609973629
          0.003954372108698039 0.004249888298674254 0.00425671129484114 0.004717987853078576 0.004513383253505763 0.004777149158432612
          0.005028328278622185 0.004715125828746333 0.0045093070186429975 0.004773302831038062 0.005025613324010468 0.00471226380441409
          0.004505230783780231 0.004769456503643512 0.005022898369398751 0.0028654052738496354 0.0025530561428629152 0.002498124702291148
          0.0027195120930616056 0.0028669216861886733 0.0025536022891528 0.0024978929038157374 0.002720019120691247 0.002868438098527711
          0.002554148435442685 0.002497661105340327 0.0027205261483208886 0.005887220391130894 0.005882977481286024 0.005878734571441155
          0.004295991885222837 0.004097653482475381 0.004293449242935327 0.00409539592508872 0.0042909066006478185 0.0040931383677020585
          0.0056840383436261716 0.005587634014087475 0.005682180959159223 0.0055857848461489 0.005680323574692274 0.005583935678210324
          0.003822420802283659 0.0036093532803089245 0.0038207842332977048 0.0036095377020809367 0.0038191476643117507 0.003609722123852948
          0.0029703312852353467 0.0031976747195644473 0.002971860140896822 0.0031991399193937566 0.0029733889965582964 0.0032006051192230655
          0.002725552989784852 0.0025439832284914286 0.002725492944929232 0.002543651661565211 0.0027254329000736106 0.0025433200946389945
          0.005727193139383667 0.00572608869832648 0.005724984257269292 0.005716642900040672 0.0057149570351257475 0.005713271170210823
          0.0030711876074703778 0.0027368110616393278 0.002671991190246626 0.0029914006672712235 0.0030711806667527907 0.0027379936346551875
          0.0026737560576452816 0.0029925260535930997 0.003071173726035205 0.002739176207671047 0.0026755209250439367 0.002993651439914976
          0.005828094857062805 0.005834783523488192 0.005825635311814076 0.005832691239064039 0.0058231757665653475 0.005830598954639886
          0.002192665767650379 0.002187558115465173 0.002197755869952775 0.002179355374444711 0.00219225263650686 0.002187430080012668
          0.002197669047149303 0.002179308239516678 0.0021918395053633407 0.002187302044560163 0.0021975822243458297 0.002179261104588644
          0.002364543105208006 0.0022219052810104317 0.002364251834150462 0.002364471662523985 0.0022224096700727914 0.0023641430391449832
          0.0023644002198399635 0.002222914059135151 0.0023640342441395047 0.003330185070321838 0.0033321814043090143 0.0033341777382961913
          0.00534753552571278 0.00511666806482168 0.005344644443210473 0.005113911507880723 0.005341753360708166 0.005111154950939767
          0.004898607584184575 0.004406516819355009 0.00489700925144546 0.004405054193234066 0.004895410918706345 0.004403591567113122
          0.003388127522416145 0.0033878915084447616 0.0033876554944733783 0.005869418774097525 0.00586769792320592 0.005865977072314313
          0.003922149377814554 0.004313415557913015 0.003922708900682614 0.004310858346087147 0.003923268423550674 0.004308301134261278
          0.0021994847929796223 0.002151770733696925 0.0021994626386034515 0.002152066645576182 0.0021994404842272802 0.0021523625574554387
          0.002161705598452579 0.002209133382283493 0.002162566652523091 0.0022102469830545847 0.002163427706593603 0.002211360583825676
          0.0023014715992324903 0.002644419319771282 0.002460797465836268 0.002302739261933579 0.00264482970263466 0.00246142023721036
          0.0023040069246346674 0.002645240085498039 0.0024620430085844527 0.003003647169968475 0.003338303221778436 0.003003322343507425
          0.0033374857191495614 0.003002997517046375 0.0033366682165206865 0.002295452911545547 0.0023560768298282464 0.0022949082720400056
          0.0023555462450072485 0.0022943636325344647 0.0023550156601862505 0.002848475582788521 0.002665514709692285 0.0028482336901854725
          0.002665220043302933 0.002847991797582424 0.0026649253769135814 0.0023262877874551204 0.002326276043652658 0.0023262642998501957
          0.003430015157711049 0.0034314409243093626 0.003405279499018573 0.003376594330171558 0.003428846837915337 0.003429704080914635
          0.003403370247194214 0.003375391051440469 0.003427678518119626 0.003427967237519908 0.0034014609953698554 0.00337418777270938
          0.0033463693042094615 0.003358089879151805 0.0033450644761457483 0.003356787053815159 0.0033437596480820346 0.0033554842284785123
          0.0022719031848338895 0.0022718104446584233 0.0022717177044829576 0.0028284411840660134 0.0028284861010207584 0.0028285310179755035
          0.003530362671380407 0.003529728713943201 0.0035290947565059954 0.003437821807485192 0.0034393992019590165 0.0034409765964328407
          0.003955318479240246 0.003954358645707072 0.003953398812173898 0.0036716145076276362 0.0038562214036596864 0.003670972667872704
          0.0038542837549773406 0.0036703308281177713 0.003852346106294995 0.004038015511441269 0.004036833932912337 0.004035652354383403
          0.0038148940182295642 0.0038161315534590893 0.003817369088688615 0.0024698250844944593 0.002469375172183621 0.0024689252598727824
          0.005658721704446781 0.005657652457129593 0.005656583209812406 0.004728776626648763 0.004576155884184654 0.004727162413574809
          0.004574382360553277 0.004725548200500857 0.004572608836921899 0.00573948245002129 0.005738368214715519 0.005737253979409749
          0.004414789390968842 0.004412916099041406 0.004411042807113968 0.00407974232735186 0.0040773013839400536 0.004074860440528246
          0.003930641881205819 0.0039323108089134445 0.00393397973662107 0.0039051235149936804 0.003906354016985854 0.003907584518978026
          0.0038293232339293107 0.003830823263538134 0.003832323293146957 0.003220471499859173 0.003223944370422422 0.0032200030292247692
          0.003223178130441475 0.003219534558590365 0.0032224118904605275 0.003127587163152735 0.002908933208777157 0.0031275019434083375
          0.002909287894485642 0.00312741672366394 0.0029096425801941267 0.0035480841565887914 0.0035470246223454093 0.0035459650881020264
          0.0021425234453180727 0.0021431064092371824 0.002143689373156292 0.005590884864017343 0.005589310018267422 0.005587735172517502
          0.0032116611776214 0.0033833616480730567 0.003211624376129669 0.0033823667050300247 0.0032115875746379376 0.0033813717619869924
          0.0030591579719744097 0.0031473831982739378 0.003167669644015177 0.0030592993351343956 0.0031476642219011894 0.003167907161646004
          0.0030594406982943807 0.00314794524552844 0.0031681446792768317 0.0032708992208034145 0.0033415644734873773 0.0032709374577359826
          0.003341387497253882 0.003270975694668551 0.0033412105210203873 0.0034970143961842288 0.0034957295035718088 0.0034944446109593887
          0.00314131273301165 0.0031414787838466227 0.0031416448346815963 0.002959224045846389 0.002959302546554562 0.0029593810472627346
          0.005723845999707751 0.005722017814675563 0.005720189629643377 0.002238102547514861 0.002237955113847086 0.00223780768017931
          0.0022056556242392223 0.0026255780715020217 0.0022058436765961973 0.0026262677760032866 0.002206031728953172 0.0026269574805045516
          0.005099276695928447 0.005099727305582696 0.005100177915236944 0.004390126561389042 0.004481098883129032 0.004874415239798039
          0.004388665877037607 0.004479714575101019 0.004873666770808136 0.0043872051926861725 0.004478330267073006 0.004872918301818232
          0.0029860027808391505 0.003153424073231569 0.0029864431175636993 0.0031539424484175243 0.0029868834542882477 0.0031544608236034797
          0.005426963660071669 0.005106996364592784 0.005426482785220976 0.005107578129027519 0.0054260019103702815 0.005108159893462256
          0.003375142666732217 0.0033754563423968867 0.0033757700180615563 0.004395233234613563 0.004089979040936846 0.003995133558397804
          0.004396324526094793 0.00409105365131442 0.0039962046705486805 0.0043974158175760225 0.004092128261691995 0.003997275782699558
          0.004882696510542026 0.004882685377714812 0.004882674244887596 0.005649663512060492 0.005746334839730518 0.005646289056099188
          0.005742168929176875 0.005642914600137883 0.005738003018623233 0.004726059710326397 0.004687450624918305 0.004726300409845754
          0.004687456317683063 0.00472654110936511 0.004687462010447821 0.005411306592400653 0.005409409421370921 0.00540751225034119
          0.005371627943769307 0.005370764118346387 0.005369900292923465 0.0030881368100644426 0.003089491550582932 0.0030908462911014216
          0.0030925164435543864 0.0030929598614811366 0.0030934032794078864 0.003587639407076822 0.0035881197263205014 0.0035886000455641804
          0.0044582950733516105 0.004459177419160253 0.004460059764968896 0.004096439499284881 0.004263689464594566 0.0040967662891077585
          0.004262746737590547 0.004097093078930637 0.004261804010586529 0.0031668848304147114 0.00309615641145341 0.0031682673088208537
          0.0030978060056579145 0.003169649787226996 0.003099455599862419 0.0029066481054440068 0.0029083989402404423 0.0029101497750368775
          0.003068984513707007 0.003055024850448609 0.0030691675119882264 0.0030551745775488012 0.0030693505102694454 0.0030553243046489934
          0.0054253462858829486 0.0054243372462763765 0.005423328206669804 0.0035422102922182484 0.003653045608267439 0.0035426145104804707
          0.0036532054156043067 0.0035430187287426923 0.0036533652229411738 0.005547402104906924 0.00541502342201863 0.005545577604956193
          0.005413527760045509 0.005543753105005463 0.005412032098072386 0.003026095788287772 0.0030262885582725244 0.0030264813282572765
          0.005161347822234113 0.005160558838652225 0.005159769855070336 0.0032922169082804423 0.003293176439272664 0.0032941359702648855
          0.0034305277031299094 0.0034311073545894594 0.0034316870060490095 0.005744853047016154 0.005741338968036048 0.0057378248890559425
          0.005663028626910053 0.0056606400432612485 0.005658251459612443
        </DataArray>
        <DataArray type="Float64" Name="pe11" format="ascii" RangeMin="0.002142429988994078" RangeMax="0.005956473457788508">
          0.0039037225685535125 0.004299432362591752 0.004307105475647149 0.004001999057111958 0.003902718953339269 0.004297203170895214
          0.004305584892832668 0.004001020380050446 0.0039017153381250246 0.004294973979198677 0.004304064310018188 0.004000041702988933
          0.0028843550801437266 0.002543337478844199 0.002595156042231462 0.003003406034318119 0.0028844871246431936 0.0025429414462081025
          0.002595278472540829 0.003003513500397716 0.0028846191691426605 0.002542545413572006 0.0025954009028501955 0.003003620966477314
          0.0022134835990011903 0.002214070465859983 0.0022146573327187745 0.0022160852287706192 0.0022168206398187696 0.0022175560508669204
          0.004166491645141877 0.0038839165954099616 0.004165632133645574 0.003883374942272731 0.00416477262214927 0.0038828332891355003
          0.005516615736786726 0.005641878195477455 0.005435250314087623 0.005416098781636465 0.005514206965133847 0.0056399151251825584
          0.005432984465477664 0.0054135855553790095 0.005511798193480968 0.005637952054887662 0.005430718616867707 0.005411072329121553
          0.0032059571409522847 0.0035459646041222414 0.0037501333305512466 0.0034499725116979353 0.003205230841329651 0.0035444799204405013
          0.003749273577779139 0.003449633172594643 0.0032045045417070164 0.00354299523675876 0.0037484138250070296 0.003449293833491351
          0.0025665825041506765 0.0027733911631460362 0.0024616974176252335 0.002331736257128599 0.0025676924402794838 0.0027736497080324317
          0.002462678949246987 0.002332845270888331 0.0025688023764082906 0.0027739082529188277 0.00246366048086874 0.002333954284648062
          0.005527570194655221 0.005448103170596932 0.005268027215769661 0.005527439149861829 0.005448176248945031 0.005267838622574809
          0.0055273081050684365 0.005448249327293131 0.0052676500293799555 0.00527040898124597 0.005560235684083991 0.005514795695499853
          0.005108175494341182 0.005269000820502893 0.005558097656208499 0.005512157664825878 0.0051068113143044585 0.005267592659759819
          0.0055559596283330055 0.005509519634151904 0.005105447134267735 0.0048109657872189675 0.004809960653948258 0.004808955520677547
          0.00463111479893315 0.004514282188735021 0.0046285549940564075 0.004512332881041008 0.004625995189179663 0.0045103835733469955
          0.003563648032471295 0.003945164678849694 0.003509652318009184 0.0035626827295332916 0.003943519150002725 0.0035094768093207394
          0.0035617174265952884 0.0039418736211557556 0.0035093013006322954 0.005102109208219457 0.004914632320241946 0.005079018342781632
          0.0052791179579511635 0.005099525970216267 0.004913290318824671 0.005077983821069599 0.005277184343839172 0.005096942732213078
          0.004911948317407396 0.005076949299357563 0.00527525072972718 0.0042019649737354975 0.0038997475685099243 0.004060724660721282
          0.004201782799546704 0.00389926722188579 0.004059094560877031 0.004201600625357911 0.0038987868752616544 0.00405746446103278
          0.003667332236994013 0.003620188277946707 0.003128663552739869 0.0036667246853881296 0.0036188677383996786 0.003128416421487844
          0.003666117133782246 0.00361754719885265 0.003128169290235819 0.004562073678571335 0.004300319058022519 0.00441107331917039
          0.004769913227119487 0.004561393769850899 0.0042980382673273405 0.004409175851797932 0.004768500218583856 0.004560713861130462
          0.004295757476632162 0.004407278384425473 0.004767087210048226 0.005250339711160307 0.004961465447290761 0.005248273185379467
          0.004958992448639188 0.005246206659598627 0.004956519449987614 0.005448172088301578 0.005095006638767484 0.005128567725858034
          0.0054463021213109865 0.005094317777634115 0.005127126695769285 0.005444432154320396 0.005093628916500748 0.005125685665680536
          0.0048541873490372065 0.005007601721877931 0.0053032780946475995 0.005205896909618972 0.004852726667560083 0.005005350404749597
          0.005300561257886126 0.005203809979134173 0.004851265986082959 0.005003099087621262 0.005297844421124653 0.0052017230486493754
          0.0032025694954329696 0.003400607920426751 0.0032027069747464242 0.0034001890110893556 0.00320284445405988 0.003399770101751961
          0.0034019786206061398 0.0037104806517169833 0.0034017922262679803 0.003709678090311409 0.003401605831929821 0.003708875528905835
          0.0021901084282996285 0.0022286225625190188 0.002190528675194685 0.0022291595313655844 0.0021909489220897417 0.00222969650021215
          0.0035057684708809686 0.0033048570118373783 0.003617060300175664 0.003869331721211659 0.003506796835720119 0.0033058366184455525
          0.003617279759528228 0.0038696753952277433 0.003507825200559268 0.0033068162250537263 0.003617499218880791 0.003870019069243827
          0.0056592311479026335 0.005384561661728283 0.005658319539198514 0.005383750988292801 0.005657407930494393 0.005382940314857321
          0.005814914814359389 0.005661821806117776 0.005811472282456111 0.005658745830447486 0.005808029750552833 0.005655669854777195
          0.005956473457788508 0.005856328693279989 0.005952990053958438 0.005852414881420824 0.00594950665012837 0.0058485010695616575
          0.003633439498163098 0.0036328364401081907 0.0036322333820532826 0.0043481555470891355 0.004349201322409834 0.004350247097730532
          0.005063412310382393 0.004726506342150907 0.004711056785359914 0.005080094697406122 0.005062982635869033 0.004726852756686901
          0.004711600230515768 0.005079751136452773 0.005062552961355674 0.004727199171222895 0.004712143675671621 0.005079407575499424
          0.005474125648161253 0.0054232394635971 0.005567456160665541 0.005471635104155934 0.0054217965780462805 0.005566288567844755
          0.005469144560150616 0.005420353692495462 0.005565120975023968 0.005673397669608819 0.005486904751392005 0.005668671758757771
          0.005483518420840442 0.0056639458479067215 0.005480132090288878 0.004738949786109613 0.004738611015405954 0.004738272244702295
          0.0022117547092968394 0.00236559393073628 0.0024425634588187972 0.0022511421234261827 0.0022123323204049027 0.0023661472121107485
          0.0024442263345294726 0.0022522894521824557 0.0022129099315129665 0.0023667004934852173 0.002445889210240148 0.0022534367809387296
          0.00543986054620648 0.0054385181675128515 0.0054371757888192224 0.004703044821552406 0.004703506531350575 0.004703968241148746
          0.005002311733829151 0.005001939097831346 0.005001566461833541 0.0037128144213076078 0.0035628479799414245 0.0037118289887357763
          0.003561873381604444 0.003710843556163944 0.0035608987832674624 0.004400164302664619 0.0042799020853258 0.0044002105664454885
          0.00428109235768521 0.004400256830226356 0.004282282630044619 0.005844685506861636 0.005669252676442697 0.005840566585187499
          0.0056666013316840815 0.005836447663513361 0.005663949986925468 0.004898506212109187 0.004843433406876452 0.004895524238888183
          0.004840871185515693 0.004892542265667179 0.0048383089641549325 0.005239137595210638 0.0052380698816653255 0.005237002168120012
          0.004641929522774773 0.004226208316309328 0.0046403085413066324 0.00422581253354192 0.0046386875598384905 0.004225416750774511
          0.004769401868874604 0.004586965270650927 0.004766909160942754 0.004583845205228428 0.0047644164530109044 0.004580725139805928
          0.00588406175476939 0.005880595397252975 0.005877129039736563 0.005734834464650188 0.0057334181722717426 0.005732001879893298
          0.004526194612892913 0.00448364532914082 0.004524903874252027 0.004480730166836475 0.0045236131356111405 0.0044778150045321295
          0.005916999089950128 0.005914575402554178 0.005912151715158229 0.004298215607890889 0.004299415338685554 0.004300615069480218
          0.005930895290698331 0.005842088921950142 0.005928507089869537 0.005840719851203172 0.005926118889040741 0.005839350780456202
          0.005439018935283664 0.005234317511984107 0.005437529263405953 0.005232166676905195 0.00543603959152824 0.005230015841826282
          0.003957127548679699 0.004251381957634085 0.004261093745343202 0.003955576936707439 0.004250463867602673 0.004258741467001876
          0.003954026324735178 0.00424954577757126 0.004256389188660552 0.004717305458790447 0.004512950325706444 0.00477670513421694
          0.005027718269978775 0.0047144575022332325 0.004508885908973966 0.004772877348876763 0.0050250182925271345 0.004711609545676017
          0.004504821492241486 0.0047690495635365855 0.005022318315075495 0.002865063276348806 0.002552852352097137 0.0024979537150957884
          0.0027192696499873676 0.0028665634823334 0.002553388515863459 0.0024977132953875785 0.0027197654314920533 0.0028680636883179947
          0.0025539246796297817 0.0024974728756793686 0.0027202612129967395 0.005886738325849869 0.005882505672099263 0.005878273018348659
          0.004295342217007852 0.00409713356026698 0.004292806392100985 0.004094880291900737 0.00429027056719412 0.004092627023534492
          0.005682470617755194 0.005585634431608158 0.005680597051638867 0.005583768755582804 0.005678723485522539 0.00558190307955745
          0.003821817936133601 0.0036088097225302675 0.0038201843117262988 0.0036089914128871942 0.0038185506873189973 0.0036091731032441214
          0.0029700187029039603 0.00319722637346119 0.0029715347527164543 0.003198677598288021 0.0029730508025289475 0.0032001288231148523
          0.0027253256616206717 0.0025437822144452654 0.002725257026678506 0.0025434423709273612 0.0027251883917363403 0.002543102527409456
          0.005726984372741209 0.005725879398642602 0.005724774424543996 0.0057161694293462375 0.005714485556886615 0.0057128016844269925
          0.0030707594003209103 0.0027365027900890554 0.0026717165277363 0.002990983562100946 0.003070746975623773 0.0027376728810354772
          0.0026734708530645286 0.0029920966658736883 0.003070734550926635 0.002738842971981898 0.0026752251783927587 0.0029932097696464305
          0.005827335033987231 0.0058336611499590725 0.005824876416890007 0.005831564704820906 0.005822417799792786 0.005829468259682739
          0.0021926319703411065 0.0021875173546319197 0.0021977085060560955 0.0021793209548789418 0.002192214400764691 0.0021873836398470566
          0.0021976143132341375 0.002179267783371231 0.002191796831188276 0.002187249925062194 0.00219752012041218 0.002179214611863521
          0.0023643767477771476 0.0022217842253699892 0.0023641087641256176 0.002364296808211509 0.002222279417915158 0.0023639911087903168
          0.002364216868645871 0.0022227746104603262 0.002363873453455016 0.0033298017335565574 0.0033317875936876677 0.0033337734538187794
          0.005347374948182111 0.005116513817746032 0.005344480907087702 0.005113753731069377 0.005341586865993293 0.005110993644392722
          0.004898049177653634 0.004405915650089264 0.0048964582764682045 0.004404460481430001 0.004894867375282773 0.004403005312770737
          0.003387604700390812 0.003387362649622319 0.0033871205988538263 0.005869146467378464 0.005867423638195227 0.005865700809011991
          0.003921834306973109 0.004313116562780141 0.003922388431388114 0.00431056053828344 0.00392294255580312 0.004308004513786738
          0.0021994117381274685 0.002151715096651299 0.0021993845973149427 0.0021520066721027816 0.0021993574565024165 0.002152298247554264
          0.00216154065448451 0.0022088271806941164 0.002162395225669523 0.0022099300984570543 0.0021632497968545362 0.0022110330162199918
          0.0023009355474637883 0.0026437586826225812 0.002459986246233306 0.0023021907068505785 0.0026441609292363975 0.0024605916851903574
          0.002303445866237368 0.0026445631758502137 0.0024611971241474094 0.0030031882983124853 0.003337872798055722 0.003002864345117714
          0.003337055793527943 0.0030025403919229426 0.0033362387890001626 0.0022953483096023555 0.002355957765659085 0.002294795945094925
          0.002355418048529172 0.002294243580587495 0.0023548783313992595 0.0028477054063244067 0.0026645035227925093 0.002847453902300683
          0.0026641855541758575 0.0028472023982769592 0.0026638675855592047 0.0023261575175744145 0.002326137189595879 0.0023261168616173435
          0.0034299218745626886 0.003431387077397663 0.0034052451382586635 0.003376513308146735 0.003428738443526694 0.003429641819528867
          0.003403329536377148 0.0033752920428884864 0.003427555012490699 0.0034278965616600706 0.003401413934495633 0.003374070777630238
          0.00334633131173713 0.003358047700275464 0.0033450212056058987 0.0033567394866379817 0.0033437110994746673 0.0033554312730004992
          0.0022718009362306664 0.0022716990075203193 0.0022715970788099726 0.0028268551281183723 0.0028268825092665597 0.002826909890414747
          0.0035298466515564283 0.003529212581350093 0.003528578511143757 0.0034374861793207683 0.00343905087034058 0.003440615561360392
          0.003954770361256726 0.003953815340858407 0.003952860320460088 0.00367116358919494 0.003855817236485647 0.0036705243791865
          0.0038538895163654704 0.00366988516917806 0.0038519617962452933 0.004037568806259127 0.004036396499671516 0.004035224193083906
          0.003814437687438425 0.003815674697300832 0.003816911707163238 0.0024696555278752464 0.002469197467741537 0.0024687394076078274
          0.005657122200953087 0.005656044585041306 0.005654966969129525 0.00472837176462532 0.004575774402727016 0.004726768690727705
          0.004574011775728718 0.00472516561683009 0.00457224914873042 0.005738139454153914 0.005737024489123453 0.005735909524092991
          0.004414461686161248 0.004412593797887765 0.004410725909614282 0.0040793503801832874 0.004076925550925702 0.004074500721668117
          0.003930381400826932 0.003932042485966585 0.003933703571106239 0.003904308850456277 0.00390553836004223 0.003906767869628184
          0.0038287530142449683 0.0038302551325359174 0.0038317572508268665 0.0032204258824728113 0.0032238973987988263 0.003219956409445668
          0.0032231300049408475 0.0032194869364185245 0.0032223626110828687 0.0031262320799942227 0.002907124088244806 0.0031261372983864256
          0.002907458286865207 0.0031260425167786285 0.0029077924854856076 0.003547949634184908 0.003546875365256945 0.0035458010963289816
          0.002142429988994078 0.00214300986855958 0.0021435897481250827 0.005589348738133713 0.005587764061777482 0.005586179385421251
          0.0032116106278175 0.0033833099382282327 0.0032115735897476102 0.0033823091719336184 0.00321153655167772 0.003381308405639004
          0.0030585966893127508 0.0031468280808827245 0.00316729144000497 0.0030587199294187994 0.003147089273304537 0.0031675181810428992
          0.0030588431695248476 0.0031473504657263487 0.0031677449220808285 0.0032706272868211145 0.0033413442784239952 0.00327064564516189
          0.003341149315970689 0.003270664003502666 0.0033409543535173826 0.003496928201962968 0.003495630479172611 0.0034943327563822547
          0.0031403865683278503 0.0031405314258753456 0.003140676283422841 0.0029580735578226803 0.00295812402498135 0.002958174492140019
          0.005722935005971007 0.005721095760298818 0.005719256514626628 0.002238029914410429 0.002237873485023219 0.0022377170556360086
          0.0022054016540038416 0.002625304039797261 0.002205581898503283 0.0026259852949810833 0.002205762143002725 0.0026266665501649055
          0.005095987141442125 0.005096418682814925 0.005096850224187725 0.004389694675747227 0.004480630817453524 0.00487380851276317
          0.004388242587474752 0.004479252351213036 0.004873058121425938 0.0043867904992022765 0.004477873884972546 0.004872307730088706
          0.002985814043107094 0.003153125588291297 0.00298625433665803 0.003153643886265842 0.002986694630208966 0.0031541621842403876
          0.005424294922022333 0.005103724418602848 0.005423793197787028 0.005104277527296183 0.005423291473551722 0.005104830635989517
          0.003374874328254937 0.0033751883417031253 0.0033755023551513136 0.004393896149598082 0.004089020688590539 0.003994236120319409
          0.004394973053110835 0.004090081747002321 0.003995296944363507 0.0043960499566235885 0.0040911428054141025 0.0039963577684076065
          0.004880068723943132 0.004880020578453396 0.0048799724329636595 0.005649089896722132 0.005745805235818857 0.005645729394352553
          0.00574164979237494 0.005642368891982975 0.005737494348931021 0.0047244858381296365 0.004685931853312873 0.004724693833901202
          0.0046858988054388605 0.004724901829672768 0.00468586575756485 0.005410627031345103 0.005408729307365216 0.005406831583385329
          0.005368870647382326 0.0053679832654965716 0.005367095883610817 0.0030878822758163204 0.00308923840434129 0.0030905945328662593
          0.0030921837681743393 0.003092614030658897 0.003093044293143455 0.003587281560061759 0.0035877533845298645 0.00358822520899797
          0.0044570873157780844 0.004457950295721566 0.004458813275665047 0.0040960980525399674 0.0042632989259670595 0.004096425568761552
          0.00426236392870059 0.004096753084983136 0.00426142893143412 0.0031665234088281793 0.0030959208610960346 0.0031679059954693623
          0.003097571524726989 0.0031692885821105452 0.003099222188357944 0.002906429442177134 0.002908180900109374 0.0029099323580416146
          0.003068915254229635 0.0030549659757395696 0.0030690947016793167 0.0030551134482659816 0.0030692741491289977 0.003055260920792393
          0.005423110746782406 0.005422100743623294 0.005421090740464182 0.0035416788822445395 0.0036524522944229327 0.0035420797966007004
          0.003652605559509853 0.003542480710956861 0.003652758824596774 0.005546434596690427 0.005413443962558229 0.005544603128041264
          0.005411952722003699 0.0055427716593921 0.005410461481449169 0.0030260361924750153 0.0030262289247029984 0.0030264216569309815
          0.0051606830811683066 0.005159877894494994 0.005159072707821681 0.0032917596755191432 0.0032927186709801755 0.0032936776664412074
          0.003430065563339203 0.0034306433845644174 0.003431221205789631 0.00574430909239242 0.005740800388064305 0.005737291683736191
          0.00566238595381832 0.005659994531609992 0.005657603109401663
        </DataArray>
        <DataArray type="Float64" Name="pe22" format="ascii" RangeMin="-0.0029645150726421384" RangeMax="-0.0010736333857929376">
          -0.0019475660975421514 -0.002139806493858974 -0.0021586090387883776 -0.0020083659426349174 -0.0019478494270921427 -0.002140293601812491
          -0.0021591586683090817 -0.002008771405349015 -0.0019481327566421344 -0.0021407807097660074 -0.0021597082978297853 -0.0020091768680631124
          -0.0014293340792896794 -0.001259836691449543 -0.0012847864932586943 -0.0014865514835556383 -0.0014290851333091156 -0.0012595227420274095
          -0.001284576652152186 -0.0014861451615674152 -0.0014288361873285515 -0.001259208792605276 -0.0012843668110456776 -0.001485738839579192
          -0.0010980347733319474 -0.0010978667185771742 -0.001097698663822401 -0.0011016168839068884 -0.0011015072408596756 -0.0011013975978124626
          -0.002093991607986821 -0.001957642014948814 -0.002094400905696738 -0.0019579947110760594 -0.0020948102034066547 -0.001958347407203305
          -0.0027590603102238456 -0.0028194291694720167 -0.0027143769791745376 -0.0027049750871265175 -0.002759814847420994 -0.002820093062991987
          -0.0027147833388807903 -0.002705492714870375 -0.002760569384618142 -0.002820756956511957 -0.002715189698587043 -0.002706010342614232
          -0.0015925043742267926 -0.0017617709456383248 -0.0018729561436398394 -0.001725469321304574 -0.0015926065083783233 -0.0017610576321585765
          -0.0018725971757622502 -0.001725712730110599 -0.0015927086425298537 -0.0017603443186788284 -0.001872238207884661 -0.0017259561389166241
          -0.0012782840492440752 -0.0013798491369293267 -0.0012322031591829744 -0.001167856539582952 -0.001278405346291829 -0.0013800594821436443
          -0.0012330377761023987 -0.0011683551034691849 -0.0012785266433395829 -0.0013802698273579616 -0.001233872393021823 -0.0011688536673554175
          -0.002796609994662176 -0.002768048298222564 -0.002655920049790772 -0.002796788850023658 -0.0027681715686915056 -0.002656116857591736
          -0.00279696770538514 -0.0027682948391604474 -0.0026563136653926997 -0.002597984043999622 -0.0027379159457181935 -0.002711751280948533
          -0.0025138840399754185 -0.002597984650084743 -0.0027383549861687037 -0.0027121792565006184 -0.0025141334575113096 -0.002597985256169864
          -0.002738794026619213 -0.0027126072320527044 -0.0025143828750472004 -0.002375500328521322 -0.002375735755188459 -0.0023759711818555967
          -0.0023207454970836394 -0.002268482644726101 -0.0023213636683519757 -0.0022689844044952267 -0.0023219818396203124 -0.0022694861642643524
          -0.0017769106419496506 -0.001966213244942871 -0.0017480837800227323 -0.001777416656915109 -0.001966229774989617 -0.0017486199657307704
          -0.0017779226718805676 -0.0019662463050363625 -0.0017491561514388087 -0.002556283278234068 -0.002454268096500404 -0.0025430490997610865
          -0.0026504625553913632 -0.0025567755991592347 -0.0024548553546821176 -0.0025435071310033913 -0.002651069988459089 -0.0025572679200844017
          -0.0024554426128638317 -0.0025439651622456965 -0.0026516774215268133 -0.002092916884197324 -0.001953142798324882 -0.0020143297701216505
          -0.0020937360997657084 -0.001953315618665426 -0.002014791530444558 -0.0020945553153340927 -0.0019534884390059694 -0.002015253290767465
          -0.0018432331219523214 -0.0018120869274710126 -0.0015648522040107877 -0.001843500196811439 -0.0018125518235913819 -0.0015663312628250489
          -0.0018437672716705566 -0.0018130167197117511 -0.0015678103216393096 -0.0022656647801185706 -0.002123557325485857 -0.0021792473349843073
          -0.002371248239271634 -0.0022665337281145195 -0.002124222050926613 -0.002179524020092937 -0.002371513474129297 -0.0022674026761104692
          -0.0021248867763673687 -0.0021798007052015664 -0.00237177870898696 -0.0025821603168129214 -0.0024440087577934227 -0.00258284575854485
          -0.0024443414783789103 -0.002583531200276778 -0.002444674198964398 -0.002723929663964454 -0.00255565787337246 -0.0025692871231249256
          -0.0027242800637980397 -0.0025558141560889126 -0.002569553859593023 -0.002724630463631625 -0.0025559704388053647 -0.002569820596061121
          -0.0024349614132701627 -0.0025073161482127705 -0.00265463818090156 -0.0026053495028595286 -0.0024352439567705674 -0.0025080656672214824
          -0.002655364202811707 -0.002605844389680839 -0.002435526500270972 -0.0025088151862301946 -0.0026560902247218542 -0.00260633927650215
          -0.001604556417889443 -0.0017068664445259833 -0.0016049242114716475 -0.001707321676912824 -0.001605292005053852 -0.0017077769092996645
          -0.0016981408511363625 -0.001852632276479335 -0.0016991333459775552 -0.001853080864232537 -0.0017001258408187476 -0.0018535294519857394
          -0.0010961738835068948 -0.001112676911971526 -0.001096342622589052 -0.001112847138794171 -0.0010965113616712091 -0.001113017365616816
          -0.0017567873188292235 -0.0016582068233614747 -0.001822575676731663 -0.0019453638020583445 -0.001756748645757032 -0.0016581350367338703
          -0.001822753753960566 -0.001945648045212644 -0.0017567099726848406 -0.0016580632501062655 -0.0018229318311894693 -0.0019459322883669439
          -0.002847972921913097 -0.0027062080277052373 -0.002848742784251871 -0.0027067517802190004 -0.0028495126465906445 -0.0027072955327327635
          -0.0028808709817808396 -0.002807495014633254 -0.0028815364815553495 -0.0028077903831016547 -0.002882201981329859 -0.002808085751570055
          -0.0029628028896018822 -0.002909407796490473 -0.00296365898112201 -0.0029103179014604826 -0.0029645150726421384 -0.002911228006430493
          -0.001830546557935205 -0.0018308674658542579 -0.001831188373773311 -0.002196471417116505 -0.002196532392848973 -0.0021965933685814407
          -0.002540234611393007 -0.0023748294852647413 -0.0023726030446848813 -0.002549341416157392 -0.0025404953437707565 -0.0023748211836978044
          -0.0023725924819173226 -0.0025494435190640727 -0.002540756076148506 -0.0023748128821308675 -0.0023725819191497645 -0.002549545621970753
          -0.0027466465400162645 -0.0027213301125138716 -0.0027858519984663354 -0.0027474195955938846 -0.002721977753614388 -0.002786777696832524
          -0.002748192651171505 -0.002722625394714904 -0.002787703395198712 -0.0027882889572330813 -0.0026982069409032102 -0.002788902785849899
          -0.0026988604707747273 -0.0027895166144667172 -0.0026995140006462444 -0.0023852507187244595 -0.002385217633756073 -0.0023851845487876874
          -0.0011066204577056316 -0.0011810699315879462 -0.001221559833822388 -0.0011280796777407313 -0.0011068823415854188 -0.0011811692213320845
          -0.0012218211391451675 -0.0011285113444811914 -0.0011071442254652058 -0.001181268511076223 -0.0012220824444679468 -0.0011289430112216515
          -0.0027262500889821415 -0.002726758405247831 -0.0027272667215135207 -0.0023712836416363717 -0.0023712895572902534 -0.0023712954729441346
          -0.002511310300215386 -0.002511589546954601 -0.0025118687936938164 -0.0018606696604411984 -0.0017843727141568023 -0.0018611986329560622
          -0.00178506716363226 -0.0018617276054709263 -0.0017857616131077187 -0.002213602298000884 -0.0021622026707667826 -0.0022139344771661693
          -0.002162158187580629 -0.002214266656331455 -0.0021621137043944753 -0.0028992137833896707 -0.0028112421743774225 -0.00290017081048483
          -0.002812333843661789 -0.0029011278375799905 -0.0028134255129461556 -0.0024551545771832025 -0.002431008034111348 -0.0024556423632342557
          -0.0024317168751673826 -0.0024561301492853085 -0.0024324257162234163 -0.002617406783349656 -0.0026176116783894975 -0.002617816573429338
          -0.002331454304842982 -0.002125513347913131 -0.0023321195162494847 -0.002126027227071996 -0.0023327847276559876 -0.002126541106230862
          -0.002375303458605465 -0.002281765271851928 -0.0023757875714302953 -0.002282289109667228 -0.002376271684255126 -0.0022828129474825273
          -0.0029267039209244956 -0.002927704931343397 -0.0029287059417622986 -0.0028737469848961594 -0.002874778272742177 -0.0028758095605881957
          -0.002245006369278812 -0.002220482543304578 -0.002245721126350949 -0.002220977891718578 -0.0022464358834230853 -0.0022214732401325773
          -0.002950137485509465 -0.002950976285070526 -0.0029518150846315873 -0.0021767239184305245 -0.002176704043701282 -0.0021766841689720403
          -0.0029623695297539177 -0.002928570380574125 -0.0029634333190247854 -0.0029294027380080026 -0.0029644971082956532 -0.0029302350954418816
          -0.002705834870982039 -0.002586915435233668 -0.0027062095369021445 -0.002587138451580409 -0.0027065842028222496 -0.0025873614679271495
          -0.00197660957149952 -0.002114724459791128 -0.0021123602878867324 -0.0019766270803119007 -0.0021152532731247907 -0.0021127278089154047
          -0.0019766445891242815 -0.0021157820864584533 -0.002113095329944077 -0.00233637446334594 -0.0022363711868035826 -0.002354692393529134
          -0.0024805202921661298 -0.002336775156061522 -0.002236408779294599 -0.002355123635636382 -0.0024812636241336042 -0.002337175848777104
          -0.0022364463717856158 -0.0023555548777436297 -0.0024820069561010787 -0.0014342970574395143 -0.0012748733400933891 -0.0012462261390030083
          -0.0013593128904121222 -0.0014343142051702015 -0.0012748350332283148 -0.001245899916390605 -0.00135910445500811 -0.0014343313529008887
          -0.0012747967263632407 -0.0012455736937782018 -0.0013588960196040975 -0.0029194062906535783 -0.002919974638589085 -0.0029205429865245915
          -0.0021283331088023786 -0.0020364524841709444 -0.0021281882874882086 -0.002036336588039035 -0.002128043466174039 -0.0020362206919071254
          -0.0028746726303545125 -0.0028302239392267673 -0.0028752204137500463 -0.002831070398526618 -0.0028757681971455806 -0.00283191685782647
          -0.0018883319719868066 -0.0017902964061156722 -0.001887990316163996 -0.0017904141134630473 -0.0018876486603411858 -0.001790531820810422
          -0.0014798042120243273 -0.0015932048427529874 -0.0014798500918342663 -0.0015932222768799487 -0.0014798959716442052 -0.0015932397110069098
          -0.0013536156456058165 -0.001265733769321216 -0.0013533448125776057 -0.0012653811659755479 -0.0013530739795493947 -0.00126502856262988
          -0.0028632625244394013 -0.00286455398197243 -0.0028658454395054595 -0.0028589907396729536 -0.002859739136877863 -0.002860487534082771
          -0.0015244780993455454 -0.0013583046048502962 -0.0013320368025815862 -0.0014898736737159943 -0.0015241322397110445 -0.0013581477435594899
          -0.001332115885508583 -0.0014896930551626841 -0.0015237863800765439 -0.0013579908822686836 -0.00133219496843558 -0.0014895124366093738
          -0.0029144170676291387 -0.002927156389805354 -0.0029151981564593445 -0.002927775082316139 -0.0029159792452895504 -0.002928393774826924
          -0.0010973090829264908 -0.0010953170385489 -0.0010996932497467156 -0.001091260910785824 -0.001097147875516145 -0.0010952648276192271
          -0.0010997429166447212 -0.0010913280116863476 -0.001096986668105799 -0.0010952126166895544 -0.0010997925835427268 -0.0010913951125868712
          -0.001177207192298234 -0.0011070110463868555 -0.001175694662790893 -0.0011769150556380824 -0.0011070002386095877 -0.0011755126025184465
          -0.001176622918977931 -0.00110698943083232 -0.0011753305422459999 -0.0016549498698201267 -0.0016552165642861494 -0.0016554832587521728
          -0.0026820952394940034 -0.002562593628451461 -0.0026828223682535163 -0.0025633772437951043 -0.0026835494970130296 -0.002564160859138747
          -0.0024309406526672787 -0.0021818247733960718 -0.0024310011808044703 -0.002181925618916497 -0.0024310617089416627 -0.002182026464436922
          -0.001681757033587228 -0.0016813611706009395 -0.001680965307614651 -0.0029354899220669136 -0.002936765937111481 -0.0029380419521560473
          -0.001956656900526262 -0.002146137469010186 -0.0019567061988676557 -0.0021457705821674084 -0.0019567554972090497 -0.0021454036953246305
          -0.0010993452080742356 -0.001077265597603053 -0.001099439679338139 -0.0010774953925697403 -0.0010995341506020424 -0.0010777251875364277
          -0.001085341147748069 -0.0011106474652594514 -0.0010858626381318112 -0.0011112943221497067 -0.0010863841285155534 -0.001111941179039962
          -0.0011581364895889503 -0.001323966723074947 -0.001241364261627363 -0.001159153350008972 -0.0013250940194380655 -0.001242661357235219
          -0.0011601702104289938 -0.0013262213158011843 -0.001243958452843075 -0.0014955782172715879 -0.0016583362924888448 -0.0014958896096129775
          -0.001657959810049029 -0.0014962010019543672 -0.0016575833276092132 -0.0011435959780737017 -0.0011723304927334804 -0.0011435323175606664
          -0.001172220993401247 -0.001143468657047631 -0.0011721114940690131 -0.001423466610038877 -0.0013458783919869676 -0.0014246831779431105
          -0.001347252113769782 -0.001425899745847344 -0.0013486258355525963 -0.001158712035121578 -0.0011585534613405743 -0.0011583948875595706
          -0.0017193858671490409 -0.0017171216690587776 -0.0017046180954047952 -0.001691310240461452 -0.0017202876169869542 -0.0017172972210089926
          -0.0017045731445061508 -0.0016924189268555279 -0.0017211893668248675 -0.0017174727729592078 -0.0017045281936075062 -0.0016935276132496037
          -0.0016750480384774792 -0.0016809068900989939 -0.001675047816445555 -0.0016810210491609546 -0.001675047594413631 -0.0016811352082229149
          -0.001132255182410103 -0.00113238283248895 -0.0011325104825677973 -0.0014234438198293903 -0.0014253758424838641 -0.0014273078651383382
          -0.001746576231339513 -0.0017462703493249746 -0.0017459644673104365 -0.001708104207261215 -0.0017078868086169677 -0.0017076694099727211
          -0.0019532613529312645 -0.0019533324225931006 -0.0019534034922549367 -0.0018144592996809474 -0.0019052045075879818 -0.0018144755761629312
          -0.001905239983569868 -0.001814491852644915 -0.0019052754595517544 -0.0019921638966259366 -0.0019925881530430067 -0.0019930124094600767
          -0.0019175901987990805 -0.0019178734034019235 -0.001918156608004766 -0.0012250020585149917 -0.0012247112271172658 -0.00122442039571954
          -0.0028700697137822692 -0.0028702786314459307 -0.0028704875491095913 -0.002336669011717517 -0.0022647265567138633 -0.0023372919293027524
          -0.0022651456575632717 -0.0023379148468879885 -0.0022655647584126806 -0.0028956286131012615 -0.002896021624349927 -0.002896414635598594
          -0.002189577676763153 -0.002189589144859599 -0.0021896006129560447 -0.0020088113480960833 -0.0020093338403183963 -0.002009856332540708
          -0.0019609093734882198 -0.0019610065845543185 -0.0019611037956204173 -0.0019752276457681308 -0.0019751499553412903 -0.0019750722649144493
          -0.0019342126513033262 -0.001934220749132655 -0.0019342288469619837 -0.001611232826453602 -0.001613006983004853 -0.0016114416264177006
          -0.0016130792020167125 -0.001611650426381799 -0.0016131514210285718 -0.0015591140394196263 -0.001458710634621351 -0.0015607102132923303
          -0.0014607437270733206 -0.0015623063871650343 -0.0014627768195252903 -0.0017763086925525091 -0.0017770511416630194 -0.0017777935907735297
          -0.0010736333857929376 -0.0010740192739225243 -0.001074405162052111 -0.0028259336825024505 -0.002826804879349904 -0.0028276760761973578
          -0.0016067142908575039 -0.001693825414261945 -0.0016070875084830216 -0.0016942535157488396 -0.0016074607261085394 -0.0016946816172357343
          -0.0015272208812431613 -0.0015685888499662435 -0.0015755365924616967 -0.0015286682363509308 -0.0015698075622260306 -0.0015771094108382013
          -0.0015301155914587005 -0.001571026274485818 -0.001578682229214706 -0.001630815809285923 -0.0016714261718452684 -0.0016329275804306972
          -0.0016731910059779532 -0.0016350393515754715 -0.0016749558401106385 -0.0017485577057950589 -0.001749176051050729 -0.0017497943963063996
          -0.001564644830688302 -0.0015659421418465847 -0.0015672394530048678 -0.0014804984291371408 -0.0014821636432397354 -0.0014838288573423303
          -0.0028790319938038853 -0.0028797648089517658 -0.002880497624099646 -0.0011175014201954873 -0.001117585489781635 -0.0011176695593677827
          -0.0010937896439914272 -0.0012997115443683445 -0.0010934626871219341 -0.0012994468043153072 -0.0010931357302524408 -0.0012991820642622698
          -0.0025721373909999164 -0.0025720876692142997 -0.0025720379474286825 -0.002176155811112274 -0.002221764367830586 -0.0024062456303495954
          -0.0021766535331952178 -0.002221905065593061 -0.0024061300076373207 -0.0021771512552781615 -0.0022220457633555356 -0.0024060143849250456
          -0.001495752217913472 -0.0015830068044374928 -0.0014957739602455612 -0.0015831775908433402 -0.0014957957025776506 -0.0015833483772491879
          -0.002757362089088087 -0.002580224508578301 -0.0027579343219386776 -0.0025805061035915253 -0.002758506554789269 -0.0025807876986047493
          -0.0016982535113449395 -0.001698448583590827 -0.0016986436558367145 -0.0022106730863823074 -0.002050330423274181 -0.002013007552507058
          -0.002210571976590539 -0.0020502964865526645 -0.002012995090385023 -0.0022104708667987703 -0.0020502625498311482 -0.0020129826282629876
          -0.002452207979611731 -0.0024521014817456117 -0.0024519949838794925 -0.002807275555935187 -0.0028578719658345474 -0.002808335841749348
          -0.002858804820840004 -0.002809396127563509 -0.0028597376758454614 -0.0023688691436616863 -0.002348642608332628 -0.002369011162910612
          -0.0023486254407936048 -0.002369153182159538 -0.0023486082732545816 -0.0026833596407886294 -0.0026837272546502136 -0.002684094868511798
          -0.002729042641857897 -0.0027297418878266203 -0.0027304411337953443 -0.0015479349059830873 -0.0015480694485466508 -0.0015482039911102145
          -0.0015304502461512633 -0.0015299524078738213 -0.0015294545695963796 -0.0017819581335369833 -0.0017817371935625389 -0.0017815162535880944
          -0.0022353981944974602 -0.00223533724482776 -0.00223527629515806 -0.002038748928509676 -0.002115484276234621 -0.002039251362419804
          -0.002116280976805717 -0.0020397537963299326 -0.002117077677376813 -0.0015874794590073989 -0.001550454755081675 -0.001587176122625625
          -0.0015503101673912684 -0.0015868727862438509 -0.0015501655797008614 -0.001456222044849199 -0.0014562401949751226 -0.0014562583451010458
          -0.0015348685627996166 -0.001527611685161788 -0.0015345281618477165 -0.0015276251697071974 -0.0015341877608958162 -0.001527638654252607
          -0.002758043822113263 -0.0027588916506810545 -0.002759739479248846 -0.0017791751712339682 -0.0018265549337335603 -0.0017790149912792885
          -0.0018261558129803457 -0.0017788548113246085 -0.001825756692227131 -0.00279825294526042 -0.0027543597950072944 -0.0027987940821516677
          -0.002754840420004518 -0.002799335219042916 -0.0027553210450017413 -0.0015136349569231382 -0.0015138475643954102 -0.0015140601718676826
          -0.0025463603120866153 -0.0025461764126804803 -0.0025459925132743457 -0.0016524949598313373 -0.0016522234908167845 -0.0016519520218022318
          -0.001723702455102815 -0.0017236471297709687 -0.001723591804439123 -0.0028689370170343832 -0.0028697720201647783 -0.0028706070232951734
          -0.0028397573131355076 -0.002840516030557935 -0.002841274747980364
        </DataArray>
        <DataArray type="Float64" Name="pe33" format="ascii" RangeMin="-0.0029936705681866244" RangeMax="-0.0010687966032011404">
          -0.001956156471011361 -0.0021596258687327785 -0.0021484964368587703 -0.001993633114477041 -0.0019548695262471254 -0.0021569095690827235
          -0.0021464262245235862 -0.0019922489747014305 -0.00195358258148289 -0.002154193269432669 -0.0021443560121884022 -0.0019908648349258205
          -0.0014550210008540464 -0.0012835007873946563 -0.0013103695489727679 -0.0015168545507624799 -0.0014554019913340776 -0.001283418704180693
          -0.0013107018203886427 -0.0015173683388303002 -0.0014557829818141088 -0.0012833366209667298 -0.0013110340918045175 -0.001517882126898121
          -0.0011154488256692426 -0.0011162037472828082 -0.0011169586688963735 -0.0011144683448637309 -0.0011153133989590942 -0.0011161584530544578
          -0.0020725000371550548 -0.001926274580461147 -0.002071231227948835 -0.001925380231196671 -0.0020699624187426146 -0.0019244858819321951
          -0.00275755542656288 -0.0028224490260054377 -0.0027208733349130846 -0.0027111236945099476 -0.002754392117712853 -0.0028198220621905713
          -0.0027182011265968736 -0.0027080928405086337 -0.002751228808862826 -0.002817195098375704 -0.0027155289182806634 -0.00270506198650732
          -0.0016134527667254913 -0.0017841936584839162 -0.0018771771869114063 -0.0017245031903933604 -0.0016126243329513269 -0.0017834222882819235
          -0.0018766764020168873 -0.0017239204424840434 -0.0016117958991771625 -0.001782650918079931 -0.0018761756171223687 -0.0017233376945747269
          -0.0012882984549066013 -0.0013935420262167091 -0.0012294942584422587 -0.0011638797175456462 -0.001289287093987654 -0.0013935902258887874
          -0.001229641173144588 -0.0011644901674191454 -0.0012902757330687073 -0.0013936384255608656 -0.0012297880878469171 -0.0011651006172926446
          -0.002730960199993045 -0.0026800548723743675 -0.0026121071659788884 -0.0027306502998381706 -0.002680004680253524 -0.0026117217649830726
          -0.0027303403996832972 -0.002679954488132682 -0.0026113363639872563 -0.0026724249372463483 -0.002822319738365797 -0.00280304441455132
          -0.0025942914543657636 -0.002671016170418151 -0.0028197426700397946 -0.002799978408325259 -0.002592677856793149 -0.002669607403589954
          -0.002817165601713791 -0.002796912402099197 -0.0025910642592205336 -0.0024354654586976453 -0.0024342248987597984 -0.002432984338821951
          -0.00231036930184951 -0.002245799544008919 -0.0023071913257044305 -0.002243348476545781 -0.002304013349559351 -0.002240897409082643
          -0.0017867373905216433 -0.0019789514339068224 -0.0017615685379864512 -0.001785266072618182 -0.0019772893750131075 -0.0017608568435899688
          -0.0017837947547147202 -0.0019756273161193926 -0.001760145149193486 -0.002545825929985389 -0.002460364223741542 -0.0025359692430205454
          -0.0026286554025598 -0.002542750371057032 -0.002458434964142553 -0.0025344766900662064 -0.002626114355380083 -0.002539674812128676
          -0.0024565057045435636 -0.002532984137111867 -0.0026235733082003664 -0.0021090480895381734 -0.0019466047701850416 -0.0020463948905996314
          -0.0021080466997809954 -0.001945951603220363 -0.002044303030432473 -0.0021070453100238175 -0.0019452984362556846 -0.002042211170265315
          -0.0018240991150416908 -0.001808101350475694 -0.0015638113487290804 -0.0018232244885766898 -0.0018063159148082961 -0.0015620851586627947
          -0.0018223498621116893 -0.0018045304791408986 -0.0015603589685965087 -0.0022964088984527647 -0.0021767617325366613 -0.0022318259841860827
          -0.0023986649878478534 -0.002294860041736379 -0.0021738162164007275 -0.002229651831704994 -0.002396986744454559 -0.0022933111850199925
          -0.0021708707002647933 -0.0022274776792239057 -0.0023953085010612646 -0.0026681793943473847 -0.0025174566894973368 -0.0026654274268346173
          -0.002514650970260276 -0.0026626754593218494 -0.0025118452510232156 -0.002724242424337123 -0.002539348765395023 -0.002559280602733107
          -0.002722022057512946 -0.002538503621545202 -0.0025575728361762608 -0.002719801690688769 -0.002537658477695382 -0.002555865069619414
          -0.002419225935767043 -0.0025002855736651597 -0.002648639913746039 -0.0026005474067594433 -0.0024174827107895144 -0.0024972847375281135
          -0.002645197055074418 -0.002597965589453334 -0.002415739485811985 -0.002494283901391067 -0.0026417541964027977 -0.0025953837721472243
          -0.0015980130775435266 -0.001693741475900767 -0.0015977827632747772 -0.0016928673341765315 -0.0015975524490060278 -0.001691993192452296
          -0.0017038377694697769 -0.001857848375237649 -0.001702658880290425 -0.0018565972260788724 -0.0017014799911110733 -0.0018553460769200952
          -0.0010939345447927337 -0.0011159456505474925 -0.001094186052605633 -0.0011163123925714133 -0.0010944375604185323 -0.001116679134595334
          -0.0017489811520517448 -0.001646650188475904 -0.0017944846234440007 -0.0019239679191533137 -0.0017500481899630858 -0.0016477015817116824
          -0.001794526005567661 -0.0019240273500150983 -0.0017511152278744271 -0.0016487529749474605 -0.0017945673876913215 -0.0019240867808768827
          -0.0028112582259895366 -0.0026783536340230446 -0.0028095767549466432 -0.002676999208073801 -0.002807895283903749 -0.0026756447821245574
          -0.0029340438325785494 -0.0028543267914845215 -0.0029299358009007613 -0.0028509554473458306 -0.0029258277692229724 -0.0028475841032071392
          -0.0029936705681866244 -0.0029469208967895164 -0.002989331072836428 -0.00294209697996034 -0.0029849915774862314 -0.002937273063131164
          -0.0018028929402278938 -0.0018019689742539322 -0.001801045008279971 -0.0021516841299726304 -0.0021526689295608605 -0.0021536537291490915
          -0.002523177698989386 -0.002351676856886165 -0.002338453740675033 -0.00253075328124873 -0.002522487292098277 -0.002352031572989096
          -0.0023390077485984442 -0.0025303076173887 -0.0025217968852071677 -0.002352386289092027 -0.002339561756521856 -0.0025298619535286692
          -0.002727479108144987 -0.0027019093510832278 -0.0027816041621992055 -0.0027242155085620487 -0.002699818824431893 -0.0027795108710122305
          -0.0027209519089791104 -0.0026977282977805575 -0.002777417579825255 -0.0028851087123757378 -0.0027886978104887956 -0.00287976897290787
          -0.0027846579500657147 -0.002874429233440003 -0.0027806180896426335 -0.002353699067385153 -0.0023533933816498797 -0.0023530876959146066
          -0.0011051342515912075 -0.0011845239991483338 -0.0012210036249964092 -0.0011230624456854505 -0.001105449978819484 -0.0011849779907786638
          -0.0012224051953843048 -0.0011237781077012643 -0.0011057657060477603 -0.001185431982408994 -0.0012238067657722007 -0.001124493769717078
          -0.0027136104572243387 -0.0027117597622650196 -0.0027099090673057 -0.002331761179916033 -0.0023322169740603214 -0.00233267276820461
          -0.0024910014336137648 -0.0024903495508767446 -0.002489697668139724 -0.0018521447608664094 -0.0017784752657846227 -0.0018506303557797132
          -0.0017768062179721828 -0.0018491159506930175 -0.0017751371701597428 -0.002186562004663735 -0.002117699414559018 -0.0021862760892793183
          -0.0021189341701045804 -0.0021859901738949016 -0.0021201689256501437 -0.0029454717234719653 -0.002858010502065275 -0.002940395774702667
          -0.002854267488022293 -0.00293531982593337 -0.0028505244739793108 -0.002443351634925984 -0.002412425372765104 -0.0024398818756539275
          -0.0024091543103483097 -0.0024364121163818705 -0.0024058832479315157 -0.002621730811860983 -0.0026204582032758276 -0.002619185594690673
          -0.002310475217931791 -0.002100694968396197 -0.0023081890250571464 -0.0020997853064699235 -0.0023059028321825025 -0.00209887564454365
          -0.002394098410269138 -0.0023051999987989996 -0.0023911215895124583 -0.0023015560955612 -0.0023881447687557783 -0.0022979121923234007
          -0.002957357833844893 -0.0029528904659095784 -0.0029484230979742645 -0.002861087479754029 -0.0028586398995295646 -0.002856192319305101
          -0.002281188243614101 -0.002263162785836241 -0.002279182747901078 -0.002259752275117896 -0.002277177252188054 -0.0022563417643995513
          -0.0029668616044406628 -0.002963599117483652 -0.0029603366305266414 -0.002121491689460365 -0.002122711294984272 -0.002123930900508179
          -0.002968525760944414 -0.0029135185413760164 -0.002965073770844751 -0.002911317113195169 -0.002961621780745088 -0.0029091156850143208
          -0.002733184064301626 -0.002647402076750439 -0.002731319726503808 -0.0026450282253247855 -0.0027294553887059893 -0.0026426543738991316
          -0.0019805179771801794 -0.002136657497842957 -0.002148733457456469 -0.0019789498563955376 -0.0021352105944778812 -0.0021460136580864716
          -0.001977381735610896 -0.002133763691112806 -0.002143293858716474 -0.0023809309954445066 -0.0022765791389028622 -0.0024220127406878052
          -0.0025471979778126453 -0.0023776823461717097 -0.002272477129679366 -0.00241775371324038 -0.0025437546683935303 -0.0023744336968989127
          -0.0022683751204558697 -0.0024134946857929545 -0.0025403113589744153 -0.0014307662189092909 -0.0012779790120037477 -0.0012517275760927796
          -0.0013599567595752446 -0.0014322492771631987 -0.001278553482635144 -0.0012518133789969732 -0.0013606609764839428 -0.0014337323354171058
          -0.0012791279532665407 -0.0012518991819011665 -0.001361365193392641 -0.00296733203519629 -0.0029625310335101786 -0.002957730031824066
          -0.0021670091082054725 -0.002060681076096035 -0.0021646181046127764 -0.0020585437038617006 -0.0021622271010200813 -0.0020564063316273664
          -0.00280779798740068 -0.0027554104923813907 -0.002805376637888819 -0.0027526983570561846 -0.002802955288376957 -0.002749986221730979
          -0.001933485964146794 -0.0018185133164145947 -0.0019321939955623028 -0.0018185772994241474 -0.0019309020269778112 -0.0018186412824336997
          -0.0014902144908796333 -0.001604021530708202 -0.0014916846608821878 -0.0016054553214080725 -0.001493154830884742 -0.001606889112107943
          -0.001371710016014855 -0.0012780484451240495 -0.0013719122141009003 -0.0012780612049518127 -0.0013721144121869454 -0.001278073964779576
          -0.0028637218483018078 -0.002861325416670171 -0.0028589289850385344 -0.002857178689673284 -0.002854746420008751 -0.002852314150344219
          -0.0015462813009753643 -0.001378198185238759 -0.001339679725154714 -0.001501109888384951 -0.0015466147359127276 -0.0013795251374759867
          -0.001341354967555946 -0.001502403610711004 -0.001546948170850091 -0.0013808520897132144 -0.0013430302099571786 -0.0015036973330370563
          -0.0029129179663580904 -0.0029065047601537176 -0.002909678260430663 -0.0029037896225047664 -0.0029064385545032353 -0.002901074484855815
          -0.0010953228874146155 -0.0010922003160830193 -0.0010980152563093795 -0.001088060044093118 -0.0010950665252485458 -0.0010921188122278293
          -0.0010978713965894163 -0.0010879397716848838 -0.0010948101630824762 -0.0010920373083726392 -0.0010977275368694531 -0.0010878194992766494
          -0.0011871695554789134 -0.0011147731789831338 -0.0011884141013347245 -0.0011873817525734267 -0.0011152791793055696 -0.00118847850627187
          -0.00118759394966794 -0.0011157851796280058 -0.0011885429112090157 -0.00167485186373643 -0.0016765710294015183 -0.0016782901950666066
          -0.002665279708688107 -0.0025539201892945704 -0.0026616585388341846 -0.002550376487274272 -0.002658037368980263 -0.002546832785253974
          -0.0024671085249863547 -0.0022240908766931926 -0.002465457095663733 -0.0022225348625135033 -0.0024638056663411102 -0.0022209788483338135
          -0.0017058476668035832 -0.0017060014790213794 -0.0017061552912391751 -0.00293365654531155 -0.0029306577010837463 -0.002927658856855943
          -0.001965177406446847 -0.002166979093769955 -0.001965682232520458 -0.002164789956116031 -0.001966187058594069 -0.002162600818462106
          -0.0011000665300532327 -0.0010744494990482464 -0.0010999449179768033 -0.0010745112795330415 -0.0010998233059003742 -0.0010745730600178363
          -0.0010761995067364403 -0.0010981797154346637 -0.0010765325875377115 -0.0010986357763073467 -0.0010768656683389829 -0.0010990918371800297
          -0.0011427990578748372 -0.0013197919595476346 -0.0012186219846059428 -0.001143037356841606 -0.001319066909798332 -0.0012179303279551386
          -0.0011432756558083744 -0.0013183418600490292 -0.0012172386713043346 -0.0015076100810408972 -0.001679536505566877 -0.0015069747355047362
          -0.001679095983478913 -0.0015063393899685752 -0.0016786554613909491 -0.001151752331528653 -0.001183627272925604 -0.001151263627534258
          -0.0011831970551279252 -0.0011507749235398633 -0.0011827668373302466 -0.0014242387962855292 -0.0013186251308055412 -0.001422770724357572
          -0.0013169334404060748 -0.0014213026524296148 -0.0013152417500066084 -0.001167445482452836 -0.0011675837282553044 -0.0011677219740577728
          -0.0017105360074136475 -0.0017142654083388855 -0.0017006270428538677 -0.0016852030676852824 -0.0017084508265397395 -0.0017123445985198743
          -0.0016987563918709973 -0.0016828731160329579 -0.0017063656456658314 -0.001710423788700863 -0.0016968857408881269 -0.0016805431643806333
          -0.0016712832732596503 -0.0016771408101764699 -0.0016699733891603432 -0.001675718437477027 -0.0016686635050610363 -0.0016742960647775844
          -0.0011395457538205629 -0.001139316175031369 -0.001139086596242175 -0.0014034113082889818 -0.0014015066667826949 -0.001399602025276408
          -0.001783270420216915 -0.0017829422320251177 -0.0017826140438333199 -0.0017293819720595527 -0.0017311640617236118 -0.0017329461513876708
          -0.0020015090083254613 -0.0020004829182653063 -0.0019994568282051504 -0.0018567042895139922 -0.0019506127288976649 -0.0018560488030235683
          -0.0019486495327956017 -0.0018553933165331446 -0.0019466863366935383 -0.0020454049096331906 -0.0020438083466285096 -0.0020422117836238285
          -0.0018968474886393444 -0.001897801293898908 -0.0018987550991584716 -0.0012446534693602547 -0.0012444862406242709 -0.0012443190118882873
          -0.002787052487170817 -0.002785765953595375 -0.0027844794200199328 -0.0023917027529078037 -0.0023110478460131533 -0.0023894767614249532
          -0.0023088661181654454 -0.0023872507699421014 -0.002306684390317738 -0.0028425108410526524 -0.0028410028647735245 -0.0028394948884943975
          -0.0022248840093980946 -0.002223004653028165 -0.0022211252966582353 -0.0020705390320872046 -0.0020675917106073066 -0.002064644389127409
          -0.001969472027338712 -0.0019710359014122663 -0.0019725997754858208 -0.0019290812046881467 -0.0019303884047009406 -0.0019316956047137346
          -0.0018945403629416423 -0.0018960343834032627 -0.0018975284038648828 -0.0016091930560192087 -0.0016108904157939724 -0.0016085147830279668
          -0.0016100508029241343 -0.0016078365100367254 -0.0016092111900542967 -0.001567118040574596 -0.0014484134536234547 -0.0015654270850940944
          -0.0014467145597918856 -0.0015637361296135931 -0.0014450156659603164 -0.001771640941632399 -0.0017698242235939254 -0.0017680075055554517
          -0.0010687966032011404 -0.0010689905946370559 -0.0010691845860729713 -0.0027634150556312626 -0.002760959182427577 -0.002758503309223892
          -0.0016048963369599957 -0.0016894845239662879 -0.0016044860812645884 -0.0016880556561847785 -0.001604075825569181 -0.0016866267884032698
          -0.0015313758080695897 -0.0015782392309164808 -0.0015917548475432733 -0.001530051693067868 -0.0015772817110785058 -0.001590408770204698
          -0.0015287275780661467 -0.0015763241912405308 -0.0015890626928661224 -0.0016398114775351908 -0.0016699181065787268 -0.0016377180647311924
          -0.0016679583099927355 -0.0016356246519271939 -0.0016659985134067443 -0.0017483704961679092 -0.0017464544281218818 -0.0017445383600758547
          -0.0015757417376395478 -0.0015745892840287605 -0.0015734368304179728 -0.0014775751286855393 -0.0014759603817416133 -0.0014743456347976877
          -0.0028439030121671215 -0.0028413309513470506 -0.00283875889052698 -0.001120528494214942 -0.0011202879952415838 -0.0011200474962682254
          -0.001111612010012414 -0.0013255924954289166 -0.0011121192113813488 -0.0013265384906657757 -0.0011126264127502836 -0.0013274844859026346
          -0.0025238497504422087 -0.0025243310136006253 -0.0025248122767590423 -0.002213538864634953 -0.0022588664496229383 -0.002467562882413574
          -0.002211589054279534 -0.002257347285619974 -0.0024669281137886167 -0.002209639243924114 -0.0022558281216170095 -0.00246629334516366
          -0.0014900618251936222 -0.0015701187838538036 -0.0014904803764124687 -0.001570466295422502 -0.0014908989276313153 -0.0015708138069911997
          -0.002666932832934246 -0.002523499910024547 -0.0026658588758483493 -0.0025237714237046575 -0.0026647849187624527 -0.0025240429373847677
          -0.0016766208169099973 -0.0016767397581122982 -0.001676858699314599 -0.002183223063215775 -0.002038690265316358 -0.001981228567812351
          -0.0021844010765202965 -0.002039785260449656 -0.001982301853978485 -0.002185579089824818 -0.002040880255582954 -0.001983375140144619
          -0.0024278607443314016 -0.0024279190967077843 -0.002427977449084167 -0.002841814340786944 -0.0028879332699843097 -0.0028373935526032046
          -0.0028828449715349344 -0.002832972764419465 -0.002877756673085559 -0.0023556166944679498 -0.0023372892449802446 -0.00235568267099059
          -0.0023372733646452567 -0.00235574864751323 -0.0023372574843102695 -0.002727267390556473 -0.0027250020527150014 -0.00272273671487353
          -0.0026398280055244285 -0.0026382413776699504 -0.0026366547498154723 -0.001539947369833233 -0.0015411689557946388 -0.0015423905417560448
          -0.0015617335220230759 -0.0015626616227850756 -0.0015635897235470753 -0.0018053234265247749 -0.0018060161909673252 -0.0018067089554098755
          -0.0022216891212806246 -0.0022226130508938057 -0.002223536980506987 -0.0020573491240302904 -0.0021478146497324385 -0.002057174206341747
          -0.002146082951894873 -0.002056999288653203 -0.0021443512540573074 -0.00157904394982078 -0.0015454661060143595 -0.0015807298728437369
          -0.001547261357335721 -0.0015824157958666937 -0.0015490566086570822 -0.0014502073973279353 -0.0014519407051342519 -0.0014536740129405682
          -0.0015340466914300181 -0.0015273542905777815 -0.0015345665398315996 -0.0015274882785587835 -0.001535086388233181 -0.0015276222665397856
          -0.0026650669246691423 -0.0026632090929422387 -0.002661351261215335 -0.0017625037110105713 -0.0018258973606893728 -0.0017630648053214115
          -0.0018264497465295074 -0.001763625899632252 -0.0018270021323696425 -0.002748181651430006 -0.0026590841675509336 -0.0027458090458895947
          -0.0026571123019991814 -0.002743436440349184 -0.0026551404364474284 -0.0015124012355518769 -0.0015123813603075877 -0.0015123614850632988
          -0.002614322769081691 -0.002613701481814513 -0.002613080194547335 -0.001639264715687806 -0.0016404951801633908 -0.0016417256446389754
          -0.0017063631082363882 -0.001706996254793448 -0.001707629401350508 -0.002875372075358035 -0.0028710283678995262 -0.0028666846604410174
          -0.0028226286406828117 -0.002819478501052055 -0.0028163283614212986
        </DataArray>
        <DataArray type="Float64" Name="disp_x" format="ascii" RangeMin="0.00004169718636849081" RangeMax="0.00009364647555245132">
          0.0000746082871452178 0.0000745015615700851 0.00007761859316385575 0.00007847536416680053 0.00007460761866860285 0.00007450009528182554
          0.00007761576120588516 0.0000784733529895011 0.00007460672761606364 0.00007449460970249935 0.00007760740580386172 0.00007846730088991366
          0.0000471999282763347 0.00004514245702872801 0.000044322493991740675 0.00004636488969074834 0.00004720345460149168 0.000045146468908082486
          0.00004432731833476613 0.000046369078262806815 0.00004721413280030897 0.000045158979604263325 0.00004434185933595789 0.000046382506978775324
          0.00004259780274297972 0.00004260224588490883 0.0000426157497031497 0.00004348973570338011 0.00004349403280558493 0.000043506568613427874
          0.00008096382299831262 0.00008181423632796594 0.00008095988507304188 0.00008181103187218566 0.00008094772324281896 0.00008180165246120259
          0.00007324725787710885 0.00007256957684399129 0.00007609407894815039 0.00007594358001377453 0.00007324565718153657 0.00007256742552888628
          0.00007609082620355265 0.00007594048532593007 0.00007324089779193694 0.00007256215540212799 0.00007608059773557968 0.00007593089491266639
          0.00006295941177413079 0.00006256888351952507 0.00006467582802383186 0.00006511151280767399 0.000062961156658647 0.00006257087924603479
          0.00006467744491463992 0.00006511324254620695 0.00006296658675176448 0.00006257732589869501 0.00006468172560386315 0.00006511742357912755
          0.00005686044772089185 0.00005870402137311976 0.00005928018128070853 0.00005743847859679482 0.000056862632722170425 0.00005870638217324641
          0.000059281794247930293 0.000057439511228417994 0.00005686978634025478 0.000058712995796835855 0.00005928702615946868 0.000057442959523697296
          0.00007249551416165244 0.00007175940726159252 0.00007638620386305079 0.00007249317778875506 0.00007175704413623676 0.00007638400943832403
          0.00007248631319082154 0.00007174981517408544 0.00007637901849632076 0.00005544505920003792 0.000058425077255072664 0.000059303431181044846
          0.00005542946824435764 0.00005544938525493843 0.00005842876820679208 0.00005930694803644612 0.00005543359222811428 0.00005546337589286571
          0.000058438432030098306 0.000059320196289933656 0.000055443978662995964 0.00005196848945281417 0.000051973418142451794 0.00005198826930897098
          0.00007665669768191375 0.00007992083830037194 0.00007665416275721152 0.00007991680955968189 0.0000766464985344105 0.00007990505091508025
          0.0000700002253891693 0.00007119857283442947 0.00007240598316953181 0.00007000070524999682 0.0000711987881467201 0.00007240632667536777
          0.00007000026929167779 0.00007119875298428574 0.00007240785644144458 0.0000730767124982423 0.00007010566357032038 0.00006789825818450694
          0.00007105613216937186 0.00007307599428667991 0.0000701063429794297 0.00006789877695528576 0.00007105600663850956 0.000073074066074754
          0.00007010854663247144 0.000067900425226554 0.00007105635694322073 0.0000668793534849257 0.00006669558287777434 0.00006444715700778008
          0.00006688037171986384 0.0000666970675891036 0.00006444850299534964 0.00006688282848024144 0.00006670198403753234 0.00006445186353220411
          0.00006651631355355908 0.00006783750150086982 0.00006596871792711714 0.00006651780847957174 0.00006783865831985968 0.00006597005277486183
          0.00006652412451549822 0.00006784318546490744 0.0000659747085711535 0.00006710750963631291 0.00006381784949293848 0.0000621509164290016
          0.00006474291160713022 0.00006710827605081682 0.00006381945321277633 0.00006215327015855433 0.00006474407114609089 0.00006711004896876055
          0.00006382345442571716 0.00006216108514728922 0.00006474743109047507 0.000058588890310710486 0.000055440305895380563 0.000058592313700606735
          0.00005544451318778597 0.00005860176321786499 0.00005545612766906096 0.00007630138456029546 0.00007986969705801659 0.00007934245118870208
          0.00007629785873794075 0.00007986524694710494 0.00007933824600004173 0.00007628704471071489 0.00007985220426583421 0.00007932537447252844
          0.00008111312371724159 0.00007877853822239291 0.00007619200575244456 0.00007812439662926337 0.00008110837222894383 0.00007877481658642107
          0.00007618912313970374 0.00007812073275514595 0.0000810945737802465 0.0000787639581062383 0.00007617990993958273 0.00007810952993909583
          0.00008626762416373748 0.00008415820978091013 0.00008626521834134984 0.00008415570081236464 0.0000862587478926323 0.00008414804138877977
          0.00007491243578145417 0.00007634624231391018 0.00007491323424360301 0.00007634589645355794 0.00007491557286728923 0.0000763441573667258
          0.000048716353918609926 0.00004873080721656437 0.000048717324050282106 0.00004873226897910094 0.00004871949367538612 0.00004873633757818543
          0.0000872348187244688 0.00008761145458531528 0.00008496812268261438 0.00008422066346076918 0.00008723066808913347 0.00008760752679311074
          0.00008496443328304457 0.00008421615076996167 0.00008721923513467691 0.00008759564112935763 0.00008495344734544436 0.00008420200049343975
          0.0000724662134065799 0.00007642266488923663 0.00007246397982911742 0.00007641973225987734 0.00007245756853961372 0.00007641083600449956
          0.00006036929604160553 0.00005763917062511302 0.0000603720017498674 0.0000576432373921429 0.00006038037313982006 0.00005765471426581173
          0.00006289362354842699 0.000059511772155660456 0.00006289404744394408 0.00005951364705264468 0.00006289433878370626 0.00005952023519385405
          0.00008288390696943831 0.00008288115501017403 0.00008287256880281559 0.0000870196200470777 0.00008701612653544409 0.00008700594039790955
          0.00008014184060993975 0.00008369623748022016 0.00008362641774492404 0.00008010718248536528 0.00008013868144544663 0.00008369264193260834
          0.00008362290681928937 0.00008010334212493209 0.00008012860565659796 0.00008368216796902355 0.00008361185679488589 0.00008009155760728518
          0.00007214571495034298 0.00006964624984155034 0.00006904097631059762 0.00007214503243429441 0.00006964647777701244 0.00006904073218951726
          0.00007214332719241417 0.00006964696405332445 0.00006904017716558976 0.00006186527879645704 0.00006175656643815544 0.00006186737089195942
          0.00006175855403805294 0.00006187561271976837 0.00006176561547790622 0.0000825980429773603 0.00008259312280211551 0.00008257773439236752
          0.00005397082603817583 0.00005334119303337376 0.00005513646415638457 0.00005571152545942861 0.000053970759666315333 0.000053341690971261256
          0.00005513778472483831 0.000055712118297553785 0.000053971088375131115 0.00005334253810185422 0.000055142096283309994 0.00005571377403702334
          0.00007641064042537592 0.00007640765883877054 0.000076396956877944 0.00008334734659363373 0.00008334330360107767 0.00008333067619188485
          0.00008028890396413595 0.00008028680876174415 0.00008027944709961579 0.00007943581903389383 0.0000815294888285736 0.00007943446201083273
          0.00008152771347879257 0.00007943002329977188 0.00008152217659256327 0.00008398442794597694 0.00008565735475344123 0.00008397909094559413
          0.00008565286917779736 0.00008396197999749473 0.00008563879345684155 0.00006437223569872863 0.0000650287349268168 0.00006437223659376739
          0.00006502896646658972 0.00006436914724066442 0.00006502792986490338 0.00007507856391645452 0.0000782275689593205 0.00007507694945278722
          0.00007822438702102267 0.00007507167093839631 0.00007821502047729363 0.0000662576626889176 0.00006625842632705497 0.00006626068118292285
          0.00008137122987526947 0.00008326612318517326 0.00008136663550181214 0.00008326095681380309 0.00008135320222907525 0.0000832440284109482
          0.00007223150653338791 0.0000737775326731294 0.00007223162093384122 0.0000737766045909362 0.0000722319543649219 0.00007377326706372778
          0.00006091742469145374 0.000060917884809169366 0.00006091882306542923 0.00007234618731797134 0.00007234378088567785 0.00007233664297342397
          0.00007026584966625713 0.00007193458643657903 0.00007026675406721939 0.00007193488390022673 0.00007027003019843405 0.00007193573513190028
          0.00006448069917411805 0.00006448002435453088 0.00006447670544399881 0.00008656166798702882 0.00008655799654055341 0.00008654652318282681
          0.00006707853447862074 0.00006840477397032428 0.00006707729417701121 0.00006840364435780938 0.00006707256593213478 0.00006839905402134883
          0.00006539555195624723 0.0000618021017164384 0.00006539620408025535 0.00006180342487515247 0.00006539683045592563 0.00006180696901743033
          0.00006879121552278596 0.00006934875166423979 0.00007177520806358367 0.00006879228851160656 0.00006934989272016072 0.00007177542823541529
          0.0000687951754467328 0.00006935400739471796 0.000071776099700422 0.000057703808903102845 0.000054864250527220356 0.00005531471720787084
          0.00005833106340290872 0.00005770665247617538 0.00005486912403572276 0.000055319777047655296 0.000058333641184067915 0.00005771469642399726
          0.000054883204083637186 0.000055333611076441036 0.00005834159873444788 0.00005243165473398576 0.00005217863178331277 0.00004961296974459412
          0.00004998661930300437 0.00005243423782114896 0.00005217987937662794 0.00004961485400403681 0.00004998883565098591 0.00005244146691816073
          0.00005218363766704361 0.00004962104168181937 0.000049995990004936894 0.00006280579571290697 0.00006280763546851312 0.00006281204802807407
          0.00005660823198455872 0.000053949570945727065 0.0000566118738086921 0.00005395520963921246 0.0000566221520143777 0.00005397209787745187
          0.00006649417511004138 0.0000655378132789475 0.00006649261492169485 0.00006553669656773583 0.00006648780424675566 0.00006553357423587831
          0.00005569123354918025 0.000053077099013662646 0.00005569543313494715 0.00005308253103400385 0.000055707407380318505 0.00005309931215149002
          0.00005011494537702113 0.000052650735518823126 0.00005011822260512768 0.00005265509552383503 0.00005012747749180541 0.00005266806101148739
          0.00004775395184555528 0.000047838203030539285 0.000047757104525254504 0.00004784098590876518 0.000047765886889159444 0.000047849109943641616
          0.00006871458616319884 0.0000687138195213475 0.00006871039793285355 0.00007234651137453617 0.00007234471660672933 0.0000723387941630551
          0.000057543299438676546 0.000056344459628498234 0.00005478724988465788 0.00005486728727184308 0.000057546423399584376 0.000056347188514910795
          0.0000547894015270227 0.000054870645871760135 0.0000575559322874721 0.00005635599493371117 0.00005479530191962693 0.000054880766845358036
          0.00006192453386795714 0.00006538637042870908 0.00006192442162376016 0.00006538526937552872 0.00006192468026501348 0.00006538197249348792
          0.00004920104278168693 0.00004896477025238863 0.00005067700095110425 0.00005098813491365277 0.0000492007726639161 0.000048964813582149303
          0.000050676898286344276 0.00005098768475568491 0.00004919978394752814 0.00004896514731245037 0.00005067698726680795 0.00005098564862719607
          0.000047549960263422315 0.000045748291694383894 0.000046007808869008186 0.000047552683399481944 0.000045750980688690534 0.00004601117774542663
          0.000047560017222008953 0.00004575932402339134 0.00004602060596647072 0.00005004111947464551 0.00005004584858155065 0.00005005934117058071
          0.00007382461674921373 0.00007605700833770643 0.00007382351114068392 0.00007605480952548658 0.0000738193716142355 0.0000760470948119975
          0.000061883608556408 0.000059534567697225935 0.00006188556943392763 0.00005953757740616196 0.00006189095779829703 0.0000595461619208881
          0.00005519394004884328 0.00005519832152257209 0.00005521143763520028 0.00006821984860895672 0.00006821876527760507 0.00006821412372424616
          0.000051932455076786194 0.000053144141919537115 0.00005193906512637871 0.00005315041138030944 0.00005195969010814462 0.00005317100592922711
          0.00005235138266746684 0.0000527457706107223 0.00005235160779472921 0.00005274543399166805 0.000052351651889295746 0.0000527437508954932
          0.000056204072747907605 0.00005793357171993111 0.00005620422143099086 0.00005793405874067708 0.00005620420953949569 0.000057934670610489
          0.0000596757236897728 0.00006118180416828262 0.00006145691138817145 0.00005967689588070439 0.00006118381425714718 0.00006145865837466999
          0.00005967921751405372 0.00006119041132028949 0.00006146344241136796 0.00006075151499210782 0.00006030414424715776 0.00006075393391525163
          0.000060306948570030495 0.00006076102508183433 0.00006031484939677564 0.0000517055368007263 0.00005067005765436356 0.000051706224860137837
          0.000050671485304706554 0.00005170766451185603 0.00005067555214349627 0.00006330686419841222 0.00006332356905479903 0.00006330884254108724
          0.00006332511076900936 0.00006331432245442146 0.00006332986251323349 0.00004908117229124257 0.00004908318110789023 0.000049088937298665286
          0.00007821028951330666 0.00008078707639093374 0.00008068915302035976 0.00007828383603714733 0.00007821130805611865 0.00008078651700470597
          0.0000806888866295457 0.00007828470719390913 0.00007821254298295178 0.00008078548822545999 0.00008068845051488448 0.00007828906883280547
          0.00008308686643467743 0.00008320454479323263 0.00008308558195340881 0.00008320342852258234 0.00008308214081980448 0.0000831997656302795
          0.00004993525743013841 0.000049936664517802016 0.00004994121756749299 0.00006528164580932849 0.00006528273580217017 0.00006528519951588563
          0.00005772150085757038 0.00005772495169314822 0.00005773449336341998 0.00004855809225192473 0.000048562876518485045 0.00004857516342737393
          0.00005831006845210049 0.000058313518908090815 0.00005832290407666208 0.00006012565472920063 0.00006228248884694237 0.00006012894185319819
          0.00006228500997995846 0.00006013838681834246 0.00006229334320700896 0.000060644987300040934 0.00006064834720785166 0.00006065872951367908
          0.0000869935323722291 0.00008698900101702357 0.00008697520574642807 0.00004577416637829346 0.00004577795937014318 0.00004578905679770809
          0.00006912166537689146 0.00006912011235368815 0.00006911261417594593 0.00005225169666911648 0.000052509114197699374 0.00005225680125679431
          0.00005251468435399924 0.000052271701499440874 0.00005253208552465797 0.00006887998226346457 0.00006887841709682744 0.00006887071426247601
          0.000052852299072906734 0.000052859037982781827 0.000052880118698944366 0.00006217063684305241 0.0000621733619245191 0.00006218213711422246
          0.0000506907311995339 0.000050697253816400554 0.00005071565505714395 0.00008962655923859596 0.00008962356611815861 0.00008961377593881464
          0.00008858814180044401 0.0000885850031152103 0.00008857610921638618 0.00008558511684263327 0.0000854403563868077 0.00008558327357383436
          0.00008543894448986225 0.00008557801798960121 0.00008543414242886067 0.00006855894517146905 0.00006728259664963185 0.00006856028510137366
          0.00006728418494142685 0.0000685635708581175 0.00006728892987889122 0.0000785155919516243 0.00007851540806594574 0.00007851495819316767
          0.000054477438208725275 0.000054477552567543635 0.00005447683367185524 0.0000631737875021359 0.00006317325289412308 0.00006317254309578773
          0.0000859273065689442 0.00008354275245979561 0.00008592462122727908 0.00008354104240274906 0.00008591740324688315 0.00008353612600048566
          0.00007148418920083432 0.00007221129168225562 0.00007369113162336861 0.00007148546376117048 0.00007221256090389433 0.00007369249139821945
          0.00007148978344752984 0.00007221531316933465 0.00007369642477041182 0.00007593704746641563 0.00007649263059240621 0.00007593823609558777
          0.00007649366206350039 0.00007594334321731282 0.00007649695199746607 0.0000811396502530272 0.00008113885640156721 0.000081135876063372
          0.00007093752890583295 0.00007093822049855338 0.00007094098876257448 0.00006934620311257785 0.00006934788309128011 0.00006935385208824438
          0.00006262416115940295 0.00006262422336465158 0.00006262330680165129 0.00005024917934865734 0.000050250321118913376 0.000050253270988666
          0.00004169718636849081 0.00004346045453932369 0.00004170199499251697 0.00004346535169232528 0.000041715344323656524 0.000043479903403703924
          0.00007628971161362922 0.00007628811572798027 0.0000762831009756497 0.000049118558789951566 0.000048933229204756046 0.00005174063101653737
          0.00004912396711457081 0.000048938521576382105 0.00005174595435982995 0.00004914039944873174 0.000048954019302914606 0.00005175752254697427
          0.00008874128068753437 0.00008727024881440134 0.00008873903921971781 0.00008726752841340047 0.0000887319034722272 0.00008725951011849738
          0.0000699308501930688 0.00007313911837637918 0.0000699284329752721 0.0000731372201878199 0.00006992145927145691 0.00007313145171376425
          0.00008591395586056465 0.00008591053550617134 0.0000858999447351373 0.00008718638755247006 0.00009072061585063126 0.00009029847288230992
          0.00008718372349202547 0.00009071878329754255 0.00009029575729897344 0.00008717510423516396 0.00009071285227722897 0.00009028749747817705
          0.00008098074507076402 0.00008097906158224695 0.0000809732536125436 0.00005643869830723955 0.00005761020577065441 0.0000564425312962168
          0.00005761267052907353 0.00005645295545333555 0.00005762012535494823 0.000083798079681911 0.00008432375470308128 0.00008379540016472782
          0.00008432203246380318 0.00008378611481367086 0.00008431653389635266 0.000054972884752016965 0.000054977240966245546 0.000054992284200370104
          0.00006744289271603537 0.00006744112836184961 0.00006743613844616291 0.00008856043750392724 0.00008855727993741717 0.00008854747839444018
          0.00004548647737660309 0.00004549212135672864 0.000045509161602777256 0.00004763329352601997 0.00004763898852770317 0.00004765599277817934
          0.00008707092062623558 0.000087068280600599 0.00008705993529726896 0.000049936639451587083 0.000049451284356416646 0.00004994253417445929
          0.000049457203388499094 0.00004996027545415151 0.00004947542019296927 0.00008988759976730402 0.00008938260629046136 0.00008988417038025035
          0.0000893793745722339 0.0000898735033489376 0.00008936857639197232 0.00009072212340198305 0.00009071972548658029 0.00009071293240809523
          0.00008772440274478434 0.00008785413201152918 0.00008771966096146092 0.00008785257327439944 0.00008771497271693664 0.00008784715913069968
          0.00006396614970284743 0.00006396542996088185 0.0000639620737982081 0.00009270433651026312 0.00009364647555245132 0.00009270178905593438
          0.00009364437245779677 0.00009269482406698393 0.00009363787525581047 0.00006014065453401367 0.000061023708472853065 0.000060140736619945186
          0.000061023291107164085 0.00006014085923114637 0.00006102206810850629 0.00008809154207359542 0.00008809014624242724 0.00008808471310402926
          0.000053939338244987594 0.00005394416846926493 0.00005395967576173659 0.00009065592349784827 0.0000906526072808603 0.00009064218845871897
          0.00009158711843306284 0.00009158425989567503 0.00009157580379651316 0.00005863805938659087 0.00005863932833281926 0.000058641606885415345
          0.00005946643948778684 0.00005946661956722516 0.00005946730841866688
        </DataArray>
        <DataArray type="Float64" Name="disp_y" format="ascii" RangeMin="-0.00003636069463510364" RangeMax="-0.000010469421485929238">
          -0.00003167869670081829 -0.00003058352745043715 -0.00002911163145573539 -0.000029590117988623388 -0.00003168244749849546 -0.000030586991392313026
          -0.000029114029088119174 -0.000029592276653558126 -0.000031693419439709124 -0.00003059760711449625 -0.000029122176017259518 -0.000029598317261564246
          -0.00002695771883205571 -0.00002622213574788638 -0.000025329538736672634 -0.00002588761594872439 -0.000026959452954153145 -0.000026223147066247526
          -0.000025330629069620854 -0.000025889099847704458 -0.00002696485071367399 -0.000026226272515221783 -0.000025333717256623916 -0.000025893899579948477
          -0.000024806181371007916 -0.000024807002623942982 -0.00002480987353333052 -0.000025616538952322902 -0.000025617259216906338 -0.00002561920144620936
          -0.00002734240456327497 -0.000027727127223452738 -0.00002734381877022685 -0.000027728271733729752 -0.000027347891792349894 -0.000027731528002511267
          -0.000023893968871504042 -0.000022273068819906135 -0.00002143833735829697 -0.000022608020551427152 -0.000023894977270855744 -0.00002227351784894358
          -0.000021438330928667448 -0.000022608280454383998 -0.000023897833716686378 -0.000022274962482253498 -0.00002143844205292541 -0.000022609349379824865
          -0.00003456882487255448 -0.000033644409086960045 -0.00003350640234814476 -0.000034383783512931624 -0.000034573356008953284 -0.000033648915406168456
          -0.00003351101215342152 -0.00003438850109240066 -0.00003458604706737125 -0.000033662936741213105 -0.000033526333064259356 -0.000034400953066908186
          -0.00003364454621140686 -0.00003413459650090443 -0.00003495490343213622 -0.00003436839028440534 -0.000033647777610617944 -0.000034138537906858234
          -0.0000349594496666837 -0.00003437180241959631 -0.000033657581248036694 -0.00003415036077977968 -0.00003497334147892317 -0.00003438214443047769
          -0.000014552686854520582 -0.000012968356902940124 -0.00001408451887343431 -0.00001455080473902074 -0.000012966719665936513 -0.00001408288640430605
          -0.000014544738393946628 -0.000012962142169414337 -0.000014077793139472035 -0.000021934558064488427 -0.000022056799480757377 -0.000023374896024699722
          -0.00002365465752506546 -0.000021936325622917066 -0.00002205818380426926 -0.000023376769247373297 -0.00002365616263792148 -0.000021940634406521348
          -0.000022064415863486104 -0.000023382413461370295 -0.000023661193888859086 -0.00002244638084141502 -0.00002244786131699864 -0.000022450914016132102
          -0.000028505752624596098 -0.000026833492445775142 -0.000028508198413571897 -0.000026834924629905726 -0.000028515604050875343 -0.00002683977495188754
          -0.00003384451435930111 -0.00003262049206848923 -0.000033360509984213956 -0.00003384914426057985 -0.0000326247358413938 -0.000033364617911435975
          -0.000033862135327828223 -0.000032639065657015764 -0.0000333767572500326 -0.00002761585343504113 -0.000029126501840368495 -0.000028455032132805722
          -0.00002708689681065005 -0.000027618150395091785 -0.000029129284522380508 -0.00002845769715331591 -0.000027089163979009303 -0.00002762550037358764
          -0.000029138020926217083 -0.00002846598013818916 -0.000027096014283362036 -0.00003221887492120376 -0.000033244142715973156 -0.000032551799116681234
          -0.00003222309988732617 -0.000033248497545111486 -0.00003255652560958019 -0.00003223554183630441 -0.000033262362978760826 -0.00003257116918984325
          -0.00003393293000665774 -0.00003403921086436476 -0.00003521299102866301 -0.00003393744109518102 -0.000034043841831921405 -0.00003521844490477355
          -0.00003395086023162693 -0.00003405703292650608 -0.00003523441422115417 -0.000030807492497996634 -0.000031611747073811064 -0.000030774655339047575
          -0.00002972598879477717 -0.000030810993429170196 -0.00003161577139704202 -0.00003077816242885016 -0.000029729156406092985 -0.00003082155458776604
          -0.00003162690037356179 -0.00003078852356669257 -0.00002973814702004639 -0.000025192866444322 -0.000025139289225845186 -0.000025195205063682582
          -0.000025141418975603193 -0.000025200921389542804 -0.00002514670918041764 -0.00001970848796173828 -0.000019429744442659796 -0.000021110245134980937
          -0.00001970819414951277 -0.000019429427161465643 -0.00002111002331342323 -0.000019706952014383167 -0.000019428391223921817 -0.00002110917500547827
          -0.000022770286614760053 -0.00002443561310855083 -0.000024210336879306078 -0.000022688494048303932 -0.000022770282671367847 -0.000024436133488607617
          -0.000024211031169059733 -0.00002268853317551105 -0.000022770388632701633 -0.00002443784777320269 -0.00002421304397768093 -0.000022688154553542013
          -0.000026692163896315862 -0.000027549700659371325 -0.000026691333604889396 -0.000027549465171461368 -0.000026688675322355067 -0.00002754830468620729
          -0.000032801295502951156 -0.00003146571905729631 -0.00003280497228281143 -0.00003146838588064207 -0.000032815482505091176 -0.00003147773263481169
          -0.000029899039387302244 -0.000029729314806843743 -0.00002989926375524227 -0.000029729747859550667 -0.00002989936909887297 -0.000029730830957370365
          -0.00002398665820464065 -0.00002449216180574162 -0.000025945629043198704 -0.00002555584120219986 -0.000023987006174550067 -0.000024492182794181296
          -0.000025945841370994373 -0.00002555661740651912 -0.000023987960267425945 -0.00002449177975770155 -0.000025945986624555905 -0.000025558672258219007
          -0.000016416411813316402 -0.000015989199488206104 -0.000016414839327038544 -0.000015987918631659366 -0.000016409058120313814 -0.000015984143756949817
          -0.000020899467257825176 -0.00002034191368007351 -0.000020900307650106362 -0.000020343360807548757 -0.000020903321580930006 -0.00002034785905366759
          -0.00001904775010886911 -0.00001871520137602159 -0.000019047845135399647 -0.00001871584335524737 -0.000019047444969356855 -0.000018716751093597957
          -0.000027791598920826113 -0.00002779182375226507 -0.00002779314055655471 -0.000017576453302426614 -0.000017576858477533116 -0.000017577606464144157
          -0.00001577343081815733 -0.00001581615974700549 -0.000017577273077890332 -0.000017571911277132653 -0.000015773004986979704 -0.000015816152481317743
          -0.0000175773514421207 -0.0000175716533254374 -0.000015772256152815793 -0.000015816405469671967 -0.000017577472896698066 -0.000017570657006066298
          -0.00002535873264140417 -0.000026247651289725602 -0.00002499648986592636 -0.000025360484881464852 -0.000026249847982337552 -0.00002499837546417446
          -0.000025365519927241114 -0.00002625633490858363 -0.000025004390944263886 -0.000023921772074449746 -0.00002514318545129375 -0.00002392345893965476
          -0.000025145718868528815 -0.000023928906226960978 -0.000025155502740413826 -0.000021098564995044707 -0.000021098520381194865 -0.000021097981001882885
          -0.00003288422737916235 -0.000032236036889131446 -0.00003300557105141069 -0.00003367634956961243 -0.000032886082488454316 -0.00003223787059181315
          -0.0000330079991933239 -0.00003367882606786204 -0.00003289155179777536 -0.000032243636418684634 -0.00003301512723134733 -0.000033685697749728594
          -0.000017822104665291563 -0.00001782147378729038 -0.00001781937970692873 -0.000019375040023611714 -0.00001937503850226439 -0.000019374929810199627
          -0.000014026218551950145 -0.000014025325075858691 -0.000014022368896240932 -0.000029913814680890206 -0.00002908176576046628 -0.000029915378858173126
          -0.000029082480170119087 -0.0000299196013320932 -0.000029084463920781563 -0.000022852040834743285 -0.00002108585009333038 -0.000022851983261940085
          -0.00002108601426671985 -0.00002285107556740724 -0.000021086741268723782 -0.000023055284834427154 -0.000024539473829385653 -0.000023056884410718408
          -0.000024542187006393786 -0.000023060870190465498 -0.000024550714156462873 -0.00002803256851390099 -0.00002639309612063085 -0.000028034813735246496
          -0.000026394600969998106 -0.000028041308541019727 -0.00002639923386838067 -0.000027374917291659062 -0.000027377857078405944 -0.00002738601153964158
          -0.00002463568065951437 -0.000025025090074607212 -0.000024636239913269775 -0.00002502586457363179 -0.000024637654010710552 -0.000025028698092422144
          -0.000029504893680187738 -0.000029905499773838815 -0.000029507744623167038 -0.000029908640217470813 -0.000029515793101621298 -0.00002991781075470744
          -0.000016984219977970974 -0.000016983602811339982 -0.000016981416530234006 -0.000018469592121355578 -0.000018468888734192186 -0.000018467100537812855
          -0.00003077103445204213 -0.000030749122208373134 -0.0000307746330260141 -0.00003075266215334023 -0.000030785487398380374 -0.000030762763912590744
          -0.000017068261978935138 -0.000017067455412562277 -0.00001706437473792279 -0.000019334021010141562 -0.000019334602362818287 -0.00001933712799822016
          -0.00001954586200487322 -0.00001693196309736256 -0.00001954567722191896 -0.00001693071791004612 -0.000019544732504212906 -0.000016926965331763564
          -0.000026060181593356876 -0.000026676053047775797 -0.0000260632129413785 -0.000026679424721832455 -0.000026072331620192732 -0.000026689346538121825
          -0.00003301745138751232 -0.00003193582710045892 -0.000031520250931323175 -0.00003302188563129755 -0.00003193995194000206 -0.000031524307931642355
          -0.00003303444176378347 -0.00003195188251164325 -0.0000315372901534855 -0.00002810644809078492 -0.00002759754810879121 -0.000026478242945818817
          -0.000026727077988781655 -0.000028110041188404165 -0.000027600867343306565 -0.000026480887671034195 -0.000026729911401250545 -0.000028121747848155385
          -0.000027611099762100664 -0.00002648841932810288 -0.000026737795301856633 -0.000030636928201224015 -0.000031208572253166406 -0.00002971618653871524
          -0.000029440496946113328 -0.00003063926593012732 -0.00003121035464184702 -0.000029717349843759183 -0.000029442160222946317 -0.000030646060063187
          -0.00003121578279656754 -0.000029721038251993402 -0.00002944699888211679 -0.00002177528983663944 -0.00002177676657582819 -0.00002177961402866487
          -0.000029274850296017672 -0.00002847164232452133 -0.000029278844709876475 -0.000028475226439128713 -0.000029290731351888442 -0.000028485781535988214
          -0.00001318454120455679 -0.0000119337669040028 -0.0000131824418904237 -0.000011931430186202224 -0.000013176677819830512 -0.000011924717298929558
          -0.000030207498192739934 -0.000029234124187464845 -0.000030211491215664677 -0.00002923770537669563 -0.000030223357664467533 -0.000029248510024632325
          -0.00002885912017489729 -0.00002998437183395702 -0.00002886124997870443 -0.00002998763541060318 -0.000028867428001652132 -0.0000299968346603261
          -0.000027825172558174986 -0.000028348453845675014 -0.00002782686742784568 -0.00002834977845585958 -0.000027831763554137352 -0.000028353915559213667
          -0.00002342035392098714 -0.00002342180548270642 -0.000023425377310542443 -0.000020494078959033953 -0.000020494355384557632 -0.000020495132637650845
          -0.00003298192747125277 -0.00003302082610592626 -0.00003235210252105022 -0.000031759796522446835 -0.00003298565898388884 -0.000033024126383062525
          -0.000032354940710465216 -0.00003176317122954769 -0.00003299680162563089 -0.00003303370100793626 -0.000032363396361363254 -0.00003177331789713163
          -0.000015231595466246536 -0.00001519487195616414 -0.000015230246344766104 -0.000015193517277516324 -0.000015225761973744017 -0.000015189120565762707
          -0.00003057017328341022 -0.000030233039724257643 -0.000031182887690347865 -0.000031548087248925 -0.00003056955115248114 -0.000030232798155441467
          -0.000031183436987434014 -0.0000315482505219686 -0.000030567744031072566 -0.000030231941802132168 -0.00003118503519382671 -0.000031549306927439335
          -0.000028555620301005504 -0.000027530720435632655 -0.000027403078491975355 -0.000028556625856951915 -0.00002753116028785614 -0.000027403962606135906
          -0.000028559503623642564 -0.000027532691665396693 -0.00002740684942197753 -0.000027858292967384266 -0.00002786073449533417 -0.000027867706496360847
          -0.000025672633938386334 -0.000026063187671160118 -0.0000256742760946034 -0.00002606466822654107 -0.000025678990514596756 -0.000026068963912918656
          -0.000028529278426833666 -0.000030009922153743567 -0.000028532694705557685 -0.0000300136259631461 -0.000028542638794167945 -0.00003002461647060411
          -0.00003104346382576336 -0.00003104742925715984 -0.00003105928977866848 -0.00002166509010606591 -0.000021665779744594363 -0.000021667851981392992
          -0.00002751120474289853 -0.000027171115622394862 -0.000027514122083177973 -0.00002717435006034593 -0.000027521514309392173 -0.000027184351320275988
          -0.000032077760935128755 -0.00003250619361348405 -0.00003207929017408639 -0.00003250754026165313 -0.00003208373518564171 -0.00003251175476502197
          -0.000034253121494442686 -0.000035004981867785514 -0.00003425572542594468 -0.000035008732858641625 -0.00003426366308704283 -0.00003501975859879857
          -0.00003563125821758999 -0.00003534003334839038 -0.000036085780683605466 -0.00003563647021252041 -0.0000353452654812198 -0.00003609187721297852
          -0.00003565216879875914 -0.00003536099710400308 -0.00003611123885951388 -0.00003446216259061668 -0.00003348987022208874 -0.00003446661036695294
          -0.000033494182101411934 -0.000034479199393146965 -0.000033507193362534314 -0.000031494475039504505 -0.000030722875265251907 -0.00003149586000081622
          -0.00003072403852147668 -0.00003150022144137771 -0.00003072688666781174 -0.00003548695807596915 -0.00003633340442181554 -0.000035492491632173745
          -0.000036339848578742 -0.000035509114539087153 -0.00003636069463510364 -0.000029723134816339092 -0.000029723993228301647 -0.000029725855181542508
          -0.00003148891942076647 -0.00003017553718656096 -0.00003056686951182791 -0.00003181234088195126 -0.000031491113915284724 -0.000030176199670281774
          -0.00003056700592380397 -0.000031813660853644575 -0.00003149622817651841 -0.000030178256580281827 -0.00003056792969087211 -0.00003181848292671952
          -0.00002929365442977644 -0.00002890960240323866 -0.000029293397729557075 -0.000028909287352074085 -0.00002929243892591838 -0.000028908355167600874
          -0.000030433390463834193 -0.00003043426658467574 -0.000030436576951015085 -0.00003632259863907042 -0.00003632944422535748 -0.00003635087471543282
          -0.0000319227795181302 -0.000031926816400733765 -0.00003193882349796987 -0.00002631495078122608 -0.000026317596567123614 -0.00002632514935401858
          -0.00003100122054369798 -0.00003100536235257813 -0.00003101753854456078 -0.00003250261989382921 -0.000032700653636599126 -0.00003250715954308454
          -0.000032705216964723124 -0.00003252048887640206 -0.000032719787333280904 -0.000031620673965908695 -0.00003162493796697515 -0.000031637178082124183
          -0.000022901166596255508 -0.000022901610363769644 -0.00002290304155659408 -0.000026951684998895598 -0.00002695293926403013 -0.000026955808519216704
          -0.000013747069287568908 -0.000013745577314086815 -0.00001373968631017924 -0.000023797064166287747 -0.00002514740582566956 -0.00002379906935913021
          -0.000025150111274483732 -0.000023805020936212843 -0.000025158306596614628 -0.000015014607277467542 -0.000015013097318805993 -0.00001500827173680135
          -0.000026351550969059963 -0.00002635500343309087 -0.000026363886259003964 -0.00003198376097692082 -0.00003198802974037757 -0.000032000495997856284
          -0.00002640209579811715 -0.000026405054605055414 -0.000026414475850436445 -0.000019101724017185176 -0.000019102668949281125 -0.000019105552100045444
          -0.00002082083089027689 -0.000020821457221629887 -0.00002082351748144289 -0.000027647180932424972 -0.0000280336468011215 -0.000027646721660684562
          -0.00002803246518416666 -0.00002764516065233352 -0.000028030263438726635 -0.00003501139285502188 -0.00003607695193171699 -0.00003501720473743039
          -0.00003608446017403752 -0.00003503552948000736 -0.00003610931080250372 -0.00003095399190854663 -0.00003095585701977723 -0.00003096174857594867
          -0.00003341395586318235 -0.00003341609068249243 -0.00003342222400423816 -0.000011996244282954216 -0.00001199395460646069 -0.000011987465018673838
          -0.000027139627642761754 -0.000028371184654169613 -0.000027139101179697642 -0.000028370795234508423 -0.000027137085280884203 -0.00002836996108309416
          -0.00003489524943642772 -0.00003419159329594283 -0.000033999718877082886 -0.000034900119822145635 -0.000034196329453283694 -0.00003400422355838775
          -0.00003491914249728998 -0.000034210555646275816 -0.00003401685141572585 -0.0000329877057223915 -0.00003240420451224332 -0.00003299137381743084
          -0.000032407261961660477 -0.00003300682186471086 -0.000032417037008177045 -0.00002961868395656674 -0.000029619385455203087 -0.0000296223012384589
          -0.00003450173009103161 -0.00003450691644506536 -0.000034520916487868827 -0.00003555797581971212 -0.0000355642021271175 -0.000035583562416048054
          -0.000013541216303331384 -0.00001353970085666802 -0.000013534329559528775 -0.00003075516127828863 -0.000030756096857312394 -0.000030758090205124416
          -0.00002396463032162884 -0.000024371051104767934 -0.000023965657069458293 -0.00002437216853138752 -0.000023968441008291664 -0.000024375225856069774
          -0.000011944278704055505 -0.000011942561803485767 -0.000011937751675696389 -0.000022666087707283618 -0.000021429586352778974 -0.000021170613708120888
          -0.00002266780499469303 -0.00002143128593884446 -0.000021172356647737178 -0.000022674123950109535 -0.00002143513275123921 -0.000021176945989730013
          -0.000025268617406806174 -0.000025714126576593968 -0.00002526743344897093 -0.00002571342465571783 -0.000025263995967970828 -0.00002571078368170678
          -0.000011718375960519261 -0.000010512112184798821 -0.000011716322400226586 -0.000010510141792465536 -0.00001171058932465981 -0.000010503917396072138
          -0.00002602816825127724 -0.000026027859400078428 -0.000026026989398529483 -0.000015827482384913944 -0.000015686840137705866 -0.000017422058654819097
          -0.00001582791009747826 -0.000015687640102386386 -0.00001742306211037755 -0.000015828980259640693 -0.000015689973505401778 -0.000017426089407712203
          -0.000012399416753653595 -0.000012398216747525122 -0.00001239431864773644 -0.000018517327067779163 -0.000016957325732307636 -0.000018518447229955087
          -0.000016957317203476844 -0.000018521885856343447 -0.000016956859480285375 -0.000014210979499182485 -0.000012824422619418503 -0.000014210785135145169
          -0.000012824145147122328 -0.000014210229275517626 -0.000012823448267972911 -0.00001996723923559642 -0.000019968722164551133 -0.000019975297949826176
          -0.000010557130465556089 -0.000010554356227749709 -0.0000105453895498418 -0.00002447430117553701 -0.000024473928764671624 -0.000024472942623937444
          -0.000024787255619397074 -0.00002478908468357893 -0.00002479415056368218 -0.000025071206327852872 -0.000025073982363840104 -0.000025082168272718477
          -0.000014215281020222457 -0.000014215775107880698 -0.000014217917221693354 -0.00002516293285586235 -0.00002389887275456487 -0.000025165981098420635
          -0.00002390146612552156 -0.000025176563059685896 -0.00002390893810788994 -0.000022832614521076492 -0.000023521142057429277 -0.000022833253126694914
          -0.000023521088374956168 -0.00002283526328845209 -0.000023521671392454298 -0.000023102121558668608 -0.00002310187742652527 -0.000023100958594391598
          -0.00002681261557408071 -0.000026445922618028175 -0.00002681230972306152 -0.00002644466471898365 -0.000026808461490031856 -0.000026440925578044314
          -0.000010546501214388007 -0.00001054379206400076 -0.000010535186945412177 -0.000018673859982635284 -0.000017063208399553195 -0.000018674743067966937
          -0.000017064489689979522 -0.000018677012316887647 -0.0000170688330210739 -0.000012108364271264728 -0.00001047860359148662 -0.000012106397225264712
          -0.000010476300087168889 -0.000012100785497580604 -0.000010469421485929238 -0.00002601036198333635 -0.00002600873333769074 -0.000026004791022090288
          -0.000020979080772548077 -0.000020980873827924755 -0.000020985769168463893 -0.000021677179363144077 -0.00002167823610699012 -0.000021681810106518368
          -0.000020250150996746784 -0.00002025126326175813 -0.000020254525972092584 -0.000015321951137144025 -0.000015321247580693242 -0.000015318066163058547
          -0.000013703613953131179 -0.000013701957135700092 -0.00001369699800696606
        </DataArray>
        <DataArray type="Float64" Name="disp_z" format="ascii" RangeMin="-0.000001028089622039273" RangeMax="0">
          0 0 0 0 -3.5364304544722717e-7 -3.851611698826533e-7
          -3.814060912494656e-7 -3.5643241753581303e-7 -7.068745632407488e-7 -7.694803851437265e-7 -7.623486663117714e-7 -7.122410258121028e-7
          0 0 0 0 -2.769597149738888e-7 -2.515543483950317e-7
          -2.554733833427198e-7 -2.8868169197877315e-7 -5.539525473584773e-7 -5.027405402174611e-7 -5.109642562447368e-7 -5.771709547000182e-7
          0 -2.2505633737198892e-7 -4.5053000141327505e-7 0 -2.245125926695723e-7 -4.4965699025894856e-7
          0 0 -3.6990777549584423e-7 -3.4832484956873805e-7 -7.392761155447287e-7 -6.966093168854686e-7
          0 0 0 0 -4.74844922052197e-7 -4.837599410172141e-7
          -4.684074479952757e-7 -4.6447444976691355e-7 -9.485186630857766e-7 -9.667933273028274e-7 -9.359242706634637e-7 -9.277525759964309e-7
          0 0 0 0 -3.019200033759834e-7 -3.262298688341019e-7
          -3.3820040095168553e-7 -3.123371324780056e-7 -6.032410124625537e-7 -6.524895885655935e-7 -6.766165817427364e-7 -6.246431225379333e-7
          0 0 0 0 -2.517482647579766e-7 -2.6831215634436573e-7
          -2.422822393067624e-7 -2.3180389893329267e-7 -5.036879047534754e-7 -5.365231029193081e-7 -4.846604109442048e-7 -4.638472964370942e-7
          0 0 0 -4.6172473870785936e-7 -4.5583361214918707e-7 -4.5010818533058513e-7
          -9.237736197507793e-7 -9.119177764485337e-7 -9.001215471500025e-7 0 0 0
          0 -4.625969329853693e-7 -4.808929287879852e-7 -4.759372956121356e-7 -4.472688978507679e-7 -9.251330963204099e-7
          -9.607185123014815e-7 -9.512876995005174e-7 -8.944123010723485e-7 0 -4.2482145654007557e-7 -8.494558032707203e-7
          0 0 -4.0795072073140963e-7 -3.98235725558299e-7 -8.148543916222596e-7 -7.954667456243159e-7
          0 0 0 -3.2694519929443416e-7 -3.542900989245301e-7 -3.1703245250368865e-7
          -6.53112273108144e-7 -7.084109743454877e-7 -6.339225099173659e-7 0 0 0
          0 -4.4363125717387936e-7 -4.270704706259209e-7 -4.384167205568095e-7 -4.540654782127785e-7 -8.8607258070596e-7
          -8.537179893321623e-7 -8.76537251714352e-7 -9.074246969081301e-7 0 0 0
          -3.7257723799451817e-7 -3.4844215402761766e-7 -3.6868818757407493e-7 -7.449320413625536e-7 -6.969607205729117e-7 -7.36287317023249e-7
          0 0 0 -3.25999895416747e-7 -3.319267550853779e-7 -2.9642515209723695e-7
          -6.511273050254173e-7 -6.630477986113981e-7 -5.921112521520932e-7 0 0 0
          0 -4.030700898692357e-7 -3.898596775136136e-7 -3.9547762442078977e-7 -4.2136099932881145e-7 -8.058407644330316e-7
          -7.783407697940947e-7 -7.899723473297859e-7 -8.421144364373845e-7 0 0 -4.559564169257055e-7
          -4.4007464651905413e-7 -9.113792668150156e-7 -8.79360170259932e-7 0 0 0
          -4.6840894553177425e-7 -4.378349115782787e-7 -4.406922124603272e-7 -9.358712738370662e-7 -8.755238241972569e-7 -8.807450887687292e-7
          0 0 0 0 -4.223378346501934e-7 -4.3376276168741954e-7
          -4.57922198711707e-7 -4.476769533649209e-7 -8.439603147577072e-7 -8.666005107626768e-7 -9.147004069924753e-7 -8.946476485365894e-7
          0 0 -2.994803850651736e-7 -3.125703061043369e-7 -5.991896865093427e-7 -6.247622591806886e-7
          0 0 -3.1427305542790997e-7 -3.4486246346650225e-7 -6.274089658389589e-7 -6.902626477461598e-7
          0 0 -2.209911507924839e-7 -2.2432913478541583e-7 -4.4221331489743214e-7 -4.4887018353258403e-7
          0 0 0 0 -3.157725226686017e-7 -3.049470778900151e-7
          -3.2669597743867593e-7 -3.4223742902433956e-7 -6.316722508444035e-7 -6.104374872787997e-7 -6.533355374976165e-7 -6.848229747843035e-7
          0 0 -4.816528842212963e-7 -4.6170852946926746e-7 -9.62512917503687e-7 -9.229177275067841e-7
          0 0 -5.010544854750019e-7 -4.917230746666815e-7 -0.0000010005747744451937 -9.825463058413964e-7
          0 0 -5.136919680484641e-7 -5.057199781692095e-7 -0.0000010257504206128916 -0.0000010097239663435034
          0 -3.3007073081679725e-7 -6.598249510706476e-7 0 -3.7990504193887326e-7 -7.599435317854226e-7
          0 0 0 0 -4.367711154155652e-7 -4.107496787277717e-7
          -4.074793572551191e-7 -4.36420619131541e-7 -8.731860932923812e-7 -8.216210855837143e-7 -8.151674591003121e-7 -8.729252011281584e-7
          0 0 0 -4.6724900188004593e-7 -4.617504451074728e-7 -4.759077184511583e-7
          -9.333735429877068e-7 -9.229284075755428e-7 -9.512112018926136e-7 0 0 -5.045159384833523e-7
          -4.796004781530595e-7 -0.0000010070906611848505 -9.572749104068142e-7 0 -4.09314131735381e-7 -8.185016729470458e-7
          0 0 0 0 -2.2311635402364308e-7 -2.3405415495393503e-7
          -2.3806918092778878e-7 -2.2565902447034284e-7 -4.4638338236396317e-7 -4.6823744771643134e-7 -4.7666638846817286e-7 -4.5167243554312394e-7
          0 -4.664758962892252e-7 -9.322826839058958e-7 0 -4.056169296078528e-7 -8.115675349854381e-7
          0 -4.363597783641434e-7 -8.721489947248165e-7 0 0 -3.3761918523913353e-7
          -3.295034407332253e-7 -6.744953813457563e-7 -6.590778383714518e-7 0 0 -3.843559278529584e-7
          -3.67268458887391e-7 -7.68621848852208e-7 -7.354532055559937e-7 0 0 -5.069301716951624e-7
          -4.915970162443018e-7 -0.0000010116112845339023 -9.819302038478845e-7 0 0 -4.2764093988963177e-7
          -4.2182752451815317e-7 -8.541274080409099e-7 -8.425126017843679e-7 0 -4.512754776755246e-7 -9.022831193098197e-7
          0 0 -4.089898183587104e-7 -3.7532601330701376e-7 -8.167915344290367e-7 -7.505188988752973e-7
          0 0 -4.205262150248167e-7 -4.079205464949256e-7 -8.398760108552063e-7 -8.141743018600199e-7
          0 -5.061071581575828e-7 -0.0000010106737223349739 0 -4.914498023841601e-7 -9.82123255169713e-7
          0 0 -4.0165614738377227e-7 -4.015259176887689e-7 -8.029554784507049e-7 -8.018207916993544e-7
          0 -5.040775161134457e-7 -0.0000010073753248612793 0 -3.7422146633665404e-7 -7.487557900713235e-7
          0 0 -5.07738547134355e-7 -4.945272901298572e-7 -0.0000010143802158936684 -9.88627046754588e-7
          0 0 -4.6650601100105995e-7 -4.5874027350353375e-7 -9.326628762659435e-7 -9.17152089602283e-7
          0 0 0 -3.5687158562450524e-7 -3.776348226736783e-7 -3.860116877383635e-7
          -7.131824677041055e-7 -7.54918143497062e-7 -7.705651137668505e-7 0 0 0
          0 -4.1735008003534233e-7 -4.0384956946259347e-7 -4.2584386351323785e-7 -4.4524881469843534e-7 -8.336961462331237e-7
          -8.057456610745158e-7 -8.495850096621283e-7 -8.891472986496721e-7 0 0 0
          0 -2.712076797327375e-7 -2.500756039589222e-7 -2.4527818190318133e-7 -2.6196496165198666e-7 -5.432260136650138e-7
          -5.002418460944659e-7 -4.90270323533174e-7 -5.242030186865553e-7 0 -5.15022801911294e-7 -0.000001028089622039273
          0 0 -3.843165042809741e-7 -3.7097188594904436e-7 -7.678085615438367e-7 -7.407093625877913e-7
          0 0 -4.80738248114138e-7 -4.742235775948783e-7 -9.604313215776978e-7 -9.475125250522619e-7
          0 0 -3.501687723616984e-7 -3.321204122451919e-7 -6.994038933259211e-7 -6.644279398459174e-7
          0 0 -2.783353672917524e-7 -2.953697629480099e-7 -5.571475623552567e-7 -5.915722514000548e-7
          0 0 -2.6511243758129126e-7 -2.4961522825283206e-7 -5.302935419172297e-7 -4.990143607787786e-7
          0 -4.876224510759463e-7 -9.746564827572757e-7 0 -4.887521260729892e-7 -9.767541165656934e-7
          0 0 0 0 -2.9141155753206536e-7 -2.6524294964955067e-7
          -2.569952895681297e-7 -2.796421864715532e-7 -5.82785066335781e-7 -5.312883268520463e-7 -5.148962327491647e-7 -5.597595622750308e-7
          0 0 -4.960823667800338e-7 -4.966668790298677e-7 -9.914497716668027e-7 -9.92339411600086e-7
          0 0 0 0 -2.2418903440970064e-7 -2.2103802130152644e-7
          -2.219345007509402e-7 -2.1979673598449518e-7 -4.483188323699563e-7 -4.4200896640350954e-7 -4.4391675293208267e-7 -4.3947963658203834e-7
          0 0 0 -2.3588102257096317e-7 -2.2458294868052627e-7 -2.3711219646183067e-7
          -4.719626975552392e-7 -4.494001903295857e-7 -4.742546179194046e-7 0 -3.053579748755092e-7 -6.117310645454308e-7
          0 0 -4.610826397611441e-7 -4.4438456232569194e-7 -9.20701131280021e-7 -8.876259869880002e-7
          0 0 -4.288360866267044e-7 -3.920149387715929e-7 -8.571807331880876e-7 -7.838105966051841e-7
          0 -3.1574545191063747e-7 -6.313956578651027e-7 0 -4.962924544669325e-7 -9.920845605744598e-7
          0 0 -3.4825263300555043e-7 -3.8519639602889667e-7 -6.969648965378122e-7 -7.699772567451648e-7
          0 0 -2.22439976671411e-7 -2.1433819051037623e-7 -4.448221676260461e-7 -4.287641633456986e-7
          0 0 -2.1023732406951405e-7 -2.0998320593136546e-7 -4.202856956090588e-7 -4.2003009130015464e-7
          0 0 0 -2.1145991426017948e-7 -2.5762382985714823e-7 -2.189394917934677e-7
          -4.22924627918649e-7 -5.149508876651448e-7 -4.3739110724978945e-7 0 0 -2.838245959686043e-7
          -3.094491200130083e-7 -5.671485677329526e-7 -6.187517736872835e-7 0 0 -2.322572791009702e-7
          -2.379964420958143e-7 -4.640603388949225e-7 -4.7585849781500624e-7 0 0 -2.757920791473985e-7
          -2.3137687586716916e-7 -5.512277044717111e-7 -4.6151422867417215e-7 0 -2.3264595727032443e-7 -4.6537241710445554e-7
          0 0 0 0 -3.148205405496843e-7 -3.1550740118197856e-7
          -3.122315209365511e-7 -3.077114515220762e-7 -6.287320985370547e-7 -6.307780642050046e-7 -6.236947951457029e-7 -6.146218428571215e-7
          0 0 -3.0806555383727216e-7 -3.102681098327978e-7 -6.156499651690357e-7 -6.200123478812829e-7
          0 -2.2939735919152607e-7 -4.585512659509957e-7 0 -2.4031514878810984e-7 -4.798185554291511e-7
          0 -3.275855891341758e-7 -6.550564660231007e-7 0 -3.1572846134105613e-7 -6.32266433829592e-7
          0 -3.5812890160498505e-7 -7.16065569155212e-7 0 0 -3.363250131955596e-7
          -3.53528603126624e-7 -6.726354515973109e-7 -7.060788200811958e-7 0 -3.652447611310504e-7 -7.299428161501874e-7
          0 -3.367262786934196e-7 -6.740301369715198e-7 0 -2.462252572552069e-7 -4.922086193837544e-7
          0 -4.760408580485549e-7 -9.518201800003981e-7 0 0 -4.217739854823552e-7
          -4.0643782566254857e-7 -8.422449230229801e-7 -8.11933403970935e-7 0 -4.8598261519529e-7 -9.714101826753493e-7
          0 -3.9349244573228395e-7 -7.863873970329657e-7 0 -3.735495925792297e-7 -7.461009049506964e-7
          0 -3.445459630570381e-7 -6.902826914020308e-7 0 -3.445123569556053e-7 -6.895157927491934e-7
          0 -3.3813920063962115e-7 -6.769023405247717e-7 0 0 -2.992116590587908e-7
          -2.99428344796583e-7 -5.984135693289701e-7 -5.9865527688438e-7 0 0 -2.9891184501563373e-7
          -2.4435783229826986e-7 -5.973914724919695e-7 -4.876054614362167e-7 0 -3.22681315197636e-7 -6.445171269188053e-7
          0 -2.1129110825398347e-7 -4.2252726426352337e-7 0 -4.7141543848491074e-7 -9.418892989262158e-7
          0 0 -2.990266666813634e-7 -3.1111514122296416e-7 -5.983169748062847e-7 -6.212444244320089e-7
          0 0 0 -2.718864468581554e-7 -3.0175732702683434e-7 -2.8211257495088945e-7
          -5.411084173593823e-7 -6.054498285945558e-7 -5.643977469187025e-7 0 0 -2.912073878333004e-7
          -3.1425755522583374e-7 -5.798101136049122e-7 -6.295168528684934e-7 0 -3.208634609106204e-7 -6.410459565394677e-7
          0 -2.9651227688576676e-7 -5.9227541347285e-7 0 -2.5898270044063327e-7 -5.172795411757598e-7
          0 -4.85932326986947e-7 -9.712719584437746e-7 0 -2.257296435186743e-7 -4.5133317015522706e-7
          0 0 -2.2693559245936803e-7 -2.555184130467681e-7 -4.539206565325118e-7 -5.114228901805693e-7
          0 -4.3461071397186564e-7 -8.694500826573821e-7 0 0 0
          -3.913099300176254e-7 -4.024619857628063e-7 -4.251602058055389e-7 -7.816898270345807e-7 -8.042426767953039e-7 -8.509357006307545e-7
          0 0 -2.806725543584541e-7 -2.9175546108862925e-7 -5.6147917772111e-7 -5.838609557013257e-7
          0 0 -4.588580620816075e-7 -4.3646358080556586e-7 -9.17303941327558e-7 -8.731180043970536e-7
          0 -3.0819521163036754e-7 -6.164282838144913e-7 0 0 0
          -3.819919530045028e-7 -3.627022788851263e-7 -3.5337562778058964e-7 -7.645460900512572e-7 -7.257488183131592e-7 -7.071543609741277e-7
          0 -4.207407988828313e-7 -8.415609681711552e-7 0 0 -4.854492717116664e-7
          -4.972963551351445e-7 -9.68583004246471e-7 -9.927712083749995e-7 0 0 -4.1254162787018176e-7
          -4.0699219192071404e-7 -8.250898786160583e-7 -8.138427566556421e-7 0 -4.692461771904299e-7 -9.384094969002893e-7
          0 -4.5559036383160775e-7 -9.104415927307956e-7 0 -2.854858753850134e-7 -5.714853138005371e-7
          0 -2.9161269361496575e-7 -5.836793064967909e-7 0 -3.29440494690918e-7 -6.590444564017293e-7
          0 -3.901308629500266e-7 -7.806061418114197e-7 0 0 -3.6628017201898546e-7
          -3.814223771181912e-7 -7.325845208871737e-7 -7.621106386589065e-7 0 0 -2.93388957653767e-7
          -2.8612717028878316e-7 -5.877746997975466e-7 -5.728426403759716e-7 0 -2.7146228499609486e-7 -5.437132818396231e-7
          0 0 -2.8906886068937055e-7 -2.8734312040167755e-7 -5.780700319862063e-7 -5.744188890986571e-7
          0 -4.591345761166757e-7 -9.176925091602049e-7 0 0 -3.186874738488655e-7
          -3.304972826584695e-7 -6.377078900945218e-7 -6.611138147024158e-7 0 0 -4.6907513530424555e-7
          -4.5863467927746e-7 -9.375823483582199e-7 -9.165018481817029e-7 0 -2.8377605039117727e-7 -5.67446745834638e-7
          0 -4.387167650450178e-7 -8.763641260061738e-7 0 -3.0122316840265945e-7 -6.027964937102971e-7
          0 -3.1689810987735737e-7 -6.337279525550505e-7 0 -4.900764545927003e-7 -9.786375938998301e-7
          0 -4.82184735131377e-7 -9.637207328476867e-7
        </DataArray>
      </PointData>
      <CellData>
        <DataArray type="Int32" Name="libmesh_elem_id" format="ascii" RangeMin="1380" RangeMax="3259">
          1380 1381 1412 1413 1414 1415
          1416 1417 1428 1429 1430 1431
          1438 1439 1440 1441 1464 1465
          1472 1473 1480 1481 1484 1485
          1488 1489 1490 1491 1492 1493
          1496 1497 1516 1517 1534 1535
          1538 1539 1544 1545 1548 1549
          1556 1557 1562 1563 1568 1569
          1574 1575 1576 1577 1604 1605
          1610 1611 1620 1621 1626 1627
          1632 1633 1640 1641 1642 1643
          1644 1645 1646 1647 1660 1661
          1664 1665 1666 1667 1668 1669
          1670 1671 1674 1675 1676 1677
          1688 1689 1690 1691 1692 1693
          1694 1695 1706 1707 1716 1717
          1720 1721 1724 1725 1732 1733
          1736 1737 1738 1739 1742 1743
          1744 1745 1756 1757 1758 1759
          1768 1769 1776 1777 1780 1781
          1784 1785 1786 1787 1788 1789
          1792 1793 1796 1797 1800 1801
          1806 1807 1808 1809 1812 1813
          1820 1821 1822 1823 1826 1827
          1842 1843 1844 1845 1860 1861
          1870 1871 1886 1887 1898 1899
          1912 1913 1934 1935 1938 1939
          1940 1941 1954 1955 1958 1959
          1962 1963 1964 1965 1966 1967
          1974 1975 1976 1977 1978 1979
          1980 1981 1984 1985 1990 1991
          1992 1993 1994 1995 2002 2003
          2012 2013 2016 2017 2022 2023
          2032 2033 2034 2035 2036 2037
          2042 2043 2056 2057 2066 2067
          2072 2073 2076 2077 2080 2081
          2086 2087 2090 2091 2094 2095
          2098 2099 2104 2105 2108 2109
          2114 2115 2118 2119 2122 2123
          2142 2143 2152 2153 2156 2157
          2168 2169 2172 2173 2174 2175
          2182 2183 2188 2189 2190 2191
          2192 2193 2194 2195 2198 2199
          2210 2211 2240 2241 2272 2273
          2280 2281 2300 2301 2322 2323
          2326 2327 2338 2339 2376 2377
          2378 2379 2380 2381 2384 2385
          2386 2387 2388 2389 2394 2395
          2428 2429 2438 2439 2446 2447
          2454 2455 2492 2493 2508 2509
          2514 2515 2516 2517 2528 2529
          2536 2537 2538 2539 2544 2545
          2548 2549 2552 2553 2576 2577
          2604 2605 2606 2607 2614 2615
          2618 2619 2626 2627 2630 2631
          2632 2633 2652 2653 2654 2655
          2674 2675 2676 2677 2686 2687
          2692 2693 2698 2699 2706 2707
          2712 2713 2718 2719 2728 2729
          2730 2731 2732 2733 2744 2745
          2752 2753 2758 2759 2770 2771
          2784 2785 2786 2787 2792 2793
          2812 2813 2816 2817 2818 2819
          2820 2821 2842 2843 2856 2857
          2866 2867 2882 2883 2894 2895
          2900 2901 2906 2907 2914 2915
          2942 2943 2970 2971 2976 2977
          2992 2993 3010 3011 3012 3013
          3016 3017 3046 3047 3056 3057
          3058 3059 3070 3071 3078 3079
          3084 3085 3094 3095 3098 3099
          3118 3119 3122 3123 3128 3129
          3134 3135 3152 3153 3180 3181
          3192 3193 3196 3197 3200 3201
          3202 3203 3214 3215 3244 3245
          3248 3249 3258 3259
        </DataArray>
        <DataArray type="Int32" Name="subdomain_id" format="ascii" RangeMin="107" RangeMax="107">
          107 107 107 107 107 107
          107 107 107 107 107 107
          107 107 107 107 107 107
          107 107 107 107 107 107
          107 107 107 107 107 107
          107 107 107 107 107 107
          107 107 107 107 107 107
          107 107 107 107 107 107
          107 107 107 107 107 107
          107 107 107 107 107 107
          107 107 107 107 107 107
          107 107 107 107 107 107
          107 107 107 107 107 107
          107 107 107 107 107 107
          107 107 107 107 107 107
          107 107 107 107 107 107
          107 107 107 107 107 107
          107 107 107 107 107 107
          107 107 107 107 107 107
          107 107 107 107 107 107
          107 107 107 107 107 107
          107 107 107 107 107 107
          107 107 107 107 107 107
          107 107 107 107 107 107
          107 107 107 107 107 107
          107 107 107 107 107 107
          107 107 107 107 107 107
          107 107 107 107 107 107
          107 107 107 107 107 107
          107 107 107 107 107 107
          107 107 107 107 107 107
          107 107 107 107 107 107
          107 107 107 107 107 107
          107 107 107 107 107 107
          107 107 107 107 107 107
          107 107 107 107 107 107
          107 107 107 107 107 107
          107 107 107 107 107 107
          107 107 107 107 107 107
          107 107 107 107 107 107
          107 107 107 107 107 107
          107 107 107 107 107 107
          107 107 107 107 107 107
          107 107 107 107 107 107
          107 107 107 107 107 107
          107 107 107 107 107 107
          107 107 107 107 107 107
          107 107 107 107 107 107
          107 107 107 107 107 107
          107 107 107 107 107 107
          107 107 107 107 107 107
          107 107 107 107 107 107
          107 107 107 107 107 107
          107 107 107 107 107 107
          107 107 107 107 107 107
          107 107 107 107 107 107
          107 107 107 107 107 107
          107 107 107 107 107 107
          107 107 107 107 107 107
          107 107 107 107 107 107
          107 107 107 107 107 107
          107 107 107 107 107 107
          107 107 107 107 107 107
          107 107 107 107 107 107
          107 107 107 107 107 107
          107 107 107 107 107 107
          107 107 107 107 107 107
          107 107 107 107 107 107
          107 107 107 107 107 107
          107 107 107 107 107 107
          107 107 107 107 107 107
          107 107 107 107 107 107
          107 107 107 107 107 107
          107 107 107 107 107 107
          107 107 107 107 107 107
          107 107 107 107
        </DataArray>
        <DataArray type="Int32" Name="processor_id" format="ascii" RangeMin="3" RangeMax="3">
          3 3 3 3 3 3
          3 3 3 3 3 3
          3 3 3 3 3 3
          3 3 3 3 3 3
          3 3 3 3 3 3
          3 3 3 3 3 3
          3 3 3 3 3 3
          3 3 3 3 3 3
          3 3 3 3 3 3
          3 3 3 3 3 3
          3 3 3 3 3 3
          3 3 3 3 3 3
          3 3 3 3 3 3
          3 3 3 3 3 3
          3 3 3 3 3 3
          3 3 3 3 3 3
          3 3 3 3 3 3
          3 3 3 3 3 3
          3 3 3 3 3 3
          3 3 3 3 3 3
          3 3 3 3 3 3
          3 3 3 3 3 3
          3 3 3 3 3 3
          3 3 3 3 3 3
          3 3 3 3 3 3
          3 3 3 3 3 3
          3 3 3 3 3 3
          3 3 3 3 3 3
          3 3 3 3 3 3
          3 3 3 3 3 3
          3 3 3 3 3 3
          3 3 3 3 3 3
          3 3 3 3 3 3
          3 3 3 3 3 3
          3 3 3 3 3 3
          3 3 3 3 3 3
          3 3 3 3 3 3
          3 3 3 3 3 3
          3 3 3 3 3 3
          3 3 3 3 3 3
          3 3 3 3 3 3
          3 3 3 3 3 3
          3 3 3 3 3 3
          3 3 3 3 3 3
          3 3 3 3 3 3
          3 3 3 3 3 3
          3 3 3 3 3 3
          3 3 3 3 3 3
          3 3 3 3 3 3
          3 3 3 3 3 3
          3 3 3 3 3 3
          3 3 3 3 3 3
          3 3 3 3 3 3
          3 3 3 3 3 3
          3 3 3 3 3 3
          3 3 3 3 3 3
          3 3 3 3 3 3
          3 3 3 3 3 3
          3 3 3 3 3 3
          3 3 3 3 3 3
          3 3 3 3 3 3
          3 3 3 3 3 3
          3 3 3 3 3 3
          3 3 3 3 3 3
          3 3 3 3 3 3
          3 3 3 3 3 3
          3 3 3 3 3 3
          3 3 3 3 3 3
          3 3 3 3 3 3
          3 3 3 3 3 3
          3 3 3 3 3 3
          3 3 3 3 3 3
          3 3 3 3 3 3
          3 3 3 3 3 3
          3 3 3 3 3 3
          3 3 3 3
        </DataArray>
      </CellData>
      <Points>
        <DataArray type="Float64" Name="Points" NumberOfComponents="3" format="ascii" RangeMin="0.013166738443807365" RangeMax="0.02374822585851783">
          0.016451229180203 0.011589607556601 0 0.016255198485848 0.011015934042219 0
          0.016728572005863 0.010757201031786 0 0.017039955631379 0.011194422572054 0
          0.016451229180203 0.011589607556601 0.00015 0.016255198485848 0.011015934042219 0.00015
          0.016728572005863 0.010757201031786 0.00015 0.017039955631379 0.011194422572054 0.00015
          0.016451229180203 0.011589607556601 0.0003 0.016255198485848 0.011015934042219 0.0003
          0.016728572005863 0.010757201031786 0.0003 0.017039955631379 0.011194422572054 0.0003
          0.011186406523754 0.0095188731742926 0 0.010689703280164 0.0094649590365737 0
          0.010634679710187 0.008964429555675 0 0.011131650337527 0.0089687060727404 0
          0.011186406523754 0.0095188731742926 0.00015 0.010689703280164 0.0094649590365737 0.00015
          0.010634679710187 0.008964429555675 0.00015 0.011131650337527 0.0089687060727404 0.00015
          0.011186406523754 0.0095188731742926 0.0003 0.010689703280164 0.0094649590365737 0.0003
          0.010634679710187 0.008964429555675 0.0003 0.011131650337527 0.0089687060727404 0.0003
          0.010158980545183 0.0089928081418126 0 0.010158980545183 0.0089928081418126 0.00015
          0.010158980545183 0.0089928081418126 0.0003 0.010234809282542 0.0094751596931164 0
          0.010234809282542 0.0094751596931164 0.00015 0.010234809282542 0.0094751596931164 0.0003
          0.017215305681839 0.010421173498473 0 0.017538322616078 0.010852535251392 0
          0.017215305681839 0.010421173498473 0.00015 0.017538322616078 0.010852535251392 0.00015
          0.017215305681839 0.010421173498473 0.0003 0.017538322616078 0.010852535251392 0.0003
          0.015522227276376 0.0083950727535023 0 0.015339273065407 0.0078314073000753 0
          0.015832583415208 0.0077039482324782 0 0.015871156677641 0.0080932538621961 0
          0.015522227276376 0.0083950727535023 0.00015 0.015339273065407 0.0078314073000753 0.00015
          0.015832583415208 0.0077039482324782 0.00015 0.015871156677641 0.0080932538621961 0.00015
          0.015522227276376 0.0083950727535023 0.0003 0.015339273065407 0.0078314073000753 0.0003
          0.015832583415208 0.0077039482324782 0.0003 0.015871156677641 0.0080932538621961 0.0003
          0.014182404182597 0.012030933394166 0 0.014112697634716 0.011586899500601 0
          0.01453762000082 0.011541498939039 0 0.014647727851392 0.011956202120878 0
          0.014182404182597 0.012030933394166 0.00015 0.014112697634716 0.011586899500601 0.00015
          0.01453762000082 0.011541498939039 0.00015 0.014647727851392 0.011956202120878 0.00015
          0.014182404182597 0.012030933394166 0.0003 0.014112697634716 0.011586899500601 0.0003
          0.01453762000082 0.011541498939039 0.0003 0.014647727851392 0.011956202120878 0.0003
          0.012718807262617 0.012100913225318 0 0.01318790653826 0.012081424726463 0
          0.013223560157694 0.012548837560718 0 0.012721969255655 0.012547975923311 0
          0.012718807262617 0.012100913225318 0.00015 0.01318790653826 0.012081424726463 0.00015
          0.013223560157694 0.012548837560718 0.00015 0.012721969255655 0.012547975923311 0.00015
          0.012718807262617 0.012100913225318 0.0003 0.01318790653826 0.012081424726463 0.0003
          0.013223560157694 0.012548837560718 0.0003 0.012721969255655 0.012547975923311 0.0003
          0.015037276113604 0.0053883886132418 0 0.014872829902632 0.0048660088618751 0
          0.015610482342583 0.0052949834846695 0 0.015037276113604 0.0053883886132418 0.00015
          0.014872829902632 0.0048660088618751 0.00015 0.015610482342583 0.0052949834846695 0.00015
          0.015037276113604 0.0053883886132418 0.0003 0.014872829902632 0.0048660088618751 0.0003
          0.015610482342583 0.0052949834846695 0.0003 0.012853333735139 0.0071862564407273 0
          0.013298874998351 0.0073010052974168 0 0.013468505581478 0.0077481198485017 0
          0.012879769579272 0.0077824950988095 0 0.012853333735139 0.0071862564407273 0.00015
          0.013298874998351 0.0073010052974168 0.00015 0.013468505581478 0.0077481198485017 0.00015
          0.012879769579272 0.0077824950988095 0.00015 0.012853333735139 0.0071862564407273 0.0003
          0.013298874998351 0.0073010052974168 0.0003 0.013468505581478 0.0077481198485017 0.0003
          0.012879769579272 0.0077824950988095 0.0003 0.012310751390795 0.0073009210446318 0
          0.012310751390795 0.0073009210446318 0.00015 0.012310751390795 0.0073009210446318 0.0003
          0.016440539131042 0.010340248821358 0 0.016895401758078 0.0099970418145034 0
          0.016440539131042 0.010340248821358 0.00015 0.016895401758078 0.0099970418145034 0.00015
          0.016440539131042 0.010340248821358 0.0003 0.016895401758078 0.0099970418145034 0.0003
          0.015674284513358 0.012057735082989 0 0.015799992883172 0.011590312491375 0
          0.01620648935985 0.012173309797103 0 0.015674284513358 0.012057735082989 0.00015
          0.015799992883172 0.011590312491375 0.00015 0.01620648935985 0.012173309797103 0.00015
          0.015674284513358 0.012057735082989 0.0003 0.015799992883172 0.011590312491375 0.0003
          0.01620648935985 0.012173309797103 0.0003 0.015719396244314 0.0096761034796614 0
          0.015317179218416 0.010039615829248 0 0.014916285335657 0.0096823062625427 0
          0.015356151892906 0.0093633130446295 0 0.015719396244314 0.0096761034796614 0.00015
          0.015317179218416 0.010039615829248 0.00015 0.014916285335657 0.0096823062625427 0.00015
          0.015356151892906 0.0093633130446295 0.00015 0.015719396244314 0.0096761034796614 0.0003
          0.015317179218416 0.010039615829248 0.0003 0.014916285335657 0.0096823062625427 0.0003
          0.015356151892906 0.0093633130446295 0.0003 0.014911939516014 0.011080222539295 0
          0.01492908374418 0.011511002202991 0 0.014470673144967 0.011122308960465 0
          0.014911939516014 0.011080222539295 0.00015 0.01492908374418 0.011511002202991 0.00015
          0.014470673144967 0.011122308960465 0.00015 0.014911939516014 0.011080222539295 0.0003
          0.01492908374418 0.011511002202991 0.0003 0.014470673144967 0.011122308960465 0.0003
          0.014927498433442 0.011816834084778 0 0.015214955739546 0.01195124117686 0
          0.014868481741766 0.012398226678167 0 0.014927498433442 0.011816834084778 0.00015
          0.015214955739546 0.01195124117686 0.00015 0.014868481741766 0.012398226678167 0.00015
          0.014927498433442 0.011816834084778 0.0003 0.015214955739546 0.01195124117686 0.0003
          0.014868481741766 0.012398226678167 0.0003 0.014887382940214 0.010512753679506 0
          0.01433465747601 0.010724165901292 0 0.014030150330029 0.010370439204794 0
          0.01444626395613 0.010022024912649 0 0.014887382940214 0.010512753679506 0.00015
          0.01433465747601 0.010724165901292 0.00015 0.014030150330029 0.010370439204794 0.00015
          0.01444626395613 0.010022024912649 0.00015 0.014887382940214 0.010512753679506 0.0003
          0.01433465747601 0.010724165901292 0.0003 0.014030150330029 0.010370439204794 0.0003
          0.01444626395613 0.010022024912649 0.0003 0.013388886812482 0.0083497293814167 0
          0.012899574253998 0.0083038014764745 0 0.013388886812482 0.0083497293814167 0.00015
          0.012899574253998 0.0083038014764745 0.00015 0.013388886812482 0.0083497293814167 0.0003
          0.012899574253998 0.0083038014764745 0.0003 0.015784016264429 0.0071345425111119 0
          0.016328429431772 0.0071626451349231 0 0.016328043288569 0.0077322573762078 0
          0.015784016264429 0.0071345425111119 0.00015 0.016328429431772 0.0071626451349231 0.00015
          0.016328043288569 0.0077322573762078 0.00015 0.015784016264429 0.0071345425111119 0.0003
          0.016328429431772 0.0071626451349231 0.0003 0.016328043288569 0.0077322573762078 0.0003
          0.016727166785252 0.0084386331054829 0 0.01644772366367 0.0089064975551763 0
          0.016002189190704 0.0086574712541786 0 0.016221340977963 0.0082297464535469 0
          0.016727166785252 0.0084386331054829 0.00015 0.01644772366367 0.0089064975551763 0.00015
          0.016002189190704 0.0086574712541786 0.00015 0.016221340977963 0.0082297464535469 0.00015
          0.016727166785252 0.0084386331054829 0.0003 0.01644772366367 0.0089064975551763 0.0003
          0.016002189190704 0.0086574712541786 0.0003 0.016221340977963 0.0082297464535469 0.0003
          0.018901908985383 0.011783468628847 0 0.018328257152057 0.011560564570719 0
          0.018901908985383 0.011783468628847 0.00015 0.018328257152057 0.011560564570719 0.00015
          0.018901908985383 0.011783468628847 0.0003 0.018328257152057 0.011560564570719 0.0003
          0.016817438697449 0.012401495631919 0 0.016895899239308 0.011880939878953 0
          0.016817438697449 0.012401495631919 0.00015 0.016895899239308 0.011880939878953 0.00015
          0.016817438697449 0.012401495631919 0.0003 0.016895899239308 0.011880939878953 0.0003
          0.010475172867508 0.012102844227475 0 0.010669582432454 0.011743114144408 0
          0.010475172867508 0.012102844227475 0.00015 0.010669582432454 0.011743114144408 0.00015
          0.010475172867508 0.012102844227475 0.0003 0.010669582432454 0.011743114144408 0.0003
          0.018198082784875 0.0097658337520035 0 0.018455934862008 0.010221918525687 0
          0.018019877493881 0.01050989807829 0 0.017698489924893 0.010066971919266 0
          0.018198082784875 0.0097658337520035 0.00015 0.018455934862008 0.010221918525687 0.00015
          0.018019877493881 0.01050989807829 0.00015 0.017698489924893 0.010066971919266 0.00015
          0.018198082784875 0.0097658337520035 0.0003 0.018455934862008 0.010221918525687 0.0003
          0.018019877493881 0.01050989807829 0.0003 0.017698489924893 0.010066971919266 0.0003
          0.015096658749896 0.0059763609132825 0 0.015666288430535 0.0059190759170471 0
          0.015096658749896 0.0059763609132825 0.00015 0.015666288430535 0.0059190759170471 0.00015
          0.015096658749896 0.0059763609132825 0.0003 0.015666288430535 0.0059190759170471 0.0003
          0.013546901289865 0.0069836782833127 0 0.013134929749538 0.0067248500217048 0
          0.013546901289865 0.0069836782833127 0.00015 0.013134929749538 0.0067248500217048 0.00015
          0.013546901289865 0.0069836782833127 0.0003 0.013134929749538 0.0067248500217048 0.0003
          0.013831418153218 0.0064982603089606 0 0.013338214474932 0.0062766362868091 0
          0.013831418153218 0.0064982603089606 0.00015 0.013338214474932 0.0062766362868091 0.00015
          0.013831418153218 0.0064982603089606 0.0003 0.013338214474932 0.0062766362868091 0.0003
          0.017908784385217 0.011229685010797 0 0.017908784385217 0.011229685010797 0.00015
          0.017908784385217 0.011229685010797 0.0003 0.017460830811305 0.0067242961174433 0
          0.017460830811305 0.0067242961174433 0.00015 0.017460830811305 0.0067242961174433 0.0003
          0.016232724398465 0.0059010997942707 0 0.016810957053741 0.0059693958220605 0
          0.016865945400018 0.0066157033945985 0 0.016287343165999 0.0065221003589061 0
          0.016232724398465 0.0059010997942707 0.00015 0.016810957053741 0.0059693958220605 0.00015
          0.016865945400018 0.0066157033945985 0.00015 0.016287343165999 0.0065221003589061 0.00015
          0.016232724398465 0.0059010997942707 0.0003 0.016810957053741 0.0059693958220605 0.0003
          0.016865945400018 0.0066157033945985 0.0003 0.016287343165999 0.0065221003589061 0.0003
          0.015434451036398 0.0088351663483508 0 0.015091649000167 0.0090065479673052 0
          0.0149386527618 0.008562942865766 0 0.015434451036398 0.0088351663483508 0.00015
          0.015091649000167 0.0090065479673052 0.00015 0.0149386527618 0.008562942865766 0.00015
          0.015434451036398 0.0088351663483508 0.0003 0.015091649000167 0.0090065479673052 0.0003
          0.0149386527618 0.008562942865766 0.0003 0.013851103268646 0.0079817773379183 0
          0.013864053371773 0.0083733293390323 0 0.013851103268646 0.0079817773379183 0.00015
          0.013864053371773 0.0083733293390323 0.00015 0.013851103268646 0.0079817773379183 0.0003
          0.013864053371773 0.0083733293390323 0.0003 0.016873832756735 0.0078915607150548 0
          0.016873832756735 0.0078915607150548 0.00015 0.016873832756735 0.0078915607150548 0.0003
          0.011740832768399 0.012550565772382 0 0.011781425344485 0.012080160842703 0
          0.012267797740114 0.012087686226532 0 0.012238354096222 0.012547223275944 0
          0.011740832768399 0.012550565772382 0.00015 0.011781425344485 0.012080160842703 0.00015
          0.012267797740114 0.012087686226532 0.00015 0.012238354096222 0.012547223275944 0.00015
          0.011740832768399 0.012550565772382 0.0003 0.011781425344485 0.012080160842703 0.0003
          0.012267797740114 0.012087686226532 0.0003 0.012238354096222 0.012547223275944 0.0003
          0.015724816214821 0.0065169349202822 0 0.015724816214821 0.0065169349202822 0.00015
          0.015724816214821 0.0065169349202822 0.0003 0.016904663245172 0.0072759580116152 0
          0.016904663245172 0.0072759580116152 0.00015 0.016904663245172 0.0072759580116152 0.0003
          0.016212759806586 0.0053000490100875 0 0.016212759806586 0.0053000490100875 0.00015
          0.016212759806586 0.0053000490100875 0.0003 0.017422284858474 0.011679101640391 0
          0.017908527792884 0.011814582379248 0 0.017422284858474 0.011679101640391 0.00015
          0.017908527792884 0.011814582379248 0.00015 0.017422284858474 0.011679101640391 0.0003
          0.017908527792884 0.011814582379248 0.0003 0.017261702763099 0.0086939606584207 0
          0.017434489396122 0.0080779876667089 0 0.017261702763099 0.0086939606584207 0.00015
          0.017434489396122 0.0080779876667089 0.00015 0.017261702763099 0.0086939606584207 0.0003
          0.017434489396122 0.0080779876667089 0.0003 0.014181033506022 0.0077713348891544 0
          0.014325604474543 0.0082610969383043 0 0.014181033506022 0.0077713348891544 0.00015
          0.014325604474543 0.0082610969383043 0.00015 0.014181033506022 0.0077713348891544 0.0003
          0.014325604474543 0.0082610969383043 0.0003 0.016099115219063 0.0099899847281115 0
          0.016520689982407 0.0096278486407962 0 0.016099115219063 0.0099899847281115 0.00015
          0.016520689982407 0.0096278486407962 0.00015 0.016099115219063 0.0099899847281115 0.0003
          0.016520689982407 0.0096278486407962 0.0003 0.014613026918956 0.0092413149543641 0
          0.014613026918956 0.0092413149543641 0.00015 0.014613026918956 0.0092413149543641 0.0003
          0.016937453954769 0.0092095292918499 0 0.017364558514239 0.0096012653805297 0
          0.016937453954769 0.0092095292918499 0.00015 0.017364558514239 0.0096012653805297 0.00015
          0.016937453954769 0.0092095292918499 0.0003 0.017364558514239 0.0096012653805297 0.0003
          0.015712843676617 0.010331364913168 0 0.016032046384524 0.010629553115583 0
          0.015712843676617 0.010331364913168 0.00015 0.016032046384524 0.010629553115583 0.00015
          0.015712843676617 0.010331364913168 0.0003 0.016032046384524 0.010629553115583 0.0003
          0.01346343572409 0.0057857389411653 0 0.01346343572409 0.0057857389411653 0.00015
          0.01346343572409 0.0057857389411653 0.0003 0.015150761096164 0.0066142159223768 0
          0.015150761096164 0.0066142159223768 0.00015 0.015150761096164 0.0066142159223768 0.0003
          0.015453261139866 0.010697023165802 0 0.015761290368715 0.010819971207646 0
          0.015453261139866 0.010697023165802 0.00015 0.015761290368715 0.010819971207646 0.00015
          0.015453261139866 0.010697023165802 0.0003 0.015761290368715 0.010819971207646 0.0003
          0.013975551316416 0.0059398855735222 0 0.013975551316416 0.0059398855735222 0.00015
          0.013975551316416 0.0059398855735222 0.0003 0.017479032913359 0.0074088673936633 0
          0.017479032913359 0.0074088673936633 0.00015 0.017479032913359 0.0074088673936633 0.0003
          0.014439802315681 0.0067889662935499 0 0.014530319307898 0.006021518089632 0
          0.014439802315681 0.0067889662935499 0.00015 0.014530319307898 0.006021518089632 0.00015
          0.014439802315681 0.0067889662935499 0.0003 0.014530319307898 0.006021518089632 0.0003
          0.014431521900925 0.0087663339265048 0 0.013899975831329 0.0088854517032459 0
          0.014431521900925 0.0087663339265048 0.00015 0.013899975831329 0.0088854517032459 0.00015
          0.014431521900925 0.0087663339265048 0.0003 0.013899975831329 0.0088854517032459 0.0003
          0.015334349753872 0.011547922560075 0 0.015363465895193 0.011114260619116 0
          0.015801980011793 0.011137474992711 0 0.015334349753872 0.011547922560075 0.00015
          0.015363465895193 0.011114260619116 0.00015 0.015801980011793 0.011137474992711 0.00015
          0.015334349753872 0.011547922560075 0.0003 0.015363465895193 0.011114260619116 0.0003
          0.015801980011793 0.011137474992711 0.0003 0.01326617738197 0.0093680808515997 0
          0.012793423392144 0.00921210926252 0 0.012882512800283 0.0087881474090036 0
          0.013365259810227 0.0088714473068585 0 0.01326617738197 0.0093680808515997 0.00015
          0.012793423392144 0.00921210926252 0.00015 0.012882512800283 0.0087881474090036 0.00015
          0.013365259810227 0.0088714473068585 0.00015 0.01326617738197 0.0093680808515997 0.0003
          0.012793423392144 0.00921210926252 0.0003 0.012882512800283 0.0087881474090036 0.0003
          0.013365259810227 0.0088714473068585 0.0003 0.011993243876189 0.010936510200926 0
          0.011726815341297 0.011491075647124 0 0.011222013645511 0.011097826594996 0
          0.011481744371717 0.010688234667639 0 0.011993243876189 0.010936510200926 0.00015
          0.011726815341297 0.011491075647124 0.00015 0.011222013645511 0.011097826594996 0.00015
          0.011481744371717 0.010688234667639 0.00015 0.011993243876189 0.010936510200926 0.0003
          0.011726815341297 0.011491075647124 0.0003 0.011222013645511 0.011097826594996 0.0003
          0.011481744371717 0.010688234667639 0.0003 0.013923252507151 0.0073329122207352 0
          0.013923252507151 0.0073329122207352 0.00015 0.013923252507151 0.0073329122207352 0.0003
          0.013063793506476 0.0098271989985527 0 0.012601634550352 0.009590277262082 0
          0.013063793506476 0.0098271989985527 0.00015 0.012601634550352 0.009590277262082 0.00015
          0.013063793506476 0.0098271989985527 0.0003 0.012601634550352 0.009590277262082 0.0003
          0.014102855237989 0.0047969187863067 0 0.013905759673286 0.0043612537888552 0
          0.014102855237989 0.0047969187863067 0.00015 0.013905759673286 0.0043612537888552 0.00015
          0.014102855237989 0.0047969187863067 0.0003 0.013905759673286 0.0043612537888552 0.0003
          0.012852488428802 0.010265076045094 0 0.012374691983482 0.010000797580735 0
          0.012852488428802 0.010265076045094 0.00015 0.012374691983482 0.010000797580735 0.00015
          0.012852488428802 0.010265076045094 0.0003 0.012374691983482 0.010000797580735 0.0003
          0.011668611956603 0.010219239111219 0 0.012182731119778 0.010462377133106 0
          0.011668611956603 0.010219239111219 0.00015 0.012182731119778 0.010462377133106 0.00015
          0.011668611956603 0.010219239111219 0.0003 0.012182731119778 0.010462377133106 0.0003
          0.011158560753842 0.010029990414111 0 0.011017968815575 0.010465683342369 0
          0.011158560753842 0.010029990414111 0.00015 0.011017968815575 0.010465683342369 0.00015
          0.011158560753842 0.010029990414111 0.0003 0.011017968815575 0.010465683342369 0.0003
          0.014820390261339 0.0080402105998384 0 0.014820390261339 0.0080402105998384 0.00015
          0.014820390261339 0.0080402105998384 0.0003 0.015228397699353 0.0072512250897894 0
          0.015228397699353 0.0072512250897894 0.00015 0.015228397699353 0.0072512250897894 0.0003
          0.0130361735465 0.011522072885309 0 0.012689359184487 0.011761634268536 0
          0.012340499111532 0.011632501505239 0 0.012497431968462 0.011183651982421 0
          0.0130361735465 0.011522072885309 0.00015 0.012689359184487 0.011761634268536 0.00015
          0.012340499111532 0.011632501505239 0.00015 0.012497431968462 0.011183651982421 0.00015
          0.0130361735465 0.011522072885309 0.0003 0.012689359184487 0.011761634268536 0.0003
          0.012340499111532 0.011632501505239 0.0003 0.012497431968462 0.011183651982421 0.0003
          0.013528941600065 0.0052742966774397 0 0.014027103455945 0.0053875982273864 0
          0.013528941600065 0.0052742966774397 0.00015 0.014027103455945 0.0053875982273864 0.00015
          0.013528941600065 0.0052742966774397 0.0003 0.014027103455945 0.0053875982273864 0.0003
          0.010128205128219 0.013 0 0.010310686327751 0.012539165738252 0
          0.010788384596096 0.012564579045747 0 0.01064102564104 0.013 0
          0.010128205128219 0.013 0.00015 0.010310686327751 0.012539165738252 0.00015
          0.010788384596096 0.012564579045747 0.00015 0.01064102564104 0.013 0.00015
          0.010128205128219 0.013 0.0003 0.010310686327751 0.012539165738252 0.0003
          0.010788384596096 0.012564579045747 0.0003 0.01064102564104 0.013 0.0003
          0.010783127360108 0.010836567412064 0 0.010385522435479 0.010608007769118 0
          0.010601303654319 0.010290632654442 0 0.010783127360108 0.010836567412064 0.00015
          0.010385522435479 0.010608007769118 0.00015 0.010601303654319 0.010290632654442 0.00015
          0.010783127360108 0.010836567412064 0.0003 0.010385522435479 0.010608007769118 0.0003
          0.010601303654319 0.010290632654442 0.0003 0.011818930007254 0.009602160287834 0
          0.011818930007254 0.009602160287834 0.00015 0.011818930007254 0.009602160287834 0.0003
          0.015715008716269 0.0090308288850156 0 0.01610853428864 0.0093166480881369 0
          0.015715008716269 0.0090308288850156 0.00015 0.01610853428864 0.0093166480881369 0.00015
          0.015715008716269 0.0090308288850156 0.0003 0.01610853428864 0.0093166480881369 0.0003
          0.013952831965685 0.0095243725467762 0 0.013572358856734 0.010071658883703 0
          0.013952831965685 0.0095243725467762 0.00015 0.013572358856734 0.010071658883703 0.00015
          0.013952831965685 0.0095243725467762 0.0003 0.013572358856734 0.010071658883703 0.0003
          0.012677817340078 0.010719835797972 0 0.012677817340078 0.010719835797972 0.00015
          0.012677817340078 0.010719835797972 0.0003 0.014678664229456 0.0074733115324236 0
          0.014678664229456 0.0074733115324236 0.00015 0.014678664229456 0.0074733115324236 0.0003
          0.012261506677236 0.0092701804285872 0 0.012499922412859 0.0090879994978671 0
          0.012261506677236 0.0092701804285872 0.00015 0.012499922412859 0.0090879994978671 0.00015
          0.012261506677236 0.0092701804285872 0.0003 0.012499922412859 0.0090879994978671 0.0003
          0.011270478587413 0.012561768236337 0 0.011153846153863 0.013 0
          0.011270478587413 0.012561768236337 0.00015 0.011153846153863 0.013 0.00015
          0.011270478587413 0.012561768236337 0.0003 0.011153846153863 0.013 0.0003
          0.012179487179506 0.013 0 0.012692307692328 0.013 0
          0.012179487179506 0.013 0.00015 0.012692307692328 0.013 0.00015
          0.012179487179506 0.013 0.0003 0.012692307692328 0.013 0.0003
          0.013205128205151 0.013 0 0.013721380024409 0.012538570920528 0
          0.013717948717973 0.013 0 0.013205128205151 0.013 0.00015
          0.013721380024409 0.012538570920528 0.00015 0.013717948717973 0.013 0.00015
          0.013205128205151 0.013 0.0003 0.013721380024409 0.012538570920528 0.0003
          0.013717948717973 0.013 0.0003 0.013680323008888 0.01206206640945 0
          0.0136362676363 0.011582155921186 0 0.013680323008888 0.01206206640945 0.00015
          0.0136362676363 0.011582155921186 0.00015 0.013680323008888 0.01206206640945 0.0003
          0.0136362676363 0.011582155921186 0.0003 0.011306940297591 0.012129646322267 0
          0.011212076662234 0.01173976422044 0 0.011306940297591 0.012129646322267 0.00015
          0.011212076662234 0.01173976422044 0.00015 0.011306940297591 0.012129646322267 0.0003
          0.011212076662234 0.01173976422044 0.0003 0.014247558447628 0.012512499343239 0
          0.014230769230793 0.013 0 0.014247558447628 0.012512499343239 0.00015
          0.014230769230793 0.013 0.00015 0.014247558447628 0.012512499343239 0.0003
          0.014230769230793 0.013 0.0003 0.010925822172272 0.011428925131881 0
          0.010925822172272 0.011428925131881 0.00015 0.010925822172272 0.011428925131881 0.0003
          0.017598702187272 0.012594388856786 0 0.018138509806267 0.012585421267124 0
          0.018333333333352 0.013 0 0.017820512820533 0.013 0
          0.017598702187272 0.012594388856786 0.00015 0.018138509806267 0.012585421267124 0.00015
          0.018333333333352 0.013 0.00015 0.017820512820533 0.013 0.00015
          0.017598702187272 0.012594388856786 0.0003 0.018138509806267 0.012585421267124 0.0003
          0.018333333333352 0.013 0.0003 0.017820512820533 0.013 0.0003
          0.01884615384617 0.013 0 0.018647619061649 0.012577247456601 0
          0.01884615384617 0.013 0.00015 0.018647619061649 0.012577247456601 0.00015
          0.01884615384617 0.013 0.0003 0.018647619061649 0.012577247456601 0.0003
          0.010939820280367 0.01187760398484 0 0.010939820280367 0.01187760398484 0.00015
          0.010939820280367 0.01187760398484 0.0003 0.014743589743616 0.013 0
          0.014743589743616 0.013 0.00015 0.014743589743616 0.013 0.0003
          0.013168261777023 0.010955167755454 0 0.013168261777023 0.010955167755454 0.00015
          0.013168261777023 0.010955167755454 0.0003 0.011620435633551 0.0089440866322713 0
          0.011620435633551 0.0089440866322713 0.00015 0.011620435633551 0.0089440866322713 0.0003
          0.01333281098878 0.010501143990949 0 0.01333281098878 0.010501143990949 0.00015
          0.01333281098878 0.010501143990949 0.0003 0.013640766026071 0.011115210745046 0
          0.014063261910082 0.011165191959691 0 0.013640766026071 0.011115210745046 0.00015
          0.014063261910082 0.011165191959691 0.00015 0.013640766026071 0.011115210745046 0.0003
          0.014063261910082 0.011165191959691 0.0003 0.013761635093034 0.010714997264381 0
          0.013761635093034 0.010714997264381 0.00015 0.013761635093034 0.010714997264381 0.0003
          0.01790845301636 0.0090613468730877 0 0.01790845301636 0.0090613468730877 0.00015
          0.01790845301636 0.0090613468730877 0.0003 0.010691300612525 0.0099168298135774 0
          0.010691300612525 0.0099168298135774 0.00015 0.010691300612525 0.0099168298135774 0.0003
          0.014509683505008 0.0050450954358061 0 0.014509683505008 0.0050450954358061 0.00015
          0.014509683505008 0.0050450954358061 0.0003 0.012373637985884 0.0077974643404521 0
          0.012419274731686 0.0083019280664676 0 0.012373637985884 0.0077974643404521 0.00015
          0.012419274731686 0.0083019280664676 0.00015 0.012373637985884 0.0077974643404521 0.0003
          0.012419274731686 0.0083019280664676 0.0003 0.014523119140279 0.0054383897453177 0
          0.014523119140279 0.0054383897453177 0.00015 0.014523119140279 0.0054383897453177 0.0003
          0.012468015808598 0.0087643938641043 0 0.012468015808598 0.0087643938641043 0.00015
          0.012468015808598 0.0087643938641043 0.0003 0.014041697947841 0.010862771985015 0
          0.014041697947841 0.010862771985015 0.00015 0.014041697947841 0.010862771985015 0.0003
          0.012067821946234 0.0088387705315247 0 0.012067821946234 0.0088387705315247 0.00015
          0.012067821946234 0.0088387705315247 0.0003 0.018063704813091 0.0075049932447581 0
          0.018063704813091 0.0075049932447581 0.00015 0.018063704813091 0.0075049932447581 0.0003
          0.01801805728244 0.008218173104411 0 0.01801805728244 0.008218173104411 0.00015
          0.01801805728244 0.008218173104411 0.0003 0.019162849649621 0.012571706415164 0
          0.019358974358988 0.013 0 0.019162849649621 0.012571706415164 0.00015
          0.019358974358988 0.013 0.00015 0.019162849649621 0.012571706415164 0.0003
          0.019358974358988 0.013 0.0003 0.015469042768348 0.012527612124711 0
          0.015256410256436 0.013 0 0.015469042768348 0.012527612124711 0.00015
          0.015256410256436 0.013 0.00015 0.015469042768348 0.012527612124711 0.0003
          0.015256410256436 0.013 0.0003 0.017482035345823 0.012218317378284 0
          0.017482035345823 0.012218317378284 0.00015 0.017482035345823 0.012218317378284 0.0003
          0.011666666666685 0.013 0 0.011666666666685 0.013 0.00015
          0.011666666666685 0.013 0.0003 0.013552812333296 0.0042895499786344 0
          0.013552812333296 0.0042895499786344 0.00015 0.013552812333296 0.0042895499786344 0.0003
          0.019003973493589 0.012129001566083 0 0.018491681451249 0.012137078785851 0
          0.019003973493589 0.012129001566083 0.00015 0.018491681451249 0.012137078785851 0.00015
          0.019003973493589 0.012129001566083 0.0003 0.018491681451249 0.012137078785851 0.0003
          0.016282051282076 0.013 0 0.016335894010033 0.012686725241599 0
          0.016794871794894 0.013 0 0.016282051282076 0.013 0.00015
          0.016335894010033 0.012686725241599 0.00015 0.016794871794894 0.013 0.00015
          0.016282051282076 0.013 0.0003 0.016335894010033 0.012686725241599 0.0003
          0.016794871794894 0.013 0.0003 0.017307692307713 0.013 0
          0.017281329535555 0.012689387511733 0 0.017307692307713 0.013 0.00015
          0.017281329535555 0.012689387511733 0.00015 0.017307692307713 0.013 0.0003
          0.017281329535555 0.012689387511733 0.0003 0.017996855365792 0.012159940978259 0
          0.017996855365792 0.012159940978259 0.00015 0.017996855365792 0.012159940978259 0.0003
          0.016023960213719 0.012601258532672 0 0.016023960213719 0.012601258532672 0.00015
          0.016023960213719 0.012601258532672 0.0003 0.015769230769256 0.013 0
          0.015769230769256 0.013 0.00015 0.015769230769256 0.013 0.0003
          0.013549428097692 0.0047645614477775 0 0.013549428097692 0.0047645614477775 0.00015
          0.013549428097692 0.0047645614477775 0.0003 0.010881954871342 0.01216105032025 0
          0.010881954871342 0.01216105032025 0.00015 0.010881954871342 0.01216105032025 0.0003
          0.010057653370411 0.0084974472595183 0 0.01054988842507 0.0084422245958245 0
          0.010057653370411 0.0084974472595183 0.00015 0.01054988842507 0.0084422245958245 0.00015
          0.010057653370411 0.0084974472595183 0.0003 0.01054988842507 0.0084422245958245 0.0003
          0.015535554193674 0.0045828394817383 0 0.015535554193674 0.0045828394817383 0.00015
          0.015535554193674 0.0045828394817383 0.0003 0.011832021157187 0.0073476785459853 0
          0.011779780861271 0.0068646395959748 0 0.012243708910156 0.0068324173193727 0
          0.011832021157187 0.0073476785459853 0.00015 0.011779780861271 0.0068646395959748 0.00015
          0.012243708910156 0.0068324173193727 0.00015 0.011832021157187 0.0073476785459853 0.0003
          0.011779780861271 0.0068646395959748 0.0003 0.012243708910156 0.0068324173193727 0.0003
          0.019357361519954 0.01157618305141 0 0.01884046117173 0.011223113854601 0
          0.019357361519954 0.01157618305141 0.00015 0.01884046117173 0.011223113854601 0.00015
          0.019357361519954 0.01157618305141 0.0003 0.01884046117173 0.011223113854601 0.0003
          0.014554004584986 0.0044253882271801 0 0.015005639561329 0.0040763460944633 0
          0.014554004584986 0.0044253882271801 0.00015 0.015005639561329 0.0040763460944633 0.00015
          0.014554004584986 0.0044253882271801 0.0003 0.015005639561329 0.0040763460944633 0.0003
          0.018384253973557 0.010894663204421 0 0.018384253973557 0.010894663204421 0.00015
          0.018384253973557 0.010894663204421 0.0003 0.017413401850906 0.0060417176080878 0
          0.018057579772584 0.0060827128421873 0 0.018070157245618 0.0068021820766994 0
          0.017413401850906 0.0060417176080878 0.00015 0.018057579772584 0.0060827128421873 0.00015
          0.018070157245618 0.0068021820766994 0.00015 0.017413401850906 0.0060417176080878 0.0003
          0.018057579772584 0.0060827128421873 0.0003 0.018070157245618 0.0068021820766994 0.0003
          0.016291762387835 0.0047307906783276 0 0.016291762387835 0.0047307906783276 0.00015
          0.016291762387835 0.0047307906783276 0.0003 0.012879713087233 0.0060908484912964 0
          0.012982043505355 0.0056371881930815 0 0.012879713087233 0.0060908484912964 0.00015
          0.012982043505355 0.0056371881930815 0.00015 0.012879713087233 0.0060908484912964 0.0003
          0.012982043505355 0.0056371881930815 0.0003 0.01678493258985 0.0053840721103251 0
          0.016848637368385 0.0048798435935376 0 0.01678493258985 0.0053840721103251 0.00015
          0.016848637368385 0.0048798435935376 0.00015 0.01678493258985 0.0053840721103251 0.0003
          0.016848637368385 0.0048798435935376 0.0003 0.012723582323863 0.006509831652106 0
          0.012723582323863 0.006509831652106 0.00015 0.012723582323863 0.006509831652106 0.0003
          0.014128459199836 0.0039835282877348 0 0.014128459199836 0.0039835282877348 0.00015
          0.014128459199836 0.0039835282877348 0.0003 0.018817000838468 0.010560792840001 0
          0.018817000838468 0.010560792840001 0.00015 0.018817000838468 0.010560792840001 0.0003
          0.011043213382792 0.0084269911709333 0 0.011043213382792 0.0084269911709333 0.00015
          0.011043213382792 0.0084269911709333 0.0003 0.011511795106494 0.0083968566041475 0
          0.011511795106494 0.0083968566041475 0.00015 0.011511795106494 0.0083968566041475 0.0003
          0.017341722495578 0.0054175123203669 0 0.017341722495578 0.0054175123203669 0.00015
          0.017341722495578 0.0054175123203669 0.0003 0.01196380743939 0.0083394019710021 0
          0.011894488312007 0.0078344841271679 0 0.01196380743939 0.0083394019710021 0.00015
          0.011894488312007 0.0078344841271679 0.00015 0.01196380743939 0.0083394019710021 0.0003
          0.011894488312007 0.0078344841271679 0.0003 0.018719100515555 0.0096191331103102 0
          0.018769006148643 0.010016813571171 0 0.018719100515555 0.0096191331103102 0.00015
          0.018769006148643 0.010016813571171 0.00015 0.018719100515555 0.0096191331103102 0.0003
          0.018769006148643 0.010016813571171 0.0003 0.019142781766586 0.010156284019367 0
          0.019142781766586 0.010156284019367 0.00015 0.019142781766586 0.010156284019367 0.0003
          0.019871794871807 0.013 0 0.019671681078705 0.012567114388191 0
          0.019871794871807 0.013 0.00015 0.019671681078705 0.012567114388191 0.00015
          0.019871794871807 0.013 0.0003 0.019671681078705 0.012567114388191 0.0003
          0.013590285783394 0.0038446716816234 0 0.013590285783394 0.0038446716816234 0.00015
          0.013590285783394 0.0038446716816234 0.0003 0.018696511924608 0.0075816988835645 0
          0.018734278863615 0.0068564365277259 0 0.018696511924608 0.0075816988835645 0.00015
          0.018734278863615 0.0068564365277259 0.00015 0.018696511924608 0.0075816988835645 0.0003
          0.018734278863615 0.0068564365277259 0.0003 0.013091675611077 0.0041736873632184 0
          0.013121586466294 0.0036708577033715 0 0.013091675611077 0.0041736873632184 0.00015
          0.013121586466294 0.0036708577033715 0.00015 0.013091675611077 0.0041736873632184 0.0003
          0.013121586466294 0.0036708577033715 0.0003 0.019497075330812 0.012129782091497 0
          0.019497075330812 0.012129782091497 0.00015 0.019497075330812 0.012129782091497 0.0003
          0.012592651705639 0.0068198098450163 0 0.012592651705639 0.0068198098450163 0.00015
          0.012592651705639 0.0068198098450163 0.0003 0.018655444813331 0.0089912542068827 0
          0.018655444813331 0.0089912542068827 0.00015 0.018655444813331 0.0089912542068827 0.0003
          0.018643245907353 0.0082916041839039 0 0.018643245907353 0.0082916041839039 0.00015
          0.018643245907353 0.0082916041839039 0.0003 0.013048655853798 0.0051555709380823 0
          0.013048655853798 0.0051555709380823 0.00015 0.013048655853798 0.0051555709380823 0.0003
          0.013084530633285 0.0046685927017207 0 0.013084530633285 0.0046685927017207 0.00015
          0.013084530633285 0.0046685927017207 0.0003
          <InformationKey name="L2_NORM_RANGE" location="vtkDataArray" length="2">
            <Value index="0">
              0.013166738444
            </Value>
            <Value index="1">
              0.023748225859
            </Value>
          </InformationKey>
        </DataArray>
      </Points>
      <Cells>
        <DataArray type="Int64" Name="connectivity" format="ascii" RangeMin="0" RangeMax="794">
          0 1 2 3 4 5
          6 7 4 5 6 7
          8 9 10 11 12 13
          14 15 16 17 18 19
          16 17 18 19 20 21
          22 23 666 667 14 24
          668 669 18 25 668 669
          18 25 670 671 22 26
          24 14 13 27 25 18
          17 28 25 18 17 28
          26 22 21 29 30 31
          3 2 32 33 7 6
          32 33 7 6 34 35
          11 10 36 37 38 39
          40 41 42 43 40 41
          42 43 44 45 46 47
          48 49 50 51 52 53
          54 55 52 53 54 55
          56 57 58 59 60 61
          62 63 64 65 66 67
          64 65 66 67 68 69
          70 71 72 73 672 74
          75 76 673 77 75 76
          673 77 78 79 674 80
          81 82 83 84 85 86
          87 88 85 86 87 88
          89 90 91 92 93 675
          676 677 94 678 679 680
          94 678 679 680 95 681
          682 683 2 96 97 30
          6 98 99 32 6 98
          99 32 10 100 101 34
          102 103 0 104 105 106
          4 107 105 106 4 107
          108 109 8 110 111 112
          113 114 115 116 117 118
          115 116 117 118 119 120
          121 122 123 124 50 125
          126 127 54 128 126 127
          54 128 129 130 58 131
          132 133 134 51 135 136
          137 55 135 136 137 55
          138 139 140 59 141 142
          143 144 145 146 147 148
          145 146 147 148 149 150
          151 152 112 141 144 113
          116 145 148 117 116 145
          148 117 120 149 152 121
          84 83 153 154 88 87
          155 156 88 87 155 156
          92 91 157 158 159 160
          161 38 162 163 164 42
          162 163 164 42 165 166
          167 46 168 169 170 171
          172 173 174 175 172 173
          174 175 176 177 178 179
          684 180 181 685 686 182
          183 687 686 182 183 687
          688 184 185 689 186 104
          0 187 188 107 4 189
          188 107 4 189 190 110
          8 191 690 691 672 73
          692 693 673 76 692 693
          673 76 694 695 674 79
          198 199 200 201 202 203
          204 205 202 203 204 205
          206 207 208 209 210 72
          74 211 212 75 77 213
          212 75 77 213 214 78
          80 215 216 82 81 217
          218 86 85 219 218 86
          85 219 220 90 89 221
          222 216 217 223 224 218
          219 225 224 218 219 225
          226 220 221 227 171 39
          38 161 175 43 42 164
          175 43 42 164 179 47
          46 167 228 696 685 181
          229 697 687 183 229 697
          687 183 230 698 689 185
          231 699 700 701 232 702
          703 704 232 702 703 704
          233 705 706 707 31 30
          201 200 33 32 205 204
          33 32 205 204 35 34
          209 208 234 235 236 237
          238 239 240 241 238 239
          240 241 242 243 244 245
          36 246 247 248 40 249
          250 251 40 249 250 251
          44 252 253 254 83 255
          256 153 87 257 258 155
          87 257 258 155 91 259
          260 157 235 699 231 236
          239 702 232 240 239 702
          232 240 243 705 233 244
          168 171 161 261 172 175
          164 262 172 175 164 262
          176 179 167 263 171 170
          36 39 175 174 40 43
          175 174 40 43 179 178
          44 47 264 265 266 267
          268 269 270 271 268 269
          270 271 272 273 274 275
          237 276 211 234 241 277
          213 238 241 277 213 238
          245 278 215 242 279 160
          237 236 280 163 241 240
          280 163 241 240 281 166
          245 244 234 211 74 282
          238 213 77 283 238 213
          77 283 242 215 80 284
          285 228 181 286 287 229
          183 288 287 229 183 288
          289 230 185 290 291 168
          261 292 293 172 262 294
          293 172 262 294 295 176
          263 296 297 298 256 255
          299 300 258 257 299 300
          258 257 301 302 260 259
          303 304 97 96 305 306
          99 98 305 306 99 98
          307 308 101 100 309 247
          114 113 310 250 118 117
          310 250 118 117 311 253
          122 121 304 312 313 97
          306 314 315 99 306 314
          315 99 308 316 317 101
          282 74 672 708 283 77
          673 709 283 77 673 709
          284 80 674 710 318 303
          96 319 320 305 98 321
          320 305 98 321 322 307
          100 323 285 187 0 3
          287 189 4 7 287 189
          4 7 289 191 8 11
          223 711 712 324 225 713
          714 325 225 713 714 325
          227 715 716 326 327 210
          211 276 328 212 213 277
          328 212 213 277 329 214
          215 278 717 282 708 718
          719 283 709 720 719 283
          709 720 721 284 710 722
          276 237 160 159 277 241
          163 162 277 241 163 162
          278 245 166 165 330 318
          319 331 332 320 321 333
          332 320 321 333 334 322
          323 335 324 336 222 223
          325 337 224 225 325 337
          224 225 326 338 226 227
          292 261 279 339 294 262
          280 340 294 262 280 340
          296 263 281 341 342 343
          210 327 344 345 212 328
          344 345 212 328 346 347
          214 329 696 228 31 200
          697 229 33 204 697 229
          33 204 698 230 35 208
          298 348 349 256 300 350
          351 258 300 350 351 258
          302 352 353 260 336 343
          342 222 337 345 344 224
          337 345 344 224 338 347
          346 226 96 2 1 319
          98 6 5 321 98 6
          5 321 100 10 9 323
          103 354 355 356 106 357
          358 359 106 357 358 359
          109 360 361 362 339 279
          236 231 340 280 240 232
          340 280 240 232 341 281
          244 233 363 364 365 366
          367 368 369 370 367 368
          369 370 371 372 373 374
          375 376 377 378 379 380
          381 382 379 380 381 382
          383 384 385 386 169 168
          291 312 173 172 293 314
          173 172 293 314 177 176
          295 316 216 222 342 387
          218 224 344 388 218 224
          344 388 220 226 346 389
          223 217 723 711 225 219
          724 713 225 219 724 713
          227 221 725 715 160 279
          261 161 163 280 262 164
          163 280 262 164 166 281
          263 167 356 355 330 331
          359 358 332 333 359 358
          332 333 362 361 334 335
          363 390 391 364 367 392
          393 368 367 392 393 368
          371 394 395 372 396 397
          726 690 398 399 727 692
          398 399 727 692 400 401
          728 694 390 402 403 391
          392 404 405 393 392 404
          405 393 394 406 407 395
          235 234 282 717 239 238
          283 719 239 238 283 719
          243 242 284 721 313 201
          30 97 315 205 32 99
          315 205 32 99 317 209
          34 101 248 247 309 348
          251 250 310 350 251 250
          310 350 254 253 311 352
          200 199 729 696 204 203
          730 697 204 203 730 697
          208 207 731 698 408 409
          375 378 410 411 379 382
          410 411 379 382 412 413
          383 386 153 256 349 366
          155 258 351 370 155 258
          351 370 157 260 353 374
          414 408 378 415 416 410
          382 417 416 410 382 417
          418 412 386 419 420 248
          348 298 421 251 350 300
          421 251 350 300 422 254
          352 302 423 327 276 159
          424 328 277 162 424 328
          277 162 425 329 278 165
          426 427 428 429 430 431
          432 433 430 431 432 433
          434 435 436 437 336 324
          438 439 337 325 440 441
          337 325 440 441 338 326
          442 443 667 732 15 14
          669 733 19 18 669 733
          19 18 671 734 23 22
          444 445 446 447 448 449
          450 451 448 449 450 451
          452 453 454 455 415 456
          457 458 417 459 460 461
          417 459 460 461 419 462
          463 464 12 465 408 414
          16 466 410 416 16 466
          410 416 20 467 412 418
          465 403 409 408 466 405
          411 410 466 405 411 410
          467 407 413 412 376 375
          429 428 380 379 433 432
          380 379 433 432 384 383
          437 436 114 468 469 111
          118 470 471 115 118 470
          471 115 122 472 473 119
          37 423 159 38 41 424
          162 42 41 424 162 42
          45 425 165 46 474 475
          390 363 476 477 392 367
          476 477 392 367 478 479
          394 371 429 375 409 480
          433 379 411 481 433 379
          411 481 437 383 413 482
          342 483 297 387 344 484
          299 388 344 484 299 388
          346 485 301 389 348 309
          474 349 350 310 476 351
          350 310 476 351 352 311
          478 353 480 409 403 402
          481 411 405 404 481 411
          405 404 482 413 407 406
          266 265 376 428 270 269
          380 432 270 269 380 432
          274 273 384 436 486 487
          364 391 488 489 368 393
          488 489 368 393 490 491
          372 395 447 446 492 493
          451 450 494 495 451 450
          494 495 455 454 496 497
          483 420 298 297 484 421
          300 299 484 421 300 299
          485 422 302 301 498 267
          63 499 500 271 67 501
          500 271 67 501 502 275
          71 503 378 377 456 415
          382 381 459 417 382 381
          459 417 386 385 462 419
          504 62 505 506 507 66
          508 509 507 66 508 509
          510 70 511 512 513 61
          426 514 515 65 430 516
          515 65 430 516 517 69
          434 518 499 63 62 504
          501 67 66 507 501 67
          66 507 503 71 70 510
          474 363 366 349 476 367
          370 351 476 367 370 351
          478 371 374 353 519 520
          376 265 521 522 380 269
          521 522 380 269 523 524
          384 273 506 505 525 526
          509 508 527 528 509 508
          527 528 512 511 529 530
          531 377 376 520 532 381
          380 522 532 381 380 522
          533 385 384 524 534 535
          536 537 538 539 540 541
          538 539 540 541 542 543
          544 545 546 536 535 547
          548 540 539 549 548 540
          539 549 550 544 543 551
          141 330 355 123 145 332
          358 126 145 332 358 126
          149 334 361 129 327 423
          483 342 328 424 484 344
          328 424 484 344 329 425
          485 346 193 531 520 552
          195 532 522 553 195 532
          522 553 197 533 524 554
          134 555 526 525 137 556
          528 527 137 556 528 527
          140 557 530 529 480 558
          426 429 481 559 430 433
          481 559 430 433 482 560
          434 437 391 403 465 486
          393 405 466 488 393 405
          466 488 395 407 467 490
          465 12 15 561 466 16
          19 562 466 16 19 562
          467 20 23 563 402 390
          475 564 404 392 477 565
          404 392 477 565 406 394
          479 566 567 568 49 514
          569 570 53 516 569 570
          53 516 571 572 57 518
          558 567 514 426 559 569
          516 430 559 569 516 430
          560 571 518 434 564 475
          143 573 565 477 147 574
          565 477 147 574 566 479
          151 575 561 15 732 735
          562 19 733 736 562 19
          733 736 563 23 734 737
          228 285 3 31 229 287
          7 33 229 287 7 33
          230 289 11 35 576 198
          201 313 577 202 205 315
          577 202 205 315 578 206
          209 317 356 331 319 1
          359 333 321 5 359 333
          321 5 362 335 323 9
          1 0 103 356 5 4
          106 359 5 4 106 359
          9 8 109 362 558 480
          402 564 559 481 404 565
          559 481 404 565 560 482
          406 566 699 235 717 738
          702 239 719 739 702 239
          719 739 705 243 721 740
          73 582 396 690 76 583
          398 692 76 583 398 692
          79 584 400 694 741 742
          585 586 743 744 587 588
          743 744 587 588 745 746
          589 590 72 210 343 591
          75 212 345 592 75 212
          345 592 78 214 347 593
          439 591 343 336 441 592
          345 337 441 592 345 337
          443 593 347 338 576 313
          312 291 577 315 314 293
          577 315 314 293 578 317
          316 295 469 169 312 304
          471 173 314 306 471 173
          314 306 473 177 316 308
          594 365 364 487 595 369
          368 489 595 369 368 489
          596 373 372 491 591 439
          396 582 592 441 398 583
          592 441 398 583 593 443
          400 584 564 573 567 558
          565 574 569 559 565 574
          569 559 566 575 571 560
          573 597 568 567 574 598
          570 569 574 598 570 569
          575 599 572 571 747 748
          199 198 749 750 203 202
          749 750 203 202 751 752
          207 206 420 483 423 37
          421 484 424 41 421 484
          424 41 422 485 425 45
          600 486 465 561 601 488
          466 562 601 488 466 562
          602 490 467 563 561 735
          741 600 562 736 743 601
          562 736 743 601 563 737
          745 602 37 36 248 420
          41 40 251 421 41 40
          251 421 45 44 254 422
          594 487 486 600 595 489
          488 601 595 489 488 601
          596 491 490 602 468 170
          169 469 470 174 173 471
          470 174 173 471 472 178
          177 473 264 492 519 265
          268 494 521 269 268 494
          521 269 272 496 523 273
          414 579 13 12 416 580
          17 16 416 580 17 16
          418 581 21 20 154 153
          366 365 156 155 370 369
          156 155 370 369 158 157
          374 373 339 231 701 603
          340 232 704 604 340 232
          704 604 341 233 707 605
          591 582 73 72 592 583
          76 75 592 583 76 75
          593 584 79 78 606 292
          339 603 607 294 340 604
          607 294 340 604 608 296
          341 605 547 609 610 546
          549 611 612 548 549 611
          612 548 551 613 614 550
          60 427 426 61 64 431
          430 65 64 431 430 65
          68 435 434 69 576 291
          292 606 577 293 294 607
          577 293 294 607 578 295
          296 608 615 616 555 134
          617 618 556 137 617 618
          556 137 619 620 557 140
          586 594 600 741 588 595
          601 743 588 595 601 743
          590 596 602 745 83 387
          297 255 87 388 299 257
          87 388 299 257 91 389
          301 259 144 143 475 474
          148 147 477 476 148 147
          477 476 152 151 479 478
          111 469 304 303 115 471
          306 305 115 471 306 305
          119 473 308 307 753 729
          199 748 754 730 203 750
          754 730 203 750 755 731
          207 752 505 62 61 513
          508 66 65 515 508 66
          65 515 511 70 69 517
          756 610 609 757 758 612
          611 759 758 612 611 759
          760 614 613 761 216 387
          83 82 218 388 87 86
          218 388 87 86 220 389
          91 90 285 621 186 187
          287 622 188 189 287 622
          188 189 289 623 190 191
          264 624 493 492 268 625
          495 494 268 625 495 494
          272 626 497 496 726 397
          627 762 727 399 628 763
          727 399 628 763 728 401
          629 764 630 631 181 180
          632 633 183 182 632 633
          183 182 634 635 185 184
          586 154 365 594 588 156
          369 595 588 156 369 595
          590 158 373 596 765 603
          701 766 767 604 704 768
          767 604 704 768 769 605
          707 770 636 637 186 638
          639 640 188 641 639 640
          188 641 642 643 190 644
          125 50 49 568 128 54
          53 570 128 54 53 570
          131 58 57 572 645 638
          186 646 647 641 188 648
          647 641 188 648 649 644
          190 650 534 646 186 621
          538 648 188 622 538 648
          188 622 542 650 190 623
          93 585 742 675 94 587
          744 678 94 587 744 678
          95 589 746 681 48 51
          134 525 52 55 137 527
          52 55 137 527 56 59
          140 529 627 771 772 762
          628 773 774 763 628 773
          774 763 629 775 776 764
          630 180 684 777 632 182
          686 778 632 182 686 778
          634 184 688 779 154 586
          585 84 156 588 587 88
          156 588 587 88 158 590
          589 92 651 286 181 631
          652 288 183 633 652 288
          183 633 653 290 185 635
          186 637 654 104 188 640
          655 107 188 640 655 107
          190 643 656 110 474 309
          113 144 476 310 117 148
          476 310 117 148 478 311
          121 152 63 267 266 60
          67 271 270 64 67 271
          270 64 71 275 274 68
          616 615 654 657 618 617
          655 658 618 617 655 658
          620 619 656 659 627 397
          396 660 628 399 398 661
          628 399 398 661 629 401
          400 662 579 414 415 458
          580 416 417 461 580 416
          417 461 581 418 419 464
          651 631 547 535 652 633
          549 539 652 633 549 539
          653 635 551 543 723 217
          81 780 724 219 85 781
          724 219 85 781 725 221
          89 782 663 446 445 192
          664 450 449 194 664 450
          449 194 665 454 453 196
          142 597 573 143 146 598
          574 147 146 598 574 147
          150 599 575 151 783 747
          198 576 784 749 202 577
          784 749 202 577 785 751
          206 578 48 513 514 49
          52 515 516 53 52 515
          516 53 56 517 518 57
          318 330 141 112 320 332
          145 116 320 332 145 116
          322 334 149 120 651 621
          285 286 652 622 287 288
          652 622 287 288 653 623
          289 290 60 266 428 427
          64 270 432 431 64 270
          432 431 68 274 436 435
          354 124 123 355 357 127
          126 358 357 127 126 358
          360 130 129 361 303 318
          112 111 305 320 116 115
          305 320 116 115 307 322
          120 119 630 777 757 609
          632 778 759 611 632 778
          759 611 634 779 761 613
          468 246 36 170 470 249
          40 174 470 249 40 174
          472 252 44 178 615 102
          104 654 617 105 107 655
          617 105 107 655 619 108
          110 656 786 783 576 606
          787 784 577 607 787 784
          577 607 788 785 578 608
          519 492 446 663 521 494
          450 664 521 494 450 664
          523 496 454 665 637 636
          657 654 640 639 658 655
          640 639 658 655 643 642
          659 656 663 192 193 552
          664 194 195 553 664 194
          195 553 665 196 197 554
          789 438 324 712 790 440
          325 714 790 440 325 714
          791 442 326 716 102 133
          354 103 105 136 357 106
          105 136 357 106 108 139
          360 109 646 534 537 645
          648 538 541 647 648 538
          541 647 650 542 545 649
          525 505 513 48 527 508
          515 52 527 508 515 52
          529 511 517 56 660 396
          439 438 661 398 441 440
          661 398 441 440 662 400
          443 442 765 786 606 603
          767 787 607 604 767 787
          607 604 769 788 608 605
          624 264 267 498 625 268
          271 500 625 268 271 500
          626 272 275 502 468 114
          247 246 470 118 250 249
          470 118 250 249 472 122
          253 252 535 534 621 651
          539 538 622 652 539 538
          622 652 543 542 623 653
          93 81 84 585 94 85
          88 587 94 85 88 587
          95 89 92 589 438 789
          792 660 440 790 793 661
          440 790 793 661 442 791
          794 662 124 132 51 50
          127 135 55 54 127 135
          55 54 130 138 59 58
          663 552 520 519 664 553
          522 521 664 553 522 521
          665 554 524 523 609 547
          631 630 611 549 633 632
          611 549 633 632 613 551
          635 634 125 142 141 123
          128 146 145 126 128 146
          145 126 131 150 149 129
          102 615 134 133 105 617
          137 136 105 617 137 136
          108 619 140 139 142 125
          568 597 146 128 570 598
          146 128 570 598 150 131
          572 599 124 354 133 132
          127 357 136 135 127 357
          136 135 130 360 139 138
          660 792 771 627 661 793
          773 628 661 793 773 628
          662 794 775 629 81 93
          677 780 85 94 680 781
          85 94 680 781 89 95
          683 782
        </DataArray>
        <DataArray type="Int64" Name="offsets" format="ascii" RangeMin="8" RangeMax="3632">
          8 16 24 32 40 48
          56 64 72 80 88 96
          104 112 120 128 136 144
          152 160 168 176 184 192
          200 208 216 224 232 240
          248 256 264 272 280 288
          296 304 312 320 328 336
          344 352 360 368 376 384
          392 400 408 416 424 432
          440 448 456 464 472 480
          488 496 504 512 520 528
          536 544 552 560 568 576
          584 592 600 608 616 624
          632 640 648 656 664 672
          680 688 696 704 712 720
          728 736 744 752 760 768
          776 784 792 800 808 816
          824 832 840 848 856 864
          872 880 888 896 904 912
          920 928 936 944 952 960
          968 976 984 992 1000 1008
          1016 1024 1032 1040 1048 1056
          1064 1072 1080 1088 1096 1104
          1112 1120 1128 1136 1144 1152
          1160 1168 1176 1184 1192 1200
          1208 1216 1224 1232 1240 1248
          1256 1264 1272 1280 1288 1296
          1304 1312 1320 1328 1336 1344
          1352 1360 1368 1376 1384 1392
          1400 1408 1416 1424 1432 1440
          1448 1456 1464 1472 1480 1488
          1496 1504 1512 1520 1528 1536
          1544 1552 1560 1568 1576 1584
          1592 1600 1608 1616 1624 1632
          1640 1648 1656 1664 1672 1680
          1688 1696 1704 1712 1720 1728
          1736 1744 1752 1760 1768 1776
          1784 1792 1800 1808 1816 1824
          1832 1840 1848 1856 1864 1872
          1880 1888 1896 1904 1912 1920
          1928 1936 1944 1952 1960 1968
          1976 1984 1992 2000 2008 2016
          2024 2032 2040 2048 2056 2064
          2072 2080 2088 2096 2104 2112
          2120 2128 2136 2144 2152 2160
          2168 2176 2184 2192 2200 2208
          2216 2224 2232 2240 2248 2256
          2264 2272 2280 2288 2296 2304
          2312 2320 2328 2336 2344 2352
          2360 2368 2376 2384 2392 2400
          2408 2416 2424 2432 2440 2448
          2456 2464 2472 2480 2488 2496
          2504 2512 2520 2528 2536 2544
          2552 2560 2568 2576 2584 2592
          2600 2608 2616 2624 2632 2640
          2648 2656 2664 2672 2680 2688
          2696 2704 2712 2720 2728 2736
          2744 2752 2760 2768 2776 2784
          2792 2800 2808 2816 2824 2832
          2840 2848 2856 2864 2872 2880
          2888 2896 2904 2912 2920 2928
          2936 2944 2952 2960 2968 2976
          2984 2992 3000 3008 3016 3024
          3032 3040 3048 3056 3064 3072
          3080 3088 3096 3104 3112 3120
          3128 3136 3144 3152 3160 3168
          3176 3184 3192 3200 3208 3216
          3224 3232 3240 3248 3256 3264
          3272 3280 3288 3296 3304 3312
          3320 3328 3336 3344 3352 3360
          3368 3376 3384 3392 3400 3408
          3416 3424 3432 3440 3448 3456
          3464 3472 3480 3488 3496 3504
          3512 3520 3528 3536 3544 3552
          3560 3568 3576 3584 3592 3600
          3608 3616 3624 3632
        </DataArray>
        <DataArray type="UInt8" Name="types" format="ascii" RangeMin="12" RangeMax="12">
          12 12 12 12 12 12
          12 12 12 12 12 12
          12 12 12 12 12 12
          12 12 12 12 12 12
          12 12 12 12 12 12
          12 12 12 12 12 12
          12 12 12 12 12 12
          12 12 12 12 12 12
          12 12 12 12 12 12
          12 12 12 12 12 12
          12 12 12 12 12 12
          12 12 12 12 12 12
          12 12 12 12 12 12
          12 12 12 12 12 12
          12 12 12 12 12 12
          12 12 12 12 12 12
          12 12 12 12 12 12
          12 12 12 12 12 12
          12 12 12 12 12 12
          12 12 12 12 12 12
          12 12 12 12 12 12
          12 12 12 12 12 12
          12 12 12 12 12 12
          12 12 12 12 12 12
          12 12 12 12 12 12
          12 12 12 12 12 12
          12 12 12 12 12 12
          12 12 12 12 12 12
          12 12 12 12 12 12
          12 12 12 12 12 12
          12 12 12 12 12 12
          12 12 12 12 12 12
          12 12 12 12 12 12
          12 12 12 12 12 12
          12 12 12 12 12 12
          12 12 12 12 12 12
          12 12 12 12 12 12
          12 12 12 12 12 12
          12 12 12 12 12 12
          12 12 12 12 12 12
          12 12 12 12 12 12
          12 12 12 12 12 12
          12 12 12 12 12 12
          12 12 12 12 12 12
          12 12 12 12 12 12
          12 12 12 12 12 12
          12 12 12 12 12 12
          12 12 12 12 12 12
          12 12 12 12 12 12
          12 12 12 12 12 12
          12 12 12 12 12 12
          12 12 12 12 12 12
          12 12 12 12 12 12
          12 12 12 12 12 12
          12 12 12 12 12 12
          12 12 12 12 12 12
          12 12 12 12 12 12
          12 12 12 12 12 12
          12 12 12 12 12 12
          12 12 12 12 12 12
          12 12 12 12 12 12
          12 12 12 12 12 12
          12 12 12 12 12 12
          12 12 12 12 12 12
          12 12 12 12 12 12
          12 12 12 12 12 12
          12 12 12 12 12 12
          12 12 12 12 12 12
          12 12 12 12 12 12
          12 12 12 12 12 12
          12 12 12 12 12 12
          12 12 12 12 12 12
          12 12 12 12 12 12
          12 12 12 12 12 12
          12 12 12 12 12 12
          12 12 12 12
        </DataArray>
      </Cells>
    </Piece>
  </UnstructuredGrid>
</VTKFile>
