<?xml version="1.0"?>
<VTKFile type="UnstructuredGrid" version="0.1" byte_order="LittleEndian" header_type="UInt32" compressor="vtkZLibDataCompressor">
  <UnstructuredGrid>
    <Piece NumberOfPoints="819" NumberOfCells="454">
      <PointData>
        <DataArray type="Int32" Name="libmesh_node_id" format="ascii" RangeMin="2316" RangeMax="5735">
          2316 2317 2318 2319 2320 2321
          2322 2323 2324 2325 2326 2327
          2433 2434 2435 2436 2437 2438
          2439 2440 2441 2442 2443 2444
          2598 2599 2600 2601 2602 2603
          2643 2644 2645 2646 2647 2648
          2649 2650 2651 2709 2710 2711
          2712 2713 2714 2715 2716 2717
          2718 2719 2720 2766 2767 2768
          2769 2770 2771 2772 2773 2774
          2775 2776 2777 2808 2809 2810
          2811 2812 2813 2814 2815 2816
          2817 2818 2819 2852 2853 2856
          2857 2860 2861 2970 2971 2973
          2974 2976 2977 2991 2994 2995
          2998 2999 3002 3081 3082 3083
          3084 3085 3086 3087 3088 3089
          3090 3091 3092 3187 3190 3193
          3241 3243 3245 3270 3271 3272
          3312 3313 3314 3315 3316 3317
          3495 3496 3497 3498 3499 3500
          3501 3502 3503 3504 3505 3506
          3765 3766 3767 3768 3769 3770
          3852 3853 3854 4470 4471 4472
          4584 4585 4586 4587 4588 4589
          4635 4636 4637 4638 4639 4640
          4641 4642 4643 4644 4645 4646
          4659 4660 4661 4662 4663 4664
          4722 4723 4724 4782 4783 4784
          4791 4792 4793 4794 4795 4796
          4797 4798 4799 4812 4813 4814
          4815 4816 4817 4818 4819 4820
          4833 4834 4835 4836 4837 4838
          4848 4849 4850 4851 4852 4853
          4896 4897 4898 4899 4900 4901
          4911 4912 4913 4935 4936 4937
          4938 4939 4940 4944 4945 4946
          4947 4948 4949 4950 4951 4952
          4953 4954 4955 4956 4957 4958
          4992 4993 4994 5007 5008 5009
          5010 5011 5012 5013 5014 5015
          5016 5017 5018 5019 5020 5021
          5025 5026 5027 5028 5029 5030
          5040 5041 5042 5043 5044 5045
          5055 5056 5057 5073 5074 5075
          5079 5080 5081 5088 5089 5090
          5094 5095 5096 5103 5104 5105
          5151 5152 5153 5160 5161 5162
          5169 5170 5171 5178 5179 5180
          5187 5188 5189 5202 5203 5204
          5205 5206 5207 5208 5209 5210
          5211 5212 5213 5214 5215 5216
          5217 5218 5219 5220 5221 5222
          5223 5224 5225 5226 5227 5228
          5229 5230 5231 5232 5233 5234
          5235 5236 5237 5238 5239 5240
          5241 5242 5243 5244 5245 5246
          5247 5248 5249 5253 5254 5255
          5256 5257 5258 5259 5260 5261
          5262 5263 5264 5265 5266 5267
          5268 5269 5270 5271 5272 5273
          5274 5275 5276 5280 5281 5282
          5283 5284 5285 5286 5287 5288
          5289 5290 5291 5292 5293 5294
          5295 5296 5297 5298 5299 5300
          5301 5302 5303 5307 5308 5309
          5310 5311 5312 5313 5314 5315
          5316 5317 5318 5319 5320 5321
          5322 5323 5324 5325 5326 5327
          5328 5329 5330 5334 5335 5336
          5337 5338 5339 5340 5341 5342
          5343 5344 5345 5346 5347 5348
          5349 5350 5351 5352 5353 5354
          5355 5356 5357 5358 5359 5360
          5361 5362 5363 5364 5365 5366
          5367 5368 5369 5370 5371 5372
          5373 5374 5375 5376 5377 5378
          5379 5380 5381 5382 5383 5384
          5385 5386 5387 5388 5389 5390
          5391 5392 5393 5394 5395 5396
          5397 5398 5399 5400 5401 5402
          5403 5404 5405 5406 5407 5408
          5409 5410 5411 5412 5413 5414
          5415 5416 5417 5418 5419 5420
          5421 5422 5423 5424 5425 5426
          5427 5428 5429 5430 5431 5432
          5433 5434 5435 5436 5437 5438
          5439 5440 5441 5442 5443 5444
          5445 5446 5447 5448 5449 5450
          5451 5452 5453 5454 5455 5456
          5457 5458 5459 5460 5461 5462
          5463 5464 5465 5466 5467 5468
          5469 5470 5471 5472 5473 5474
          5475 5476 5477 5478 5479 5480
          5481 5482 5483 5484 5485 5486
          5487 5488 5489 5490 5491 5492
          5493 5494 5495 5496 5497 5498
          5499 5500 5501 5502 5503 5504
          5505 5506 5507 5508 5509 5510
          5511 5512 5513 5514 5515 5516
          5517 5518 5519 5520 5521 5522
          5523 5524 5525 5526 5527 5528
          5529 5530 5531 5532 5533 5534
          5535 5536 5537 5538 5539 5540
          5541 5542 5543 5544 5545 5546
          5547 5548 5549 5550 5551 5552
          5553 5554 5555 5556 5557 5558
          5559 5560 5561 5562 5563 5564
          5565 5566 5567 5568 5569 5570
          5571 5572 5573 5574 5575 5576
          5577 5578 5579 5580 5581 5582
          5583 5584 5585 5586 5587 5588
          5589 5590 5591 5592 5593 5594
          5595 5596 5597 5598 5599 5600
          5601 5602 5603 5604 5605 5606
          5607 5608 5609 5610 5611 5612
          5613 5614 5615 5616 5617 5618
          5619 5620 5621 5622 5623 5624
          5625 5626 5627 5628 5629 5630
          5631 5632 5633 5634 5635 5636
          5637 5638 5639 5640 5641 5642
          5643 5644 5645 5646 5647 5648
          5649 5650 5651 5652 5653 5654
          5655 5656 5657 5658 5659 5660
          5661 5662 5663 5664 5665 5666
          5667 5668 5669 5670 5671 5672
          5673 5674 5675 5676 5677 5678
          5679 5680 5681 5682 5683 5684
          5685 5686 5687 5688 5689 5690
          5691 5692 5693 5694 5695 5696
          5697 5698 5699 5700 5701 5702
          5703 5704 5705 5706 5707 5708
          5709 5710 5711 5712 5713 5714
          5715 5716 5717 5718 5719 5720
          5721 5722 5723 5724 5725 5726
          5727 5728 5729 5730 5731 5732
          5733 5734 5735
        </DataArray>
        <DataArray type="Float64" Name="resid_x" format="ascii" RangeMin="-0.009903550484912316" RangeMax="46.971666221458285">
          -0.00014052804424125043 -0.000037337286267202785 0.000001901400541459708 0.00001060651348083752 -0.000296654761656967 -0.00013479275727412698
          -0.00015781360567146407 -0.0002983482304941276 -0.0018497866338993418 -0.0011475718685076686 -0.0009296865530181719 -0.0017919368906493816
          -0.000010425555425186417 0.000140306025350867 0.00035639027947453883 0.00044631273947359773 -0.0001577228946230136 0.00006649363354505056
          -0.0002967671766294089 0.00009119414545111226 -0.0018746920360932506 -0.0025331221611732957 -0.004263604602092741 -0.0034877675186879564
          -0.0017721097052447732 -0.0010351057301277722 -0.00015391638986272937 0.00006290959144628072 -0.0028852427590440044 -0.0023217812820096606
          -0.0006087719144325376 -0.0011280406024951617 -0.00260968931369554 -0.00007682838800704417 -0.0012430541493735348 -0.00021117835545503283
          -0.0038094093352771807 -0.004419087973380087 -0.003611026348671942 -0.00001779992951794762 0.000056235649841696045 0.000023977005260800155
          0.00021316162297502217 -0.00019559178204101024 -0.00024446380127240985 -0.00028416235476047547 0.00003277059311912467 -0.0013287965275308178
          -0.0008802538621583977 -0.0014785866757289767 -0.0018608497069045882 -0.000014344040219604892 0.000008102236567886223 -0.00019092980180435148
          -0.0001232762913216945 -0.00023152563493678002 -0.00009187605981519908 0.000018079338717669202 -0.00042441573738916105 -0.000664612048820068
          -0.0006952989607649229 -0.0008771388431498828 -0.0016352118823448336 -0.0015209345984681377 -0.00047701546746736767 -0.0018095850321451223
          -0.000638882406850172 -0.0001315651702249454 -0.0005221380566826639 -0.0024517196627100724 -0.0021515245014605 -0.003678204826574216
          -0.002153135484977753 -0.00006973657781550457 -0.0021519541294896527 -0.0028243806644665526 -0.0012656763250218361 -0.0018178848865826325
          -0.0007913907347738558 -0.0028929811218816326 -0.0017575392542363844 -0.003198151879342248 -0.0025346180520902095 -0.00035158340532603916
          -0.0035075284324292966 -0.0026714174551951686 -0.003149304878954595 -0.0012452599182060098 -0.0011490994792300313 -0.002242387782823485
          -0.0023411731104179268 -0.001479680416689888 -0.001418438330135885 -0.0003428571215211562 0.00001979115861794334 0.0002375599279269558
          0.00009947629176376704 -0.00007028324841229505 -0.0000025027036357760934 -0.000017692067665553424 -0.00007744438509355023 -0.001637761916682301
          -0.0014191356303123737 -0.00291934734773891 -0.002782041733803031 -0.002875920212926708 -0.003664226167455098 -0.0022156806427959808
          -0.0010754081402817306 -0.0023415612358483884 -0.0015069420607058959 -0.0020883459941867244 -0.0027659785510536494 -0.0028594833151665
          -0.0012475823727458035 -0.0006776263546406369 -0.00020746827465023543 -0.00023262931494860695 -0.002098048320884338 -0.0014190884104290369
          -0.0015916880031738856 -0.000002571690336239385 0.00016317619154193608 -0.0011045240457114858 -0.0033869759718356818 -0.000032225456084944426
          0.0002661953302895981 -0.0033286315950142864 -0.0025100567798066464 -0.0012482307850643082 -0.0013364054968114658 -0.0031218010343199154
          -0.0018401136761507786 -0.0013056549459279365 -0.0006433288584872798 -0.0004822447607241154 -0.0016477830989920506 -0.0013427737040366816
          -0.0006163269330334842 -0.000495593785899473 -0.0007109793995230262 -0.0007006070807591414 -0.00014642250601326623 -0.0011558876679051977
          -0.0021178737719935725 -0.0014699713862471597 -0.0032565236812942544 -0.0027449431741093377 -0.0018063729914024051 -0.001357831216599159
          -0.00045914501576538314 -0.00012852922484807294 -0.00027958648626646987 -0.00020746410328875697 -0.0004091193219902811 -0.00009847645872174127
          -0.0010560738998113273 -0.0012071059774312332 -0.00043420127958615495 -0.0004711928306111446 -0.0019375834565709127 -0.0012963885449543966
          -0.0010504010355179005 -0.0004618425063567244 -0.0006994042667827216 -0.00233231209000051 -0.00047193263212719216 -0.0018030323671922588
          -0.0012752746290800587 -0.00022196318848966 -0.0007653290132239032 -0.0030824190994906964 -0.0006515521835113169 -0.0017569104972707805
          -0.0017660471144615997 -0.0014193953284369343 -0.001151093314733842 -0.00008691566404417372 -0.0008284291708022806 -0.0007060453606966277
          -0.0018392624059213603 -0.0007530782264035807 -0.0013720645055057545 -0.0022611345308565234 -0.00039745347670105957 -0.0014836066812655702
          -0.0022375985921874175 -0.0014518874000608584 -0.000263074242834449 -0.0003225484035560555 -0.0012961278150269706 -0.0016166126606718123
          -0.0004643175938392474 -0.00032860441055415635 0.0000016168258234472432 -0.00036944880796152546 -0.002531847613854943 -0.0023754826323525435
          -0.0005674076414337037 0.00008179902147187335 -0.00007398020916049575 0.0000012961618782725282 -0.0005905152095388999 0.0001586378308484626
          -0.0011810786510824123 -0.0004466235733238122 -0.001081409341430195 -0.0011802433877559082 -0.002036750070221416 -0.0013087763098376115
          -0.0029255433790567054 -0.0032744944758889005 -0.002688569947698838 -0.0010587208328027842 -0.00037048255143945497 -0.00033173538126707314
          -0.00000579154791946479 -0.0010074973696916345 -0.00020774897776876244 -0.000005648614507691718 0.00019126199337637928 -0.000011364422783710637
          0.0004300117622855204 -0.0005042874411160803 -0.00005874056017596274 -0.0012044443195700083 -0.0008759393404305094 -0.001105347574152482
          -0.0003217076321946344 -0.0002406661685605549 -0.0003876325887151033 -0.0007208873978941099 -0.0007083717730824723 -0.0006454929252202035
          -0.0004254420112439483 0.0003126344021104899 -0.00019947720808843883 -0.0029939693550922186 -0.0018689286819686401 -0.0005066616457245487
          -0.0004875997895750217 -0.0013954773472795168 -0.0018549647151213655 0.00019480257827497738 -0.00015148617312021884 0.00003646709977145335
          -0.00018058425193601124 -0.00016194012021619741 -0.00006289514926827167 -0.0003903423569178166 0.0001577680547928395 -0.000166362990381419
          -0.0007536709096993555 0.0001474903546547779 -0.00028490530345903764 -0.001855573335047822 -0.00045340807132099314 -0.0009443882792332658
          0.00033189347043371953 0.0001977441942750957 0.000385094654049567 0.00045333526445379135 0.0002597932327734753 0.00014452041013424122
          -0.00010566049938276478 0.00026529471642522395 -0.000050517425404628113 0.0005143548192672043 0.000423579582492728 0.0003830170799927757
          -0.002605025094584157 -0.00046410293863807794 -0.0013563224038009025 0.0005245722754336768 0.00034762966916712656 0.0002565223804884553
          0.0002092562995792413 0.00039273297321607004 0.00016499519478596625 0.00033526509449366415 0.0011414065341881496 -0.00034829567107053094
          -0.003031168518026206 -0.0022290874231920554 -0.0015159757528060425 -0.00185426736616634 -0.000830272599273485 -0.0011688564593335116
          -0.0009089938712421031 -0.00025188572617906857 -0.0010430313244214062 -0.0015669536017952623 -0.0021331717602492972 -0.001848428540228042
          -0.0007540782982378147 -0.00023893773097327653 -0.0005873434118317533 -0.0014980510421551685 -0.0007116698613103267 -0.0032471779213025798
          -0.0013120656704579403 -0.0024896318549672003 -0.0009936455145176382 0.00010798048382021364 0.0001828618694030837 0.00021589555144707617
          0.0002867208551950995 -0.0008700295623444987 -0.0001571253502774539 -0.0007625721915385242 -0.0001285310071992285 -0.00038656962628813574
          0.0001916562656898435 -0.001821695778929211 -0.0010173849557713055 -0.001083585011297572 -0.00035329855458954285 0.000115509056044516
          0.00025435917582861123 -0.0016584139107180818 -0.0006260915102327402 -0.0016138947993269426 -0.0007796196528548904 0.0000796457358429592
          0.0002941367003508333 -0.000664422898955408 0.0000897207895853569 -0.0010118846400271053 -0.000326472263491695 0.000048340776370281446
          0.00014737381111018522 0.00043809785426063286 0.000979716073652881 0.00020120662117051324 0.0007773768997125785 0.00005740683195298857
          0.00004595303711774079 0.0001927689055829518 0.000923355168445994 0.0003105940680896424 0.0010122561708634237 0.00008833590042378603
          0.00021229815169299115 -0.00043867634437333436 0.0003658136897097819 -0.002310534575457268 -0.0035201215165159283 -0.0033394354661524517
          -0.000313702746401745 0.00019120345085177348 -0.0014718929343757736 -0.0014804224721114423 -0.00042321082790763853 -0.002748937868526369
          -0.0021065010284715413 0.00026386883913787074 -0.0024542166362664375 -0.00260430210618523 0.00028886409206307917 -0.0015717694810604144
          -0.0018766518755253259 0.00007314522776269428 -0.0010824395918813678 -0.001124737060486325 -0.00008784740825262816 -0.0021559915891771197
          -0.0016496882317120765 0.00011915795449368716 -0.003999825198455653 -0.0023000481037911413 -0.002979311124441608 -0.003023995190254425
          -0.000604150555664873 0.0002575366916630628 -0.0016732186267010007 -0.002077912249042413 -0.00017660326852109165 -0.0025064156795853165
          -0.002469310655069279 0.00021056406481889667 -0.0018394129042889062 -0.0024522441128187467 0.0002013039357642299 -0.0012527952100391815
          -0.0018916673016757812 0.0001897002128483649 -0.0014254292263125024 -0.002001684746437249 0.00003365415643585834 -0.002480366008528634
          -0.002423070777878067 0.0002799785908713659 -0.003901403571607176 -0.0019340669506959784 -0.0019609913354941 -0.0025764906534320176
          -0.0006070225614429603 0.00034520692869932645 -0.0016372745806538802 -0.0020994572363051134 0.000044284097015179213 -0.0019481930649991597
          -0.0020252321264511153 0.0003544034503555338 -0.0010941504325838736 -0.0017379545420315168 0.00033963186089813746 -0.0007109481940030804
          -0.0013890101907563235 0.0003177819830124662 -0.000997464949691107 -0.0015487067861279513 0.000013440655246554911 -0.0017670360526977902
          -0.0016866616729025452 0.0004222564883598068 -0.0022418949490656814 -0.001415938617011392 -0.0006714653279118465 -0.0029641815885703693
          -0.00047747840555700805 0.0004979150757193906 -0.0019384334674548143 -0.00220346638323754 0.00031100090923175117 -0.001983486368379417
          -0.001984032195606389 0.0006152364811651267 -0.0010936718112191102 -0.0016199432311143624 0.0005699321055949724 -0.0008394902207342625
          -0.001449612348967122 0.0005204390857862506 -0.0008209879569509582 -0.0013070440980413878 0.0002604015070790666 -0.0012579051222978421
          -0.0011056691554838238 0.0005057774256620462 -0.0016221303255576913 -0.0025812617326526066 0.00028792052071224816 -0.002377345619843041
          -0.0006093949932015619 0.0005510736493476998 -0.0031071471194774603 -0.00044640244170679466 0.0007288223880834721 -0.0020268401110055123
          -0.0024319238707146695 0.0006678840954972287 -0.0019492338462381298 -0.0023783111173028004 0.0010179200329147875 -0.0010669340345401679
          -0.001920206188309237 0.0009302757199218803 -0.000905569994259281 -0.0017760796450616567 0.0007476124874212786 -0.0005787904615512929
          -0.0014797619486675018 0.0003898321584703268 -0.0004368183176257645 -0.0006467684930591133 0.000502512678639988 -0.00030671013306182715
          -0.0014560165193273633 -0.0011894173486268755 -0.0022422818493943453 -0.0005662873224849818 0.0007024231785415225 -0.0014634134564968093
          -0.0015167846353900671 0.0009808046166277506 -0.001514795190411533 -0.0021801043444629187 0.0014838794957530155 -0.0007798279541137987
          -0.0020594637330919596 0.001683017733117964 -0.00043663578858854635 -0.0016495264602411908 0.0015357163550984154 -0.0005251783034516677
          -0.0015432487854782906 0.0011562994659346515 -0.0005575658635095238 -0.0016791352580511898 0.000551131081530265 -0.001019407416418261
          -0.0015288779464679436 0.000307312099923962 -0.0013053491038093057 -0.0019215777117445043 -0.0023688109806059288 -0.002059499184799307
          -0.00031965251393195615 0.0008090189066134457 -0.00022159269619947963 -0.000542545659181215 0.001800080800583359 -0.00013639228412820614
          -0.0007727763960279077 0.002654364427051803 0.00032405888238606906 -0.001109509335270431 0.0028135525959811503 0.0004812293512799215
          -0.0009814162649188773 0.002469589803112626 0.0005566723292034226 -0.0009826356648865442 0.0016448337945540459 0.00041133715875307786
          -0.001757420689095568 0.00022519666755016488 -0.00039692745687247566 -0.0019114056625912923 -0.00043104115785919106 -0.0008515196981973006
          -0.0009980569132164163 -0.001599586420169885 -0.0014139858710411346 -0.002700339490102621 -0.004568788873100971 -0.002457234948435527
          -0.004420657188603627 -0.007279714402422144 -0.0038149611403994754 -0.005960316872318572 -0.009136378083288932 -0.004731379858375462
          -0.00661169865061062 -0.009903550484912316 -0.004820771297003645 -0.005928322698780519 -0.009321971254678374 -0.004264344849223889
          -0.004484257926380408 -0.007506848524663212 -0.003239092953862155 -0.0031425767055290876 -0.005162338318664084 -0.0021184465267483077
          -0.0017052090533598019 -0.0026785944015896845 -0.0010261195592917716 0.0004216850329665789 -0.00046532763157891566 0.0001347678508540895
          -0.000031482224571277584 0.0012127119226761351 0.00026413142357384345 -0.0036490837736717907 -0.0001257693283402972 -0.0031990084858541934
          -0.0038004402373683632 0.00010410273798733272 -0.004050259912576237 -0.0024313658008878747 0.0002455477244769355 -0.0019462947030586264
          -0.0017565937784951302 0.00033866205519927917 -0.0013610771683776335 -0.0005156581815199957 0.00020656461658141723 0.00010873887339712951
          -0.0015600956576218294 0.00006759632986153008 -0.0005286409771887435 -0.001802530711549899 -0.0005094527902285151 -0.0005459856355685133
          -0.0007342793141482673 -0.001209338358720835 -0.00018408941782599442 0.0008050767821519145 0.00018663926634943095 0.00007021567067866386
          0.00013205970109453347 0.0017623019554164898 0.0003844928921044044 -0.0033971765977351964 0.00005732463156427059 -0.00244101512720718
          -0.004567770214711331 0.0003641315442823867 -0.003077452650988022 -0.002446865752213867 0.00040284701678139356 -0.0015053032788632237
          -0.0018704590283959988 0.0004910433509159873 -0.00032412601874831637 -0.00020637284334590333 0.0003932155394963388 0.0006334342235287949
          -0.0009871626581343662 0.0002120307812205624 0.00039553100207001535 -0.0012540502765094885 -0.0004554394853348853 -0.00029053992154004504
          -0.00016912642778610376 -0.0008497476258995107 0.00009436357983005905 0.001417750653846639 0.00021938074934979568 0.000024925118285779035
          0.00011266112929853023 0.00018080546549015253 -0.0012770900475480573 -0.002554414751912759 0.00005759728616183679 -0.002494982084428443
          -0.0039853083168530645 0.00038261685454266114 -0.0020686280149408987 -0.0019206538322507072 0.00039474373663495044 -0.0010223110436022864
          -0.0013920534178311073 0.0004346988925032491 0.0005151358832780062 0.00039074700698193965 0.00036124610696397497 0.0018456521831016204
          -0.000025185507356084713 0.00007442640268529033 0.0009235287063340536 -0.00047321233901520543 -0.000410395788607687 0.00027955340650187566
          0.0004869883172666789 -0.0006192318118607432 0.00017497332093885376 0.0008496195025866626 -0.0012216544264020968 0.000016136560038404468
          0.0000802666413761699 -0.0005185259755897675 -0.0012600846556622969 -0.0026090316830273963 0.00021612390647085533 -0.0010465720054035899
          -0.0024027447414081138 0.00032221954936417774 -0.001441348636195272 -0.001467104944827824 0.0004902557594768098 0.0002621471500425798
          -0.00008447637944541952 0.0003416720735280876 0.00037374444395332773 0.001092255700536171 0.0004018419927032113 0.0029754597824496187
          0.0011508029394473596 -0.00001774867231674193 0.0015352649472948343 0.000032959328493120665 -0.0004364980031734689 0.00016588347076762489
          0.0007626104669897771 -0.00037787243165254836 0.00021366458266847133 0.0001873852029135037 0.0004825935725492059 -0.00007921512289144061
          -0.000002603494783315341 0.001601893915186281 0.0021570977647424883 -0.0023997614376511933 0.0002930957095514941 -0.0008730995748340575
          -0.001680997512854887 0.00044194973782651914 0.00027143585388778035 -0.001064832248756531 0.0002576331463028936 -0.0007136126586395619
          0.0007934310768948905 0.0003258575365148175 0.0018962241405873215 0.0021642809034378985 0.00012748163802100976 0.0022059238538503223
          0.0017792790393578173 0.00010839499795700647 0.0021137100127237574 0.0004829923718006057 -0.00045189586357707867 -0.0001546361372373184
          0.0004641727843495147 -0.00023658202665899353 -0.000058020890080001664 -0.00008411273172015399 0.00022359776545144427 0.000045608092415605483
          0.000030415688003770924 -0.0003374364722432688 -0.0011692920825847608 -0.0001982868296384055 0.0004512209310973958 -0.0010358876441678433
          -0.0015934638298169546 0.0003803016812931048 -0.00042307629406579395 0.0006466653660304189 0.0002462465043748807 0.0006887118552150184
          0.000057893425916333285 0.00025670004515987443 0.00035074318605055055 0.0030176833883750476 0.00021329598355102064 0.002745208291996093
          0.0019278830000306613 -0.00007703083845100878 0.0012375466085963183 0.000459175463186412 -0.00019141993458759998 -0.00014801693992794185
          0.0002797859733796315 -0.0002366407068219445 -0.00042114992123565287 -0.0011069482224908 -0.002646366755724827 0.0011513758407986074
          0.0019176839278021163 0.000223819782197765 0.0009602249279474506 -0.0007340369621182674 0.0020207560754545995 0.001632476172407138
          0.0015842974503925689 0.0022348306395656437 0.0008141719051355523 -0.00005836477893872427 0.002020236111116347 0.001473833383709433
          0.0030126742719591704 0.0020861236336742195 0.0010545389276401806 0.001965173672568099 0.001100378466459162 0.00183478524206393
          0.0022616652032372286 0.00028498264344278823 0.0012509768671638 0.00011769902322811276 -0.00018201296598796546 -0.00040073398203510635
          0.00019282357785677107 -0.00012415277246802248 -0.000311566851955547 4.668761614666176 8.716132274883341 9.261846003071414
          16.430079946015436 6.038016029021958 9.789659050050354 3.477172674713392 4.733830690035938 1.0420622362831757
          0.0019273842521858597 0.005490133246020434 -0.0005475115392918894 0.0019050324436058474 0.00338462013795926 -0.0004647568805218327
          0.0012980741905899151 0.0016544082117153636 -0.0006739141394351833 0.0023857307105483727 0.0007695340952800223 -0.0002808213984302199
          0.0015245419314577902 0.0006258051642049622 -0.00038783733419833766 0.00037502827496638247 0.0005591383831102803 -0.00030556392830760615
          0.0002683538060495039 0.0005207988651729778 0.00006205855030039231 6.874864462446553 15.87474267009602 13.924171098976128
          31.644411934282743 13.157108941651993 26.25066405859496 21.5315091956288 42.13847170262865 23.244693043416355
          23.48386967884033 46.971666221458285 23.52464646362018 23.10750982576556 46.215005248462376 23.104514976133913
          21.988294990251276 43.97718705023395 21.98704960208877 20.6445721649094 41.28805181507793 20.64000229296903
          19.28611276645066 38.571672335188055 19.28235112684751 18.26218519154844 36.523735376316225 18.255885488888293
          8.961193958602372 17.92194562692667 8.956966857208013
        </DataArray>
        <DataArray type="Float64" Name="resid_y" format="ascii" RangeMin="-3.252116841621941" RangeMax="3.447796262628434">
          -0.00013712529491771708 -0.0000744470731677549 0.00010085425529498745 0.00022739105542246563 -0.0003136292041555633 -0.0001724528781990864
          0.00009465915212231515 -0.00015216482227235761 -0.000310151673035608 -0.0016915140289003039 -0.001290710526765864 -0.0016408486920666265
          -0.000018082741570127348 -0.00016427436026766364 -0.00014724963691636894 -0.0001398065155663042 -0.000004982621849114466 0.000023159619727116873
          0.000049987543677854074 -0.0002949005165824581 0.0005241656455454644 0.001120090815305834 0.000894985374353896 0.0003922848610030949
          -0.0009841835863626802 -0.0007513730153657569 -0.0002815238155370603 0.00009096315166736563 0.0004541240038068439 0.00008486007619238484
          0.0005585181077125689 0.0009201970728179021 0.0001598230153013469 0.0001326009107969206 0.0009958798445571793 -0.000046992025242192925
          0.0009904874895139137 0.0008745827603682532 0.0006415229745206641 -0.000008391203355922333 -0.00004538411169400895 -0.00002384551301698023
          -0.00018106093939204704 0.00007856424752522226 0.00021850196556880488 0.0000611660624077583 0.0003134807508204107 0.000971871148961502
          0.0008907152226239716 0.001654370634657374 0.0017756213451249128 -0.000002605937758731053 -0.00004323026642864304 0.0006581907259391789
          -0.00012944474218505586 0.00008926419816885408 -0.00003535220028694393 0.0005887160184396886 0.00018318006607167397 0.0006368359780281789
          0.0007840731847321616 0.0015441712942153261 0.0013467319248535795 0.00005832999680576486 -0.0003418242334481958 0.00013738864936510553
          -0.00009298722059732263 -0.00017000505402431365 -0.000023585293334654756 0.0009700031179892257 0.00133353762073124 0.0013597817274313556
          -0.000003977993779380462 -0.00025290136760802717 0.0008658903637462911 0.00038206392239786835 -0.000020747545925015043 -0.00032627673790985856
          0.0001184623286945019 0.0006928557220307052 0.0010436722604043602 0.001993762057400872 0.0013711886149944327 0.0017216429394120158
          0.0008409274151218796 0.001032835325805559 0.0005770388073940771 0.0014130649611558046 0.0014748581567688539 0.0019489598644712482
          0.0031987986313867997 0.0015519680359202242 0.002194113940973755 0.00006199658336930591 -0.00009942634574906101 -0.000289681101841716
          -0.00010686360708245593 0.00007574559356771787 0.000025031653522411546 0.00043042402984640963 -0.00001622139669948952 0.001685507622883206
          0.00168703101920634 0.0029647838679637386 0.002218356356478088 0.0023979519858143943 0.0028359475111418217 0.0017461699339411298
          0.0019394456191927749 0.004072444554340478 0.002525511998324355 0.0006598299940880903 0.0004964960920158523 0.0008855293000631925
          0.00004760775150952634 0.0006408989237785406 0.00008270722019794452 0.00022679260248782696 0.000720711931914711 0.0007898284491720808
          0.0001836517428878831 -0.00000818587401257842 -0.00010786694547492565 0.00009232633066834361 0.0003915363523522286 0.00013787050314900684
          0.00021282991780785868 0.0008465343911722434 0.0011411125987414728 0.001278285099613627 0.0018235193548313544 0.0019589088220148543
          0.0010177692721056314 0.0004453534642189991 0.0003614501994817082 -0.00006890462427541419 0.0004134360961280392 -0.00019568549726135115
          -0.00019779501693550916 -0.0005510771017284283 0.0005463080403843718 0.0010345424068314325 0.00036836857408440414 0.0013809825635950589
          0.0013878748630098067 0.001239712099086127 0.0017627754375458132 0.0019229548961036264 0.001374009278917565 0.0011091424682547722
          0.00018309851919983376 -0.000006768157775590214 0.00020113304132795152 -0.000038500182426121424 0.00022542155958465157 0.000010083953401820306
          0.000155185243093596 0.0005233353814796116 0.000001858203988272869 0.0005645247534935144 0.0015838719769813141 0.0011823714795124313
          0.0010111267643902015 0.0004821828241765892 0.0013623186898756023 0.002165358928290284 0.001344081102619854 0.0015788446473191664
          0.0012274085771572171 0.000413898948655074 0.0012224449790960712 0.0018231655444801952 0.0006066366758516947 0.00108620397254117
          0.0010687794040098939 0.0005050914217757871 0.0009332569175404572 -0.00015836010709993024 0.0005645265258476511 0.0007008017625235808
          0.0012061347985183584 0.0010220933872568578 0.0010630197564982236 0.0012799235637877548 0.00022451575824403158 0.0007414656378838258
          0.0015363366016946794 0.001119239281608615 0.000075262584968247 0.00024344243659694433 0.0009792587824909021 0.0013976058169835378
          0.0012543768458839616 0.0011627644502665846 0.00008138323991527252 0.0003612840224086304 0.0020764242537030103 0.0023263245425565633
          -0.0002620851422068249 -0.0002529548085525475 -0.00004978947247046006 -0.00012043944583951284 -0.0004872476928821229 -0.0006902671884525483
          0.0014875815409473095 0.00032058103152850237 0.0009815142886062805 0.001453574052865685 0.0013414328670138982 0.0010020985049664297
          0.0027368703768860664 0.0019289236079063632 0.0021888131421192863 0.0009972006982401707 0.000504030478954573 0.00047452271377897495
          -0.000001884931129344375 0.0012956561720617356 0.0003124461481802416 -7.6065410123307e-7 -0.00009731894234143307 -0.00000150748940650966
          0.00030133671736036786 0.0005794707303417987 0.0007723618133214437 0.0014666331760714297 0.0009475426462771004 0.0009887649057954626
          0.0005920555327389829 -0.00004371478356291793 0.000109025789113322 0.0009826735830385323 0.0008022075252059977 0.0006861423661300645
          0.0006992607849518268 -0.00004924364606298179 0.0004069920854747329 0.0017060503363213186 0.0015861613892059947 0.0004304460504770402
          0.00023329146382978106 0.0007888013532310195 0.0009240288047628687 -0.0008420877427615225 -0.0006667611305955778 -0.00014028834997904457
          -0.0002211446592859101 -0.0013008175159939968 -0.0012343653536139448 0.0009068737067931213 0.00023276398381164584 0.00040790263525683794
          0.001493534209305464 0.00041579725581371383 0.0006639230354137538 0.0007498998394714559 0.00010028081165260744 0.0004304311453533702
          -0.00010041177463605659 0.0003415288610727901 -0.00006828852117725642 0.00008946462871992945 -0.00006606524842369104 0.0002878914894320038
          0.0008782194394650247 0.00032069992424384186 0.00048146984394856034 -0.0005785334305928279 -0.00013075564276524097 -0.00037463764542078077
          0.001221998123697915 0.00020447494741498984 0.0005803012893226822 -0.0010275262712213552 -0.00008860980740188137 -0.0003730579874168787
          -0.001018119406888023 0.00002963288832275382 -0.00048128839380892456 -0.0013334358147785996 -0.0002344807165406415 -0.000656320477809981
          0.0012686392602143173 0.0009521022761936268 0.0005191337005714947 0.000084904610703318 -0.00018472627352328352 0.0003647408490211612
          0.00010536837172847591 -0.000060806282814906965 0.00032674404360111264 -0.0004676408113334918 -0.00020865108115497577 -0.001191836913163491
          0.00022314476224458146 0.0004563764110518953 -0.00004068597199034796 0.00031168980346207853 -1.6260099280192417 0.0006539582209451611
          -3.252116841621941 0.00008055010993390788 -1.629611487553299 0.000024996344954009153 -1.4189652380537026 0.00005001530159587375
          -2.8380990674081894 0.00023143474857911794 -1.4228047529539665 -0.00010859997028467294 -1.0870658183546493 -0.000019318883187624536
          -2.174224546054735 0.00025836713073335016 -1.090986899494698 -0.00005249463129675114 -0.6504436162600089 0.0000075749598936747375
          -1.3009455913509744 0.0002981612718980231 -0.653908871622676 -0.00006233125943480577 -0.14167784237608205 0.0000022877619589162235
          -0.283365879031105 -0.00006787715218531387 -0.143945796793025 -0.0001298594899901695 0.3990363606799183 -0.000019413052987582446
          0.7981287066930135 -0.00046260198602765534 0.3988324015392817 -0.00006687904749325124 0.9314027596357237 -0.0000069652312583712295
          1.8629496936929186 0.00005483611137074851 0.9341103153828083 0.0002727263340704944 1.1731909158502207 0.000025837979157616875
          2.346437097326165 0.0005981781316194423 1.1775501249590716 0.0008829217831212155 0.000649745873978258 0.00010327510541907614
          0.00006290550967924524 0.00007490084876726755 0.0003728195060509476 0.0000905400149693314 0.000003415776549497984 0.00029232325884320787
          0.0002378341620440927 0.0001228533206485971 0.00028863258345079856 -0.00005448259901053021 -0.000022347833459557265 0.00017689565897693882
          -0.0004853573697925495 -0.00007218938159034294 0.0002603698295535195 -0.00005578264498495855 -0.0000028286080022699167 0.0008646397741883249
          0.0007439675152624003 0.000059942955055403147 0.0009992950301851988 0.000599555728550305 0.00025399668729497726 -0.00004669645468546868
          0.00015632060728831831 0.0001880931603612801 0.0003248976635414902 0.00023264853524151974 0.00005135459340011028 0.00031295713167367456
          0.00025609977438489917 0.00018672627148774712 0.00039822115002419167 0.00009899857667966527 0.00016035969708605435 0.0006083501930763124
          0.000007565640847360597 0.0001571132338207097 0.0009600216245614765 0.0006619768034752394 0.0002522579236758915 0.0014251737727953018
          0.0008166736816963283 0.00003369319751453381 0.0015827755743347827 0.0007543749969675106 0.0002233888062423972 0.0001430764134265905
          0.00019760516879641088 0.00022162740170506012 0.0000905034136386984 0.00019693095359363255 0.000043897885678489956 0.00017670978712147623
          0.0001893236253051045 0.00023938325649652814 0.0004912526080756985 0.0003707682528106271 0.00022198386570432271 0.0010720734045481795
          0.0007011563255808206 0.0002015841721828282 0.0015595248133448147 0.0012529834199625292 0.0003614959713930596 0.001625849413444902
          0.0010370598376797102 0.00008532733519478475 0.0014374065399971603 0.000990172290747049 -0.0004986602862797618 0.00003223107474181752
          0.00010238091107472869 0.00021875284141237294 -0.0003075558088978525 -0.00002971077104918507 0.00010530441960021619 -0.00012650194961794092
          0.00012343469016729003 0.00030648639126984456 0.0007266325677215413 0.0007310415618735355 0.00032657787863754617 0.0014223069286062318
          0.001358241472916799 0.0002821786676856508 0.001765783009630928 0.0014717014721664923 0.000371097759228195 0.0016785264491135654
          0.0009344990716900758 0.00016326328623916808 0.0013304259891652181 0.0010586013057232169 -0.0005612486737911482 -0.0011762864076885204
          0.0006284575209356547 -0.0003665236470338229 -0.0004099279603686501 -0.00021737560923007493 0.00015623981337009596 -0.0006700571455822146
          -0.00028841068314666707 0.00013305870874513737 -0.00012046412198296608 0.00029323220955013163 0.0004576367431254891 0.0011093608872319027
          0.0011300614669358389 0.0005763700483660816 0.0015802702792149237 0.0017164623824171832 0.0005736683290091804 0.0014676077163242596
          0.0016209507337187623 0.0006095279909493767 0.0012721987469965779 0.0008624977789634114 0.00031196288006907213 0.0010755487455166302
          0.0006799750968231599 -0.00003168951835075262 -0.0016187788132819847 0.0003621967448435015 -0.00022609936075213 -0.0012088324330323807
          -0.0006180204977623838 -0.00011760386521153521 -0.0008099642628036641 -0.00045290644413364944 0.00020650002111466392 0.0002735103927986593
          0.0007465486065298954 0.0007197289234031068 0.0016017388447098213 0.0015022355311860025 0.0010150017909709153 0.0017697835777374937
          0.001649617507907264 0.0011126980871576375 0.0011841851503799905 0.0014062424909031535 0.0010340021724911663 0.0007886104595011822
          0.0007709915491573849 0.0006205536647441168 0.0006803747047769981 -0.0007003303017021345 -0.0016350486804022069 -0.0015609487426941904
          -0.0008918051625776968 -0.0009641770702475405 -0.0020597751152591215 -0.0011686212799078 -0.0005149579530856485 -0.0012292034320977585
          -0.00015480930627509437 0.00017303301695426043 0.0009425937474323298 0.0013644045686471706 0.0010123234859000796 0.0021777977374362045
          0.001947916653326498 0.0017473172352562294 0.002247500920178336 0.0016630022234642716 0.0021832334271185694 0.0015675929934109156
          0.001321278490366895 0.002266436874452049 0.0011870297601563884 0.00048800733343612457 0.001040124820256505 0.0009915202101566933
          -0.003257869604061492 -0.001207914166955426 -0.0007895805799091882 -0.0021012583664492546 -0.001604717921080523 -0.0012696757099244227
          -0.00160430847892723 -0.0023716423932236275 -0.0013362324521182245 -0.0010641927002694729 -0.003031679012423627 -0.0010933936477015571
          -0.0006585735976849527 -0.0034801128469665876 -0.0011135390449168447 -0.0008537649385678137 -0.003431406721486674 -0.0011991364699017737
          -0.0012630232562065302 -0.0027555847493476726 -0.0010699292848701525 -0.0008682625276414946 -0.0012146132835195722 -0.00045290392978314387
          -0.00027563557970111674 -0.0003733302105475289 0.00005003727249985879 1.2142193684302915 0.0007709345342625795 2.4283839288467015
          0.00006523376285527682 1.2196719245294358 0.00024912433949753066 0.0012226550481233 0.000029499993329351604 0.0005241979886145831
          0.000849615059803438 0.00009084584366275683 0.0011394880953047304 0.0007496310542752238 0.00013996293920078007 0.00124717790263143
          0.0007654682967964122 0.00017375917972534127 0.001073439084808614 0.0006374965401135801 0.00021278276240199734 0.000822378221950526
          0.0006520523203525919 0.0002995860967602848 0.00045600535602252634 0.00021125493099471981 0.000309945691992386 0.0009687148263576306
          0.00023328612525119752 -0.000052430021930449655 0.0003260138269387536 1.4012454728779429 0.0006879313586691804 2.8025272021782235
          -0.0000438608093514814 1.4084212755770464 0.0003036542303490597 0.0010992067947246387 -0.00008491048796366307 0.0006716367692730651
          0.0009019149326907061 -0.000006014281997646087 0.0009463332104485689 0.0006218541825957545 0.00007510529452473946 0.0012890402508942325
          0.0008636257722348661 0.00006953208797966237 0.0012651746614806836 0.0007685133940067423 0.00011501589371720744 0.0007359628561648401
          0.0006876780197471177 0.00025118756633635275 0.0004567604922190993 0.0004302520197033699 0.0002573034444597333 0.0010073402936900955
          0.0006177528845821012 0.00013659606623706022 0.00036338024048621076 1.5555133110271517 0.000740423835417392 3.111065826802469
          -0.00003462916220231538 1.5644752899106487 0.00039025200262099435 0.0011567400201131228 -0.00001921587429720706 0.0008638085877156199
          0.0008135695836143375 -0.000011045622362426677 0.0009078042978844514 0.0008428611156750046 0.0000999309358908837 0.0012812988009069104
          0.0008270032345626399 0.00008565555717643392 0.0012451940970981679 0.0011366961093935979 0.00015486138760234525 0.001013937329895187
          0.0007042787257538485 0.00028489055542535446 0.00040868504446689435 0.0005817657189755021 0.00021234633937783354 0.0007362037622192785
          0.0006137075249190715 0.00020359372493272687 0.00017491270812108883 1.6689455822664634 0.0009401931200700986 3.338097012438189
          0.00002115177974160165 1.679346139760288 0.0005988347797277749 0.0011732311211538615 0.00012260722565171633 0.0014625369748829664
          0.0005182486650769924 0.000029011190622485472 0.0013881345248795696 0.0009701372005823383 0.000059076886554945696 0.0017702673628055138
          0.001068437102054176 0.00016849317834397026 0.001232290113836687 0.0009321505795613083 0.00015247400868823036 0.0010311996539909551
          0.0011411883600059847 0.00034896725147182117 0.0006950635197027211 0.0005297082379536189 0.00013436703610786305 0.0003692686093104136
          0.0005515085302771339 0.0002473700410771107 0.0002654649668813458 1.7235666633271838 0.0005907911764411189 3.447796262628434
          0.000047034208637164454 1.7337360494657927 0.0016473881833245496 0.0013560871478071057 0.00012215725891551177 0.0007928041231435312
          0.002136452060220506 0.000045217309412259876 0.0017630086029206127 0.0006741021221275956 0.00013360100140227815 0.0007472944325046804
          0.0017052761393179933 0.00021269489060742053 0.0016687261415741297 0.0006087716185672609 0.0002634725659087511 0.0008599770536359408
          0.00128107677511613 0.00028923497178573454 0.0009371654492348336 0.0008766589307768191 0.0000892261368315439 0.000632607848921718
          0.0003965999372116946 0.00027170318889746525 0.00048624653157663955 1.6589752910502495 0.0001836774303769495 3.316612810915469
          -0.000027826626865623538 1.6456658822740557 0.0007215032240455166 0.001472886061995582 0.0001306535566143463 0.0010930035157409312
          0.001118151712991844 -0.00007559446210414489 0.001230716744546223 0.0019560962839517693 0.0001670933222913673 0.0016291010656401816
          0.00001832478786126246 0.00019068442640764183 0.00025962519413538776 0.0016172953211572028 0.0002562624663157709 0.001620496735908722
          0.0007761441735095187 0.0003181077051093162 0.0007906490286393453 0.0012431484638230905 -0.000045406914477824634 0.0008359240639741194
          0.0006727683467230294 0.00036948048055893135 0.000489564941414028 1.3535561167033174 0.0005784882425970972 2.721736398389417
          -0.0006320461335923566 1.2976704142016087 0.0009503648428066391 0.0007445121916720421 -0.0008641324953133633 0.0015703069403484315
          0.0012487546567494512 0.00003558307371265279 0.0014130345983210946 0.0011571522449969618 0.00010583240820716266 0.0009016063824002774
          0.0008421938948739438 0.00013563387635046054 0.0008037785461967872 0.00029903995567962666 0.00007252520438374294 0.0009058725143491486
          0.001566790536810428 0.00034849376131235177 0.0011089142240398309 0.0007954423179974829 -0.00025238303219699 0.0005372447163749378
          0.0012235198564563843 0.0005353455417874409 0.0005576477331414309 1.55895261990749 0.07190297576562465 3.1627715695955816
          0.2410280607374522 1.7213133538829113 0.17761591774645202 0.23361862013484735 0.34846947607372614 0.1140239885077583
          0.002329836757270276 0.0001769482379467835 0.0013303270498533637 0.0019022751146762218 0.0002464031637351427 0.0010464220568719984
          -0.0004369293729314383 0.0001688230465573537 0.0008387908107895248 0.0012239940250518555 -8.215839802372393e-7 0.0014222010554684195
          0.0004951959596482258 -0.00009688927331887032 0.001133875499804593 0.0010841322137502335 -0.00017894731472774402 0.0008163625290091101
          0.0008570307001476291 0.0001294907355605529 0.0002654062126845602 -0.18077546021603222 0.15780501052140214 -0.29673377965393
          0.7049599018237712 0.3661176592729507 0.5692886342155974 0.7947911246601184 1.2165238864599985 0.40241982448893165
          0.0008701864306311924 -0.0007054398047108279 0.000866643075084994 0.0011949669893220882 -0.0003087385763248518 0.0005452144041572238
          -0.0005059407146551509 -0.0006237161861605278 0.0007301296828061687 0.000264051809243937 -0.0007900514459930896 0.001058861434163949
          0.0003483867300476118 -0.0002689867130175605 0.0009030092993028704 0.0008024169028513634 0.00008262936491271189 0.00040306284618618626
          0.0005008779036951225 0.000059730776383912915 0.00006789349435363384
        </DataArray>
        <DataArray type="Float64" Name="resid_z" format="ascii" RangeMin="0" RangeMax="0">
          0 0 0 0 0 0
          0 0 0 0 0 0
          0 0 0 0 0 0
          0 0 0 0 0 0
          0 0 0 0 0 0
          0 0 0 0 0 0
          0 0 0 0 0 0
          0 0 0 0 0 0
          0 0 0 0 0 0
          0 0 0 0 0 0
          0 0 0 0 0 0
          0 0 0 0 0 0
          0 0 0 0 0 0
          0 0 0 0 0 0
          0 0 0 0 0 0
          0 0 0 0 0 0
          0 0 0 0 0 0
          0 0 0 0 0 0
          0 0 0 0 0 0
          0 0 0 0 0 0
          0 0 0 0 0 0
          0 0 0 0 0 0
          0 0 0 0 0 0
          0 0 0 0 0 0
          0 0 0 0 0 0
          0 0 0 0 0 0
          0 0 0 0 0 0
          0 0 0 0 0 0
          0 0 0 0 0 0
          0 0 0 0 0 0
          0 0 0 0 0 0
          0 0 0 0 0 0
          0 0 0 0 0 0
          0 0 0 0 0 0
          0 0 0 0 0 0
          0 0 0 0 0 0
          0 0 0 0 0 0
          0 0 0 0 0 0
          0 0 0 0 0 0
          0 0 0 0 0 0
          0 0 0 0 0 0
          0 0 0 0 0 0
          0 0 0 0 0 0
          0 0 0 0 0 0
          0 0 0 0 0 0
          0 0 0 0 0 0
          0 0 0 0 0 0
          0 0 0 0 0 0
          0 0 0 0 0 0
          0 0 0 0 0 0
          0 0 0 0 0 0
          0 0 0 0 0 0
          0 0 0 0 0 0
          0 0 0 0 0 0
          0 0 0 0 0 0
          0 0 0 0 0 0
          0 0 0 0 0 0
          0 0 0 0 0 0
          0 0 0 0 0 0
          0 0 0 0 0 0
          0 0 0 0 0 0
          0 0 0 0 0 0
          0 0 0 0 0 0
          0 0 0 0 0 0
          0 0 0 0 0 0
          0 0 0 0 0 0
          0 0 0 0 0 0
          0 0 0 0 0 0
          0 0 0 0 0 0
          0 0 0 0 0 0
          0 0 0 0 0 0
          0 0 0 0 0 0
          0 0 0 0 0 0
          0 0 0 0 0 0
          0 0 0 0 0 0
          0 0 0 0 0 0
          0 0 0 0 0 0
          0 0 0 0 0 0
          0 0 0 0 0 0
          0 0 0 0 0 0
          0 0 0 0 0 0
          0 0 0 0 0 0
          0 0 0 0 0 0
          0 0 0 0 0 0
          0 0 0 0 0 0
          0 0 0 0 0 0
          0 0 0 0 0 0
          0 0 0 0 0 0
          0 0 0 0 0 0
          0 0 0 0 0 0
          0 0 0 0 0 0
          0 0 0 0 0 0
          0 0 0 0 0 0
          0 0 0 0 0 0
          0 0 0 0 0 0
          0 0 0 0 0 0
          0 0 0 0 0 0
          0 0 0 0 0 0
          0 0 0 0 0 0
          0 0 0 0 0 0
          0 0 0 0 0 0
          0 0 0 0 0 0
          0 0 0 0 0 0
          0 0 0 0 0 0
          0 0 0 0 0 0
          0 0 0 0 0 0
          0 0 0 0 0 0
          0 0 0 0 0 0
          0 0 0 0 0 0
          0 0 0 0 0 0
          0 0 0 0 0 0
          0 0 0 0 0 0
          0 0 0 0 0 0
          0 0 0 0 0 0
          0 0 0 0 0 0
          0 0 0 0 0 0
          0 0 0 0 0 0
          0 0 0 0 0 0
          0 0 0 0 0 0
          0 0 0 0 0 0
          0 0 0 0 0 0
          0 0 0 0 0 0
          0 0 0 0 0 0
          0 0 0 0 0 0
          0 0 0 0 0 0
          0 0 0 0 0 0
          0 0 0 0 0 0
          0 0 0 0 0 0
          0 0 0 0 0 0
          0 0 0 0 0 0
          0 0 0 0 0 0
          0 0 0 0 0 0
          0 0 0 0 0 0
          0 0 0 0 0 0
          0 0 0 0 0 0
          0 0 0 0 0 0
          0 0 0
        </DataArray>
        <DataArray type="Float64" Name="stress_zz" format="ascii" RangeMin="-1475713.2246239565" RangeMax="53960185.983933225">
          -50222.05506373978 -173071.8287219485 -64409.13365046287 14110.245743254254 -50502.14079025453 -172504.82918828717
          -65500.4364596751 14816.191068917982 -50782.2265167693 -171937.82965462585 -66591.73926888732 15522.136394581714
          -52943.45735808123 -25037.396321502303 -72253.32284531315 -91003.46859590537 -52940.00587263432 -24731.686759913442
          -71811.88669542084 -90772.73450567681 -52936.5543871874 -24425.977198324574 -71370.4505455285 -90542.00041544824
          -65150.085320554586 30527.65004545344 -65476.529137466176 30762.53551987718 -65802.97295437776 30997.420994300926
          -22552.034162702745 -19598.899419163223 -79843.5084230081 -22295.335332072158 -19495.091470953143 -79914.74113859556
          -22038.636501441564 -19391.283522743055 -79985.97385418303 32410.170779503485 31278.095401006594 12297.995587081468
          19654.946924465898 32846.47670512452 32154.595711458638 12067.981501748047 20068.195814181683 33282.78263074556
          33031.096021910686 11837.967416414625 20481.44470389747 -1252.17933296098 -14411.15804367678 2106.9548067950054
          9346.356145313617 -1153.7007413222618 -14780.945382026586 2351.4489888790267 9718.377435709635 -1055.2221496835427
          -15150.732720376394 2595.943170963047 10090.398726105654 1620.3844441949823 23045.59693825163 22228.96388956952
          1463.1668536499496 22930.793769271226 22772.135755866755 1305.949263104917 22815.99060029082 23315.307622164
          6327.714927671618 6624.415200933241 6921.115474194859 29299.711545063605 23471.82801834178 29920.59595868928
          23488.498873929013 30541.480372314956 23505.16972951624 62290.421637623804 36020.28144149661 62746.753902574565
          35854.74606810227 63203.086167525325 35689.210694707945 4150.221670650393 1919.9652743251754 4025.2273992804016
          1379.0899350901223 3900.233127910411 838.2145958550688 16748.05041101006 2661.6315745556612 -6396.2010791304665
          1059.68861641402 16655.679393764956 3020.7588355734556 -5708.4350308676485 1644.760698338283 16563.308376519853
          3379.886096591251 -5020.668982604828 2229.8327802625436 -1994.350306836065 -2257.9783414961357 -2521.6063761562064
          -2944.2063153088975 -3486.659604697793 -4029.112894086689 5261.879840624414 5351.3717281668605 5440.863615709304
          -40954.05760950059 -54144.15834061206 -41012.487232535226 -54364.95484275664 -41070.91685556986 -54585.75134490122
          -7457.311303184234 10460.090014392543 9925.63409306445 1698.1139706883855 -7967.940356976497 10762.299876486055
          9374.686913581321 837.4903852929646 -8478.56941076876 11064.509738579565 8823.739734098195 -23.13320010245647
          47861.70168969871 25108.764734916964 47809.13428150971 25572.09203760836 47756.5668733207 26035.41934029976
          -6486.9174939431205 -6375.825730948282 -6264.733967953445 -11808.907858481549 -12193.691838696013 -12578.475818910476
          -21666.4893138078 -25073.748021677 -22345.145136599596 -25406.593607149494 -23023.80095939139 -25739.439192621987
          -4334.212039061788 -4321.2620228459 -2849.514084955825 -2784.3417096245525 -1364.8161308498627 -1247.4213964032047
          22236.36527586037 32183.390612116713 22690.050495487903 33616.86730481666 23143.735715115436 35050.34399751662
          4020.1810618775708 3678.0826705060526 3335.984279134534 14572.17691974125 14797.405273267179 15022.633626793104
          11600.137679827098 11407.720963866825 11215.304247906553 32139.862395952845 32941.49973447908 33743.13707300532
          -21232.66342825367 -21169.03230701349 -21105.401185773313 9547.294900085624 3368.8156042669707 8080.743040847359
          2167.8621326381335 6614.191181609094 966.9086610092972 12803.672284826345 13213.180672577444 13622.689060328545
          -28298.700111492086 -33148.50926759244 -27789.383609542907 -32951.37888087131 -27280.067107593735 -32754.248494150168
          9942.957846504862 1637.1348476344015 10333.799714651983 966.8853971309712 10724.6415827991 296.63594662754167
          -34402.54611142111 -34411.493148994516 -35538.12312587298 -36892.970589020624 -36673.70014032485 -39374.448029046725
          -19429.34912795238 -20016.57034691347 -20603.79156587456 -320.9626147061292 -948.4194769665708 -1575.8763392270123
          -6257.406310521831 -7012.069103079297 -7766.7318956367635 3182.8355203663223 5230.091466563264 3262.7670315539176
          5387.1836276082995 3342.6985427415157 5544.275788653335 -1808.4468143863346 5755.442515778006 -2268.814417397386
          4890.891751149671 -2729.182020408438 4026.340986521336 -10705.843226339732 -12200.788137135576 -6193.713909702122
          -10343.04321590526 -12512.950696648344 -6034.090862449185 -9980.243205470782 -12825.113256161116 -5874.467815196249
          -477.93750189524496 -734.4372899932091 -990.9370780911732 20147.98670724897 -7857.890049803524 20625.856124143425
          -7484.520340669542 21103.72554103788 -7111.150631535561 -7880.488253730776 -68271.94779913667 -7482.651490983413
          -62129.83641002115 -7084.814728236053 -55987.72502090564 -2544.4034580930625 -2847.8444035912034 -3151.285349089345
          -1276.2589879542943 -1249.669408954872 -1223.0798299554504 -54698.1848131321 -55938.41541090297 -57178.64600867386
          -14308.775903796468 -6310.295024060724 -13205.779953238389 -6342.744561503143 -12102.78400268031 -6375.1940989455625
          -3243.466272655145 -3455.359171780896 -3667.2520709066466 -6897.12342501151 -8927.246230757675 -10957.36903650384
          -36910.67132222643 -37626.85709305013 -38343.04286387384 47667.262118637096 50129.410524743056 52591.55893084902
          -92226.52586855361 -85971.73452136629 -79716.94317417897 -282287.6956217942 -282349.83363132825 -282411.9716408623
          88908.03044271676 88904.33809401639 88900.64574531603 81689.76529923541 81881.9987705037 82074.23224177203
          961.27591314647 966.1249147607668 970.9739163750637 -195714.41723102424 -195833.25972617586 -195952.10222132754
          -324490.10334357945 -324324.2999072244 -324158.4964708694 -29373.654871796967 -29244.25706571196 -29382.284881716532
          -29262.16225518985 -29390.914891636094 -29280.067444667744 -33108.583836605 -31768.998664247152 -33112.19938654816
          -31775.213539289136 -33115.814936491326 -31781.42841433112 -27398.160262556183 -25144.423499059965 -27382.20111842786
          -25080.1718383306 -27366.241974299533 -25015.920177601234 -16584.046763438117 -14294.462829511132 -16605.296608253382
          -14276.662150332126 -16626.546453068648 -14258.861471153119 -3659.442110953267 -3058.949311673481 -3687.477937874773
          -3034.7991066054765 -3715.5137647962792 -3010.648901537472 7428.143873320971 2395.944425463541 7410.706332072559
          2415.87829871147 7393.268790824147 2435.812171959399 12547.249765503439 4014.070438382449 12542.618981180554
          4046.3040176527375 12537.988196857666 4078.5375969230263 -3076.2047099285046 -9357.630905066944 -3061.88922467079
          -9254.491045237615 -3047.573739413075 -9151.351185408286 -26614.909619444938 -26724.095553917792 -26833.281488390647
          -30526.53045323914 -30603.405487089818 -30680.280520940487 -23816.663968532775 -23882.17876549807 -23947.693562463366
          -10476.542566026937 -10514.500117455686 -10552.45766888443 7069.862200828289 7011.467121598529 6953.072042368769
          29541.27305660402 29574.0419053068 29606.81075400958 36584.22344398647 36705.7101233384 36827.196802690334
          7974.210761862322 8011.363563077892 8048.51636429346 -17777.08921636798 -17654.857339109192 -17532.625461850403
          -19729.37948657296 -19580.103038472185 -19430.826590371405 -9672.129007985746 -9561.533227146156 -9450.937446306565
          8206.697398710596 8326.4036564617 8446.109914212806 30660.188372219956 30615.125134925525 30570.061897631098
          63197.111161257235 63198.65654521743 63200.20192917764 61383.393299371266 61362.514943974544 61341.63658857784
          3190.703315645036 2799.497258583394 2408.2912015217535 -217.6964293248327 -725.3543901770499 -1233.012351029267
          1053.6599740481852 621.154057446513 188.64814084484033 14187.340322509983 13811.348645469505 13435.356968429027
          34342.506374196644 34188.1104591924 34033.71454418816 57332.14372611402 57130.51626750619 56928.88880889835
          95532.90649452026 95761.72856882952 95990.55064313883 70629.02435951329 71259.848365692 71890.67237187069
          -35087.83565998417 -34891.778211183584 -34695.720762382996 41508.34400871047 42337.05888316378 43165.77375761709
          50055.546162904604 50830.40896101771 51605.27175913083 64973.526264275155 65507.475051709574 66041.42383914399
          79404.36366934776 79923.30547647037 80442.24728359297 89672.82388927978 89492.97994867091 89313.13600806205
          123739.5483303441 123546.45444596437 123353.36056158465 41867.4169319376 41355.676198753485 40843.935465569375
          -143434.26746295718 -145254.12710355618 -147073.98674415523 83326.88435270089 82183.498342788 81040.11233287513
          88517.7177051528 87291.13626088796 86064.55481662312 114647.81398297692 113694.31816994 112740.82235690307
          129834.82017961158 128940.91030624745 128047.00043288333 130136.28437610347 129991.59490378218 129846.9054314609
          114276.53655620027 113739.78875056651 113203.04094493277 149172.0842541848 149954.0490794599 150736.01390473498
          -18622.934396129487 -16656.622469167054 -14690.310542204621 -308387.99865466316 -308029.00859586056 -307670.018537058
          353843.80653666717 352602.15408155764 351360.50162644807 430015.99586583144 428683.33359683247 427350.6713278335
          451128.00176441524 450161.7363880949 449195.4710117745 405901.6666515051 404725.46545842837 403549.2642653516
          317685.23743212735 317621.9462372167 317558.65504230605 175382.3421092445 173856.83472074213 172331.32733223977
          66091.81959241281 66532.25681024787 66972.69402808293 -492757.9978794593 -491263.21946551744 -489768.44105157553
          -994315.1315382037 -996492.1981168122 -998669.2646954209 99419.19405560076 100310.45361731033 101201.71317901989
          120324.93468101246 121587.62725900728 122850.31983700219 101114.75243202853 102843.4827910224 104572.21315001632
          99068.07623908215 99588.04849259616 100108.02074611017 118289.01380844522 120091.60249916546 121894.1911898857
          124581.92694235747 122611.20011716335 120640.4732919692 350691.2555581097 350522.0797230686 350352.9038880274
          -346688.22634079197 -346832.22696112155 -346976.22758145124 -1233243.8029202707 -1239462.3781802033 -1245680.9534401358
          -417652.4309298388 -418426.6855144247 -419200.94009901065 -513971.35596367496 -514370.03562193003 -514768.7152801851
          -555880.7760009019 -555263.8003248355 -554646.8246487689 -454207.08524419484 -454742.32680982834 -455277.56837546185
          -247136.44231756957 -245295.76418475423 -243455.08605193888 19350.165019744752 17396.221674136093 15442.278328527434
          731357.7372376309 732663.5285850365 733969.3199324424 241738.120336833 245004.54081835382 248270.9612998746
          -871578.6830602896 -873980.659520665 -876382.6359810402 -41556.30442019497 -28975.79871472301 -41734.87818401893
          -29142.889427324153 -41913.4519478429 -29309.98013992529 -7503.071636516389 -7442.857329221622 -7382.643021926857
          -9489.83806243515 -9478.821785034334 -9467.805507633519 -49288.262891829996 -48612.212260999644 -47936.16163016929
          -138953.91686566029 -139178.10425894483 -139402.2916522294 -224136.82563711787 -222051.17646803646 -219965.527298955
          -629308.2594978812 -626307.8273412513 -623307.3951846214 -327542.6059658983 -323632.53429851093 -319722.4626311236
          354957.7895984793 363002.8467275531 371047.90385662694 -71792.43359806632 -46963.13737365913 -71174.66585935857
          -46418.280094631315 -70556.89812065083 -45873.422815603495 -1445.7143736000562 -1082.4111312968444 -719.1078889936325
          11492.37013358174 11590.474806767961 11688.579479954184 -21411.991868529993 -21137.558482841272 -20863.125097152544
          -77582.90691014075 -77547.84984064547 -77512.79277115021 -117877.60766252122 -117100.5478930759 -116323.48812363058
          -295709.9982997533 -294588.81893873424 -293467.6395777152 371948.98089158896 371464.4996464401 370980.0184012912
          1208162.245275752 1207042.2465535798 1205922.2478314075 -90248.17504003046 -54542.2765889655 -93358.2764934434
          -57088.857317221235 -96468.37794685632 -59635.438045476985 6934.042611119143 5881.703540818129 4829.364470517117
          14123.570005912747 14037.95893482911 13952.347863745475 -39221.61485773694 -39349.94500143923 -39478.2751451415
          -102866.30639858494 -103267.43077567902 -103668.55515277309 -167357.19544719392 -168005.49321464874 -168653.79098210356
          -221578.95458488498 -223221.28455424763 -224863.61452361033 244080.16955163903 240789.04186482594 237497.91417801287
          728350.5638086696 724351.5653103065 720352.5668119434 -156795.68264127165 -99398.83963717888 -145250.8369273518
          -90495.9324285264 -133705.991213432 -81593.0252198739 6617.115825426394 10049.73886703224 13482.361908638084
          20665.349451198104 20897.81923492243 21130.28901864676 -57308.22830569405 -57317.19759224843 -57326.16687880281
          -122854.26907603224 -122666.80442025972 -122479.33976448716 -153186.16012299093 -152926.2964532707 -152666.43278355044
          -105600.6923738615 -104907.5830085029 -104214.47364314433 269100.06916342885 271093.84806605126 273087.62696867355
          588026.813750818 590894.3500925101 593761.8864342021 -60262.51651148769 -12111.326845740929 -97742.40676307827
          -37989.97967587193 -135222.29701466885 -63868.63250600294 72109.2806751969 67057.08691474519 62004.89315429348
          30179.806198975664 31727.843334708894 33275.88047044212 -94258.98051123213 -94725.31960816466 -95191.65870509717
          -140668.8814149603 -140623.67361614888 -140578.46581733745 -122858.65973891977 -123151.57030275546 -123444.48086659116
          -25767.64703511557 -26106.947583888803 -26446.248132662033 255966.8000312803 255282.1174221024 254597.43481292448
          458390.46259484516 457167.73717117804 455945.011747511 -400916.029277875 -284870.5839737911 -319070.84581827995
          -247782.46874570922 -237225.66235868484 -210694.35351762743 -3530.4007310273737 -21273.45796426873 -39016.51519751009
          7081.927539696811 -3525.544370225787 -14133.016280148393 -157656.26640638942 -155339.93949354585 -153023.61258070223
          -140314.90891005401 -141028.54252040252 -141742.176130751 -83501.12039549726 -83452.89475352665 -83404.66911155607
          27983.762620377616 28029.04794232501 28074.333264272413 242539.6655987855 242997.15646944623 243454.6473401069
          375027.3323014092 375405.8980859551 375784.463870501 518932.4799677781 195617.81631380317 536764.2952331996
          359380.1648196628 554596.110498621 523142.51332552254 -132526.37055469307 122390.44907989127 377307.2687144756
          -158263.82482135587 -86109.31537340207 -13954.80592544828 -165336.69521874207 -185877.5019768973 -206418.30873505253
          -113440.3721965041 -107855.93764834796 -102271.50310019181 -45883.765441895965 -47364.535520295125 -48845.3055986943
          62165.572481962154 62553.80484823536 62942.03721450858 232361.7264059643 232343.05395356286 232324.3815011615
          324003.8867932338 323809.7930134267 323615.6992336196 27948496.14109492 23410044.403718177 27157144.926277563
          21189288.60185992 26365793.71146021 18968532.800001666 10750390.957946595 7865594.010245135 4980797.0625436725
          833920.36807728 58881.55323136585 -716157.2616145483 -424585.9576339513 -213274.6852370531 -1963.4128401549533
          -4747.118061630652 -59478.04242438344 -114208.96678713623 -53379.07442049665 -39305.573281626464 -25232.072142756282
          83062.94740517033 79747.41755201967 76431.88769886902 222848.0024528908 223891.9885234961 224935.97459410143
          294482.7955070066 294077.3463396197 293671.8971722328 53960185.983933225 45738426.81132569 52611492.235004105
          41119680.036774784 51262798.486074984 36500933.262223884 21611552.644823793 15316361.025563847 9021169.406303896
          1960931.2446722477 242609.01002414565 -1475713.2246239565 -714708.921649061 -245890.20803016884 222928.50558872338
          84625.24418537327 -37713.43902891148 -160052.12224319624 -77477.91568878986 -46317.77857105192 -15157.641453313987
          91192.285110106 83564.79240671723 75937.29970332846 217955.88689133027 220034.05144975818 222112.2160081861
          284478.20210093603 283585.61547539174 282693.02884984744
        </DataArray>
        <DataArray type="Float64" Name="peeq" format="ascii" RangeMin="0" RangeMax="0">
          0 0 0 0 0 0
          0 0 0 0 0 0
          0 0 0 0 0 0
          0 0 0 0 0 0
          0 0 0 0 0 0
          0 0 0 0 0 0
          0 0 0 0 0 0
          0 0 0 0 0 0
          0 0 0 0 0 0
          0 0 0 0 0 0
          0 0 0 0 0 0
          0 0 0 0 0 0
          0 0 0 0 0 0
          0 0 0 0 0 0
          0 0 0 0 0 0
          0 0 0 0 0 0
          0 0 0 0 0 0
          0 0 0 0 0 0
          0 0 0 0 0 0
          0 0 0 0 0 0
          0 0 0 0 0 0
          0 0 0 0 0 0
          0 0 0 0 0 0
          0 0 0 0 0 0
          0 0 0 0 0 0
          0 0 0 0 0 0
          0 0 0 0 0 0
          0 0 0 0 0 0
          0 0 0 0 0 0
          0 0 0 0 0 0
          0 0 0 0 0 0
          0 0 0 0 0 0
          0 0 0 0 0 0
          0 0 0 0 0 0
          0 0 0 0 0 0
          0 0 0 0 0 0
          0 0 0 0 0 0
          0 0 0 0 0 0
          0 0 0 0 0 0
          0 0 0 0 0 0
          0 0 0 0 0 0
          0 0 0 0 0 0
          0 0 0 0 0 0
          0 0 0 0 0 0
          0 0 0 0 0 0
          0 0 0 0 0 0
          0 0 0 0 0 0
          0 0 0 0 0 0
          0 0 0 0 0 0
          0 0 0 0 0 0
          0 0 0 0 0 0
          0 0 0 0 0 0
          0 0 0 0 0 0
          0 0 0 0 0 0
          0 0 0 0 0 0
          0 0 0 0 0 0
          0 0 0 0 0 0
          0 0 0 0 0 0
          0 0 0 0 0 0
          0 0 0 0 0 0
          0 0 0 0 0 0
          0 0 0 0 0 0
          0 0 0 0 0 0
          0 0 0 0 0 0
          0 0 0 0 0 0
          0 0 0 0 0 0
          0 0 0 0 0 0
          0 0 0 0 0 0
          0 0 0 0 0 0
          0 0 0 0 0 0
          0 0 0 0 0 0
          0 0 0 0 0 0
          0 0 0 0 0 0
          0 0 0 0 0 0
          0 0 0 0 0 0
          0 0 0 0 0 0
          0 0 0 0 0 0
          0 0 0 0 0 0
          0 0 0 0 0 0
          0 0 0 0 0 0
          0 0 0 0 0 0
          0 0 0 0 0 0
          0 0 0 0 0 0
          0 0 0 0 0 0
          0 0 0 0 0 0
          0 0 0 0 0 0
          0 0 0 0 0 0
          0 0 0 0 0 0
          0 0 0 0 0 0
          0 0 0 0 0 0
          0 0 0 0 0 0
          0 0 0 0 0 0
          0 0 0 0 0 0
          0 0 0 0 0 0
          0 0 0 0 0 0
          0 0 0 0 0 0
          0 0 0 0 0 0
          0 0 0 0 0 0
          0 0 0 0 0 0
          0 0 0 0 0 0
          0 0 0 0 0 0
          0 0 0 0 0 0
          0 0 0 0 0 0
          0 0 0 0 0 0
          0 0 0 0 0 0
          0 0 0 0 0 0
          0 0 0 0 0 0
          0 0 0 0 0 0
          0 0 0 0 0 0
          0 0 0 0 0 0
          0 0 0 0 0 0
          0 0 0 0 0 0
          0 0 0 0 0 0
          0 0 0 0 0 0
          0 0 0 0 0 0
          0 0 0 0 0 0
          0 0 0 0 0 0
          0 0 0 0 0 0
          0 0 0 0 0 0
          0 0 0 0 0 0
          0 0 0 0 0 0
          0 0 0 0 0 0
          0 0 0 0 0 0
          0 0 0 0 0 0
          0 0 0 0 0 0
          0 0 0 0 0 0
          0 0 0 0 0 0
          0 0 0 0 0 0
          0 0 0 0 0 0
          0 0 0 0 0 0
          0 0 0 0 0 0
          0 0 0 0 0 0
          0 0 0 0 0 0
          0 0 0 0 0 0
          0 0 0 0 0 0
          0 0 0 0 0 0
          0 0 0
        </DataArray>
        <DataArray type="Float64" Name="pe11" format="ascii" RangeMin="0" RangeMax="0">
          0 0 0 0 0 0
          0 0 0 0 0 0
          0 0 0 0 0 0
          0 0 0 0 0 0
          0 0 0 0 0 0
          0 0 0 0 0 0
          0 0 0 0 0 0
          0 0 0 0 0 0
          0 0 0 0 0 0
          0 0 0 0 0 0
          0 0 0 0 0 0
          0 0 0 0 0 0
          0 0 0 0 0 0
          0 0 0 0 0 0
          0 0 0 0 0 0
          0 0 0 0 0 0
          0 0 0 0 0 0
          0 0 0 0 0 0
          0 0 0 0 0 0
          0 0 0 0 0 0
          0 0 0 0 0 0
          0 0 0 0 0 0
          0 0 0 0 0 0
          0 0 0 0 0 0
          0 0 0 0 0 0
          0 0 0 0 0 0
          0 0 0 0 0 0
          0 0 0 0 0 0
          0 0 0 0 0 0
          0 0 0 0 0 0
          0 0 0 0 0 0
          0 0 0 0 0 0
          0 0 0 0 0 0
          0 0 0 0 0 0
          0 0 0 0 0 0
          0 0 0 0 0 0
          0 0 0 0 0 0
          0 0 0 0 0 0
          0 0 0 0 0 0
          0 0 0 0 0 0
          0 0 0 0 0 0
          0 0 0 0 0 0
          0 0 0 0 0 0
          0 0 0 0 0 0
          0 0 0 0 0 0
          0 0 0 0 0 0
          0 0 0 0 0 0
          0 0 0 0 0 0
          0 0 0 0 0 0
          0 0 0 0 0 0
          0 0 0 0 0 0
          0 0 0 0 0 0
          0 0 0 0 0 0
          0 0 0 0 0 0
          0 0 0 0 0 0
          0 0 0 0 0 0
          0 0 0 0 0 0
          0 0 0 0 0 0
          0 0 0 0 0 0
          0 0 0 0 0 0
          0 0 0 0 0 0
          0 0 0 0 0 0
          0 0 0 0 0 0
          0 0 0 0 0 0
          0 0 0 0 0 0
          0 0 0 0 0 0
          0 0 0 0 0 0
          0 0 0 0 0 0
          0 0 0 0 0 0
          0 0 0 0 0 0
          0 0 0 0 0 0
          0 0 0 0 0 0
          0 0 0 0 0 0
          0 0 0 0 0 0
          0 0 0 0 0 0
          0 0 0 0 0 0
          0 0 0 0 0 0
          0 0 0 0 0 0
          0 0 0 0 0 0
          0 0 0 0 0 0
          0 0 0 0 0 0
          0 0 0 0 0 0
          0 0 0 0 0 0
          0 0 0 0 0 0
          0 0 0 0 0 0
          0 0 0 0 0 0
          0 0 0 0 0 0
          0 0 0 0 0 0
          0 0 0 0 0 0
          0 0 0 0 0 0
          0 0 0 0 0 0
          0 0 0 0 0 0
          0 0 0 0 0 0
          0 0 0 0 0 0
          0 0 0 0 0 0
          0 0 0 0 0 0
          0 0 0 0 0 0
          0 0 0 0 0 0
          0 0 0 0 0 0
          0 0 0 0 0 0
          0 0 0 0 0 0
          0 0 0 0 0 0
          0 0 0 0 0 0
          0 0 0 0 0 0
          0 0 0 0 0 0
          0 0 0 0 0 0
          0 0 0 0 0 0
          0 0 0 0 0 0
          0 0 0 0 0 0
          0 0 0 0 0 0
          0 0 0 0 0 0
          0 0 0 0 0 0
          0 0 0 0 0 0
          0 0 0 0 0 0
          0 0 0 0 0 0
          0 0 0 0 0 0
          0 0 0 0 0 0
          0 0 0 0 0 0
          0 0 0 0 0 0
          0 0 0 0 0 0
          0 0 0 0 0 0
          0 0 0 0 0 0
          0 0 0 0 0 0
          0 0 0 0 0 0
          0 0 0 0 0 0
          0 0 0 0 0 0
          0 0 0 0 0 0
          0 0 0 0 0 0
          0 0 0 0 0 0
          0 0 0 0 0 0
          0 0 0 0 0 0
          0 0 0 0 0 0
          0 0 0 0 0 0
          0 0 0 0 0 0
          0 0 0 0 0 0
          0 0 0 0 0 0
          0 0 0
        </DataArray>
        <DataArray type="Float64" Name="pe22" format="ascii" RangeMin="0" RangeMax="0">
          0 0 0 0 0 0
          0 0 0 0 0 0
          0 0 0 0 0 0
          0 0 0 0 0 0
          0 0 0 0 0 0
          0 0 0 0 0 0
          0 0 0 0 0 0
          0 0 0 0 0 0
          0 0 0 0 0 0
          0 0 0 0 0 0
          0 0 0 0 0 0
          0 0 0 0 0 0
          0 0 0 0 0 0
          0 0 0 0 0 0
          0 0 0 0 0 0
          0 0 0 0 0 0
          0 0 0 0 0 0
          0 0 0 0 0 0
          0 0 0 0 0 0
          0 0 0 0 0 0
          0 0 0 0 0 0
          0 0 0 0 0 0
          0 0 0 0 0 0
          0 0 0 0 0 0
          0 0 0 0 0 0
          0 0 0 0 0 0
          0 0 0 0 0 0
          0 0 0 0 0 0
          0 0 0 0 0 0
          0 0 0 0 0 0
          0 0 0 0 0 0
          0 0 0 0 0 0
          0 0 0 0 0 0
          0 0 0 0 0 0
          0 0 0 0 0 0
          0 0 0 0 0 0
          0 0 0 0 0 0
          0 0 0 0 0 0
          0 0 0 0 0 0
          0 0 0 0 0 0
          0 0 0 0 0 0
          0 0 0 0 0 0
          0 0 0 0 0 0
          0 0 0 0 0 0
          0 0 0 0 0 0
          0 0 0 0 0 0
          0 0 0 0 0 0
          0 0 0 0 0 0
          0 0 0 0 0 0
          0 0 0 0 0 0
          0 0 0 0 0 0
          0 0 0 0 0 0
          0 0 0 0 0 0
          0 0 0 0 0 0
          0 0 0 0 0 0
          0 0 0 0 0 0
          0 0 0 0 0 0
          0 0 0 0 0 0
          0 0 0 0 0 0
          0 0 0 0 0 0
          0 0 0 0 0 0
          0 0 0 0 0 0
          0 0 0 0 0 0
          0 0 0 0 0 0
          0 0 0 0 0 0
          0 0 0 0 0 0
          0 0 0 0 0 0
          0 0 0 0 0 0
          0 0 0 0 0 0
          0 0 0 0 0 0
          0 0 0 0 0 0
          0 0 0 0 0 0
          0 0 0 0 0 0
          0 0 0 0 0 0
          0 0 0 0 0 0
          0 0 0 0 0 0
          0 0 0 0 0 0
          0 0 0 0 0 0
          0 0 0 0 0 0
          0 0 0 0 0 0
          0 0 0 0 0 0
          0 0 0 0 0 0
          0 0 0 0 0 0
          0 0 0 0 0 0
          0 0 0 0 0 0
          0 0 0 0 0 0
          0 0 0 0 0 0
          0 0 0 0 0 0
          0 0 0 0 0 0
          0 0 0 0 0 0
          0 0 0 0 0 0
          0 0 0 0 0 0
          0 0 0 0 0 0
          0 0 0 0 0 0
          0 0 0 0 0 0
          0 0 0 0 0 0
          0 0 0 0 0 0
          0 0 0 0 0 0
          0 0 0 0 0 0
          0 0 0 0 0 0
          0 0 0 0 0 0
          0 0 0 0 0 0
          0 0 0 0 0 0
          0 0 0 0 0 0
          0 0 0 0 0 0
          0 0 0 0 0 0
          0 0 0 0 0 0
          0 0 0 0 0 0
          0 0 0 0 0 0
          0 0 0 0 0 0
          0 0 0 0 0 0
          0 0 0 0 0 0
          0 0 0 0 0 0
          0 0 0 0 0 0
          0 0 0 0 0 0
          0 0 0 0 0 0
          0 0 0 0 0 0
          0 0 0 0 0 0
          0 0 0 0 0 0
          0 0 0 0 0 0
          0 0 0 0 0 0
          0 0 0 0 0 0
          0 0 0 0 0 0
          0 0 0 0 0 0
          0 0 0 0 0 0
          0 0 0 0 0 0
          0 0 0 0 0 0
          0 0 0 0 0 0
          0 0 0 0 0 0
          0 0 0 0 0 0
          0 0 0 0 0 0
          0 0 0 0 0 0
          0 0 0 0 0 0
          0 0 0 0 0 0
          0 0 0 0 0 0
          0 0 0 0 0 0
          0 0 0
        </DataArray>
        <DataArray type="Float64" Name="pe33" format="ascii" RangeMin="0" RangeMax="0">
          0 0 0 0 0 0
          0 0 0 0 0 0
          0 0 0 0 0 0
          0 0 0 0 0 0
          0 0 0 0 0 0
          0 0 0 0 0 0
          0 0 0 0 0 0
          0 0 0 0 0 0
          0 0 0 0 0 0
          0 0 0 0 0 0
          0 0 0 0 0 0
          0 0 0 0 0 0
          0 0 0 0 0 0
          0 0 0 0 0 0
          0 0 0 0 0 0
          0 0 0 0 0 0
          0 0 0 0 0 0
          0 0 0 0 0 0
          0 0 0 0 0 0
          0 0 0 0 0 0
          0 0 0 0 0 0
          0 0 0 0 0 0
          0 0 0 0 0 0
          0 0 0 0 0 0
          0 0 0 0 0 0
          0 0 0 0 0 0
          0 0 0 0 0 0
          0 0 0 0 0 0
          0 0 0 0 0 0
          0 0 0 0 0 0
          0 0 0 0 0 0
          0 0 0 0 0 0
          0 0 0 0 0 0
          0 0 0 0 0 0
          0 0 0 0 0 0
          0 0 0 0 0 0
          0 0 0 0 0 0
          0 0 0 0 0 0
          0 0 0 0 0 0
          0 0 0 0 0 0
          0 0 0 0 0 0
          0 0 0 0 0 0
          0 0 0 0 0 0
          0 0 0 0 0 0
          0 0 0 0 0 0
          0 0 0 0 0 0
          0 0 0 0 0 0
          0 0 0 0 0 0
          0 0 0 0 0 0
          0 0 0 0 0 0
          0 0 0 0 0 0
          0 0 0 0 0 0
          0 0 0 0 0 0
          0 0 0 0 0 0
          0 0 0 0 0 0
          0 0 0 0 0 0
          0 0 0 0 0 0
          0 0 0 0 0 0
          0 0 0 0 0 0
          0 0 0 0 0 0
          0 0 0 0 0 0
          0 0 0 0 0 0
          0 0 0 0 0 0
          0 0 0 0 0 0
          0 0 0 0 0 0
          0 0 0 0 0 0
          0 0 0 0 0 0
          0 0 0 0 0 0
          0 0 0 0 0 0
          0 0 0 0 0 0
          0 0 0 0 0 0
          0 0 0 0 0 0
          0 0 0 0 0 0
          0 0 0 0 0 0
          0 0 0 0 0 0
          0 0 0 0 0 0
          0 0 0 0 0 0
          0 0 0 0 0 0
          0 0 0 0 0 0
          0 0 0 0 0 0
          0 0 0 0 0 0
          0 0 0 0 0 0
          0 0 0 0 0 0
          0 0 0 0 0 0
          0 0 0 0 0 0
          0 0 0 0 0 0
          0 0 0 0 0 0
          0 0 0 0 0 0
          0 0 0 0 0 0
          0 0 0 0 0 0
          0 0 0 0 0 0
          0 0 0 0 0 0
          0 0 0 0 0 0
          0 0 0 0 0 0
          0 0 0 0 0 0
          0 0 0 0 0 0
          0 0 0 0 0 0
          0 0 0 0 0 0
          0 0 0 0 0 0
          0 0 0 0 0 0
          0 0 0 0 0 0
          0 0 0 0 0 0
          0 0 0 0 0 0
          0 0 0 0 0 0
          0 0 0 0 0 0
          0 0 0 0 0 0
          0 0 0 0 0 0
          0 0 0 0 0 0
          0 0 0 0 0 0
          0 0 0 0 0 0
          0 0 0 0 0 0
          0 0 0 0 0 0
          0 0 0 0 0 0
          0 0 0 0 0 0
          0 0 0 0 0 0
          0 0 0 0 0 0
          0 0 0 0 0 0
          0 0 0 0 0 0
          0 0 0 0 0 0
          0 0 0 0 0 0
          0 0 0 0 0 0
          0 0 0 0 0 0
          0 0 0 0 0 0
          0 0 0 0 0 0
          0 0 0 0 0 0
          0 0 0 0 0 0
          0 0 0 0 0 0
          0 0 0 0 0 0
          0 0 0 0 0 0
          0 0 0 0 0 0
          0 0 0 0 0 0
          0 0 0 0 0 0
          0 0 0 0 0 0
          0 0 0 0 0 0
          0 0 0 0 0 0
          0 0 0 0 0 0
          0 0 0
        </DataArray>
        <DataArray type="Float64" Name="disp_x" format="ascii" RangeMin="0.00001799559600673649" RangeMax="0.00005">
          0.00002454496939031673 0.000024531404428537063 0.00002349282589744812 0.0000232520113262951 0.00002454499731929855 0.00002453144385606925
          0.000023492863370883993 0.00002325203836517803 0.000024545083401351952 0.000024531562801095918 0.00002349298684444557 0.000023252126322350384
          0.000021402296862432222 0.000021390078302420713 0.000022287768580174115 0.00002219267706803107 0.000021402306352395508 0.00002139008865592791
          0.00002228778221563109 0.00002219269323402868 0.00002140233330764395 0.000021390121335398153 0.000022287832498174996 0.00002219275124323119
          0.000023143288841382024 0.000022622949173614518 0.00002314331313293122 0.000022622966206930234 0.00002314337889261217 0.000022623009465348705
          0.00002221822512679239 0.000023328350626558608 0.00002334008040955823 0.00002221824212227577 0.000023328355710305067 0.000023340096108082074
          0.00002221829113532484 0.00002332837496271042 0.000023340126970292817 0.00002143718870048844 0.000021035687981219046 0.000020436416486903795
          0.00002094162861966936 0.00002143720183950577 0.000021035697572573362 0.0000204364247719898 0.00002094163717200863 0.00002143724712215559
          0.00002103572473993436 0.00002043645660492072 0.0000209416660991386 0.000021844178918801134 0.00002127907377492682 0.000021155550533870346
          0.000021858725757088202 0.00002184419231469813 0.000021279083116317615 0.000021155566005355476 0.0000218587397594634 0.00002184422766871732
          0.000021279118836494983 0.000021155604342107163 0.00002185879342778299 0.000020629657106555795 0.000020398192785282503 0.00002123111123230449
          0.000020629669498344437 0.000020398198138457356 0.000021231124833275858 0.000020629702189895404 0.00002039822207962801 0.000021231153507208657
          0.000024526508372513037 0.000024526525355029884 0.0000245265732529461 0.000020920716642721446 0.000020077895710206466 0.00002092073007705556
          0.000020077903934316245 0.000020920753367313543 0.00002007792304587031 0.000024488078776986067 0.000023312614649418374 0.00002448809514691046
          0.000023312624209368272 0.00002448813260524576 0.00002331264412126023 0.000018937375588629935 0.000018437230547395627 0.000018937382621790874
          0.000018437238259151198 0.000018937406966235175 0.000018437262287971368 0.00001985140877731439 0.0000192849720018423 0.00001969775204869531
          0.00002036785330068373 0.000019851420962999926 0.000019284975229706747 0.000019697758530375502 0.00002036786201998719 0.000019851452270260614
          0.00001928499264198528 0.000019697784123670425 0.000020367894464549754 0.000018364307450705505 0.00001836431997897259 0.00001836434214791218
          0.00001799559600673649 0.0000179956002547759 0.000017995623850417915 0.000022003668309426672 0.000022003675156197553 0.000022003704103552785
          0.000021894858004469797 0.000021249485006649665 0.000021894875250775374 0.000021249496647116054 0.000021894919666258462 0.00002124953454567711
          0.000018327074239244878 0.000018925436500209888 0.00001886236981264672 0.00001827299539546713 0.00001832708081239893 0.00001892543842363518
          0.000018862377421128008 0.000018272995114095205 0.000018327105482790314 0.000018925447547341644 0.00001886239721147475 0.000018273012030158177
          0.000022020088893257765 0.000022491037032011374 0.00002202010895902364 0.000022491054897895683 0.000022020159002478572 0.00002249108539105631
          0.00001842423439740646 0.00001842424423117899 0.000018424269152061538 0.00002056925566933149 0.000020569268196243662 0.00002056929618303031
          0.000018338672253474008 0.00001838362467268866 0.000018338683363311253 0.000018383635047348122 0.000018338717246355773 0.000018383672146821115
          0.000022360876853802173 0.00002237128713167414 0.00002236090085524875 0.00002237131040592309 0.000022360951585843644 0.00002237138060386613
          0.000019415369976920627 0.000019342379900571375 0.000019415378925717863 0.000019342394040353368 0.000019415402449473093 0.000019342407800129723
          0.00001888150689736143 0.000018881519385182663 0.000018881542548621858 0.00001922205508519401 0.000019222066846216184 0.000019222091301628042
          0.000019371618076845345 0.000019371632990337065 0.000019371658655214406 0.00001974048357920647 0.0000197405037064596 0.00001974053445270105
          0.000018748760659717425 0.000018748777414077782 0.000018748801211952863 0.000019407297144818465 0.000019223087129667368 0.0000194072968387769
          0.000019223094619451826 0.00001940731083377413 0.00001922311737500415 0.000021457909239880596 0.000021457929795101946 0.000021457973492547534
          0.00002087973321946426 0.000020414290758111145 0.000020879755901277462 0.000020414306959536146 0.00002087979555350898 0.000020414349801755468
          0.00001952887111800385 0.000018897674944919584 0.000019528880112317 0.00001889767822675943 0.0000195289009157964 0.00001889769030525647
          0.000022790565593822547 0.000022906643125260275 0.000022790595608680452 0.000022906659018637107 0.00002279069076402147 0.000022906731253581427
          0.000018900175000264214 0.000018900188390436208 0.000018900212111345878 0.00001906263629814278 0.000019062645675929987 0.00001906267297258512
          0.000018281176506100866 0.00001828119298883448 0.000018281221682442795 0.000019780663299398063 0.000019432119650068583 0.000019780677733028498
          0.000019432131443932266 0.0000197807084519084 0.000019432158157387838 0.000019711083968107544 0.00001990880464366831 0.00001971108862207005
          0.000019908814522779075 0.000019711112565840836 0.000019908837780878484 0.000020037512548214118 0.000020740054423956872 0.00002021645448799242
          0.000020037528411167756 0.000020740069912448912 0.00002021646866116269 0.000020037560021771413 0.000020740107194246675 0.00002021649774649165
          0.00002041098395245115 0.000020411001808486413 0.000020411030357666113 0.000019982720912373576 0.000020154304966132666 0.00001998274442550911
          0.000020154321271776784 0.0000199827791713483 0.00002015435931543446 0.00002346603901319864 0.000023813960487610938 0.000023466053777917925
          0.000023814002453501987 0.000023466024162176463 0.00002381416047640452 0.00002091397124438213 0.000020913987471578527 0.000020914021733893548
          0.00001954887511005288 0.000019548893033130483 0.000019548920924859608 0.000020807631627696878 0.000020807658900598897 0.000020807694820253222
          0.00002242865606540983 0.000021922664018005523 0.000022428674106789577 0.00002192267994314582 0.000022428726583074206 0.00002192272926427006
          0.000021417833721068025 0.000021417850345982764 0.00002141788656457628 0.000022936060966709493 0.000022936077572200218 0.000022936144045125527
          0.000020751639454204213 0.000020751665500174752 0.000020751712939217853 0.000023445135152412394 0.000023445167020659032 0.000023445278418987233
          0.000023956844435495825 0.000023956910034996117 0.000023957160556919144 0.000024473107146772633 0.00002447314231610313 0.00002447323323107925
          0.000026105493039253042 0.0000261055106010262 0.000026105562313642052 0.000026171777054382005 0.000026171804864360558 0.000026171886342225933
          0.000026219558257166136 0.000026219596121380785 0.00002621970714761458 0.000026225543457410323 0.000026225592159791532 0.000026225736846821918
          0.000026164331749794775 0.00002616438712393103 0.00002616454963446156 0.000031790793050773176 0.00003175263404866546 0.000031790759888031126
          0.00003175260168367733 0.000031790663093446666 0.00003175250495110614 0.00003319075405092642 0.00003314320597474656 0.000033190712954044386
          0.00003314316543774858 0.00003319058933301591 0.000033143044054549774 0.000034580842965779846 0.00003452623857248433 0.000034580795450827234
          0.00003452619137042053 0.00003458065243266676 0.00003452604881802206 0.000035965392847430874 0.0000359067487195865 0.00003596534057416177
          0.00003590669771792508 0.00003596518247409674 0.000035906543750547035 0.000037347816124706566 0.00003728896858285701 0.00003734776216624357
          0.000037288917121261624 0.000037347598507240445 0.00003728875869823562 0.00003873011415137414 0.00003867590159610427 0.00003873006116455401
          0.000038675851452710046 0.000038729900962894474 0.00003867569967096628 0.000040112701733960346 0.00004006921121684891 0.00004011265178558769
          0.00004006916217613757 0.000040112502007843184 0.0000400690186846098 0.000041494641003216434 0.000041469473535630947 0.00004149459764753921
          0.00004146943095581873 0.000041494467742763785 0.00004146930710688278 0.00003186767619887752 0.00003186764281983541 0.00003186754306263036
          0.00003328127199965112 0.00003328122898800596 0.000033281099203836445 0.000034682483579954174 0.00003468243279392788 0.00003468227869907963
          0.00003607494410905152 0.00003607488812120842 0.0000360747163720841 0.000037461086219754676 0.00003746102844407325 0.0000374608502119492
          0.00003884153764519018 0.000038841478888953635 0.00003884129948969737 0.000040214739595870656 0.00004021468532017489 0.00004021452204827967
          0.000041577183968671363 0.00004157713457806972 0.00004157698440780282 0.00003198529884525095 0.00003198526469053622 0.00003198516241372496
          0.00003341805794837567 0.000033418011660101525 0.000033417871811838326 0.000034835867841613975 0.000034835812177505745 0.000034835641803809135
          0.000036241605245068684 0.00003624154201064184 0.000036241348059189015 0.00003763661932840011 0.00003763655257379576 0.00003763634884763474
          0.00003901999998306809 0.00003901993075059806 0.0000390197199158813 0.00004038804920699896 0.000040387988234981604 0.00004038780241019681
          0.00004173476431722938 0.00004173470776466148 0.000041734534076777944 0.00003214688067165155 0.00003214684546788428 0.000032146739291074045
          0.00003360693715146288 0.00003360688561068468 0.00003360672995015744 0.000035049554821209045 0.000035049490288022396 0.00003504929298065377
          0.00003647669202104247 0.00003647661642938273 0.00003647638617672285 0.000037888435889974174 0.00003788835526148025 0.00003788811140133078
          0.0000392822542069343 0.000039282169766747204 0.000039281913757704476 0.00004065235552896191 0.00004065228444317197 0.00004065207089921165
          0.000041990527363086214 0.00004199046192262227 0.00004199026417672431 0.00003235701770707245 0.000032356981789325226 0.00003235687148836548
          0.000033857133137854946 0.00003385707426232473 0.00003385689793188142 0.00003533757943910514 0.00003533750231985789 0.00003533726722108757
          0.000036798758282757754 0.00003679866512902705 0.00003679838246395149 0.00003823885794565093 0.000038238757481710286 0.00003823845464707468
          0.00003965330904050732 0.00003965320228016128 0.000039652877765378515 0.00004103393610065669 0.00004103384989444279 0.00004103358909536161
          0.00004237001623739318 0.000042369938372385966 0.00004236970176128467 0.00003104045457570002 0.00003104044896323575 0.00003104042192014669
          0.000032621889509482176 0.000032621849024360634 0.000032621727217999596 0.00003418305975400069 0.000034182987308456804 0.00003418276935558918
          0.00003572272773188893 0.00003572262836331483 0.0000357223247786211 0.00003723776928521761 0.00003723764789704164 0.00003723727776869735
          0.00003872257252767997 0.000038722442646233625 0.00003872205185554658 0.00004016927335404196 0.000040169134419932705 0.000040168711690558204
          0.000041566214227959775 0.00004156612299727883 0.000041565854287826826 0.000042899177982243544 0.00004289909783577712 0.000042898862046330764
          0.00003127576445926037 0.000031275772505027186 0.00003127579896287562 0.00003294954177680559 0.00003294950509787254 0.00003294939428494561
          0.00003460784302058932 0.000034607761695033445 0.00003460751363281241 0.000036242645204792625 0.000036242523575192794 0.00003624215473665994
          0.00003784234203368579 0.000037842186406239146 0.00003784171252436982 0.000039393595629957276 0.000039393425331910954 0.00003939291355279599
          0.00004088196554357279 0.00004088176706658526 0.00004088115950225913 0.00004229006767071714 0.00004228993053442538 0.000042289512499150846
          0.00004359808328233967 0.000043597968829170395 0.00004359761626678339 0.00003152809354629265 0.00003152811598957743 0.000031528178291572214
          0.000033351782636021325 0.00003335173199591187 0.000033351580422633716 0.00003517203652365692 0.000035171913751555715 0.000035171545752900506
          0.00003696120203533127 0.00003696102097049694 0.0000369604806277081 0.000038691489421447725 0.00003869126657625363 0.00003869059590345751
          0.00004033538794944189 0.000040335160493684646 0.00004033449011774661 0.00004186454309316057 0.000041864284982252665 0.00004186350044663929
          0.00004324519863589228 0.0000432451287259807 0.000043244950803554665 0.00004445373622314758 0.000044453677675978053 0.00004445350722281962
          0.00003176127015836607 0.000031761359089194756 0.000031761635825255866 0.00003385540474700911 0.00003385531719393874 0.00003385504746812237
          0.00003594919359197769 0.000035948984447933154 0.00003594834612127617 0.000037984793933420194 0.00003798449944451043 0.000037983604565756966
          0.00003991187391899701 0.000039911506869259494 0.000039910377573616364 0.000041678717437569866 0.000041678340113156676 0.00004167720807746609
          0.000043228773285216717 0.00004322831379783434 0.00004322689042851238 0.00004448950755238681 0.00004448927480012756 0.000044488563141951546
          0.000045376667979734386 0.00004537664309070092 0.00004537656190615085 0.000042452684034429935 0.000042473185443765905 0.00004245265117998622
          0.0000424731487575224 0.00004245255491031096 0.000042473039883507736 0.00004254292852472421 0.000042542886277771645 0.000042542750042048855
          0.000042681996995688766 0.000042681944059816365 0.00004268177722028644 0.00004291326118276132 0.00004291319878842726 0.000042913005196241224
          0.00004325708857336431 0.0000432570178013714 0.00004325679908741129 0.00004372924021974285 0.00004372915567493113 0.000043728892884521045
          0.000044330350861792274 0.000044330274031099886 0.00004433003833599316 0.00004502688864572079 0.00004502677609247168 0.000045026386413012453
          0.000045596928214261857 0.00004559716570535333 0.00004559789219317887 0.00004343986442217082 0.000043454059581550096 0.00004343983997375009
          0.000043454031008933574 0.00004343976544568929 0.00004345394289083881 0.000043507160229712665 0.00004350712426970255 0.00004350701100013764
          0.00004362359907125044 0.00004362355761865819 0.00004362342366683852 0.00004382677621024017 0.00004382672941198307 0.00004382658766141352
          0.00004413185865337946 0.00004413181446549248 0.00004413167996817007 0.000044544732697833225 0.000044544695563941655 0.00004454459059750103
          0.000045053440594919656 0.00004505344506367908 0.00004505346952458615 0.000045596762632201844 0.00004559683152832526 0.000045597057813485936
          0.00004594983651356548 0.00004595025125551551 0.00004595156584679919 0.000044431415583790094 0.000044437191300450065 0.00004443139122784974
          0.00004443716466693815 0.00004443134077946998 0.000044437098839434184 0.00004446875075124658 0.00004446872043908004 0.00004446862016695682
          0.00004455820680095564 0.000044558168963117995 0.00004455804611385974 0.00004473039071067512 0.00004473034928846602 0.00004473022179206901
          0.000044994440701188734 0.000044994404161941344 0.00004499428832486014 0.00004534739740684223 0.00004534737228191913 0.000045347295361348285
          0.00004576668450512949 0.00004576668673535826 0.00004576668597134537 0.000046179186532835835 0.00004617925269883922 0.0000461794326836297
          0.00004640318310889682 0.00004640336282601013 0.000046403869204022515 0.000045428182892564896 0.000045422748183890154 0.0000454281963507424
          0.00004542275819601109 0.000045428195483885284 0.00004542273764210456 0.00004542625168680327 0.000045426214065870886 0.00004542612243586427
          0.00004548423978697884 0.000045484206117494905 0.00004548409492988973 0.0000456236162789176 0.00004562358131776723 0.00004562347584492859
          0.000045845364982263256 0.00004584533673878028 0.00004584525201044671 0.00004613808587996629 0.000046138072939911575 0.000046138036968093684
          0.00004647295657478218 0.00004647297069981673 0.00004647302041258472 0.00004677983646396111 0.000046779902207711135 0.00004678010240965275
          0.000046923108111007435 0.00004692325367666023 0.00004692372101382548 0.000046431571285895065 0.00004641154644466371 0.00004643154842306282
          0.00004641152910577618 0.00004643162971704728 0.00004641161142503883 0.00004637769202020449 0.00004637772482582535 0.00004637769563354079
          0.000046400223096414826 0.0000464001687566701 0.00004640003480617526 0.000046506965211794745 0.000046506940012388605 0.00004650685039380864
          0.00004668624368132456 0.00004668622011033343 0.000046686155250958085 0.00004691923950975825 0.00004691923177873745 0.00004691921050294819
          0.000047176566272643994 0.00004717658263471826 0.0000471766342602613 0.000047399168565783556 0.000047399222494326075 0.00004739938205753021
          0.000047490543246408735 0.00004749064267681009 0.00004749093588796617 0.000047441724677897106 0.000047404342489358694 0.00004744177622068629
          0.00004740431746865535 0.00004744151318609479 0.000047403942338074265 0.000047320458451337624 0.00004732013298085846 0.00004731967654423294
          0.00004730494861168699 0.000047304987380748845 0.00004730496058049486 0.00004738253068503645 0.00004738247884185933 0.000047382368991382555
          0.00004751963637663968 0.000047519627011179404 0.00004751958126612333 0.0000476937751398263 0.000047693767310839134 0.0000476937580096627
          0.000047880300637828755 0.0000478803152000712 0.00004788036063057145 0.000048034679002445715 0.00004803471890123781 0.00004803483982770705
          0.000048091490642099564 0.00004809155716646553 0.000048091762468132445 0.0000484556799005929 0.00004840424684153668 0.00004845622103202551
          0.00004840520757029489 0.00004845874618374658 0.000048408498883594986 0.000048248211430782214 0.000048249374196465946 0.00004825072693607291
          0.00004819987101500186 0.00004819947550086716 0.000048198852501726406 0.000048254405610328625 0.000048254472089742795 0.000048254512836750004
          0.00004834845762855791 0.00004834841779584585 0.0000483483489132895 0.00004846420525577977 0.00004846421114960477 0.00004846421428439712
          0.0000485854959830761 0.00004858550290623674 0.000048585534055137614 0.00004868271636390032 0.00004868274413234261 0.00004868282399681327
          0.00004871556859381219 0.00004871561017668457 0.00004871573742716319 0.000049459615207365643 0.000049424376595636674 0.000049455885308728494
          0.000049419390237323496 0.00004944358215986199 0.00004940525392619321 0.00004916362427233215 0.00004915856099367865 0.000049151428532046875
          0.0000490901185945005 0.00004909132866693328 0.00004909286056652406 0.00004912788349793413 0.00004912754308606815 0.00004912707552937128
          0.00004917440307217524 0.00004917448557540435 0.00004917458452857941 0.00004923258601117479 0.000049232560969956426 0.00004923253315136644
          0.00004929224111308149 0.00004929225221539844 0.000049292276000601925 0.00004933923456823201 0.00004933924599644216 0.000049339283442667256
          0.00004935424481865646 0.00004935426631130691 0.000049354329392795085 0.00005 0.00005 0.00005
          0.00005 0.00005 0.00005 0.00005 0.00005 0.00005
          0.00005 0.00005 0.00005 0.00005 0.00005 0.00005
          0.00005 0.00005 0.00005 0.00005 0.00005 0.00005
          0.00005 0.00005 0.00005 0.00005 0.00005 0.00005
          0.00005 0.00005 0.00005
        </DataArray>
        <DataArray type="Float64" Name="disp_y" format="ascii" RangeMin="-0.000004952722585914607" RangeMax="0">
          -0.000002604785027939161 -0.000003030992869096405 -0.000003115624443451179 -0.000002887351118514368 -0.000002604781832854802 -0.0000030310023220005074
          -0.000003115636687087001 -0.0000028873550707623753 -0.000002604772597445801 -0.0000030310259729969875 -0.000003115663096607511 -0.0000028873601001697685
          -0.000002337620040641763 -0.0000021135174384318798 -0.0000020904353779004746 -0.0000023652689992597595 -0.000002337620484213869 -0.0000021135160783138815
          -0.0000020904333807024134 -0.0000023652693983035594 -0.0000023376281860321795 -0.0000021135107373060085 -0.0000020904327207104434 -0.0000023652643265548447
          -0.0000024420738005466125 -0.000002712186749955003 -0.0000024420794502313074 -0.000002712205237460907 -0.000002442101805668983 -0.000002712280167956031
          -0.0000017976122168582724 -0.000001776617687275338 -0.0000021224610828538965 -0.0000017976110664500083 -0.0000017766111451814827 -0.0000021224548408332264
          -0.0000017976038740462476 -0.0000017765937974496459 -0.0000021224311126179054 -0.000003084665164218076 -0.0000031861506109011125 -0.0000031597085328539892
          -0.0000029708342468275198 -0.000003084675665537136 -0.000003186157238846888 -0.0000031597166298143736 -0.0000029708407103648845 -0.0000030847126701292266
          -0.000003186178276267156 -0.000003159745959339986 -0.000002970865896081123 -0.0000034355583955571035 -0.0000034604070454719333 -0.0000033048113660409714
          -0.000003243425711878684 -0.000003435574929825157 -0.0000034604185824084615 -0.000003304823355838686 -0.000003243434755950943 -0.000003435622631235745
          -0.00000346046804312881 -0.0000033048426028216214 -0.00000324347039002204 -0.00000217199833352068 -0.0000019739729595539713 -0.0000018702677880990202
          -0.000002171996603078807 -0.0000019739721916254306 -0.0000018702643466002875 -0.000002171997023291903 -0.0000019739770981256648 -0.0000018702517843907991
          -0.000002193421292591591 -0.0000021934120030371382 -0.0000021933846394864513 -0.0000016421826198212657 -0.0000017766870127331097 -0.000001642187221116389
          -0.0000017766852382547988 -0.000001642195152700837 -0.000001776682094817927 -0.0000017995464253683071 -0.0000014359777102668301 -0.000001799539539264054
          -0.0000014359724152553816 -0.0000017995145900655748 -0.000001435949179691377 -0.000003271902002839463 -0.000003181852902013565 -0.000003271913031009146
          -0.000003181860663836574 -0.000003271943082079483 -0.0000031818910843186947 -0.0000030193432989014935 -0.0000029234036414876557 -0.0000027156916390871647
          -0.0000028594092187605702 -0.0000030193509716202343 -0.0000029234093201421022 -0.0000027156912413825057 -0.0000028594169652320588 -0.0000030193731275963907
          -0.0000029234326382379018 -0.000002715704402130862 -0.0000028594388078901782 -0.0000019185619870708573 -0.0000019185678923384914 -0.0000019185723428015625
          -0.0000030969613688280914 -0.0000030969666311514236 -0.000003096988283950431 -0.0000014531799480855683 -0.0000014531767037479227 -0.0000014531700712940687
          -0.0000025996444024206713 -0.000002527226575874992 -0.000002599649060441478 -0.0000025272321631158745 -0.000002599659214353202 -0.000002527248997077879
          -0.0000021272777365685985 -0.0000021447734995239482 -0.00000232750733966755 -0.000002333212581290391 -0.000002127281193270629 -0.000002144774291976152
          -0.000002327509251731635 -0.0000023332095982735174 -0.0000021272909553411724 -0.0000021447842101872285 -0.000002327515860403815 -0.0000023332177021311423
          -0.000002921573657197738 -0.0000030675182050319502 -0.0000029215845903609596 -0.0000030675257363456856 -0.000002921603156683121 -0.0000030675398859514704
          -0.0000029887090981333086 -0.0000029887160234894055 -0.0000029887354333184467 -0.0000033438914422489963 -0.0000033439057308117812 -0.000003343937203238049
          -0.0000027164693557408985 -0.0000028310150105929177 -0.0000027164742448816566 -0.0000028310248031521355 -0.0000027164877631518962 -0.000002831048790196041
          -0.000003295875576156209 -0.0000034176261315206997 -0.000003295892629102916 -0.0000034176447296019754 -0.0000032959351018269793 -0.0000034177012952157724
          -0.000002303032964105007 -0.0000021724084054518222 -0.000002303031553556657 -0.0000021724116025961076 -0.000002303033916783303 -0.000002172410670372054
          -0.000003066924324854089 -0.000003066937127697044 -0.000003066959463579449 -0.000001919129672615748 -0.000001919135753967369 -0.000001919144994316534
          -0.000003154810784810845 -0.0000031548243336666585 -0.0000031548495325050256 -0.000002083646281846129 -0.000002083656365409191 -0.0000020836695370267895
          -0.0000028620891807809083 -0.000002862104017749613 -0.0000028621336408723213 -0.000003675235359303711 -0.000003553857961933026 -0.00000367523763971428
          -0.0000035538706972125793 -0.000003675267376907756 -0.0000035539110275886268 -0.0000027978038804640574 -0.00000279781802533987 -0.0000027978506994952694
          -0.0000026939054614586475 -0.0000025763497795021657 -0.000002693920215604986 -0.0000025763579840884964 -0.000002693948847308887 -0.0000025763707363720086
          -0.000002486556076689109 -0.0000025195054325397323 -0.000002486564653277937 -0.000002519507921464579 -0.00000248657256265018 -0.0000025195083555948735
          -0.0000032204489549454624 -0.0000033811455224506887 -0.0000032204616425778365 -0.0000033811664372710256 -0.0000032205093517677486 -0.000003381216049944252
          -0.000002707736748873247 -0.000002707749905350111 -0.0000027077669801884693 -0.0000034303536128973222 -0.000003430369520100423 -0.0000034304031830669237
          -0.000002535599657433315 -0.0000025356129886753178 -0.000002535626096125354 -0.000003258963822762529 -0.0000033195659165214305 -0.0000032589756121304927
          -0.000003319580121331743 -0.0000032589993148928976 -0.0000033196102222080368 -0.0000035374899758993294 -0.0000036604093723572898 -0.0000035375007107019953
          -0.0000036604189067125905 -0.0000035375417671334124 -0.0000036604603268207925 -0.0000033821795262841445 -0.0000034878176015768185 -0.0000035146049883178234
          -0.0000033821964050902293 -0.000003487837993831281 -0.0000035146242866954115 -0.0000033822304212938405 -0.0000034878833762298817 -0.0000035146706942157823
          -0.000003644413866003674 -0.000003644443129447384 -0.00000364449663266642 -0.000002243603139897486 -0.0000024176341203604863 -0.0000022436130212304176
          -0.0000024176409039244448 -0.000002243620477635985 -0.0000024176502979969486 -0.0000033385485406636124 -0.0000033548176004657092 -0.000003338578089903758
          -0.0000033548365211837086 -0.0000033387106045898155 -0.000003354932148811464 -0.0000036272588640421118 -0.0000036272842008705655 -0.0000036273392971606886
          -0.0000034127396879246458 -0.0000034127625918544 -0.0000034127956835574356 -0.0000024855898100840617 -0.000002485598882408834 -0.0000024856083973024236
          -0.000003567727327912531 -0.0000035889859900766494 -0.000003567748655695255 -0.00000358900897451386 -0.00000356781456894891 -0.000003589069221637936
          -0.0000036088111037137475 -0.000003608842306241816 -0.000003608906080980989 -0.0000035446760664976546 -0.000003544698378077148 -0.000003544801157955571
          -0.00000235548168572939 -0.00000235548895796737 -0.0000023554903950189157 -0.0000035196059672402286 -0.0000035196041220644025 -0.0000035195956194185745
          -0.0000034925432826134383 -0.0000034925086670777744 -0.000003492346060048562 -0.0000034645550000554706 -0.0000034645641221084222 -0.0000034646100114956517
          -0.0000017123543194198623 -0.00000171233788861328 -0.0000017122867767753627 -0.0000020919070704001213 -0.0000020918896411365695 -0.00000209183797551662
          -0.0000024940628820587335 -0.0000024940465870645078 -0.000002493995635111684 -0.0000029199412593308354 -0.000002919945338628621 -0.0000029199608190836736
          -0.000003360686590457746 -0.000003360714595310417 -0.000003360799175020433 -2.990252748654465e-7 0 -2.990175156004215e-7
          0 -2.9899497209440525e-7 0 -3.13997084741675e-7 0 -3.1398998697982524e-7
          0 -3.1396846562634205e-7 0 -3.4074122199196214e-7 0 -3.4073519737518733e-7
          0 -3.4071748598024034e-7 0 -3.789870257858818e-7 0 -3.7898311773684026e-7
          0 -3.7897149967379025e-7 0 -4.2757401804685307e-7 0 -4.275731004937344e-7
          0 -4.27570408303901e-7 0 -4.845854747228795e-7 0 -4.845881363740953e-7
          0 -4.845960294215673e-7 0 -5.476561445088417e-7 0 -5.476628049511669e-7
          0 -5.476829271857707e-7 0 -6.144590322912868e-7 0 -6.144682551073176e-7
          0 -6.144955807199103e-7 0 -5.972904821323277e-7 -5.972756876054243e-7 -5.972291706434511e-7
          -6.268662353558018e-7 -6.268516514956221e-7 -6.268081909877055e-7 -6.803850797984504e-7 -6.803740359334561e-7 -6.803405775675391e-7
          -7.571316727564621e-7 -7.571254718029582e-7 -7.571064010008715e-7 -8.544563314084096e-7 -8.544559537779122e-7 -8.54454795605599e-7
          -9.680981148417954e-7 -9.681038247376308e-7 -9.681221976961777e-7 -0.000001092826049707558 -0.000001092839352379871 -0.0000010928800652493904
          -0.0000012233284029721777 -0.0000012233473205905432 -0.0000012234028385119636 -8.942292677267216e-7 -8.942044155333637e-7 -8.941297740899287e-7
          -9.372877458269262e-7 -9.372641637408107e-7 -9.371941408326311e-7 -0.0000010171863688531848 -0.0000010171680277807358 -0.0000010171129340352606
          -0.0000011325441853672759 -0.000001132533374384962 -0.000001132500923030419 -0.000001278769976106626 -0.0000012787687267524014 -0.0000012787650213801234
          -0.000001448619073139335 -0.0000014486282132089958 -0.000001448655875546642 -0.000001633163977374912 -0.0000016331847038654235 -0.000001633245601418604
          -0.0000018231705717209274 -0.0000018231982820322996 -0.0000018232792140713076 -0.0000011900078709283945 -0.000001189970014426843 -0.0000011898537783907038
          -0.0000012445967135664388 -0.000001244561207191571 -0.000001244453302585629 -0.0000013499119280045118 -0.0000013498840756680273 -0.0000013497988058011585
          -0.0000015036712319050922 -0.0000015036548880409644 -0.0000015036051746170506 -0.0000016988604140785768 -0.0000016988589202814498 -0.0000016988539296590738
          -0.00000192452596004971 -0.0000019245406178005772 -0.0000019245840897771196 -0.0000021670457388869594 -0.0000021670776692359463 -0.00000216717333060983
          -0.00000241220797658177 -0.000002412250200427706 -0.000002412377004807 -0.0000014863128340426706 -0.000001486263164749456 -0.0000014861133239561166
          -0.0000015494835164209814 -0.000001549434985699863 -0.000001549293877683589 -0.0000016783202078652836 -0.0000016782826421572233 -0.0000016781724155117895
          -0.0000018693441628458678 -0.0000018693227890124503 -0.0000018692606834044788 -0.0000021127382036340964 -0.0000021127380509850903 -0.0000021127372407294018
          -0.0000023932518067891987 -0.000002393274704358089 -0.000002393340510507651 -0.000002691492281890079 -0.0000026915377805446013 -0.0000026916699282767614
          -0.000002986694483565123 -0.0000029867490445815078 -0.0000029869060068383078 -0.0000017975145419403007 -0.0000017974364025050462 -0.0000017971878477206308
          -0.0000017878840783688965 -0.0000017877958350245746 -0.0000017875235477812168 -0.0000018554561026481685 -0.0000018553740857375774 -0.000001855122542480648
          -0.0000020039646190439452 -0.0000020039002053866483 -0.000002003702848066349 -0.000002228350914086557 -0.0000022283144219976536 -0.0000022282021516479196
          -0.0000025161345669833686 -0.000002516134697636504 -0.0000025161333514338176 -0.000002847911591509913 -0.0000028479520878611484 -0.0000028480724508221413
          -0.000003197502356278346 -0.0000031975904100625223 -0.000003197859431058451 -0.0000035350785336850483 -0.0000035351885090266762 -0.0000035355256759857777
          -0.0000021299478985741376 -0.0000021298831447232467 -0.0000021296970787955604 -0.0000021048779199505637 -0.0000021048030777170737 -0.0000021045856952248763
          -0.0000021709762817916818 -0.000002170902965837802 -0.0000021706908677794086 -0.000002330724284090447 -0.0000023306693956519765 -0.0000023305110692800793
          -0.000002577517589496803 -0.0000025774931520923783 -0.000002577421682085499 -0.0000028978023057400898 -0.000002897815726338085 -0.0000028978543905592477
          -0.0000032703028177441547 -0.000003270357209224776 -0.0000032705153303138344 -0.000003662722593943985 -0.000003662819015953192 -0.0000036631001708350742
          -0.000004031446991105054 -0.000004031533678254075 -0.0000040317773299286745 -0.00000250489683835214 -0.000002504703292618451 -0.000002504119335942734
          -0.000002462137019042884 -0.000002461915812643156 -0.0000024612554374687994 -0.0000025163434494555846 -0.000002516144157506929 -0.000002515552082572048
          -0.000002667045430533012 -0.0000026668952527213696 -0.0000026664494299088287 -0.000002908833747516413 -0.0000029087552587929356 -0.000002908522471852221
          -0.0000032309659601747758 -0.000003230980032880828 -0.0000032310252123377527 -0.00000361499303881839 -0.0000036151137193069637 -0.0000036154768766267742
          -0.0000040318981925825915 -0.000004032166375292999 -0.000004032982123617614 -0.0000044244090641110174 -0.000004424773968105993 -0.000004425862074190998
          -0.000002963735959149518 -0.0000029633484731640377 -0.0000029621852169085732 -0.0000029022304483053815 -0.0000029018085187184505 -0.0000029005253467779484
          -0.000002918727195629072 -0.0000029183589036423267 -0.000002917236506810356 -0.000003016296873104047 -0.0000030160168299952874 -0.00000301515814287514
          -0.0000031958355897289627 -0.0000031956795175907812 -0.0000031951932589190005 -0.0000034554516968691328 -0.000003455457522459493 -0.0000034554645783539643
          -0.0000037883391536602497 -0.0000037885336564051074 -0.0000037891129566158377 -0.0000041787837521178494 -0.000004179286211615183 -0.000004180793768110094
          -0.000004632417956532123 -0.000004633150414215011 -0.000004635383143281992 0 -6.375358799437416e-7 0
          -6.375496967093904e-7 0 -6.37589559144877e-7 -0.0000012672227334660753 -0.0000012672481963218234 -0.0000012673221305743088
          -0.0000018847229370253178 -0.0000018847570862976907 -0.0000018848581031448053 -0.000002488538932752544 -0.000002488587819289232 -0.00000248873487324089
          -0.0000030753463377140287 -0.0000030754106020718237 -0.0000030755998110448365 -0.0000036342967631728217 -0.000003634414140326673 -0.000003634772023639522
          -0.000004143636210945438 -0.000004143761165889734 -0.000004144130399705668 -0.0000045651701258569516 -0.000004565505245146802 -0.000004566520553130105
          -0.000004830557882118722 -0.000004831167543705978 -0.000004833004821775836 0 -6.576251501826885e-7 0
          -6.576419980856889e-7 0 -6.576915223791471e-7 -0.0000013042429666712045 -0.000001304272334799742 -0.0000013043583792033972
          -0.0000019344539202648054 -0.000001934492301404829 -0.000001934605517643787 -0.000002547351118027718 -0.0000025474003807201767 -0.0000025475477312948346
          -0.000003139790099352648 -0.000003139858261660884 -0.000003140060557954601 -0.000003700654279090243 -0.0000037007530785996316 -0.0000037010483306820237
          -0.000004208800300338441 -0.000004208930431609883 -0.000004209319554478589 -0.000004623979180167007 -0.0000046241894821835845 -0.0000046248130661246095
          -0.000004912563962355376 -0.000004912837439469616 -0.000004913653805638486 0 -6.74442128916533e-7 0
          -6.744639332854047e-7 0 -6.745275539716163e-7 -0.000001333727741366956 -0.0000013337630321197512 -0.0000013338667442326004
          -0.000001971543790051309 -0.000001971584663837111 -0.0000019717060785445727 -0.000002588375058140833 -0.0000025884252166700256 -0.0000025885742126958123
          -0.0000031812074960735168 -0.0000031812725710842294 -0.0000031814667839668172 -0.000003737537971914586 -0.0000037376255586346756 -0.0000037378858267506498
          -0.000004234291704888839 -0.000004234403445689062 -0.000004234738361184065 -0.000004638944752640346 -0.0000046390823317276925 -0.000004639493849152189
          -0.000004944489829749353 -0.000004944639838640289 -0.000004945089499196952 0 -6.875783506785514e-7 0
          -6.876068665224714e-7 0 -6.876923059909448e-7 -0.000001354925166365512 -0.0000013549685181644393 -0.000001355095370892459
          -0.0000019953928357770125 -0.0000019954354939610007 -0.000001995563064572201 -0.0000026123520529699056 -0.0000026124000101161706 -0.000002612541494076769
          -0.000003202715537437322 -0.0000032027757652793876 -0.0000032029557550723885 -0.0000037513682065550622 -0.000003751443319789765 -0.0000037516664883037363
          -0.000004235364986779562 -0.000004235455687037754 -0.000004235726126840763 -0.00000463288141790468 -0.000004632970313580542 -0.0000046332360518684565
          -0.000004952405057531581 -0.000004952485282806115 -0.000004952722585914607 0 -6.958568669833294e-7 0
          -6.958991070056247e-7 0 -6.960188498554012e-7 -0.0000013661785137851858 -0.000001366235482628152 -0.0000013664079161236142
          -0.0000020050076321689734 -0.00000200504902581673 -0.000002005172308948717 -0.0000026206817653345644 -0.0000026207263578756135 -0.0000026208602000794155
          -0.0000032086580316813857 -0.0000032087132376952306 -0.0000032088723111614385 -0.0000037501688227392064 -0.000003750231538506328 -0.000003750422279619017
          -0.0000042239306461276325 -0.000004224002517226985 -0.0000042242144283014205 -0.000004617783076810242 -0.000004617841519953067 -0.00000461801539924198
          -0.000004948782081830723 -0.000004948823321483651 -0.0000049489461703577754 0 -6.958495963164302e-7 0
          -6.959001702578716e-7 0 -6.960687452731752e-7 -0.0000013636800311269874 -0.0000013637553572759095 -0.000001363976119493837
          -0.000001998624684465756 -0.000001998672883404266 -0.0000019987904411260925 -0.0000026154771855842943 -0.000002615511463272838 -0.000002615619901858668
          -0.0000032044976343529104 -0.0000032045453120189414 -0.000003204690194707376 -0.0000037412755217187076 -0.0000037413304842384636 -0.000003741488334794283
          -0.000004208128316105204 -0.000004208183564371996 -0.000004208352209996651 -0.0000046006765096135535 -0.000004600715961074946 -0.000004600829299690678
          -0.000004940619918662023 -0.0000049406397731430265 -0.000004940698925128285 0 -6.77082315668232e-7 0
          -6.772027843486246e-7 0 -6.77514401001584e-7 -0.000001337974168855845 -0.0000013381391931222863 -0.000001338613088869977
          -0.000001973398080330149 -0.0000019733733790662313 -0.000001973379655253343 -0.000002601840834117191 -0.0000026018897773113897 -0.0000026019965558430093
          -0.0000031961737400821707 -0.00000319620909942817 -0.0000031963252789464054 -0.0000037305885393463945 -0.0000037306349426868707 -0.0000037307729796001324
          -0.000004193383123834383 -0.0000041934301943816015 -0.000004193566966242832 -0.000004585869864398195 -0.00000458589536855945 -0.000004585972272645679
          -0.000004932189719791364 -0.000004932199011118241 -0.000004932220033891849 0 -6.157869829741133e-7 0
          -6.158061489925689e-7 0 -6.160049128524713e-7 -0.0000012638558197964884 -0.0000012638666651510524 -0.000001264146701370032
          -0.0000019373996428469995 -0.0000019374917856973887 -0.0000019374698896018428 -0.0000025894216630296043 -0.000002589382455343375 -0.0000025893959739311868
          -0.000003188672078504404 -0.000003188730048003869 -0.0000031888590497889172 -0.0000037224013239604824 -0.000003722436025761256 -0.0000037225506324646994
          -0.000004183230923046395 -0.0000041832722274712624 -0.000004183393429085523 -0.000004575995648505588 -0.000004576014615210847 -0.000004576069715247757
          -0.000004926174818500449 -0.000004926176443595461 -0.000004926178192318975 0 -5.855615908944438e-7 0
          -5.840808671217635e-7 0 -5.790516411548524e-7 -0.0000012186996284005305 -0.0000012169397546244381 -0.0000012104021923935567
          -0.0000019219666180700596 -0.000001920963731002525 -0.0000019205429553232715 -0.0000025834617866114523 -0.0000025840849589988435 -0.0000025846916167604883
          -0.000003186112132947237 -0.0000031859008979301074 -0.0000031857400235211534 -0.0000037192523662586084 -0.000003719377308434088 -0.0000037195921922268405
          -0.000004179648988609843 -0.000004179660519415617 -0.000004179742187498911 -0.000004572533179160555 -0.000004572559380605251 -0.000004572619568438431
          -0.000004924005965739316 -0.000004924001481123582 -0.000004923991355036653
        </DataArray>
        <DataArray type="Float64" Name="disp_z" format="ascii" RangeMin="-1.1534318211661865e-7" RangeMax="1.3200833629171574e-7">
          0 0 0 0 -4.560016675017252e-8 -4.569955611099975e-8
          -4.522578283062141e-8 -4.490423582609063e-8 -9.119891519253687e-8 -9.140516850813604e-8 -9.046194756899766e-8 -8.979949049554784e-8
          0 0 0 0 -4.4814988755875874e-8 -4.481340811990424e-8
          -4.497970782628748e-8 -4.493468692233719e-8 -8.963254812825476e-8 -8.962747106017548e-8 -8.995776133553026e-8 -8.986567203710189e-8
          0 0 -4.5293511572009067e-8 -4.4939803345965675e-8 -9.059065079740999e-8 -8.98838222624705e-8
          0 0 0 -4.4947307139482544e-8 -4.518406103035795e-8 -4.527055371100048e-8
          -8.989292842578884e-8 -9.036992846034508e-8 -9.0539166694493e-8 0 0 0
          0 -4.453103175611129e-8 -4.440678915544446e-8 -4.4361192513841563e-8 -4.452970093464487e-8 -8.906042256938782e-8
          -8.881257485851545e-8 -8.872200492648176e-8 -8.9062468220792e-8 0 0 0
          0 -4.4426680970049304e-8 -4.433793526140385e-8 -4.4403030339398505e-8 -4.455655014556326e-8 -8.885318065090743e-8
          -8.867404848716288e-8 -8.880857605456938e-8 -8.910950535010176e-8 0 0 0
          -4.467113732701829e-8 -4.465627746406883e-8 -4.4761690249043675e-8 -8.934132349546607e-8 -8.931101537215541e-8 -8.952519869057292e-8
          0 -4.546829511288137e-8 -9.093611791033829e-8 0 0 -4.4694309878690253e-8
          -4.464810174674218e-8 -8.93874918396197e-8 -8.929840459645689e-8 0 0 -4.5299043105841774e-8
          -4.506156205326007e-8 -9.059721822431922e-8 -9.012265708879092e-8 0 0 -4.412335794450877e-8
          -4.411918440930362e-8 -8.824848727737292e-8 -8.824022152473595e-8 0 0 0
          0 -4.432863511850255e-8 -4.430272638442944e-8 -4.4429888243919805e-8 -4.44736781590339e-8 -8.865694723822053e-8
          -8.860545632251901e-8 -8.885998085702799e-8 -8.894593006859764e-8 0 -4.4439563981289426e-8 -8.887815714504751e-8
          0 -4.4110279400578215e-8 -8.8222602048284e-8 0 -4.487514731543017e-8 -8.975034316265638e-8
          0 0 -4.4863901361861067e-8 -4.474955661533819e-8 -8.972501138011031e-8 -8.949765076315788e-8
          0 0 0 0 -4.441268062313309e-8 -4.445975647945679e-8
          -4.4408024260532496e-8 -4.435376965944773e-8 -8.882554915251103e-8 -8.892194033893982e-8 -8.881547987184737e-8 -8.870906317133803e-8
          0 0 -4.473963955489333e-8 -4.4807812633194986e-8 -8.948175724365994e-8 -8.962232005815067e-8
          0 -4.418676157000874e-8 -8.83742180091447e-8 0 -4.4287476977198754e-8 -8.857437925556344e-8
          0 0 -4.427856113528964e-8 -4.426087201334825e-8 -8.855690669170053e-8 -8.852791164133308e-8
          0 0 -4.462547081506072e-8 -4.4549398121641454e-8 -8.92508145671545e-8 -8.910307429524778e-8
          0 0 -4.448148361414141e-8 -4.44725224264369e-8 -8.89664126319204e-8 -8.894153932173028e-8
          0 -4.420473462496178e-8 -8.840910025800621e-8 0 -4.4522078442986795e-8 -8.90439356879589e-8
          0 -4.421397009998233e-8 -8.84281750832581e-8 0 -4.453718490848483e-8 -8.907274937920079e-8
          0 -4.428603654937527e-8 -8.85683449201429e-8 0 0 -4.394498059686492e-8
          -4.40107005010142e-8 -8.789768677049915e-8 -8.802165455651701e-8 0 -4.467806154004221e-8 -8.935485957176182e-8
          0 0 -4.463289828424295e-8 -4.459684176904528e-8 -8.926356964987716e-8 -8.919458648268841e-8
          0 0 -4.444841123189931e-8 -4.438599516331158e-8 -8.889405164490807e-8 -8.877331065110616e-8
          0 0 -4.477835228476952e-8 -4.475815831881814e-8 -8.955126229771528e-8 -8.950626501918902e-8
          0 -4.4353857052231756e-8 -8.870619500645204e-8 0 -4.40657383298602e-8 -8.81363780783134e-8
          0 -4.4311206816577764e-8 -8.86228983561248e-8 0 0 -4.422349115738397e-8
          -4.414998708564206e-8 -8.844755306873809e-8 -8.829658698058244e-8 0 0 -4.40666027141588e-8
          -4.399372876180965e-8 -8.813630110484178e-8 -8.798891811344278e-8 0 0 0
          -4.4204324119224924e-8 -4.4223241546272623e-8 -4.414396477260691e-8 -8.840733159313906e-8 -8.844436110627973e-8 -8.82863584135314e-8
          0 -4.406028491644885e-8 -8.812280145366396e-8 0 0 -4.456630263875344e-8
          -4.45632396184026e-8 -8.913499812151595e-8 -8.912741117644673e-8 0 0 -4.483694141473608e-8
          -4.467757013342718e-8 -8.969325783982766e-8 -8.929614455010547e-8 0 -4.413730257449594e-8 -8.82743778849335e-8
          0 -4.412163594455026e-8 -8.824031437097725e-8 0 -4.469444982796725e-8 -8.939264143278261e-8
          0 0 -4.442921249759119e-8 -4.4309373391801925e-8 -8.88594606129367e-8 -8.861645601896843e-8
          0 -4.421739511219031e-8 -8.843440879392926e-8 0 -4.454825138962678e-8 -8.90853058113919e-8
          0 -4.4685719171243315e-8 -8.936720954356763e-8 0 -4.47453125074828e-8 -8.952681870397283e-8
          0 -4.5105910881653564e-8 -9.026257263524512e-8 0 -4.5467198141477296e-8 -9.093613410895434e-8
          0 -4.568934983183276e-8 -9.137907625712936e-8 0 -4.602822148059067e-8 -9.205810142994188e-8
          0 -4.634412032966566e-8 -9.268742027906712e-8 0 -4.650818991912927e-8 -9.30140932918201e-8
          0 -4.6103296594509544e-8 -9.220680181389892e-8 0 0 -4.340451099548661e-8
          -4.333750696592076e-8 -8.68090269963869e-8 -8.667539815769317e-8 0 0 -4.262051593525314e-8
          -4.256118267187075e-8 -8.524110298176838e-8 -8.512212570573577e-8 0 0 -4.168234022427209e-8
          -4.163484918185519e-8 -8.336489151407504e-8 -8.326937238911197e-8 0 0 -4.0619552864404295e-8
          -4.059184460443032e-8 -8.123922473400718e-8 -8.1183676011113e-8 0 0 -3.948527083988303e-8
          -3.948693322711889e-8 -7.897074233826682e-8 -7.897390116460319e-8 0 0 -3.8338169917138244e-8
          -3.8376290371712745e-8 -7.667635325428296e-8 -7.675234292149143e-8 0 0 -3.724367540521442e-8
          -3.733096482241392e-8 -7.448741214081809e-8 -7.466180523353641e-8 0 0 -3.6250290736485695e-8
          -3.63681804870239e-8 -7.250046336338896e-8 -7.273617995880721e-8 0 -4.362201961512121e-8 -8.724394049820235e-8
          0 -4.281335876280711e-8 -8.562647642741523e-8 0 -4.182598411352126e-8 -8.365169976548675e-8
          0 -4.069011310817983e-8 -8.138013560431458e-8 0 -3.946277317599604e-8 -7.892527840454105e-8
          0 -3.8208235071830795e-8 -7.64167031205277e-8 0 -3.6975512163934766e-8 -7.395076049290253e-8
          0 -3.5888426545307146e-8 -7.177734530464313e-8 0 -4.40109112627665e-8 -8.80224055870374e-8
          0 -4.3170979448266485e-8 -8.634237717622508e-8 0 -4.210501110695717e-8 -8.421039125009335e-8
          0 -4.084484036243711e-8 -8.169017533981703e-8 0 -3.945260445153279e-8 -7.890498002236888e-8
          0 -3.8004855960422454e-8 -7.601026661218767e-8 0 -3.6544285027440236e-8 -7.308752839369972e-8
          0 -3.529399890350103e-8 -7.058779521002283e-8 0 -4.461291174725626e-8 -8.922426496751093e-8
          0 -4.373244512458664e-8 -8.746360402495146e-8 0 -4.254711076947746e-8 -8.509304978723486e-8
          0 -4.109388310290912e-8 -8.21873462760916e-8 0 -3.9444940908461055e-8 -7.888900449679802e-8
          0 -3.76990234381519e-8 -7.539949705835648e-8 0 -3.590189932097249e-8 -7.180408850191092e-8
          0 -3.4422606760332974e-8 -6.884834481094168e-8 0 -4.549543508120175e-8 -9.09949198358552e-8
          0 -4.456208753373974e-8 -8.912745589513481e-8 0 -4.320320099766585e-8 -8.64089096780263e-8
          0 -4.146241224183107e-8 -8.292702080155777e-8 0 -3.942828086507993e-8 -7.885592268870818e-8
          0 -3.723536643116821e-8 -7.447179749379858e-8 0 -3.493064569990676e-8 -6.985562378984849e-8
          0 -3.3140390497810775e-8 -6.627731409999357e-8 0 -4.712472202289954e-8 -9.424200852708816e-8
          0 -4.6736872928647115e-8 -9.346527488017087e-8 0 -4.5739285843341715e-8 -9.147180571773582e-8
          0 -4.412645839100039e-8 -8.824696656951492e-8 0 -4.1963879684954016e-8 -8.39252344545095e-8
          0 -3.936229883681841e-8 -7.872148717601828e-8 0 -3.65015367674574e-8 -7.300982661929306e-8
          0 -3.3421984066373166e-8 -6.684815787586444e-8 0 -3.129211322996764e-8 -6.259939587177188e-8
          0 -4.886221227501976e-8 -9.773511821411638e-8 0 -4.866826540815181e-8 -9.734763128325304e-8
          0 -4.755738019510117e-8 -9.512463545991065e-8 0 -4.555019174158581e-8 -9.110710418492252e-8
          0 -4.272643563664547e-8 -8.545924054293326e-8 0 -3.922088940582048e-8 -7.843765065364861e-8
          0 -3.529599556308444e-8 -7.059548852008235e-8 0 -3.079341452844677e-8 -6.156578498139779e-8
          0 -2.8076351499855337e-8 -5.614295442860346e-8 0 -5.0489595176596097e-8 -1.0097822067111021e-7
          0 -5.059638652195922e-8 -1.0119067031770826e-7 0 -4.939687613178779e-8 -9.879307909523935e-8
          0 -4.689230383489892e-8 -9.378288022588439e-8 0 -4.326580924207258e-8 -8.653635093995128e-8
          0 -3.869606040645774e-8 -7.738463542917917e-8 0 -3.347686544409592e-8 -6.697703199536418e-8
          0 -2.7380381181205315e-8 -5.4748658307439316e-8 0 -2.452237956278218e-8 -4.9066375522079604e-8
          0 -5.680367285342726e-8 -1.1362622243690817e-7 0 -5.766176980571454e-8 -1.1534318211661865e-7
          0 -5.568766004438648e-8 -1.1139713967449606e-7 0 -5.1767341463899566e-8 -1.0354973664235717e-7
          0 -4.6005378507356194e-8 -9.203197512315601e-8 0 -3.8418735198995237e-8 -7.68279571329656e-8
          0 -2.9424705792288668e-8 -5.887784003693527e-8 0 -1.6923398019359742e-8 -3.3817810849417065e-8
          0 -8.433693898946342e-9 -1.6878212022260018e-8 0 0 -3.584700188344793e-8
          -3.5673132391812196e-8 -7.169455344607419e-8 -7.1346280432182e-8 0 -3.517623326672677e-8 -7.035235829229922e-8
          0 -3.44140725108545e-8 -6.88268946332288e-8 0 -3.3365415283155304e-8 -6.673043869712829e-8
          0 -3.186790248299144e-8 -6.372985162239795e-8 0 -2.972486792150714e-8 -5.944973963279029e-8
          0 -2.6093615780049114e-8 -5.216947708062688e-8 0 -2.153075387571261e-8 -4.303394002952481e-8
          0 -7.946339084034414e-9 -1.5843758355154365e-8 0 0 -3.5392811886448945e-8
          -3.517325740838278e-8 -7.078579649166518e-8 -7.034724144300829e-8 0 -3.457206620017385e-8 -6.914481896313795e-8
          0 -3.37087272842038e-8 -6.741823912980296e-8 0 -3.258863545626782e-8 -6.517897904714492e-8
          0 -3.108858947638963e-8 -6.217937836876016e-8 0 -2.8970342035509607e-8 -5.794747711939786e-8
          0 -2.5977820657051396e-8 -5.196328082736114e-8 0 -2.1839238288618722e-8 -4.370636467873504e-8
          0 -1.536726912612854e-8 -3.076443473430527e-8 0 0 -3.5088510232652376e-8
          -3.4810162124112605e-8 -7.017194409489655e-8 -6.961501275348553e-8 0 -3.405275120466907e-8 -6.810338563786202e-8
          0 -3.307175193021092e-8 -6.614371424201982e-8 0 -3.1916096308491e-8 -6.383137859265578e-8
          0 -3.0439820151586646e-8 -6.087801468003074e-8 0 -2.8488485286872638e-8 -5.6974790729376396e-8
          0 -2.5911417365168536e-8 -5.1816309145601795e-8 0 -2.2700621634062885e-8 -4.5389666883637725e-8
          0 -1.8930629513534235e-8 -3.7815637359154833e-8 0 0 -3.493137859023296e-8
          -3.456512169170794e-8 -6.988469513620859e-8 -6.915555058699716e-8 0 -3.3588346739994e-8 -6.718192685612879e-8
          0 -3.2500502916128754e-8 -6.499933040638154e-8 0 -3.134744056199545e-8 -6.269567818367813e-8
          0 -2.995735406051092e-8 -5.991512366282423e-8 0 -2.8216594043475723e-8 -5.6433765815130784e-8
          0 -2.6078971710080424e-8 -5.216095132509987e-8 0 -2.3687287614849822e-8 -4.737753549320796e-8
          0 -2.1559303686682856e-8 -4.312938572846659e-8 0 0 -3.5156542172355e-8
          -3.471543558574746e-8 -7.022383757295016e-8 -6.933910726227152e-8 0 -3.322057157976187e-8 -6.64352466618677e-8
          0 -3.1931909143799465e-8 -6.386690642799553e-8 0 -3.085637316233869e-8 -6.171178936427976e-8
          0 -2.9591406607387263e-8 -5.918304682388717e-8 0 -2.806853857044745e-8 -5.613636558396599e-8
          0 -2.632283493610973e-8 -5.2645297234797954e-8 0 -2.4570076594918622e-8 -4.913788503149783e-8
          0 -2.3361985317658064e-8 -4.671580283938037e-8 0 0 -3.503782614978032e-8
          -3.449463095375552e-8 -7.036276922522539e-8 -6.927785117451982e-8 0 -3.260311872719535e-8 -6.513451495597707e-8
          0 -3.135137205064762e-8 -6.272103778922227e-8 0 -3.0422700829472615e-8 -6.083991823143488e-8
          0 -2.929948583023352e-8 -5.859988327503042e-8 0 -2.7994958800597003e-8 -5.598942747010236e-8
          0 -2.6562203238470872e-8 -5.312515935637482e-8 0 -2.5264517476846177e-8 -5.0528508563752814e-8
          0 -2.4598840663869182e-8 -4.919810172800846e-8 0 0 -3.7320000376258884e-8
          -3.72469944112361e-8 -7.389876699137541e-8 -7.395181083881518e-8 0 -3.189100468387417e-8 -6.442621323995128e-8
          0 -3.065095522968749e-8 -6.113317686240617e-8 0 -3.0016782811743126e-8 -6.00786656456297e-8
          0 -2.9081106883491166e-8 -5.8151017799203946e-8 0 -2.7959885340330585e-8 -5.592330220399213e-8
          0 -2.675659312756487e-8 -5.351275151040792e-8 0 -2.5757610885518736e-8 -5.151453679555172e-8
          0 -2.541877419673698e-8 -5.083612697289227e-8 0 0 -3.364052640691342e-8
          -3.567403837178836e-8 -6.772970309431873e-8 -7.069971434998581e-8 0 -3.129457702119979e-8 -5.8427518732873226e-8
          0 -2.9127828732828957e-8 -5.937410747501932e-8 0 -2.9882591765885744e-8 -5.946795321581877e-8
          0 -2.890387323097116e-8 -5.7884455087593993e-8 0 -2.7953965824647788e-8 -5.588653814652049e-8
          0 -2.6876981978520535e-8 -5.3759361098992884e-8 0 -2.6052392863181802e-8 -5.210280715138541e-8
          0 -2.5885570130110964e-8 -5.177133098006345e-8 0 0 6.355075181567524e-8
          7.00963140562419e-8 1.2711477431131202e-7 1.3200833629171574e-7 0 -2.6906135012219327e-9 -3.736402317363958e-8
          0 -3.5895141373495856e-8 -6.313178200665674e-8 0 -2.8022072905112085e-8 -5.831664120876649e-8
          0 -2.9355455791561815e-8 -5.813017866284602e-8 0 -2.787110032232795e-8 -5.588722699606326e-8
          0 -2.694752372920115e-8 -5.3860946657017e-8 0 -2.614603531680154e-8 -5.229963138272239e-8
          0 -2.6042394887904192e-8 -5.208076650705008e-8
        </DataArray>
      </PointData>
      <CellData>
        <DataArray type="Int32" Name="libmesh_elem_id" format="ascii" RangeMin="1398" RangeMax="3643">
          1398 1399 1422 1423 1460 1461
          1470 1471 1482 1483 1494 1495
          1502 1503 1506 1507 1520 1521
          1528 1529 1580 1581 1584 1585
          1612 1613 1636 1637 1652 1653
          1722 1723 1798 1799 1850 1851
          2298 2299 2406 2407 2442 2443
          2450 2451 2472 2473 2558 2559
          2610 2611 2646 2647 2648 2649
          2662 2663 2672 2673 2680 2681
          2748 2749 2756 2757 2776 2777
          2808 2809 2814 2815 2822 2823
          2828 2829 2836 2837 2852 2853
          2876 2877 2898 2899 2910 2911
          2926 2927 2936 2937 2950 2951
          2952 2953 2954 2955 2966 2967
          2980 2981 2982 2983 2990 2991
          3006 3007 3014 3015 3026 3027
          3068 3069 3074 3075 3104 3105
          3110 3111 3124 3125 3126 3127
          3168 3169 3194 3195 3204 3205
          3208 3209 3210 3211 3212 3213
          3220 3221 3222 3223 3224 3225
          3226 3227 3234 3235 3236 3237
          3240 3241 3252 3253 3254 3255
          3264 3265 3296 3297 3302 3303
          3308 3309 3314 3315 3324 3325
          3326 3327 3328 3329 3330 3331
          3332 3333 3334 3335 3336 3337
          3342 3343 3344 3345 3346 3347
          3348 3349 3350 3351 3352 3353
          3354 3355 3360 3361 3362 3363
          3364 3365 3366 3367 3368 3369
          3370 3371 3372 3373 3378 3379
          3380 3381 3382 3383 3384 3385
          3386 3387 3388 3389 3390 3391
          3396 3397 3398 3399 3400 3401
          3402 3403 3404 3405 3406 3407
          3408 3409 3414 3415 3416 3417
          3418 3419 3420 3421 3422 3423
          3424 3425 3426 3427 3430 3431
          3432 3433 3434 3435 3436 3437
          3438 3439 3440 3441 3442 3443
          3444 3445 3448 3449 3450 3451
          3452 3453 3454 3455 3456 3457
          3458 3459 3460 3461 3462 3463
          3466 3467 3468 3469 3470 3471
          3472 3473 3474 3475 3476 3477
          3478 3479 3480 3481 3482 3483
          3484 3485 3486 3487 3488 3489
          3490 3491 3492 3493 3494 3495
          3496 3497 3498 3499 3500 3501
          3502 3503 3504 3505 3506 3507
          3508 3509 3510 3511 3512 3513
          3514 3515 3516 3517 3518 3519
          3520 3521 3522 3523 3524 3525
          3526 3527 3528 3529 3530 3531
          3532 3533 3534 3535 3536 3537
          3538 3539 3540 3541 3542 3543
          3544 3545 3546 3547 3548 3549
          3550 3551 3552 3553 3554 3555
          3556 3557 3558 3559 3560 3561
          3562 3563 3564 3565 3566 3567
          3568 3569 3570 3571 3572 3573
          3574 3575 3576 3577 3578 3579
          3580 3581 3582 3583 3584 3585
          3586 3587 3588 3589 3590 3591
          3592 3593 3594 3595 3596 3597
          3598 3599 3600 3601 3602 3603
          3604 3605 3606 3607 3608 3609
          3610 3611 3612 3613 3614 3615
          3616 3617 3618 3619 3620 3621
          3622 3623 3624 3625 3626 3627
          3628 3629 3630 3631 3632 3633
          3634 3635 3636 3637 3638 3639
          3640 3641 3642 3643
        </DataArray>
        <DataArray type="Int32" Name="subdomain_id" format="ascii" RangeMin="107" RangeMax="110">
          107 107 107 107 107 107
          107 107 107 107 107 107
          107 107 107 107 107 107
          107 107 107 107 107 107
          107 107 107 107 107 107
          107 107 107 107 107 107
          107 107 107 107 107 107
          107 107 107 107 107 107
          107 107 107 107 107 107
          107 107 107 107 107 107
          107 107 107 107 107 107
          107 107 107 107 107 107
          107 107 107 107 107 107
          107 107 107 107 107 107
          107 107 107 107 107 107
          107 107 107 107 107 107
          107 107 107 107 107 107
          107 107 107 107 107 107
          107 107 107 107 107 107
          107 107 107 107 107 107
          107 107 107 107 107 107
          107 107 107 107 107 107
          107 107 107 107 107 107
          107 107 107 107 107 107
          107 107 107 107 107 107
          107 107 108 108 108 108
          108 108 108 108 109 109
          109 109 109 109 109 109
          109 109 109 109 109 109
          109 109 109 109 109 109
          109 109 109 109 109 109
          109 109 109 109 109 109
          109 109 109 109 109 109
          109 109 109 109 109 109
          109 109 109 109 109 109
          109 109 109 109 109 109
          109 109 109 109 109 109
          109 109 109 109 109 109
          109 109 109 109 109 109
          109 109 109 109 109 109
          109 109 109 109 109 109
          109 109 109 109 109 109
          109 109 109 109 109 109
          109 109 109 109 109 109
          109 109 109 109 109 109
          109 109 109 109 109 109
          109 109 109 109 109 109
          109 109 109 109 109 109
          109 109 109 109 110 110
          110 110 110 110 110 110
          110 110 110 110 110 110
          110 110 110 110 110 110
          110 110 110 110 110 110
          110 110 110 110 110 110
          110 110 110 110 110 110
          110 110 110 110 110 110
          110 110 110 110 110 110
          110 110 110 110 110 110
          110 110 110 110 110 110
          110 110 110 110 110 110
          110 110 110 110 110 110
          110 110 110 110 110 110
          110 110 110 110 110 110
          110 110 110 110 110 110
          110 110 110 110 110 110
          110 110 110 110 110 110
          110 110 110 110 110 110
          110 110 110 110 110 110
          110 110 110 110 110 110
          110 110 110 110 110 110
          110 110 110 110 110 110
          110 110 110 110 110 110
          110 110 110 110 110 110
          110 110 110 110 110 110
          110 110 110 110 110 110
          110 110 110 110
        </DataArray>
        <DataArray type="Int32" Name="processor_id" format="ascii" RangeMin="0" RangeMax="0">
          0 0 0 0 0 0
          0 0 0 0 0 0
          0 0 0 0 0 0
          0 0 0 0 0 0
          0 0 0 0 0 0
          0 0 0 0 0 0
          0 0 0 0 0 0
          0 0 0 0 0 0
          0 0 0 0 0 0
          0 0 0 0 0 0
          0 0 0 0 0 0
          0 0 0 0 0 0
          0 0 0 0 0 0
          0 0 0 0 0 0
          0 0 0 0 0 0
          0 0 0 0 0 0
          0 0 0 0 0 0
          0 0 0 0 0 0
          0 0 0 0 0 0
          0 0 0 0 0 0
          0 0 0 0 0 0
          0 0 0 0 0 0
          0 0 0 0 0 0
          0 0 0 0 0 0
          0 0 0 0 0 0
          0 0 0 0 0 0
          0 0 0 0 0 0
          0 0 0 0 0 0
          0 0 0 0 0 0
          0 0 0 0 0 0
          0 0 0 0 0 0
          0 0 0 0 0 0
          0 0 0 0 0 0
          0 0 0 0 0 0
          0 0 0 0 0 0
          0 0 0 0 0 0
          0 0 0 0 0 0
          0 0 0 0 0 0
          0 0 0 0 0 0
          0 0 0 0 0 0
          0 0 0 0 0 0
          0 0 0 0 0 0
          0 0 0 0 0 0
          0 0 0 0 0 0
          0 0 0 0 0 0
          0 0 0 0 0 0
          0 0 0 0 0 0
          0 0 0 0 0 0
          0 0 0 0 0 0
          0 0 0 0 0 0
          0 0 0 0 0 0
          0 0 0 0 0 0
          0 0 0 0 0 0
          0 0 0 0 0 0
          0 0 0 0 0 0
          0 0 0 0 0 0
          0 0 0 0 0 0
          0 0 0 0 0 0
          0 0 0 0 0 0
          0 0 0 0 0 0
          0 0 0 0 0 0
          0 0 0 0 0 0
          0 0 0 0 0 0
          0 0 0 0 0 0
          0 0 0 0 0 0
          0 0 0 0 0 0
          0 0 0 0 0 0
          0 0 0 0 0 0
          0 0 0 0 0 0
          0 0 0 0 0 0
          0 0 0 0 0 0
          0 0 0 0 0 0
          0 0 0 0 0 0
          0 0 0 0 0 0
          0 0 0 0 0 0
          0 0 0 0
        </DataArray>
      </CellData>
      <Points>
        <DataArray type="Float64" Name="Points" NumberOfComponents="3" format="ascii" RangeMin="0.019949534490770096" RangeMax="0.057059767276955435">
          0.025 0.010111111111103 0 0.025 0.011555555555552 0
          0.023969654121399 0.011643457228511 0 0.023712354871128 0.010827306146479 0
          0.025 0.010111111111103 0.00015 0.025 0.011555555555552 0.00015
          0.023969654121399 0.011643457228511 0.00015 0.023712354871128 0.010827306146479 0.00015
          0.025 0.010111111111103 0.0003 0.025 0.011555555555552 0.0003
          0.023969654121399 0.011643457228511 0.0003 0.023712354871128 0.010827306146479 0.0003
          0.021832836898909 0.0086447924127183 0 0.021823224979211 0.0078559681587773 0
          0.022737846371709 0.0079006862580081 0 0.022634898807434 0.0088549234284915 0
          0.021832836898909 0.0086447924127183 0.00015 0.021823224979211 0.0078559681587773 0.00015
          0.022737846371709 0.0079006862580081 0.00015 0.022634898807434 0.0088549234284915 0.00015
          0.021832836898909 0.0086447924127183 0.0003 0.021823224979211 0.0078559681587773 0.0003
          0.022737846371709 0.0079006862580081 0.0003 0.022634898807434 0.0088549234284915 0.0003
          0.023595500831214 0.0092794942281182 0 0.023071107871262 0.010124307969263 0
          0.023595500831214 0.0092794942281182 0.00015 0.023071107871262 0.010124307969263 0.00015
          0.023595500831214 0.0092794942281182 0.0003 0.023071107871262 0.010124307969263 0.0003
          0.022679909737796 0.0068405181074087 0 0.023816654948859 0.0069324696013164 0
          0.023805320189621 0.0081867285281858 0 0.022679909737796 0.0068405181074087 0.00015
          0.023816654948859 0.0069324696013164 0.00015 0.023805320189621 0.0081867285281858 0.00015
          0.022679909737796 0.0068405181074087 0.0003 0.023816654948859 0.0069324696013164 0.0003
          0.023805320189621 0.0081867285281858 0.0003 0.021890570917318 0.011219591567605 0
          0.021490495874743 0.011513015985888 0 0.020878683694742 0.011349585571751 0
          0.021380466308845 0.010767094219468 0 0.021890570917318 0.011219591567605 0.00015
          0.021490495874743 0.011513015985888 0.00015 0.020878683694742 0.011349585571751 0.00015
          0.021380466308845 0.010767094219468 0.00015 0.021890570917318 0.011219591567605 0.0003
          0.021490495874743 0.011513015985888 0.0003 0.020878683694742 0.011349585571751 0.0003
          0.021380466308845 0.010767094219468 0.0003 0.022336312736143 0.012467557709352 0
          0.021763745105177 0.012476629724541 0 0.021622459990569 0.011931223094182 0
          0.02233098651665 0.011816769005978 0 0.022336312736143 0.012467557709352 0.00015
          0.021763745105177 0.012476629724541 0.00015 0.021622459990569 0.011931223094182 0.00015
          0.02233098651665 0.011816769005978 0.00015 0.022336312736143 0.012467557709352 0.0003
          0.021763745105177 0.012476629724541 0.0003 0.021622459990569 0.011931223094182 0.0003
          0.02233098651665 0.011816769005978 0.0003 0.021047379294988 0.0079667793778881 0
          0.020813290684512 0.007243328880283 0 0.021666975794544 0.0069715825078724 0
          0.021047379294988 0.0079667793778881 0.00015 0.020813290684512 0.007243328880283 0.00015
          0.021666975794544 0.0069715825078724 0.00015 0.021047379294988 0.0079667793778881 0.0003
          0.020813290684512 0.007243328880283 0.0003 0.021666975794544 0.0069715825078724 0.0003
          0.025 0.0086666666666559 0 0.025 0.0086666666666559 0.00015
          0.025 0.0086666666666559 0.0003 0.021356284292895 0.0061182113295331 0
          0.020489019208248 0.0065103794253073 0 0.021356284292895 0.0061182113295331 0.00015
          0.020489019208248 0.0065103794253073 0.00015 0.021356284292895 0.0061182113295331 0.0003
          0.020489019208248 0.0065103794253073 0.0003 0.025 0.0072222222222063 0
          0.023829479378086 0.0056593315311521 0 0.025 0.0072222222222063 0.00015
          0.023829479378086 0.0056593315311521 0.00015 0.025 0.0072222222222063 0.0003
          0.023829479378086 0.0056593315311521 0.0003 0.019357361519954 0.01157618305141 0
          0.01884046117173 0.011223113854601 0 0.019357361519954 0.01157618305141 0.00015
          0.01884046117173 0.011223113854601 0.00015 0.019357361519954 0.01157618305141 0.0003
          0.01884046117173 0.011223113854601 0.0003 0.020274347850796 0.01080512315655 0
          0.019692191057164 0.010418143528135 0 0.020104676199583 0.0097475599042502 0
          0.020792052735599 0.010316149813733 0 0.020274347850796 0.01080512315655 0.00015
          0.019692191057164 0.010418143528135 0.00015 0.020104676199583 0.0097475599042502 0.00015
          0.020792052735599 0.010316149813733 0.00015 0.020274347850796 0.01080512315655 0.0003
          0.019692191057164 0.010418143528135 0.0003 0.020104676199583 0.0097475599042502 0.0003
          0.020792052735599 0.010316149813733 0.0003 0.018734278863615 0.0068564365277259 0
          0.018734278863615 0.0068564365277259 0.00015 0.018734278863615 0.0068564365277259 0.0003
          0.018384253973557 0.010894663204421 0 0.018384253973557 0.010894663204421 0.00015
          0.018384253973557 0.010894663204421 0.0003 0.022477642087048 0.0055533155338694 0
          0.022477642087048 0.0055533155338694 0.00015 0.022477642087048 0.0055533155338694 0.0003
          0.022333445868241 0.0096250088550796 0 0.021678233976573 0.0092839168226163 0
          0.022333445868241 0.0096250088550796 0.00015 0.021678233976573 0.0092839168226163 0.00015
          0.022333445868241 0.0096250088550796 0.0003 0.021678233976573 0.0092839168226163 0.0003
          0.018696511924608 0.0075816988835645 0 0.019307778433714 0.0076950261479263 0
          0.019244919669154 0.0083241905034728 0 0.018643245907353 0.0082916041839039 0
          0.018696511924608 0.0075816988835645 0.00015 0.019307778433714 0.0076950261479263 0.00015
          0.019244919669154 0.0083241905034728 0.00015 0.018643245907353 0.0082916041839039 0.00015
          0.018696511924608 0.0075816988835645 0.0003 0.019307778433714 0.0076950261479263 0.0003
          0.019244919669154 0.0083241905034728 0.0003 0.018643245907353 0.0082916041839039 0.0003
          0.02247089481133 0.010746063389313 0 0.022956441030322 0.011313723369763 0
          0.02247089481133 0.010746063389313 0.00015 0.022956441030322 0.011313723369763 0.00015
          0.02247089481133 0.010746063389313 0.0003 0.022956441030322 0.011313723369763 0.0003
          0.018817000838468 0.010560792840001 0 0.018817000838468 0.010560792840001 0.00015
          0.018817000838468 0.010560792840001 0.0003 0.021028725472558 0.011993213484042 0
          0.021028725472558 0.011993213484042 0.00015 0.021028725472558 0.011993213484042 0.0003
          0.018719100515555 0.0096191331103102 0 0.018769006148643 0.010016813571171 0
          0.018719100515555 0.0096191331103102 0.00015 0.018769006148643 0.010016813571171 0.00015
          0.018719100515555 0.0096191331103102 0.0003 0.018769006148643 0.010016813571171 0.0003
          0.022845614094026 0.012068678060928 0 0.022870050818517 0.012481997757377 0
          0.022845614094026 0.012068678060928 0.00015 0.022870050818517 0.012481997757377 0.00015
          0.022845614094026 0.012068678060928 0.0003 0.022870050818517 0.012481997757377 0.0003
          0.01980903614198 0.0082923028866096 0 0.019733887771193 0.007830319872041 0
          0.01980903614198 0.0082923028866096 0.00015 0.019733887771193 0.007830319872041 0.00015
          0.01980903614198 0.0082923028866096 0.0003 0.019733887771193 0.007830319872041 0.0003
          0.019287865107188 0.010870204720027 0 0.019287865107188 0.010870204720027 0.00015
          0.019287865107188 0.010870204720027 0.0003 0.019611341590458 0.0069319215290848 0
          0.019611341590458 0.0069319215290848 0.00015 0.019611341590458 0.0069319215290848 0.0003
          0.019793192887703 0.011218191570876 0 0.019793192887703 0.011218191570876 0.00015
          0.019793192887703 0.011218191570876 0.0003 0.02014052068744 0.0075597001530957 0
          0.02014052068744 0.0075597001530957 0.00015 0.02014052068744 0.0075597001530957 0.0003
          0.019142781766586 0.010156284019367 0 0.019142781766586 0.010156284019367 0.00015
          0.019142781766586 0.010156284019367 0.0003 0.019871794871807 0.013 0
          0.019671681078705 0.012567114388191 0 0.019871794871807 0.013 0.00015
          0.019671681078705 0.012567114388191 0.00015 0.019871794871807 0.013 0.0003
          0.019671681078705 0.012567114388191 0.0003 0.02189605775595 0.01024368797285 0
          0.02189605775595 0.01024368797285 0.00015 0.02189605775595 0.01024368797285 0.0003
          0.021306208963658 0.0098107932917518 0 0.020830530356293 0.0093484326970494 0
          0.021306208963658 0.0098107932917518 0.00015 0.020830530356293 0.0093484326970494 0.00015
          0.021306208963658 0.0098107932917518 0.0003 0.020830530356293 0.0093484326970494 0.0003
          0.019927087042343 0.0089401115508047 0 0.019284140679376 0.0089915496868705 0
          0.019927087042343 0.0089401115508047 0.00015 0.019284140679376 0.0089915496868705 0.00015
          0.019927087042343 0.0089401115508047 0.0003 0.019284140679376 0.0089915496868705 0.0003
          0.023272296973232 0.01187913061167 0 0.023408043049707 0.012441583397961 0
          0.023272296973232 0.01187913061167 0.00015 0.023408043049707 0.012441583397961 0.00015
          0.023272296973232 0.01187913061167 0.0003 0.023408043049707 0.012441583397961 0.0003
          0.019291729405334 0.009640079412969 0 0.019291729405334 0.009640079412969 0.00015
          0.019291729405334 0.009640079412969 0.0003 0.019497075330812 0.012129782091497 0
          0.019497075330812 0.012129782091497 0.00015 0.019497075330812 0.012129782091497 0.0003
          0.018655444813331 0.0089912542068827 0 0.018655444813331 0.0089912542068827 0.00015
          0.018655444813331 0.0089912542068827 0.0003 0.020217772280624 0.01161574996656 0
          0.019866459267603 0.011787315550137 0 0.020217772280624 0.01161574996656 0.00015
          0.019866459267603 0.011787315550137 0.00015 0.020217772280624 0.01161574996656 0.0003
          0.019866459267603 0.011787315550137 0.0003 0.020169909004412 0.012559422291794 0
          0.020384615384626 0.013 0 0.020169909004412 0.012559422291794 0.00015
          0.020384615384626 0.013 0.00015 0.020169909004412 0.012559422291794 0.0003
          0.020384615384626 0.013 0.0003 0.02048968364866 0.012063778985416 0
          0.021216890903006 0.012503701361908 0 0.020684692364028 0.012535095885709 0
          0.02048968364866 0.012063778985416 0.00015 0.021216890903006 0.012503701361908 0.00015
          0.020684692364028 0.012535095885709 0.00015 0.02048968364866 0.012063778985416 0.0003
          0.021216890903006 0.012503701361908 0.0003 0.020684692364028 0.012535095885709 0.0003
          0.020897435897446 0.013 0 0.020897435897446 0.013 0.00015
          0.020897435897446 0.013 0.0003 0.020387511226442 0.0081443073342907 0
          0.02056343795537 0.0087688297792787 0 0.020387511226442 0.0081443073342907 0.00015
          0.02056343795537 0.0087688297792787 0.00015 0.020387511226442 0.0081443073342907 0.0003
          0.02056343795537 0.0087688297792787 0.0003 0.023967653117571 0.012391671962311 0
          0.024322147732379 0.012509260561901 0 0.023967653117571 0.012391671962311 0.00015
          0.024322147732379 0.012509260561901 0.00015 0.023967653117571 0.012391671962311 0.0003
          0.024322147732379 0.012509260561901 0.0003 0.021410256410266 0.013 0
          0.021410256410266 0.013 0.00015 0.021410256410266 0.013 0.0003
          0.019993073529409 0.012116879865089 0 0.019993073529409 0.012116879865089 0.00015
          0.019993073529409 0.012116879865089 0.0003 0.02122910202584 0.0090825003429501 0
          0.02122910202584 0.0090825003429501 0.00015 0.02122910202584 0.0090825003429501 0.0003
          0.022948717948721 0.013 0 0.022435897435903 0.013 0
          0.022948717948721 0.013 0.00015 0.022435897435903 0.013 0.00015
          0.022948717948721 0.013 0.0003 0.022435897435903 0.013 0.0003
          0.021923076923085 0.013 0 0.021923076923085 0.013 0.00015
          0.021923076923085 0.013 0.0003 0.023461538461539 0.013 0
          0.023461538461539 0.013 0.00015 0.023461538461539 0.013 0.0003
          0.021171209164951 0.0086229949315581 0 0.021171209164951 0.0086229949315581 0.00015
          0.021171209164951 0.0086229949315581 0.0003 0.023974358974358 0.013 0
          0.023974358974358 0.013 0.00015 0.023974358974358 0.013 0.0003
          0.024487179487177 0.013 0 0.024487179487177 0.013 0.00015
          0.024487179487177 0.013 0.0003 0.025 0.013 0
          0.025 0.013 0.00015 0.025 0.013 0.0003
          0.026666666666667 0.0072222222222063 0 0.026666666666667 0.0072222222222063 0.00015
          0.026666666666667 0.0072222222222063 0.0003 0.026666666666668 0.0086666666666559 0
          0.026666666666668 0.0086666666666559 0.00015 0.026666666666668 0.0086666666666559 0.0003
          0.026666666666669 0.010111111111103 0 0.026666666666669 0.010111111111103 0.00015
          0.026666666666669 0.010111111111103 0.0003 0.026666666666669 0.011555555555552 0
          0.026666666666669 0.011555555555552 0.00015 0.026666666666669 0.011555555555552 0.0003
          0.02666666666667 0.013 0 0.02666666666667 0.013 0.00015
          0.02666666666667 0.013 0.0003 0.033201501647561 0.0014698753983525 0
          0.033179797338052 0 0 0.033201501647561 0.0014698753983525 0.00015
          0.033179797338052 0 0.00015 0.033201501647561 0.0014698753983525 0.0003
          0.033179797338052 0 0.0003 0.034800103200053 0.0015015548376625 0
          0.034769696007096 0 0 0.034800103200053 0.0015015548376625 0.00015
          0.034769696007096 0 0.00015 0.034800103200053 0.0015015548376625 0.0003
          0.034769696007096 0 0.0003 0.03639613666046 0.0015457026119765 0
          0.036359594676111 0 0 0.03639613666046 0.0015457026119765 0.00015
          0.036359594676111 0 0.00015 0.03639613666046 0.0015457026119765 0.0003
          0.036359594676111 0 0.0003 0.037988764334349 0.001602116400018 0
          0.037949493345121 0 0 0.037988764334349 0.001602116400018 0.00015
          0.037949493345121 0 0.00015 0.037988764334349 0.001602116400018 0.0003
          0.037949493345121 0 0.0003 0.039577164134098 0.001670537667151 0
          0.039539392014149 0 0 0.039577164134098 0.001670537667151 0.00015
          0.039539392014149 0 0.00015 0.039577164134098 0.001670537667151 0.0003
          0.039539392014149 0 0.0003 0.041160533348121 0.0017506528505884 0
          0.041129290683195 0 0 0.041160533348121 0.0017506528505884 0.00015
          0.041129290683195 0 0.00015 0.041160533348121 0.0017506528505884 0.0003
          0.041129290683195 0 0.0003 0.042738092320879 0.0018420947973532 0
          0.042719189352233 0 0 0.042738092320879 0.0018420947973532 0.00015
          0.042719189352233 0 0.00015 0.042738092320879 0.0018420947973532 0.0003
          0.042719189352233 0 0.0003 0.044309088021254 0.0019444444444413 0
          0.044309088021254 0 0 0.044309088021254 0.0019444444444413 0.00015
          0.044309088021254 0 0.00015 0.044309088021254 0.0019444444444413 0.0003
          0.044309088021254 0 0.0003 0.033223205957069 0.0029397507967035 0
          0.033223205957069 0.0029397507967035 0.00015 0.033223205957069 0.0029397507967035 0.0003
          0.03483051039301 0.0030031096753234 0 0.03483051039301 0.0030031096753234 0.00015
          0.03483051039301 0.0030031096753234 0.0003 0.036432678644808 0.0030914052239513 0
          0.036432678644808 0.0030914052239513 0.00015 0.036432678644808 0.0030914052239513 0.0003
          0.038028035323577 0.0032042328000343 0 0.038028035323577 0.0032042328000343 0.00015
          0.038028035323577 0.0032042328000343 0.0003 0.039614936254047 0.0033410753343001 0
          0.039614936254047 0.0033410753343001 0.00015 0.039614936254047 0.0033410753343001 0.0003
          0.041191776013048 0.0035013057011749 0 0.041191776013048 0.0035013057011749 0.00015
          0.041191776013048 0.0035013057011749 0.0003 0.042756995289524 0.0036841895947044 0
          0.042756995289524 0.0036841895947044 0.00015 0.042756995289524 0.0036841895947044 0.0003
          0.044309088021254 0.0038888888888803 0 0.044309088021254 0.0038888888888803 0.00015
          0.044309088021254 0.0038888888888803 0.0003 0.033244910266578 0.0044096261950543 0
          0.033244910266578 0.0044096261950543 0.00015 0.033244910266578 0.0044096261950543 0.0003
          0.034860917585967 0.004504664512984 0 0.034860917585967 0.004504664512984 0.00015
          0.034860917585967 0.004504664512984 0.0003 0.036469220629156 0.0046371078359259 0
          0.036469220629156 0.0046371078359259 0.00015 0.036469220629156 0.0046371078359259 0.0003
          0.038067306312805 0.0048063492000502 0 0.038067306312805 0.0048063492000502 0.00015
          0.038067306312805 0.0048063492000502 0.0003 0.039652708373995 0.0050116130014489 0
          0.039652708373995 0.0050116130014489 0.00015 0.039652708373995 0.0050116130014489 0.0003
          0.041223018677975 0.005251958551761 0 0.041223018677975 0.005251958551761 0.00015
          0.041223018677975 0.005251958551761 0.0003 0.04277589825817 0.0055262843920551 0
          0.04277589825817 0.0055262843920551 0.00015 0.04277589825817 0.0055262843920551 0.0003
          0.044309088021254 0.0058333333333189 0 0.044309088021254 0.0058333333333189 0.00015
          0.044309088021254 0.0058333333333189 0.0003 0.033266614576087 0.0058795015934051 0
          0.033266614576087 0.0058795015934051 0.00015 0.033266614576087 0.0058795015934051 0.0003
          0.034891324778924 0.0060062193506447 0 0.034891324778924 0.0060062193506447 0.00015
          0.034891324778924 0.0060062193506447 0.0003 0.036505762613504 0.0061828104479004 0
          0.036505762613504 0.0061828104479004 0.00015 0.036505762613504 0.0061828104479004 0.0003
          0.038106577302032 0.0064084656000662 0 0.038106577302032 0.0064084656000662 0.00015
          0.038106577302032 0.0064084656000662 0.0003 0.039690480493944 0.0066821506685977 0
          0.039690480493944 0.0066821506685977 0.00015 0.039690480493944 0.0066821506685977 0.0003
          0.041254261342902 0.0070026114023471 0 0.041254261342902 0.0070026114023471 0.00015
          0.041254261342902 0.0070026114023471 0.0003 0.042794801226816 0.0073683791894058 0
          0.042794801226816 0.0073683791894058 0.00015 0.042794801226816 0.0073683791894058 0.0003
          0.044309088021254 0.0077777777777574 0 0.044309088021254 0.0077777777777574 0.00015
          0.044309088021254 0.0077777777777574 0.0003 0.033288318885596 0.0073493769917596 0
          0.033288318885596 0.0073493769917596 0.00015 0.033288318885596 0.0073493769917596 0.0003
          0.034921731971881 0.0075077741883091 0 0.034921731971881 0.0075077741883091 0.00015
          0.034921731971881 0.0075077741883091 0.0003 0.036542304597852 0.0077285130598789 0
          0.036542304597852 0.0077285130598789 0.00015 0.036542304597852 0.0077285130598789 0.0003
          0.03814584829126 0.0080105820000862 0 0.03814584829126 0.0080105820000862 0.00015
          0.03814584829126 0.0080105820000862 0.0003 0.039728252613893 0.0083526883357508 0
          0.039728252613893 0.0083526883357508 0.00015 0.039728252613893 0.0083526883357508 0.0003
          0.041285504007829 0.0087532642529377 0 0.041285504007829 0.0087532642529377 0.00015
          0.041285504007829 0.0087532642529377 0.0003 0.042813704195461 0.0092104739867613 0
          0.042813704195461 0.0092104739867613 0.00015 0.042813704195461 0.0092104739867613 0.0003
          0.044309088021254 0.0097222222222011 0 0.044309088021254 0.0097222222222011 0.00015
          0.044309088021254 0.0097222222222011 0.0003 0.031657595460571 0.0087048568522863 0
          0.031657595460571 0.0087048568522863 0.00015 0.031657595460571 0.0087048568522863 0.0003
          0.033310023195106 0.0088192523901195 0 0.033310023195106 0.0088192523901195 0.00015
          0.033310023195106 0.0088192523901195 0.0003 0.034952139164838 0.009009329025979 0
          0.034952139164838 0.009009329025979 0.00015 0.034952139164838 0.009009329025979 0.0003
          0.0365788465822 0.0092742156718627 0 0.0365788465822 0.0092742156718627 0.00015
          0.0365788465822 0.0092742156718627 0.0003 0.038185119280488 0.0096126984001116 0
          0.038185119280488 0.0096126984001116 0.00015 0.038185119280488 0.0096126984001116 0.0003
          0.039766024733842 0.010023226002909 0 0.039766024733842 0.010023226002909 0.00015
          0.039766024733842 0.010023226002909 0.0003 0.041316746672756 0.010503917103534 0
          0.041316746672756 0.010503917103534 0.00015 0.041316746672756 0.010503917103534 0.0003
          0.042832607164107 0.011052568784123 0 0.042832607164107 0.011052568784123 0.00015
          0.042832607164107 0.011052568784123 0.0003 0.044309088021254 0.011666666666651 0
          0.044309088021254 0.011666666666651 0.00015 0.044309088021254 0.011666666666651 0.0003
          0.031668878259163 0.010155666327672 0 0.031668878259163 0.010155666327672 0.00015
          0.031668878259163 0.010155666327672 0.0003 0.033331727504615 0.010289127788478 0
          0.033331727504615 0.010289127788478 0.00015 0.033331727504615 0.010289127788478 0.0003
          0.034982546357795 0.010510883863647 0 0.034982546357795 0.010510883863647 0.00015
          0.034982546357795 0.010510883863647 0.0003 0.036615388566549 0.010819918283845 0
          0.036615388566549 0.010819918283845 0.00015 0.036615388566549 0.010819918283845 0.0003
          0.038224390269716 0.011214814800136 0 0.038224390269716 0.011214814800136 0.00015
          0.038224390269716 0.011214814800136 0.0003 0.039803796853791 0.011693763670067 0
          0.039803796853791 0.011693763670067 0.00015 0.039803796853791 0.011693763670067 0.0003
          0.041347989337683 0.012254569954129 0 0.041347989337683 0.012254569954129 0.00015
          0.041347989337683 0.012254569954129 0.0003 0.042851510132752 0.012894663581483 0
          0.042851510132752 0.012894663581483 0.00015 0.042851510132752 0.012894663581483 0.0003
          0.044309088021254 0.0136111111111 0 0.044309088021254 0.0136111111111 0.00015
          0.044309088021254 0.0136111111111 0.0003 0.031680161057755 0.011606475803059 0
          0.031680161057755 0.011606475803059 0.00015 0.031680161057755 0.011606475803059 0.0003
          0.033353431814124 0.011759003186837 0 0.033353431814124 0.011759003186837 0.00015
          0.033353431814124 0.011759003186837 0.0003 0.035012953550752 0.012012438701317 0
          0.035012953550752 0.012012438701317 0.00015 0.035012953550752 0.012012438701317 0.0003
          0.036651930550897 0.012365620895829 0 0.036651930550897 0.012365620895829 0.00015
          0.036651930550897 0.012365620895829 0.0003 0.038263661258944 0.012816931200161 0
          0.038263661258944 0.012816931200161 0.00015 0.038263661258944 0.012816931200161 0.0003
          0.03984156897374 0.013364301337225 0 0.03984156897374 0.013364301337225 0.00015
          0.03984156897374 0.013364301337225 0.0003 0.04137923200261 0.014005222804725 0
          0.04137923200261 0.014005222804725 0.00015 0.04137923200261 0.014005222804725 0.0003
          0.042870413101398 0.014736758378844 0 0.042870413101398 0.014736758378844 0.00015
          0.042870413101398 0.014736758378844 0.0003 0.044309088021254 0.015555555555549 0
          0.044309088021254 0.015555555555549 0.00015 0.044309088021254 0.015555555555549 0.0003
          0.031691443856347 0.013057285278446 0 0.031691443856347 0.013057285278446 0.00015
          0.031691443856347 0.013057285278446 0.0003 0.033375136123633 0.013228878585196 0
          0.033375136123633 0.013228878585196 0.00015 0.033375136123633 0.013228878585196 0.0003
          0.035043360743709 0.013513993538986 0 0.035043360743709 0.013513993538986 0.00015
          0.035043360743709 0.013513993538986 0.0003 0.036688472535245 0.013911323507812 0
          0.036688472535245 0.013911323507812 0.00015 0.036688472535245 0.013911323507812 0.0003
          0.038302932248172 0.014419047600187 0 0.038302932248172 0.014419047600187 0.00015
          0.038302932248172 0.014419047600187 0.0003 0.039879341093689 0.015034839004384 0
          0.039879341093689 0.015034839004384 0.00015 0.039879341093689 0.015034839004384 0.0003
          0.041410474667538 0.015755875655322 0 0.041410474667538 0.015755875655322 0.00015
          0.041410474667538 0.015755875655322 0.0003 0.042889316070044 0.016578853176207 0
          0.042889316070044 0.016578853176207 0.00015 0.042889316070044 0.016578853176207 0.0003
          0.044309088021254 0.0175 0 0.044309088021254 0.0175 0.00015
          0.044309088021254 0.0175 0.0003 0.045420199132363 0 0
          0.045420199132363 0.0019444444444413 0 0.045420199132363 0 0.00015
          0.045420199132363 0.0019444444444413 0.00015 0.045420199132363 0 0.0003
          0.045420199132363 0.0019444444444413 0.0003 0.045420199132363 0.0038888888888803 0
          0.045420199132363 0.0038888888888803 0.00015 0.045420199132363 0.0038888888888803 0.0003
          0.045420199132363 0.0058333333333189 0 0.045420199132363 0.0058333333333189 0.00015
          0.045420199132363 0.0058333333333189 0.0003 0.045420199132363 0.0077777777777574 0
          0.045420199132363 0.0077777777777574 0.00015 0.045420199132363 0.0077777777777574 0.0003
          0.045420199132363 0.0097222222222011 0 0.045420199132363 0.0097222222222011 0.00015
          0.045420199132363 0.0097222222222011 0.0003 0.045420199132363 0.011666666666651 0
          0.045420199132363 0.011666666666651 0.00015 0.045420199132363 0.011666666666651 0.0003
          0.045420199132363 0.0136111111111 0 0.045420199132363 0.0136111111111 0.00015
          0.045420199132363 0.0136111111111 0.0003 0.045420199132363 0.015555555555549 0
          0.045420199132363 0.015555555555549 0.00015 0.045420199132363 0.015555555555549 0.0003
          0.045420199132363 0.0175 0 0.045420199132363 0.0175 0.00015
          0.045420199132363 0.0175 0.0003 0.046531310243475 0 0
          0.046531310243475 0.0019444444444413 0 0.046531310243475 0 0.00015
          0.046531310243475 0.0019444444444413 0.00015 0.046531310243475 0 0.0003
          0.046531310243475 0.0019444444444413 0.0003 0.046531310243475 0.0038888888888803 0
          0.046531310243475 0.0038888888888803 0.00015 0.046531310243475 0.0038888888888803 0.0003
          0.046531310243475 0.0058333333333189 0 0.046531310243475 0.0058333333333189 0.00015
          0.046531310243475 0.0058333333333189 0.0003 0.046531310243475 0.0077777777777574 0
          0.046531310243475 0.0077777777777574 0.00015 0.046531310243475 0.0077777777777574 0.0003
          0.046531310243475 0.0097222222222011 0 0.046531310243475 0.0097222222222011 0.00015
          0.046531310243475 0.0097222222222011 0.0003 0.046531310243475 0.011666666666651 0
          0.046531310243475 0.011666666666651 0.00015 0.046531310243475 0.011666666666651 0.0003
          0.046531310243475 0.0136111111111 0 0.046531310243475 0.0136111111111 0.00015
          0.046531310243475 0.0136111111111 0.0003 0.046531310243475 0.015555555555549 0
          0.046531310243475 0.015555555555549 0.00015 0.046531310243475 0.015555555555549 0.0003
          0.046531310243475 0.0175 0 0.046531310243475 0.0175 0.00015
          0.046531310243475 0.0175 0.0003 0.04764242135458 0 0
          0.04764242135458 0.0019444444444413 0 0.04764242135458 0 0.00015
          0.04764242135458 0.0019444444444413 0.00015 0.04764242135458 0 0.0003
          0.04764242135458 0.0019444444444413 0.0003 0.04764242135458 0.0038888888888803 0
          0.04764242135458 0.0038888888888803 0.00015 0.04764242135458 0.0038888888888803 0.0003
          0.04764242135458 0.0058333333333189 0 0.04764242135458 0.0058333333333189 0.00015
          0.04764242135458 0.0058333333333189 0.0003 0.04764242135458 0.0077777777777574 0
          0.04764242135458 0.0077777777777574 0.00015 0.04764242135458 0.0077777777777574 0.0003
          0.04764242135458 0.0097222222222011 0 0.04764242135458 0.0097222222222011 0.00015
          0.04764242135458 0.0097222222222011 0.0003 0.04764242135458 0.011666666666651 0
          0.04764242135458 0.011666666666651 0.00015 0.04764242135458 0.011666666666651 0.0003
          0.04764242135458 0.0136111111111 0 0.04764242135458 0.0136111111111 0.00015
          0.04764242135458 0.0136111111111 0.0003 0.04764242135458 0.015555555555549 0
          0.04764242135458 0.015555555555549 0.00015 0.04764242135458 0.015555555555549 0.0003
          0.04764242135458 0.0175 0 0.04764242135458 0.0175 0.00015
          0.04764242135458 0.0175 0.0003 0.048753532465692 0 0
          0.048753532465692 0.0019444444444413 0 0.048753532465692 0 0.00015
          0.048753532465692 0.0019444444444413 0.00015 0.048753532465692 0 0.0003
          0.048753532465692 0.0019444444444413 0.0003 0.048753532465692 0.0038888888888803 0
          0.048753532465692 0.0038888888888803 0.00015 0.048753532465692 0.0038888888888803 0.0003
          0.048753532465692 0.0058333333333189 0 0.048753532465692 0.0058333333333189 0.00015
          0.048753532465692 0.0058333333333189 0.0003 0.048753532465692 0.0077777777777574 0
          0.048753532465692 0.0077777777777574 0.00015 0.048753532465692 0.0077777777777574 0.0003
          0.048753532465692 0.0097222222222011 0 0.048753532465692 0.0097222222222011 0.00015
          0.048753532465692 0.0097222222222011 0.0003 0.048753532465692 0.011666666666651 0
          0.048753532465692 0.011666666666651 0.00015 0.048753532465692 0.011666666666651 0.0003
          0.048753532465692 0.0136111111111 0 0.048753532465692 0.0136111111111 0.00015
          0.048753532465692 0.0136111111111 0.0003 0.048753532465692 0.015555555555549 0
          0.048753532465692 0.015555555555549 0.00015 0.048753532465692 0.015555555555549 0.0003
          0.048753532465692 0.0175 0 0.048753532465692 0.0175 0.00015
          0.048753532465692 0.0175 0.0003 0.0498646435768 0 0
          0.0498646435768 0.0019444444444413 0 0.0498646435768 0 0.00015
          0.0498646435768 0.0019444444444413 0.00015 0.0498646435768 0 0.0003
          0.0498646435768 0.0019444444444413 0.0003 0.0498646435768 0.0038888888888803 0
          0.0498646435768 0.0038888888888803 0.00015 0.0498646435768 0.0038888888888803 0.0003
          0.0498646435768 0.0058333333333189 0 0.0498646435768 0.0058333333333189 0.00015
          0.0498646435768 0.0058333333333189 0.0003 0.0498646435768 0.0077777777777574 0
          0.0498646435768 0.0077777777777574 0.00015 0.0498646435768 0.0077777777777574 0.0003
          0.0498646435768 0.0097222222222011 0 0.0498646435768 0.0097222222222011 0.00015
          0.0498646435768 0.0097222222222011 0.0003 0.0498646435768 0.011666666666651 0
          0.0498646435768 0.011666666666651 0.00015 0.0498646435768 0.011666666666651 0.0003
          0.0498646435768 0.0136111111111 0 0.0498646435768 0.0136111111111 0.00015
          0.0498646435768 0.0136111111111 0.0003 0.0498646435768 0.015555555555549 0
          0.0498646435768 0.015555555555549 0.00015 0.0498646435768 0.015555555555549 0.0003
          0.0498646435768 0.0175 0 0.0498646435768 0.0175 0.00015
          0.0498646435768 0.0175 0.0003 0.050975754687912 0 0
          0.050975754687912 0.0019444444444413 0 0.050975754687912 0 0.00015
          0.050975754687912 0.0019444444444413 0.00015 0.050975754687912 0 0.0003
          0.050975754687912 0.0019444444444413 0.0003 0.050975754687912 0.0038888888888803 0
          0.050975754687912 0.0038888888888803 0.00015 0.050975754687912 0.0038888888888803 0.0003
          0.050975754687912 0.0058333333333189 0 0.050975754687912 0.0058333333333189 0.00015
          0.050975754687912 0.0058333333333189 0.0003 0.050975754687912 0.0077777777777574 0
          0.050975754687912 0.0077777777777574 0.00015 0.050975754687912 0.0077777777777574 0.0003
          0.050975754687912 0.0097222222222011 0 0.050975754687912 0.0097222222222011 0.00015
          0.050975754687912 0.0097222222222011 0.0003 0.050975754687912 0.011666666666651 0
          0.050975754687912 0.011666666666651 0.00015 0.050975754687912 0.011666666666651 0.0003
          0.050975754687912 0.0136111111111 0 0.050975754687912 0.0136111111111 0.00015
          0.050975754687912 0.0136111111111 0.0003 0.050975754687912 0.015555555555549 0
          0.050975754687912 0.015555555555549 0.00015 0.050975754687912 0.015555555555549 0.0003
          0.050975754687912 0.0175 0 0.050975754687912 0.0175 0.00015
          0.050975754687912 0.0175 0.0003 0.052086865799025 0 0
          0.052086865799025 0.0019444444444413 0 0.052086865799025 0 0.00015
          0.052086865799025 0.0019444444444413 0.00015 0.052086865799025 0 0.0003
          0.052086865799025 0.0019444444444413 0.0003 0.052086865799025 0.0038888888888803 0
          0.052086865799025 0.0038888888888803 0.00015 0.052086865799025 0.0038888888888803 0.0003
          0.052086865799025 0.0058333333333189 0 0.052086865799025 0.0058333333333189 0.00015
          0.052086865799025 0.0058333333333189 0.0003 0.052086865799025 0.0077777777777574 0
          0.052086865799025 0.0077777777777574 0.00015 0.052086865799025 0.0077777777777574 0.0003
          0.052086865799025 0.0097222222222011 0 0.052086865799025 0.0097222222222011 0.00015
          0.052086865799025 0.0097222222222011 0.0003 0.052086865799025 0.011666666666651 0
          0.052086865799025 0.011666666666651 0.00015 0.052086865799025 0.011666666666651 0.0003
          0.052086865799025 0.0136111111111 0 0.052086865799025 0.0136111111111 0.00015
          0.052086865799025 0.0136111111111 0.0003 0.052086865799025 0.015555555555549 0
          0.052086865799025 0.015555555555549 0.00015 0.052086865799025 0.015555555555549 0.0003
          0.052086865799025 0.0175 0 0.052086865799025 0.0175 0.00015
          0.052086865799025 0.0175 0.0003 0.05319797691014 0 0
          0.05319797691014 0.0019444444444413 0 0.05319797691014 0 0.00015
          0.05319797691014 0.0019444444444413 0.00015 0.05319797691014 0 0.0003
          0.05319797691014 0.0019444444444413 0.0003 0.05319797691014 0.0038888888888803 0
          0.05319797691014 0.0038888888888803 0.00015 0.05319797691014 0.0038888888888803 0.0003
          0.05319797691014 0.0058333333333189 0 0.05319797691014 0.0058333333333189 0.00015
          0.05319797691014 0.0058333333333189 0.0003 0.05319797691014 0.0077777777777574 0
          0.05319797691014 0.0077777777777574 0.00015 0.05319797691014 0.0077777777777574 0.0003
          0.05319797691014 0.0097222222222011 0 0.05319797691014 0.0097222222222011 0.00015
          0.05319797691014 0.0097222222222011 0.0003 0.05319797691014 0.011666666666651 0
          0.05319797691014 0.011666666666651 0.00015 0.05319797691014 0.011666666666651 0.0003
          0.05319797691014 0.0136111111111 0 0.05319797691014 0.0136111111111 0.00015
          0.05319797691014 0.0136111111111 0.0003 0.05319797691014 0.015555555555549 0
          0.05319797691014 0.015555555555549 0.00015 0.05319797691014 0.015555555555549 0.0003
          0.05319797691014 0.0175 0 0.05319797691014 0.0175 0.00015
          0.05319797691014 0.0175 0.0003 0.054309088021254 0 0
          0.054309088021254 0.0019444444444413 0 0.054309088021254 0 0.00015
          0.054309088021254 0.0019444444444413 0.00015 0.054309088021254 0 0.0003
          0.054309088021254 0.0019444444444413 0.0003 0.054309088021254 0.0038888888888803 0
          0.054309088021254 0.0038888888888803 0.00015 0.054309088021254 0.0038888888888803 0.0003
          0.054309088021254 0.0058333333333189 0 0.054309088021254 0.0058333333333189 0.00015
          0.054309088021254 0.0058333333333189 0.0003 0.054309088021254 0.0077777777777574 0
          0.054309088021254 0.0077777777777574 0.00015 0.054309088021254 0.0077777777777574 0.0003
          0.054309088021254 0.0097222222222011 0 0.054309088021254 0.0097222222222011 0.00015
          0.054309088021254 0.0097222222222011 0.0003 0.054309088021254 0.011666666666651 0
          0.054309088021254 0.011666666666651 0.00015 0.054309088021254 0.011666666666651 0.0003
          0.054309088021254 0.0136111111111 0 0.054309088021254 0.0136111111111 0.00015
          0.054309088021254 0.0136111111111 0.0003 0.054309088021254 0.015555555555549 0
          0.054309088021254 0.015555555555549 0.00015 0.054309088021254 0.015555555555549 0.0003
          0.054309088021254 0.0175 0 0.054309088021254 0.0175 0.00015
          0.054309088021254 0.0175 0.0003
          <InformationKey name="L2_NORM_RANGE" location="vtkDataArray" length="2">
            <Value index="0">
              0.019949534491
            </Value>
            <Value index="1">
              0.057059767277
            </Value>
          </InformationKey>
        </DataArray>
      </Points>
      <Cells>
        <DataArray type="Int64" Name="connectivity" format="ascii" RangeMin="0" RangeMax="818">
          0 1 2 3 4 5
          6 7 4 5 6 7
          8 9 10 11 12 13
          14 15 16 17 18 19
          16 17 18 19 20 21
          22 23 24 0 3 25
          26 4 7 27 26 4
          7 27 28 8 11 29
          30 31 32 14 33 34
          35 18 33 34 35 18
          36 37 38 22 39 40
          41 42 43 44 45 46
          43 44 45 46 47 48
          49 50 51 52 53 54
          55 56 57 58 55 56
          57 58 59 60 61 62
          13 63 64 65 17 66
          67 68 17 66 67 68
          21 69 70 71 0 24
          32 72 4 26 35 73
          4 26 35 73 8 28
          38 74 24 15 14 32
          26 19 18 35 26 19
          18 35 28 23 22 38
          13 65 30 14 17 68
          33 18 17 68 33 18
          21 71 36 22 93 94
          95 96 97 98 99 100
          97 98 99 100 101 102
          103 104 72 32 31 81
          73 35 34 83 73 35
          34 83 74 38 37 85
          53 40 39 54 57 44
          43 58 57 44 43 58
          61 48 47 62 31 30
          111 82 34 33 112 84
          34 33 112 84 37 36
          113 86 12 15 114 115
          16 19 116 117 16 19
          116 117 20 23 118 119
          120 121 122 123 124 125
          126 127 124 125 126 127
          128 129 130 131 64 76
          75 65 67 78 77 68
          67 78 77 68 70 80
          79 71 132 133 54 39
          134 135 58 43 134 135
          58 43 136 137 62 47
          53 141 41 40 57 142
          45 44 57 142 45 44
          61 143 49 48 111 30
          65 75 112 33 68 77
          112 33 68 77 113 36
          71 79 54 150 151 51
          58 152 153 55 58 152
          153 55 62 154 155 59
          156 122 121 157 158 126
          125 159 158 126 125 159
          160 130 129 161 162 88
          108 138 163 90 109 139
          163 90 109 139 164 92
          110 140 168 87 88 162
          169 89 90 163 169 89
          90 163 170 91 92 164
          121 165 171 157 125 166
          172 159 125 166 172 159
          129 167 173 161 132 39
          42 183 134 43 46 184
          134 43 46 184 136 47
          50 185 186 96 95 187
          188 100 99 189 188 100
          99 189 190 104 103 191
          192 193 122 156 194 195
          126 158 194 195 126 158
          196 197 130 160 183 42
          96 186 184 46 100 188
          184 46 100 188 185 50
          104 190 151 150 198 199
          153 152 200 201 153 152
          200 201 155 154 202 203
          174 145 144 204 175 147
          146 205 175 147 146 205
          176 149 148 206 193 192
          95 204 195 194 99 205
          195 194 99 205 197 196
          103 206 123 122 193 210
          127 126 195 211 127 126
          195 211 131 130 197 212
          93 96 42 41 97 100
          46 45 97 100 46 45
          101 104 50 49 213 214
          87 168 215 216 89 169
          215 216 89 169 217 218
          91 170 178 219 220 177
          180 221 222 179 180 221
          222 179 182 223 224 181
          225 141 226 227 228 142
          229 230 228 142 229 230
          231 143 232 233 120 105
          165 121 124 106 166 125
          124 106 166 125 128 107
          167 129 210 193 204 144
          211 195 205 146 211 195
          205 146 212 197 206 148
          219 227 234 220 221 230
          235 222 221 230 235 222
          223 233 236 224 94 174
          204 95 98 175 205 99
          98 175 205 99 102 176
          206 103 192 156 237 238
          194 158 239 240 194 158
          239 240 196 160 241 242
          243 2 1 244 245 6
          5 246 245 6 5 246
          247 10 9 248 227 226
          249 234 230 229 250 235
          230 229 250 235 233 232
          251 236 238 187 95 192
          240 189 99 194 240 189
          99 194 242 191 103 196
          252 207 87 214 253 208
          89 216 253 208 89 216
          254 209 91 218 187 255
          115 186 189 256 117 188
          189 256 117 188 191 257
          119 190 94 162 138 174
          98 163 139 175 98 163
          139 175 102 164 140 176
          64 63 237 171 67 66
          239 172 67 66 239 172
          70 69 241 173 41 213
          168 93 45 215 169 97
          45 215 169 97 49 217
          170 101 2 198 133 3
          6 200 135 7 6 200
          135 7 10 202 137 11
          25 114 15 24 27 116
          19 26 27 116 19 26
          29 118 23 28 114 183
          186 115 116 184 188 117
          116 184 188 117 118 185
          190 119 51 151 258 259
          55 153 260 261 55 153
          260 261 59 155 262 263
          226 52 264 249 229 56
          265 250 229 56 265 250
          232 60 266 251 198 150
          54 133 200 152 58 135
          200 152 58 135 202 154
          62 137 64 171 165 76
          67 172 166 78 67 172
          166 78 70 173 167 80
          52 51 259 264 56 55
          261 265 56 55 261 265
          60 59 263 266 171 237
          156 157 172 239 158 159
          172 239 158 159 173 241
          160 161 252 214 213 225
          253 216 215 228 253 216
          215 228 254 218 217 231
          151 199 267 258 153 201
          268 260 153 201 268 260
          155 203 269 262 63 13
          12 270 66 17 16 271
          66 17 16 271 69 21
          20 272 270 255 187 238
          271 256 189 240 271 256
          189 240 272 257 191 242
          199 198 2 243 201 200
          6 245 201 200 6 245
          203 202 10 247 225 213
          41 141 228 215 45 142
          228 215 45 142 231 217
          49 143 52 226 141 53
          56 229 142 57 56 229
          142 57 60 232 143 61
          25 132 183 114 27 134
          184 116 27 134 184 116
          29 136 185 118 252 225
          227 219 253 228 230 221
          253 228 230 221 254 231
          233 223 219 178 207 252
          221 180 208 253 221 180
          208 253 223 182 209 254
          25 3 133 132 27 7
          135 134 27 7 135 134
          29 11 137 136 93 168
          162 94 97 169 163 98
          97 169 163 98 101 170
          164 102 270 12 115 255
          271 16 117 256 271 16
          117 256 272 20 119 257
          199 243 273 267 201 245
          274 268 201 245 274 268
          203 247 275 269 63 270
          238 237 66 271 240 239
          66 271 240 239 69 272
          242 241 243 244 276 273
          245 246 277 274 245 246
          277 274 247 248 278 275
          276 244 1 279 277 246
          5 280 277 246 5 280
          278 248 9 281 285 72
          81 282 286 73 83 283
          286 73 83 283 287 74
          85 284 288 0 72 285
          289 4 73 286 289 4
          73 286 290 8 74 287
          291 1 0 288 292 5
          4 289 292 5 4 289
          293 9 8 290 294 279
          1 291 295 280 5 292
          295 280 5 292 296 281
          9 293 303 297 298 304
          305 299 300 306 305 299
          300 306 307 301 302 308
          309 303 304 310 311 305
          306 312 311 305 306 312
          313 307 308 314 315 309
          310 316 317 311 312 318
          317 311 312 318 319 313
          314 320 321 315 316 322
          323 317 318 324 323 317
          318 324 325 319 320 326
          327 321 322 328 329 323
          324 330 329 323 324 330
          331 325 326 332 333 327
          328 334 335 329 330 336
          335 329 330 336 337 331
          332 338 339 333 334 340
          341 335 336 342 341 335
          336 342 343 337 338 344
          348 345 297 303 349 346
          299 305 349 346 299 305
          350 347 301 307 351 348
          303 309 352 349 305 311
          352 349 305 311 353 350
          307 313 354 351 309 315
          355 352 311 317 355 352
          311 317 356 353 313 319
          357 354 315 321 358 355
          317 323 358 355 317 323
          359 356 319 325 360 357
          321 327 361 358 323 329
          361 358 323 329 362 359
          325 331 363 360 327 333
          364 361 329 335 364 361
          329 335 365 362 331 337
          366 363 333 339 367 364
          335 341 367 364 335 341
          368 365 337 343 372 369
          345 348 373 370 346 349
          373 370 346 349 374 371
          347 350 375 372 348 351
          376 373 349 352 376 373
          349 352 377 374 350 353
          378 375 351 354 379 376
          352 355 379 376 352 355
          380 377 353 356 381 378
          354 357 382 379 355 358
          382 379 355 358 383 380
          356 359 384 381 357 360
          385 382 358 361 385 382
          358 361 386 383 359 362
          387 384 360 363 388 385
          361 364 388 385 361 364
          389 386 362 365 390 387
          363 366 391 388 364 367
          391 388 364 367 392 389
          365 368 396 393 369 372
          397 394 370 373 397 394
          370 373 398 395 371 374
          399 396 372 375 400 397
          373 376 400 397 373 376
          401 398 374 377 402 399
          375 378 403 400 376 379
          403 400 376 379 404 401
          377 380 405 402 378 381
          406 403 379 382 406 403
          379 382 407 404 380 383
          408 405 381 384 409 406
          382 385 409 406 382 385
          410 407 383 386 411 408
          384 387 412 409 385 388
          412 409 385 388 413 410
          386 389 414 411 387 390
          415 412 388 391 415 412
          388 391 416 413 389 392
          420 417 393 396 421 418
          394 397 421 418 394 397
          422 419 395 398 423 420
          396 399 424 421 397 400
          424 421 397 400 425 422
          398 401 426 423 399 402
          427 424 400 403 427 424
          400 403 428 425 401 404
          429 426 402 405 430 427
          403 406 430 427 403 406
          431 428 404 407 432 429
          405 408 433 430 406 409
          433 430 406 409 434 431
          407 410 435 432 408 411
          436 433 409 412 436 433
          409 412 437 434 410 413
          438 435 411 414 439 436
          412 415 439 436 412 415
          440 437 413 416 447 444
          417 420 448 445 418 421
          448 445 418 421 449 446
          419 422 450 447 420 423
          451 448 421 424 451 448
          421 424 452 449 422 425
          453 450 423 426 454 451
          424 427 454 451 424 427
          455 452 425 428 456 453
          426 429 457 454 427 430
          457 454 427 430 458 455
          428 431 459 456 429 432
          460 457 430 433 460 457
          430 433 461 458 431 434
          462 459 432 435 463 460
          433 436 463 460 433 436
          464 461 434 437 465 462
          435 438 466 463 436 439
          466 463 436 439 467 464
          437 440 471 468 441 444
          472 469 442 445 472 469
          442 445 473 470 443 446
          474 471 444 447 475 472
          445 448 475 472 445 448
          476 473 446 449 477 474
          447 450 478 475 448 451
          478 475 448 451 479 476
          449 452 480 477 450 453
          481 478 451 454 481 478
          451 454 482 479 452 455
          483 480 453 456 484 481
          454 457 484 481 454 457
          485 482 455 458 486 483
          456 459 487 484 457 460
          487 484 457 460 488 485
          458 461 489 486 459 462
          490 487 460 463 490 487
          460 463 491 488 461 464
          492 489 462 465 493 490
          463 466 493 490 463 466
          494 491 464 467 498 495
          468 471 499 496 469 472
          499 496 469 472 500 497
          470 473 501 498 471 474
          502 499 472 475 502 499
          472 475 503 500 473 476
          504 501 474 477 505 502
          475 478 505 502 475 478
          506 503 476 479 507 504
          477 480 508 505 478 481
          508 505 478 481 509 506
          479 482 510 507 480 483
          511 508 481 484 511 508
          481 484 512 509 482 485
          513 510 483 486 514 511
          484 487 514 511 484 487
          515 512 485 488 516 513
          486 489 517 514 487 490
          517 514 487 490 518 515
          488 491 519 516 489 492
          520 517 490 493 520 517
          490 493 521 518 491 494
          525 522 495 498 526 523
          496 499 526 523 496 499
          527 524 497 500 528 525
          498 501 529 526 499 502
          529 526 499 502 530 527
          500 503 531 528 501 504
          532 529 502 505 532 529
          502 505 533 530 503 506
          534 531 504 507 535 532
          505 508 535 532 505 508
          536 533 506 509 537 534
          507 510 538 535 508 511
          538 535 508 511 539 536
          509 512 540 537 510 513
          541 538 511 514 541 538
          511 514 542 539 512 515
          543 540 513 516 544 541
          514 517 544 541 514 517
          545 542 515 518 546 543
          516 519 547 544 517 520
          547 544 517 520 548 545
          518 521 340 549 550 339
          342 551 552 341 342 551
          552 341 344 553 554 343
          339 550 555 366 341 552
          556 367 341 552 556 367
          343 554 557 368 366 555
          558 390 367 556 559 391
          367 556 559 391 368 557
          560 392 390 558 561 414
          391 559 562 415 391 559
          562 415 392 560 563 416
          414 561 564 438 415 562
          565 439 415 562 565 439
          416 563 566 440 438 564
          567 465 439 565 568 466
          439 565 568 466 440 566
          569 467 465 567 570 492
          466 568 571 493 466 568
          571 493 467 569 572 494
          492 570 573 519 493 571
          574 520 493 571 574 520
          494 572 575 521 519 573
          576 546 520 574 577 547
          520 574 577 547 521 575
          578 548 549 579 580 550
          551 581 582 552 551 581
          582 552 553 583 584 554
          550 580 585 555 552 582
          586 556 552 582 586 556
          554 584 587 557 555 585
          588 558 556 586 589 559
          556 586 589 559 557 587
          590 560 558 588 591 561
          559 589 592 562 559 589
          592 562 560 590 593 563
          561 591 594 564 562 592
          595 565 562 592 595 565
          563 593 596 566 564 594
          597 567 565 595 598 568
          565 595 598 568 566 596
          599 569 567 597 600 570
          568 598 601 571 568 598
          601 571 569 599 602 572
          570 600 603 573 571 601
          604 574 571 601 604 574
          572 602 605 575 573 603
          606 576 574 604 607 577
          574 604 607 577 575 605
          608 578 579 609 610 580
          581 611 612 582 581 611
          612 582 583 613 614 584
          580 610 615 585 582 612
          616 586 582 612 616 586
          584 614 617 587 585 615
          618 588 586 616 619 589
          586 616 619 589 587 617
          620 590 588 618 621 591
          589 619 622 592 589 619
          622 592 590 620 623 593
          591 621 624 594 592 622
          625 595 592 622 625 595
          593 623 626 596 594 624
          627 597 595 625 628 598
          595 625 628 598 596 626
          629 599 597 627 630 600
          598 628 631 601 598 628
          631 601 599 629 632 602
          600 630 633 603 601 631
          634 604 601 631 634 604
          602 632 635 605 603 633
          636 606 604 634 637 607
          604 634 637 607 605 635
          638 608 609 639 640 610
          611 641 642 612 611 641
          642 612 613 643 644 614
          610 640 645 615 612 642
          646 616 612 642 646 616
          614 644 647 617 615 645
          648 618 616 646 649 619
          616 646 649 619 617 647
          650 620 618 648 651 621
          619 649 652 622 619 649
          652 622 620 650 653 623
          621 651 654 624 622 652
          655 625 622 652 655 625
          623 653 656 626 624 654
          657 627 625 655 658 628
          625 655 658 628 626 656
          659 629 627 657 660 630
          628 658 661 631 628 658
          661 631 629 659 662 632
          630 660 663 633 631 661
          664 634 631 661 664 634
          632 662 665 635 633 663
          666 636 634 664 667 637
          634 664 667 637 635 665
          668 638 639 669 670 640
          641 671 672 642 641 671
          672 642 643 673 674 644
          640 670 675 645 642 672
          676 646 642 672 676 646
          644 674 677 647 645 675
          678 648 646 676 679 649
          646 676 679 649 647 677
          680 650 648 678 681 651
          649 679 682 652 649 679
          682 652 650 680 683 653
          651 681 684 654 652 682
          685 655 652 682 685 655
          653 683 686 656 654 684
          687 657 655 685 688 658
          655 685 688 658 656 686
          689 659 657 687 690 660
          658 688 691 661 658 688
          691 661 659 689 692 662
          660 690 693 663 661 691
          694 664 661 691 694 664
          662 692 695 665 663 693
          696 666 664 694 697 667
          664 694 697 667 665 695
          698 668 669 699 700 670
          671 701 702 672 671 701
          702 672 673 703 704 674
          670 700 705 675 672 702
          706 676 672 702 706 676
          674 704 707 677 675 705
          708 678 676 706 709 679
          676 706 709 679 677 707
          710 680 678 708 711 681
          679 709 712 682 679 709
          712 682 680 710 713 683
          681 711 714 684 682 712
          715 685 682 712 715 685
          683 713 716 686 684 714
          717 687 685 715 718 688
          685 715 718 688 686 716
          719 689 687 717 720 690
          688 718 721 691 688 718
          721 691 689 719 722 692
          690 720 723 693 691 721
          724 694 691 721 724 694
          692 722 725 695 693 723
          726 696 694 724 727 697
          694 724 727 697 695 725
          728 698 699 729 730 700
          701 731 732 702 701 731
          732 702 703 733 734 704
          700 730 735 705 702 732
          736 706 702 732 736 706
          704 734 737 707 705 735
          738 708 706 736 739 709
          706 736 739 709 707 737
          740 710 708 738 741 711
          709 739 742 712 709 739
          742 712 710 740 743 713
          711 741 744 714 712 742
          745 715 712 742 745 715
          713 743 746 716 714 744
          747 717 715 745 748 718
          715 745 748 718 716 746
          749 719 717 747 750 720
          718 748 751 721 718 748
          751 721 719 749 752 722
          720 750 753 723 721 751
          754 724 721 751 754 724
          722 752 755 725 723 753
          756 726 724 754 757 727
          724 754 757 727 725 755
          758 728 729 759 760 730
          731 761 762 732 731 761
          762 732 733 763 764 734
          730 760 765 735 732 762
          766 736 732 762 766 736
          734 764 767 737 735 765
          768 738 736 766 769 739
          736 766 769 739 737 767
          770 740 738 768 771 741
          739 769 772 742 739 769
          772 742 740 770 773 743
          741 771 774 744 742 772
          775 745 742 772 775 745
          743 773 776 746 744 774
          777 747 745 775 778 748
          745 775 778 748 746 776
          779 749 747 777 780 750
          748 778 781 751 748 778
          781 751 749 779 782 752
          750 780 783 753 751 781
          784 754 751 781 784 754
          752 782 785 755 753 783
          786 756 754 784 787 757
          754 784 787 757 755 785
          788 758 759 789 790 760
          761 791 792 762 761 791
          792 762 763 793 794 764
          760 790 795 765 762 792
          796 766 762 792 796 766
          764 794 797 767 765 795
          798 768 766 796 799 769
          766 796 799 769 767 797
          800 770 768 798 801 771
          769 799 802 772 769 799
          802 772 770 800 803 773
          771 801 804 774 772 802
          805 775 772 802 805 775
          773 803 806 776 774 804
          807 777 775 805 808 778
          775 805 808 778 776 806
          809 779 777 807 810 780
          778 808 811 781 778 808
          811 781 779 809 812 782
          780 810 813 783 781 811
          814 784 781 811 814 784
          782 812 815 785 783 813
          816 786 784 814 817 787
          784 814 817 787 785 815
          818 788
        </DataArray>
        <DataArray type="Int64" Name="offsets" format="ascii" RangeMin="8" RangeMax="3632">
          8 16 24 32 40 48
          56 64 72 80 88 96
          104 112 120 128 136 144
          152 160 168 176 184 192
          200 208 216 224 232 240
          248 256 264 272 280 288
          296 304 312 320 328 336
          344 352 360 368 376 384
          392 400 408 416 424 432
          440 448 456 464 472 480
          488 496 504 512 520 528
          536 544 552 560 568 576
          584 592 600 608 616 624
          632 640 648 656 664 672
          680 688 696 704 712 720
          728 736 744 752 760 768
          776 784 792 800 808 816
          824 832 840 848 856 864
          872 880 888 896 904 912
          920 928 936 944 952 960
          968 976 984 992 1000 1008
          1016 1024 1032 1040 1048 1056
          1064 1072 1080 1088 1096 1104
          1112 1120 1128 1136 1144 1152
          1160 1168 1176 1184 1192 1200
          1208 1216 1224 1232 1240 1248
          1256 1264 1272 1280 1288 1296
          1304 1312 1320 1328 1336 1344
          1352 1360 1368 1376 1384 1392
          1400 1408 1416 1424 1432 1440
          1448 1456 1464 1472 1480 1488
          1496 1504 1512 1520 1528 1536
          1544 1552 1560 1568 1576 1584
          1592 1600 1608 1616 1624 1632
          1640 1648 1656 1664 1672 1680
          1688 1696 1704 1712 1720 1728
          1736 1744 1752 1760 1768 1776
          1784 1792 1800 1808 1816 1824
          1832 1840 1848 1856 1864 1872
          1880 1888 1896 1904 1912 1920
          1928 1936 1944 1952 1960 1968
          1976 1984 1992 2000 2008 2016
          2024 2032 2040 2048 2056 2064
          2072 2080 2088 2096 2104 2112
          2120 2128 2136 2144 2152 2160
          2168 2176 2184 2192 2200 2208
          2216 2224 2232 2240 2248 2256
          2264 2272 2280 2288 2296 2304
          2312 2320 2328 2336 2344 2352
          2360 2368 2376 2384 2392 2400
          2408 2416 2424 2432 2440 2448
          2456 2464 2472 2480 2488 2496
          2504 2512 2520 2528 2536 2544
          2552 2560 2568 2576 2584 2592
          2600 2608 2616 2624 2632 2640
          2648 2656 2664 2672 2680 2688
          2696 2704 2712 2720 2728 2736
          2744 2752 2760 2768 2776 2784
          2792 2800 2808 2816 2824 2832
          2840 2848 2856 2864 2872 2880
          2888 2896 2904 2912 2920 2928
          2936 2944 2952 2960 2968 2976
          2984 2992 3000 3008 3016 3024
          3032 3040 3048 3056 3064 3072
          3080 3088 3096 3104 3112 3120
          3128 3136 3144 3152 3160 3168
          3176 3184 3192 3200 3208 3216
          3224 3232 3240 3248 3256 3264
          3272 3280 3288 3296 3304 3312
          3320 3328 3336 3344 3352 3360
          3368 3376 3384 3392 3400 3408
          3416 3424 3432 3440 3448 3456
          3464 3472 3480 3488 3496 3504
          3512 3520 3528 3536 3544 3552
          3560 3568 3576 3584 3592 3600
          3608 3616 3624 3632
        </DataArray>
        <DataArray type="UInt8" Name="types" format="ascii" RangeMin="12" RangeMax="12">
          12 12 12 12 12 12
          12 12 12 12 12 12
          12 12 12 12 12 12
          12 12 12 12 12 12
          12 12 12 12 12 12
          12 12 12 12 12 12
          12 12 12 12 12 12
          12 12 12 12 12 12
          12 12 12 12 12 12
          12 12 12 12 12 12
          12 12 12 12 12 12
          12 12 12 12 12 12
          12 12 12 12 12 12
          12 12 12 12 12 12
          12 12 12 12 12 12
          12 12 12 12 12 12
          12 12 12 12 12 12
          12 12 12 12 12 12
          12 12 12 12 12 12
          12 12 12 12 12 12
          12 12 12 12 12 12
          12 12 12 12 12 12
          12 12 12 12 12 12
          12 12 12 12 12 12
          12 12 12 12 12 12
          12 12 12 12 12 12
          12 12 12 12 12 12
          12 12 12 12 12 12
          12 12 12 12 12 12
          12 12 12 12 12 12
          12 12 12 12 12 12
          12 12 12 12 12 12
          12 12 12 12 12 12
          12 12 12 12 12 12
          12 12 12 12 12 12
          12 12 12 12 12 12
          12 12 12 12 12 12
          12 12 12 12 12 12
          12 12 12 12 12 12
          12 12 12 12 12 12
          12 12 12 12 12 12
          12 12 12 12 12 12
          12 12 12 12 12 12
          12 12 12 12 12 12
          12 12 12 12 12 12
          12 12 12 12 12 12
          12 12 12 12 12 12
          12 12 12 12 12 12
          12 12 12 12 12 12
          12 12 12 12 12 12
          12 12 12 12 12 12
          12 12 12 12 12 12
          12 12 12 12 12 12
          12 12 12 12 12 12
          12 12 12 12 12 12
          12 12 12 12 12 12
          12 12 12 12 12 12
          12 12 12 12 12 12
          12 12 12 12 12 12
          12 12 12 12 12 12
          12 12 12 12 12 12
          12 12 12 12 12 12
          12 12 12 12 12 12
          12 12 12 12 12 12
          12 12 12 12 12 12
          12 12 12 12 12 12
          12 12 12 12 12 12
          12 12 12 12 12 12
          12 12 12 12 12 12
          12 12 12 12 12 12
          12 12 12 12 12 12
          12 12 12 12 12 12
          12 12 12 12 12 12
          12 12 12 12 12 12
          12 12 12 12 12 12
          12 12 12 12
        </DataArray>
      </Cells>
    </Piece>
  </UnstructuredGrid>
</VTKFile>
