<?xml version="1.0"?>
<VTKFile type="UnstructuredGrid" version="0.1" byte_order="LittleEndian" header_type="UInt32" compressor="vtkZLibDataCompressor">
  <UnstructuredGrid>
    <Piece NumberOfPoints="819" NumberOfCells="454">
      <PointData>
        <DataArray type="Int32" Name="libmesh_node_id" format="ascii" RangeMin="2316" RangeMax="5735">
          2316 2317 2318 2319 2320 2321
          2322 2323 2324 2325 2326 2327
          2433 2434 2435 2436 2437 2438
          2439 2440 2441 2442 2443 2444
          2598 2599 2600 2601 2602 2603
          2643 2644 2645 2646 2647 2648
          2649 2650 2651 2709 2710 2711
          2712 2713 2714 2715 2716 2717
          2718 2719 2720 2766 2767 2768
          2769 2770 2771 2772 2773 2774
          2775 2776 2777 2808 2809 2810
          2811 2812 2813 2814 2815 2816
          2817 2818 2819 2852 2853 2856
          2857 2860 2861 2970 2971 2973
          2974 2976 2977 2991 2994 2995
          2998 2999 3002 3081 3082 3083
          3084 3085 3086 3087 3088 3089
          3090 3091 3092 3187 3190 3193
          3241 3243 3245 3270 3271 3272
          3312 3313 3314 3315 3316 3317
          3495 3496 3497 3498 3499 3500
          3501 3502 3503 3504 3505 3506
          3765 3766 3767 3768 3769 3770
          3852 3853 3854 4470 4471 4472
          4584 4585 4586 4587 4588 4589
          4635 4636 4637 4638 4639 4640
          4641 4642 4643 4644 4645 4646
          4659 4660 4661 4662 4663 4664
          4722 4723 4724 4782 4783 4784
          4791 4792 4793 4794 4795 4796
          4797 4798 4799 4812 4813 4814
          4815 4816 4817 4818 4819 4820
          4833 4834 4835 4836 4837 4838
          4848 4849 4850 4851 4852 4853
          4896 4897 4898 4899 4900 4901
          4911 4912 4913 4935 4936 4937
          4938 4939 4940 4944 4945 4946
          4947 4948 4949 4950 4951 4952
          4953 4954 4955 4956 4957 4958
          4992 4993 4994 5007 5008 5009
          5010 5011 5012 5013 5014 5015
          5016 5017 5018 5019 5020 5021
          5025 5026 5027 5028 5029 5030
          5040 5041 5042 5043 5044 5045
          5055 5056 5057 5073 5074 5075
          5079 5080 5081 5088 5089 5090
          5094 5095 5096 5103 5104 5105
          5151 5152 5153 5160 5161 5162
          5169 5170 5171 5178 5179 5180
          5187 5188 5189 5202 5203 5204
          5205 5206 5207 5208 5209 5210
          5211 5212 5213 5214 5215 5216
          5217 5218 5219 5220 5221 5222
          5223 5224 5225 5226 5227 5228
          5229 5230 5231 5232 5233 5234
          5235 5236 5237 5238 5239 5240
          5241 5242 5243 5244 5245 5246
          5247 5248 5249 5253 5254 5255
          5256 5257 5258 5259 5260 5261
          5262 5263 5264 5265 5266 5267
          5268 5269 5270 5271 5272 5273
          5274 5275 5276 5280 5281 5282
          5283 5284 5285 5286 5287 5288
          5289 5290 5291 5292 5293 5294
          5295 5296 5297 5298 5299 5300
          5301 5302 5303 5307 5308 5309
          5310 5311 5312 5313 5314 5315
          5316 5317 5318 5319 5320 5321
          5322 5323 5324 5325 5326 5327
          5328 5329 5330 5334 5335 5336
          5337 5338 5339 5340 5341 5342
          5343 5344 5345 5346 5347 5348
          5349 5350 5351 5352 5353 5354
          5355 5356 5357 5358 5359 5360
          5361 5362 5363 5364 5365 5366
          5367 5368 5369 5370 5371 5372
          5373 5374 5375 5376 5377 5378
          5379 5380 5381 5382 5383 5384
          5385 5386 5387 5388 5389 5390
          5391 5392 5393 5394 5395 5396
          5397 5398 5399 5400 5401 5402
          5403 5404 5405 5406 5407 5408
          5409 5410 5411 5412 5413 5414
          5415 5416 5417 5418 5419 5420
          5421 5422 5423 5424 5425 5426
          5427 5428 5429 5430 5431 5432
          5433 5434 5435 5436 5437 5438
          5439 5440 5441 5442 5443 5444
          5445 5446 5447 5448 5449 5450
          5451 5452 5453 5454 5455 5456
          5457 5458 5459 5460 5461 5462
          5463 5464 5465 5466 5467 5468
          5469 5470 5471 5472 5473 5474
          5475 5476 5477 5478 5479 5480
          5481 5482 5483 5484 5485 5486
          5487 5488 5489 5490 5491 5492
          5493 5494 5495 5496 5497 5498
          5499 5500 5501 5502 5503 5504
          5505 5506 5507 5508 5509 5510
          5511 5512 5513 5514 5515 5516
          5517 5518 5519 5520 5521 5522
          5523 5524 5525 5526 5527 5528
          5529 5530 5531 5532 5533 5534
          5535 5536 5537 5538 5539 5540
          5541 5542 5543 5544 5545 5546
          5547 5548 5549 5550 5551 5552
          5553 5554 5555 5556 5557 5558
          5559 5560 5561 5562 5563 5564
          5565 5566 5567 5568 5569 5570
          5571 5572 5573 5574 5575 5576
          5577 5578 5579 5580 5581 5582
          5583 5584 5585 5586 5587 5588
          5589 5590 5591 5592 5593 5594
          5595 5596 5597 5598 5599 5600
          5601 5602 5603 5604 5605 5606
          5607 5608 5609 5610 5611 5612
          5613 5614 5615 5616 5617 5618
          5619 5620 5621 5622 5623 5624
          5625 5626 5627 5628 5629 5630
          5631 5632 5633 5634 5635 5636
          5637 5638 5639 5640 5641 5642
          5643 5644 5645 5646 5647 5648
          5649 5650 5651 5652 5653 5654
          5655 5656 5657 5658 5659 5660
          5661 5662 5663 5664 5665 5666
          5667 5668 5669 5670 5671 5672
          5673 5674 5675 5676 5677 5678
          5679 5680 5681 5682 5683 5684
          5685 5686 5687 5688 5689 5690
          5691 5692 5693 5694 5695 5696
          5697 5698 5699 5700 5701 5702
          5703 5704 5705 5706 5707 5708
          5709 5710 5711 5712 5713 5714
          5715 5716 5717 5718 5719 5720
          5721 5722 5723 5724 5725 5726
          5727 5728 5729 5730 5731 5732
          5733 5734 5735
        </DataArray>
        <DataArray type="Float64" Name="resid_x" format="ascii" RangeMin="-1.7173843632334431" RangeMax="69.01431670245357">
          0.10555407654923599 -0.02525560240253988 -0.006157785691183193 0.024994007943890395 0.17829981719432197 -0.11433458758342496
          -0.02878644328290214 0.01718732724717853 -0.013254674969944702 -0.20693664464794104 -0.05070502736277405 -0.08264157980022446
          0.010745448435855565 0.023369552456751208 -0.019832700042890394 -0.008985575180622707 0.0018376419997814253 -0.00867841884490339
          -0.0006718542854429188 -0.007160572224305994 -0.040001578614507594 -0.05024383872986071 -0.016652192882745 -0.037613846454554345
          -0.033320213840330126 0.0010446882970738258 0.007481487892412986 0.027016071927824292 -0.02093253731225886 -0.02263195440208321
          -0.040903796117179425 0.0030071000079008314 -0.05933509312293239 -0.01984659898876906 0.022694455393111213 -0.05442284998565583
          -0.009772750005378583 -0.056889184343440036 -0.02196962997926022 0.06537396695920339 0.0007977108286789658 0.07139302684213877
          0.04543315977829465 0.10750130295853103 0.001388507823133267 0.10582928163934646 0.07321649469897373 0.0018813029091309108
          -0.0042711022865598025 0.014928605446195675 0.0012441079008418399 -0.0909779471490273 0.0660197114427099 0.0019604572733182835
          0.009420024625094392 -0.18526674433932122 0.11882442443553298 0.015576401092356917 0.04424723530475205 -0.09451145610879408
          0.043355591237658864 -0.0008803469523037677 -0.02184113557025924 -0.028218922082738906 -0.0551002950035695 -0.0511118458712172
          -0.03130952336962345 -0.0727267103901319 -0.02884396989450888 -0.02510639126872327 -0.010978478213008458 -0.04294579504278584
          0.019921111108226697 0.1249067362805576 -0.08092923595552648 -0.0570269571896489 0.01990419235581875 -0.02495580243887474
          0.032052483162498646 -0.01440794857797556 -0.032058762274420616 -0.07330318217853105 -0.04492859733221799 -0.031803954762155584
          -0.06663796879001538 -0.05483174233706123 -0.04117719998966152 -0.01700579350723075 -0.012714776678562245 -0.020550024175488346
          -0.05026789526191955 0.0028631986754010796 -0.03429707563720896 0.008976999222685578 0.007243079370731875 -0.01037596532719931
          -0.0002515808535680786 0.03734053169713292 0.02311618448478192 -0.04259148467961005 0.03358859831090705 0.0020848948084850605
          0.0015704513296037614 -0.05321995733774898 0.019528311070473814 0.739729109396138 1.5549175320157662 0.8584829152968041
          -0.018365100762827602 -0.01939288067413969 0.0014144242366285198 -0.09179462430472274 -0.10067073439163998 0.006998774233685445
          -0.03622754102110193 0.007247354456280775 -0.027241891297040022 0.02123131581709714 -0.022054158963220827 -0.04318310565745076
          0.5115146432323865 -0.1777721511242527 -0.702299828867563 0.7864701884822658 1.0651485629298776 -0.4188324550637672
          -1.441094680979595 1.626640652581397 0.5833148105519044 -0.4051382235104031 -0.7958317590270916 0.8741923519006747
          -0.017189940275478932 -0.03638474118197077 -0.031805375853609874 -0.05054238609351136 -0.08688192164230912 -0.1110425374036208
          -0.03159030950407171 -0.04943760036432465 -0.019769538804079723 -0.06397300217418422 -0.04187379625066523 -0.01936098830373112
          0.0056128308054770315 -0.005915125272715649 -0.013651508489953557 -0.026699908049078402 -0.03149641219823174 -0.0525663498740947
          -0.0072527680349034895 0.0018538847157252292 0.034317454332542185 0.005804633300368067 0.007441462623017037 -0.004396141975118617
          -0.04803053457811801 -0.36585705965389437 -0.07628870653676856 -0.6488387926292392 -0.10320463347287578 -0.2734594845637641
          -0.014731989672460699 -0.012710701210240316 -0.01499407768830352 -0.8659284050959695 -1.7173843632334431 -0.9665026550092932
          -0.02106781303546934 -0.03163076022937017 -0.021697570394636045 -0.15097777792038958 -0.13160705629038194 -0.05334738087736657
          -0.032535439706003366 -0.03338747974458656 -0.02838358903833793 -0.046874592454980935 -0.1964329773395903 -0.13189920852432557
          -0.41289928996243574 -0.10228290384443195 -0.2238415494189514 -0.07748757713695831 -0.13499553656432894 -0.06684607988612967
          -0.05920586942038497 -0.017465635329572127 -0.11810491225372921 -0.0392077745909547 -0.05213743600536702 -0.024841195642449243
          -0.016406518051260477 -0.14637669973123568 -0.05586534071499827 -0.29978854907927666 -0.0780650502135476 -0.12085315882475545
          -0.0004040950125077103 -0.0026560445479173467 -0.003724084417006779 0.0017525368557231857 -0.03685728645183772 0.003602245035047247
          -0.005362803325560606 0.003754857151334612 -0.048981216157149454 -0.02743450379208312 -0.033447713846548766 0.02012444591080076
          0.15051400354488997 0.35374832228021447 0.14667048683288364 0.056349277637979256 0.0980048748209601 -0.40310787444380214
          0.897102762428684 -0.2916458316086388 0.5061639807629659 -0.05377318357017913 -0.04791307463824168 -0.044372356250145906
          -0.029068311324458307 0.004290743619037585 0.006889271179918666 -0.11268948001782775 -0.3462812658300356 0.2848443054311076
          -0.6952431896009701 -0.4542787180195278 0.3779111239713231 -0.41892236395958005 -0.049431915958767725 0.04530894082536996
          0.3396718522350648 0.6521829130846584 0.19480974678088359 -0.09045651698538926 -0.036338913407163 0.0404788849646085
          0.001038774678218779 0.04026574212387146 0.0008544230455207469 -0.014023295204738773 -0.005692217287975865 0.019895355372482548
          -0.00540562978512682 -0.0061287836258152595 -0.027732672219128673 -0.30460669042471267 -0.5361125935530868 -0.13022640335809665
          -0.0008853324359536785 0.2335286619609409 0.17966780570317553 -0.04454406919149445 -0.026863520606749347 -0.013624292249950543
          0.012859881530201456 -0.2904564695780705 0.03550357272085858 -0.5861185690952198 0.01577486053059829 -0.3105884041665963
          0.3314387910720411 0.6399815401216671 0.3339462228132728 0.013264252563096157 0.03859156063012836 0.013314698620054521
          -0.024567554863120122 0.01503343867950413 0.004813609130817298 -0.0013056273246219163 0.019209604867951313 0.022796453920046034
          0.008342130867720954 0.03335687659641273 0.01282054872181071 0.03345310395506296 0.14109799197012762 0.018883297628670803
          -0.01816935800526487 -0.002003877300843726 -0.011737232330915504 0.0011946430373583894 0.06741916386368985 0.024914801307446055
          -0.10128526746053623 -0.004174957489020414 0.12673961275739742 -0.16895719148404353 -0.1663629870659875 0.04621341754680586
          0.045225862490958946 0.08550690071086464 0.0853703655330964 0.0026320282429566078 0.0015076282122929996 0.007514754479920782
          0.0019335472844232982 -0.0032527555855068613 -0.0003822608713655029 -0.00032671504836301324 -0.0002452232167389212 -0.0006519632730750402
          -0.0006052807507117564 0.003145951092557553 0.001969322811504526 -0.0016012932554065884 -0.00046087394329852316 -0.0023075965085475048
          -0.0004905393785996637 0.002875287694196871 0.001031518796434483 0.0015126048751739063 0.0013513069904540487 -0.00008154494396173106
          -0.000225166516710118 0.003635207734658863 0.0012951878871589884 0.0009917524452571769 0.0012618264740389407 0.00047149457557615904
          -0.00006593989638936648 0.0024959722900561587 0.0008963251315847742 0.0006243025438301686 0.0001018230027902689 0.0005607417070248033
          0.0003461720658641809 0.0016946064258771543 0.0004123766402521767 -0.00013008638999778555 0.00008881543283933979 0.0005661505204237471
          0.0002874622473498789 0.0023577527729869985 0.001126733423834736 -0.00022716330969529963 0.00007903579867729604 0.00050640510113098
          0.0001194906453179101 0.0027352920531669156 0.0012646740384880673 0.0009391761131638532 0.0038804367769174064 0.0005631384497526426
          -0.00038387274761042534 0.0003067277425490289 0.003189815675188612 0.00022734308526750624 -0.0016924622319418603 0.004310717545056519
          0.0020288895897024872 -0.0002559781045050613 0.00589461686148951 0.0027722235301563813 0.000513045731072026 0.0029106934157976383
          0.0026454536310893673 0.000503428428384467 0.002358374428375498 0.00015388571165608766 0.0005966846949654325 0.004435287876754401
          0.0013885959567261352 0.0004904972231720706 0.005679592315861015 -0.5178423738603684 -1.0288267583598554 -0.5065107481787905
          -0.0000615933835739213 0.0009439177102184004 0.004355749321918623 0.0021978400282094412 0.0004280514085976961 0.005815723107074788
          0.0026428684571762062 0.0006865770302422192 0.0054612860401395125 0.003140668308049044 0.000834679818861872 0.0034001049679552864
          0.0017532363289589625 0.0008327006866650777 0.003936670343104964 0.0016044917619346677 0.0011000431126397814 0.006371137082398448
          0.002557070460930788 0.0007009872482939272 0.007754749985629417 0.43247675187340207 0.8577241232853936 0.4814523954910257
          -0.7090464922485467 -1.4132303050387502 -0.6960894418300381 0.003583865246149287 0.0017146871370741223 0.0054336639494074745
          0.0027912202447826218 0.0010670246234525393 0.005450974792916341 0.002086442808982625 0.001036263905895396 0.004872810728212329
          0.002247338693088352 0.0011126861951957778 0.0056383752851374425 0.00296009189973212 0.001430085516924251 0.007429624500673526
          0.00287595834138088 0.0006935643911987199 0.00860857088350997 0.7020733866908273 1.3602531055407425 0.7107243857643972
          -0.6074271805520262 -1.2010324402194072 -0.5434245851655817 0.002213863843834929 0.002442312988412354 0.005002776909229567
          0.003149232589775508 0.001532187400959728 0.00658616955405833 0.0029696759846107312 0.0007410136531245115 0.006558371504670646
          0.0037776466151040466 0.0012256324740587132 0.0068186640768370665 0.004101830437925003 0.0017288831038086983 0.008212104412288923
          0.003345855785486407 0.0006369842443874063 0.00846569732198077 0.07291132234214714 0.11735347635575266 0.04589178331359989
          0.05678906725096766 0.08998002406080019 0.047580924681460246 0.055968988492276495 0.11077005587632627 0.15874276775977236
          -0.05709230018526057 -0.10938767594494614 -0.04906985582627321 0.003990344352185815 0.002406449132802635 0.00659124100492825
          0.00266272777033727 -0.000485591291337073 0.006871393673174353 0.004141634322568422 0.0008909061040327515 0.008215176066915575
          0.0051443067415348764 0.0017319185151052352 0.008262670082020307 0.003825318182531845 0.0007926528514587972 0.006230090017780299
          -0.07001005449725639 -0.1637158820293081 -0.0327533015785626 -0.07656952739719891 -0.15868357884833095 -0.07525932361838628
          -0.00861199511203381 -0.030402793152729757 0.04114743261943765 -0.012318480416919186 -0.02389279218716034 0.002306478651544097
          0.0042495918803968635 0.003674371412945021 0.007379482017064731 0.001896950656460561 -0.0026908070946483065 0.00795338962278791
          0.005645304187497757 0.0020927255643741205 0.009093535183541945 0.005547268597094757 0.0014043209397343048 0.004948102846840996
          0.0014860826062204069 -0.000009904415747996609 0.0009936312558860294 -0.10066910434185417 -0.1769923774834865 -0.06412967511126766
          -0.032747985363538845 -0.06902757903054813 -0.1512186052845319 -0.0228692891127924 -0.05653231083225663 0.007870910809311127
          0.0057653962577610685 0.010916842205416444 0.0649069726147431 -0.00017328897249768715 -0.007764776508944138 0.005917222119533605
          0.004891690317887054 -0.0013623744467796683 0.008597573774610012 0.005982575786761757 0.00278278455116876 0.005144219114907145
          0.0011894866007775562 0.00031140531269535643 -0.0016932401038314282 -0.0035846738252978128 -0.0012061991437324338 -0.0038752909288106707
          0.03458749264161476 0.15348222060805128 0.04710083139820043 0.007879115601678421 0.03931610776105998 -0.057159335198747385
          -0.015068523364499598 -0.032241158488634625 0.006178894254144751 0.010016646023265352 0.017086195231787116 0.05872897382931086
          -0.03226687105392578 -0.07649860210593751 -0.03277465583497552 -0.0037212644512738535 -0.01796209111275715 -0.007196309426875658
          -0.005621021729036002 -0.013290979813287862 -0.0068211427615274545 -0.007366052252009148 -0.009711883820604506 -0.005879744590105318
          -0.004691894624830439 -0.004820553571827979 -0.003990717672573751 0.0003801692634937126 0.001059876959036643 0.00021365545304874445
          0.0007626081994978051 0.000788714046919381 0.002323195236858311 0.0038491424845688016 0.000981515508847508 0.0040493369268297386
          0.005377696166316781 0.001310596458139912 0.005477422099879448 0.005607162955168832 0.0014581957292705283 0.005397356580179036
          0.005690417646892598 0.0015810114110017537 0.0038378719096989755 0.004227956375205011 0.001402335930459131 0.00038652545005923855
          0.0006491873713230234 0.00010397697393216276 -0.0027719872103464382 -0.0035425868537082295 -0.001372377725862961 -0.005610202467218883
          -0.0031575926065325888 -0.0022510790404828285 -0.004080562392577036 0.0005787514839568075 0.001421673876741636 0.00010584002312441498
          0.00031931002787288776 0.0006877125368625059 0.00171483884053103 0.0031528785171595075 0.0003207256944683934 0.002199791464612133
          0.00448269333050888 0.00043316029718809546 0.0027512920900498727 0.004304870960861962 0.0005295377788101518 0.0016602269269299086
          0.003002123451894434 0.0007086831033742413 -0.0007067672942220327 0.00027478845811934605 0.0006458607277561867 -0.0039211031064834145
          -0.0024056453037495373 0.0002744714552633809 -0.005991379453467616 -0.005109753678636864 -0.000677031403931494 -0.00855232801220751
          -0.00425659824548319 -0.001533358437221466 -0.005113004975127566 0.00046376346226395526 0.000962185202723731 0.00012985843587998147
          0.0003227956881559635 0.0008596470771102815 0.0020689447887853873 0.0015375188125048567 0.0003365447296204138 0.002269783137645476
          0.0021731146710202154 0.00042221583525048345 0.0020567543180654013 0.001317427219607481 0.0005727380103301982 0.0001471853070178497
          -0.0007288358973536191 0.0008349325039880284 -0.0023434431311546433 -0.0038057008979954787 0.0006777265518707054 -0.005161069652777073
          -0.005690382865223498 0.00029677348440060314 -0.007564909559357957 -0.007914163241428795 -0.0006175599202808968 -0.009146378906573105
          -0.0051423540554917935 -0.0010663824668135646 -0.005190351762260903 0.0004806661606053808 0.001184188832969113 0.00013525619126397714
          0.0003163254899760659 0.0011477308465472902 0.0031527105389201893 0.0013664424903687689 0.0003307368643632458 0.0033004364491944216
          0.001605015010039068 0.0003949262961491229 0.002253094085340024 0.00033551490046690446 0.0005926633912274326 -0.0007241473584009839
          -0.0014951550492767751 0.0008895183629711312 -0.003668080295344822 -0.004069966852195961 0.0005309565887010592 -0.007194595304950369
          -0.006218918064872625 0.00026468358492159894 -0.009708711748311671 -0.008224351608596692 -0.00047255902356013735 -0.009905527266667491
          -0.005215947174072255 -0.000633246323518577 -0.005193923656342747 0.0007734481003467408 0.0022498740989753685 0.00010761545055260058
          0.0002738612307595645 0.00105397495980597 0.0034927324905247303 0.002489414154059233 0.00027885195500232385 0.0037374998144414917
          0.0019932837270175696 0.0002839895966282313 0.00188113367892484 -0.0005644919780287694 0.00022863129523642556 -0.0007942930582771623
          -0.0032594826868130866 0.00024743751540157177 -0.0035013372100944906 -0.006139336845548016 0.00022585096535188143 -0.006746038735345294
          -0.009009089865953612 -0.000010119789578766358 -0.00916870574941342 -0.00956265161846126 -0.0004884978009034313 -0.007774797479536133
          -0.005608570132913826 -0.0004204814075592367 -0.0032880442928480136 0.0008648424939181609 0.002878556927722542 0.00006422500789682317
          0.00021241022346174532 0.0009367381256737417 0.0028924514758905673 0.0029863482004515163 0.00022376814500901787 0.00276777303423259
          0.001400880026533713 0.0002530528373654306 0.0007594476753922663 -0.0018448782821671728 0.0001919987742038387 -0.0012266712247051004
          -0.004885014852542113 0.00012107966954566507 -0.003569083846667098 -0.008093218517574385 0.0004862324996146583 -0.005750423599875987
          -0.010793983083926761 0.0005266579296154816 -0.006804649430867116 -0.00919132941095313 0.00015102925489074437 -0.006165240187900878
          -0.004034195349857939 -0.0002409697051284354 -0.0019768765219012607 0.0008138062827747206 0.0025723775372128443 0.00004813028886374582
          0.00017763688731875504 0.0008418423314040524 0.0016895679424386856 0.0024006226285102628 0.00012907779124660124 0.0011819523353402417
          0.00030788271138604273 0.0002581566460477802 -0.0003280936102996179 -0.0020750980689090426 0.00016293108452458682 -0.0022734292817876423
          -0.005340608767834709 -0.0008826969785200589 -0.005038083887120237 -0.008425872121756939 -0.0013433739751125273 -0.006519699240735477
          -0.009921440682031601 -0.0010437688304865134 -0.007015357396218391 -0.008773534765783353 -0.0018449309280157422 -0.007200984111744191
          -0.0041150924577948444 -0.0011231754460290233 -0.00267266827647461 0.0009664178662944778 0.001794560138346668 -0.000042080233058072736
          0.00012933126893344138 -0.00003572210991364955 0.00018047057425008006 0.0009456304972808027 0.0004940495676279966 0.00035321018568623685
          -0.000019645239497378952 0.001856662349453586 -0.00021735275374012986 0.0005522032640676855 0.007684308646771498 0.0007785793750034742
          0.006412887711542581 0.023517855199688853 0.00585730234350379 0.014810332165341222 0.04345828914782324 0.012584733445612173
          0.013632155035026017 0.04216190314069834 0.012000572511198015 0.018953559141680287 0.05181881403069255 0.016914746408449588
          0.008515250455177537 0.024036052159319254 0.008667336628279898 17.355766010934648 34.50726598079522 34.71133827563558
          69.01431670245357 17.35749640511927 34.51080023300617 33.89099521893148 67.78220738416613 33.89423111363162
          32.85504195359874 65.71081434589372 32.85688617327284 31.40042534231514 62.80236817390397 31.39825542754655
          29.567187017431376 59.13638202566578 29.557060345928445 27.484566300100386 54.971407687354244 27.467177728437548
          25.429133557564384 50.8607542670017 25.421937099980198 23.840563399628284 47.6831129274823 23.83020942934494
          11.61747411957637 23.2357301786946 11.611078277047435
        </DataArray>
        <DataArray type="Float64" Name="resid_y" format="ascii" RangeMin="-7.198342988967356" RangeMax="5.741164980372072">
          0.069641228210992 0.026337080934989494 -0.00833235455558934 -0.0206415582159358 0.14116494479318822 0.048106012968575466
          -0.016189204552441674 -0.04265265667014079 0.034433046391371125 -0.0030708978603319614 -0.025954782421319773 -0.040033745888233496
          0.00982512267504769 0.0038867179649560435 0.004436785045456082 -0.006633667067065946 0.007495748364214747 0.0069093056572425565
          0.0022993437846693388 -0.011088088000159396 -0.005625031678755152 -0.00706777292548301 -0.02318465754696014 -0.018768762605203715
          -0.05364321812994337 -0.04867659957263698 -0.050722108361293476 -0.05086108288511482 -0.040930130162946846 -0.07932458874749687
          -0.016682736171401036 -0.0019200239270770192 -0.004624773057810949 -0.0099055216610332 -0.003117270873979061 0.022633971626184746
          -0.028831420982218692 -0.021153883407633023 -0.00408428433169572 0.01998017192295405 0.0015954471773669543 -0.07669360471686462
          -0.02408173729380786 0.032745663025441164 -0.006551941860102536 -0.139621095373073 -0.03806638524676493 0.010800388836553938
          -0.014362927321153192 -0.07659648340134333 -0.017718579636887402 -0.11442078493421028 -0.08986405868152211 0.006586759565778852
          -0.001061677006051795 -0.21836351553323016 -0.16588496283472198 0.01907192649239131 0.008893917613339552 -0.11326295882400454
          -0.07811990625659333 -0.006472554160059055 0.009558624054797196 -0.00093546831627081 0.02653022225548013 -0.01812785206689832
          -0.0022630562313875058 0.023555862822318308 -0.02064728690439499 -0.00943046602110545 -0.006303667069461588 -0.030043168518728347
          0.003965667549897578 0.06367259352395338 0.015430291987415856 0.006187616731647028 -0.00781547982802433 0.0006039049251163053
          -0.0059230366546847435 -0.02544909803287232 -0.03515131794569892 -0.042546578986546235 -0.03253301287876509 -0.048566434473480524
          -0.04634993850730118 -0.055759709553654835 -0.04516076502968336 -0.02425485985812323 -0.02023474479784395 -0.03922011164739364
          -0.024727518730660335 -0.027908032219046836 -0.012015786031303696 -0.007814068441052577 0.010273886930805082 0.007339863052303469
          -0.034521798867455315 -0.004969389299734575 0.017590861740853506 0.0018738951068683063 -0.04052666031607671 -0.0037579569696477846
          0.005322429337753535 0.001978077928169078 -0.04656401389592857 0.051084944777728514 0.08807380540453114 0.01962784710202503
          -0.020379175039201766 -0.058657909360501595 -0.053391817056962415 -0.04292663140331865 -0.046919258945054665 -0.01905266931913463
          -0.029063361686429257 -0.001165204677943038 -0.025154250444706372 0.00507762138741874 -0.051769429280505375 -0.016076185602065862
          -0.11238029098813151 0.000195688568564667 0.1124052301256873 0.05109173655453669 -0.22262622035198626 0.014275979550438245
          0.22044025623436544 0.11026911980247589 -0.11773808487547655 -0.00898853537621037 0.11607388871618515 0.054733307215284355
          0.04517402233203671 0.02709645352218515 0.10260431223624819 0.056316695458751176 0.04454966853567123 0.05026643386636934
          0.004998459558020432 0.005849551491890037 -0.00019116633563828062 -0.06399762747813462 -0.10620134761895374 -0.062115745717383805
          0.011354398342629662 -0.04497343102107373 -0.005100134692500979 -0.08931526679311724 -0.014485759971431061 -0.05949687549574343
          -0.002909281126334002 -0.011183946237112566 0.017825839327250417 -0.004568366872658464 0.007564697626163741 -0.005528604197828746
          0.05909066318636892 -0.0018241754301356605 0.06173820446635715 0.0310961751986088 0.01124404698510803 0.0022800323189948457
          0.00270440271162653 -0.0035656560930622527 -0.008852154942554591 -0.011010441018439579 -0.03846821471881115 -0.034778593959777476
          -0.0028621347077963377 -0.003930570228148335 -0.0010623012329573495 0.007160452995786826 0.011540876055862348 -0.010318538737942418
          0.01208647659933101 0.029185363383247714 0.007644174680739009 -0.02149708399229928 -0.056276646345763154 0.009414097610491574
          -0.15951323873156031 0.04432996504151712 -0.08523959675076465 -0.013116993928040891 0.0026369898188843936 -0.04106952039250293
          0.007168740220560452 0.01239843869517313 0.00014933626648012954 0.012250621529911965 -0.06345557683173533 -0.0019724151201437334
          -0.006397500089090236 0.11891165567387013 -0.002982262965113336 0.23959241085241725 -0.002149196149354521 0.12244351882077334
          -0.0029232359465927726 0.014404932290378383 0.01484986175103914 0.04006662798470584 0.0020629741294152376 0.011053410293872648
          -0.043453276981969824 -0.09565357873941127 -0.04367013185174809 0.02149487248712159 0.0069072897367490615 -0.02243569211272807
          0.1704210596101371 0.3353472023956309 0.17561213539460535 -0.05364604041671062 -0.060063393591685776 -0.362058489870271
          -0.22464418315522341 -0.20220272001932565 -0.11548920229086145 0.010897944305613083 0.010638116358524987 0.0382300268420706
          0.048416848408970314 0.010934494844192691 0.025134620508927424 0.08883244349395152 -0.284197832421426 -0.06329008317064957
          0.25553217910273723 -0.4193145530612825 -0.08078217290156725 0.1187215505633272 -0.13383217100861688 0.017672200401074076
          0.18289842093802627 0.327483626677426 0.0894653748227579 -0.0033020040695497244 0.004807523735007781 -0.010074904513532768
          0.03810486223060756 -0.011652812297412357 0.018729448213479827 -0.014094990236934245 0.0025978970792713274 -0.007673761966078871
          0.021806916261431455 -0.016026380412066603 -0.008626640655536366 0.11551813369320924 0.14985298532158525 0.030633719532240908
          0.0386040479430203 0.4139604082249838 0.19353152038454113 -0.03513505794055372 -0.028735294793593488 -0.01293181700237845
          -0.007326152289575769 0.05373589596689654 -0.0014638790761780651 0.11949132270872821 -0.006535990654175233 0.062223122447565976
          0.16692351547891088 0.32881434505685 0.14811880865688087 -0.0029468240414561864 0.011950218637579287 -0.0022073248001033274
          -0.014487405694514427 -0.01611667336619106 -0.014544490430577955 -0.017136812546797907 -0.009835756119730895 -0.009270860387956506
          -0.009446002524582093 0.007425200543178693 -0.004956873024715529 -0.058308116118360814 -0.0736497710131939 -0.053872722394518804
          -0.025391110541976847 -0.04754865446017886 -0.05213819958944388 -0.10935322080519005 -0.17298826153742897 -0.07495963762618163
          -0.038706071895052596 -0.025309469491672232 -0.025175602225011473 -0.0795489325810822 -0.10622096377499757 -0.09691523252734457
          -0.00619259162740049 0.048844492733219114 0.020395635232541398 -0.0010784203902276523 -3.5998492531389896 -0.001230377628748336
          -7.198342988967356 -0.005103225360518104 -3.6053892332514335 -0.0001735371005986419 -3.208487643353604 -0.0003478691644394072
          -6.417185181435174 -0.003835110611693171 -3.2425478950377977 -0.00039816847251250564 -2.4677481516690127 0.00010805009975056734
          -4.936081520616774 -0.0024695886308370163 -2.476049179421805 0.00004031134606463649 -1.5526598769275184 0.000018235406017863554
          -3.1057336837385323 -0.0015300556572925839 -1.5600257286029349 0.0001836795386672141 -0.5555484415591091 0.00005259275423785681
          -1.1114218827452713 -0.0024533274681828865 -0.5603675898575347 -0.00024733975653423723 0.4266589882176358 0.00003994604042734107
          0.8533018835624828 -0.003266190367833738 0.4257283250439782 -0.0004899502048076876 1.3272556963938777 0.00006097332355414764
          2.654648898369219 -0.0030326135610501126 1.330366280163931 -0.0006984254844635274 1.736835329802894 0.00004230656152726109
          3.473969777757689 -0.002116311150436201 1.7419651358206094 -0.0015560717395861623 -0.006728358755623276 -0.005213049086650212
          -0.004159519809541212 -0.0009729207767419368 -0.007024095109677608 -0.0034001052137817567 0.0006153962482149389 -0.005779687526306754
          -0.0016838355569283037 0.00022747017769042532 -0.003424360946222893 -0.0019961638206342225 0.00027500349404030455 -0.003917312606329659
          -0.002593534151907516 0.000055251250570431676 -0.004779041005285464 -0.0032636341253211576 -0.000021993483985405238 -0.005604272383688325
          -0.0027102736463419097 0.00014896656701157696 -0.004473042562809504 -0.24446681437671502 -0.4749147002899936 -0.24144025924300272
          -0.006108797942333322 -0.00015849247166466185 -0.007834997069856575 -0.005174857074145889 0.0004100507790258945 -0.006344031097370806
          -0.003980752248338382 0.00046082965135474385 -0.0042518947770685545 -0.003088632051239437 0.00045642530016065663 -0.0042886481134245535
          -0.004065945958294653 0.00031312577439071565 -0.005773301349473292 -0.005555119461341601 0.000050244290555473414 -0.0072949865632661315
          -0.004806735926619982 0.00027704749848088406 -0.006173706068859322 -0.024848115532281723 -0.03416985237435366 -0.016621836832996895
          -0.41032700996671867 -0.7998941621221842 -0.4008061057877921 -0.00764929122546576 0.0014722371479964913 -0.006522731149584127
          -0.00493757700099029 0.0008957409492114099 -0.004984399612474766 -0.0040860844550850706 0.0008018303397292481 -0.005427859106214239
          -0.005284657911974688 0.0006646945574213525 -0.006896728242759997 -0.007575337802374932 0.0002553720923884478 -0.008380545975842646
          -0.00625934417438706 0.00045006205548336897 -0.006881310135752716 0.3542917239993315 0.7096224444862766 0.3248934224256672
          0.181201583201124 0.3778766917221903 0.1695280461948725 -0.00665228471280388 0.001802294658508341 -0.006648894281501949
          -0.00545203444792719 0.0015801403769373223 -0.006102242936616209 -0.005572469575173322 0.0013727658423290379 -0.006638999322792882
          -0.007015430122248478 0.0008580201662971021 -0.007638468927856357 -0.008863647629168081 0.00038888885064602974 -0.008393608559006505
          -0.006861612690364116 0.0006606460783805668 -0.0063033019562204196 0.040906523842629494 0.08720572358626555 0.03317137477541032
          -0.008049161127643867 -0.010415049465907877 -0.02323523015196871 -0.09808440862448053 -0.1812790689888617 -0.10063782074209682
          -0.03196078781950806 -0.04415338351646225 -0.029087319203187967 -0.006267822744918217 0.002774721295426552 -0.006420429898706725
          -0.006951859915075964 0.001956472249044827 -0.007430685748836652 -0.007738631883522418 0.0014822223900941012 -0.00813484903050865
          -0.008821191254900995 0.0012712537234120802 -0.007551123308835894 -0.0059394116895838955 0.0012601534531784253 -0.004452712769923872
          0.08133214580301473 0.15977338097541383 0.07813878788495199 0.011449846583368783 0.05132476705239908 0.018789220608991908
          -0.028100276383415945 -0.03532083772930594 -0.02685882819629626 -0.015752977548731284 -0.011839280073488556 -0.01193270953999459
          -0.008367838387039583 0.002919511737152103 -0.0074241042443699 -0.008267782496120812 0.001825000043112368 -0.00933678056417131
          -0.00817268340537769 0.0027240400895136574 -0.007948374631582489 -0.007733921394871723 0.002023565568865404 -0.005086704881676951
          -0.004029280350162923 0.0014376747477171659 -0.00250746805836366 0.03994756807053368 0.0861525408009034 -0.010315480671604371
          0.03790433792252079 0.10627684417603087 0.027627961708921345 -0.04509798775294649 -0.06400856731598936 -0.04384391828029699
          -0.04286945281640264 -0.0643894223606516 -0.03940120397262925 -0.01914555348207525 -0.01522923396696596 -0.016888601311160656
          -0.009243783702626907 0.001892284361099783 -0.009564191789335652 -0.007620011266074034 0.004046480891666704 -0.005389235300623074
          -0.005048733799378757 0.0035675171768057012 -0.0013460678540382354 -0.0021094628187143805 0.001476142064561703 -0.0012305195370028166
          -0.04369409772684918 -0.06031924817095202 -0.03634000983112751 -0.0040119708368648865 0.029240592813291943 0.010531475110796329
          -0.014416163699237039 -0.003525886795367583 -0.007148041744869715 0.0043455758993014015 0.03044588039936702 0.013000425977264918
          -0.022493645622084557 -0.023315559443672917 -0.013690972827803627 -0.012424431756583587 -0.00585573101083714 -0.0052556407222601464
          -0.009142352501837259 -0.004760180631085298 -0.0036009727424302085 -0.004414173657493414 -0.0020720742631143985 -0.0016004109693668056
          -0.002206172513988358 -0.0006612002178221221 -0.0005700417390501755 1.8136373863899427 -0.0007424753494985614 3.6275896806150274
          -0.00015945195645350463 1.819096343297919 -0.0013839368974818411 -0.0024210697616003918 -0.00015563084640418667 -0.0028003566457701634
          -0.003918728811573 -0.00014751204734136936 -0.003671274427751642 -0.004924138445881965 -0.0000980149575695588 -0.004021600764738953
          -0.004911432595875231 0.00004608567827502075 -0.0035713095696050523 -0.0035698320088008995 0.000475671933007904 -0.002666840682635563
          -0.0021028885940663766 0.0005978931416332767 -0.0020640788078345462 -0.0018269353284927625 0.0004097608766808758 -0.0012753423558753418
          -0.0015775083593949635 -0.0002419548688139539 -0.00019407033451357414 2.0918177203260595 -0.0006686998025321467 4.184022421820643
          0.0001289118340855877 2.0977921830439987 -0.001060292297271892 -0.0019919852016838657 0.0003163103473000639 -0.0021960633626000314
          -0.0031084445317367537 0.0002791643624353579 -0.0026821215853798375 -0.0035292228155838212 0.0003387162680143774 -0.002650026128916877
          -0.0032528226137147342 0.0004676313032705437 -0.002239539147433356 -0.0024357138285857616 0.0005511985217971915 -0.0021523825413158892
          -0.0020948196190004875 0.0004135741153243888 -0.001951393179395966 -0.0016271797518913056 0.0004100634618792176 -0.0016253212358636748
          -0.0015853249360957555 0.00010307020966471292 -0.000058779600388358944 2.3220134003499613 -0.0005791933501505531 4.6444075531871745
          0.00011942240933082715 2.3282189480512425 -0.0010355296824718918 -0.0016079622670033267 0.00030315276765391364 -0.002254709998466997
          -0.002491557421732793 0.00024064059987244368 -0.0027296876322576713 -0.002637378871470513 0.00032141074149199915 -0.0025601540631881928
          -0.0019156822549554198 0.0005214191649858257 -0.0021995641281046807 -0.0014161757669121089 0.0004646697423967838 -0.002310858267259075
          -0.0015153418150957165 0.00043936509723230266 -0.002050638472489208 -0.00162437952068184 0.00042235011604618844 -0.001478556451727231
          -0.0019265814028116557 0.0001434907164096222 0.00038671230666498246 2.5069549951243055 -0.00048338601521868974 5.01425875777103
          0.00011121082213860767 2.5132308395592213 -0.0010342089089809825 -0.0015201691926948202 0.00029026583704505615 -0.002454065103286718
          -0.0024975428409227396 0.0002333792813242752 -0.00271829437563309 -0.0023806222941643584 0.000425334374126618 -0.0024629141881479244
          -0.0017348641777777396 0.0005547996326982219 -0.002280831104288672 -0.0015661960022563814 0.0004730004941908561 -0.002259214595313197
          -0.0017496950770329311 0.0004936302583448127 -0.001133444240239645 -0.0017356923711950856 0.00041614889217328477 0.00009424493152987434
          -0.0013127547472279177 0.00011372859360614385 0.0007499206140101355 2.65031428157734 -0.0005893205822549152 5.301024581696783
          0.00013382073726520005 2.6566451272934755 -0.0009728131584285649 -0.0016026723450642821 0.0003142207833216615 -0.0021057568821716277
          -0.002372100924191156 0.00021784376657352222 -0.0020149951572699942 -0.0020673791571659272 0.0004903307219030206 -0.001822800850136308
          -0.0018136797059039172 0.0005413988390985183 -0.0018940217571569856 -0.0017327880818698294 0.0005085709274047501 -0.001578697601800294
          -0.001576280374484429 0.0005415413545660774 -0.0002953306621736873 -0.0010216030747254856 0.00039267412831150983 0.0003422070490800011
          -0.0010129634821712252 0.000056615051787056725 0.0004801064570902902 2.756193378350225 -0.0005985452078542952 5.512803349650222
          0.00016385331462176467 2.76258927588853 -0.0006079070577889034 -0.001343153821958154 0.000300235009219163 -0.0012759285252297303
          -0.001556614463792405 0.0001341494024317269 -0.0010507740484757555 -0.0013456952914203124 0.00022354638265681404 -0.0010253166182526696
          -0.0011512274118723742 0.0005050833489700368 -0.0011221834453677137 -0.0010949158884687726 0.0005396226002769289 -0.001278382696966729
          -0.0009044745711901392 0.0006139683802833806 -0.0012506245903989854 -0.0008871459796437886 0.0003709623419280994 -0.001898641496539455
          -0.0009814324613242609 0.0001279935912916752 -0.000825918177396967 2.8284825778087823 -0.0004812499030077966 5.657376644419276
          0.00017565023017951376 2.8348978183333142 -0.0002061732621914114 -0.000787425712680534 0.00039681254026113777 0.00010084243614683075
          -0.0007538623589015137 0.0002955973327141148 0.0010803365340612547 -0.0001332553330266606 0.0005180417317668384 0.0012639499852140634
          0.00009553671137452202 0.0011778763905839207 0.0006260835339959581 0.00010827242784798574 0.0015891583929162623 0.00014378746186075042
          -0.00077122109913208 0.0010343799384978647 -0.0013672857599201782 -0.0028274250074207807 -0.0005344210569958041 -0.0024791452831921107
          -0.002670369719755067 -0.000006018367795929125 -0.0002132488389016418 2.8704399208871836 -0.0002192575670107999 5.741164980372072
          0.0002253599900594594 2.8767660837169213 -0.000047831882132864934 -0.00036078367249992027 0.0009307171887542598 0.0009708950928681848
          0.00030124840318079826 0.0008209664463241229 0.003053464773225212 0.001622118363442282 0.0014099182982048042 0.0022347594298225415
          0.001999352312078817 0.0029092224219136043 0.001055726629448528 0.001253308079795401 0.0034374532338170005 0.0009145063742510007
          -0.0013547083111453279 0.0013801499196175182 -0.0005876763999885237 -0.004771353269159 -0.0006706201716164886 -0.003160942399945693
          -0.006527986740678449 -0.00417856083088089 -0.002361955685364195 1.4420653614928582 -0.00017390622290114344 2.8842818070029064
          0.00007557319035678134 1.4452608822151667 0.00001789582721656302 0.000020701376440168673 0.000531462371561986 0.0004535998646870709
          0.0014912034313370182 0.0006373908491512648 0.0009506298788684031 0.002862511874181184 0.0019216686600547206 0.0006719604922464928
          0.004132490916439524 0.004863618612136356 0.0002746415820136239 0.00006116286994850562 -0.0007564484532808224 0.0011194848483766506
          -0.0014447525547149342 -0.000011033297784845963 0.0008286860642080507 -0.002197407482239025 0.001323144408221441 -0.0008035200488508143
          -0.005817092095742252 -0.0058416489208705825 -0.0031390661035886457
        </DataArray>
        <DataArray type="Float64" Name="resid_z" format="ascii" RangeMin="0" RangeMax="0">
          0 0 0 0 0 0
          0 0 0 0 0 0
          0 0 0 0 0 0
          0 0 0 0 0 0
          0 0 0 0 0 0
          0 0 0 0 0 0
          0 0 0 0 0 0
          0 0 0 0 0 0
          0 0 0 0 0 0
          0 0 0 0 0 0
          0 0 0 0 0 0
          0 0 0 0 0 0
          0 0 0 0 0 0
          0 0 0 0 0 0
          0 0 0 0 0 0
          0 0 0 0 0 0
          0 0 0 0 0 0
          0 0 0 0 0 0
          0 0 0 0 0 0
          0 0 0 0 0 0
          0 0 0 0 0 0
          0 0 0 0 0 0
          0 0 0 0 0 0
          0 0 0 0 0 0
          0 0 0 0 0 0
          0 0 0 0 0 0
          0 0 0 0 0 0
          0 0 0 0 0 0
          0 0 0 0 0 0
          0 0 0 0 0 0
          0 0 0 0 0 0
          0 0 0 0 0 0
          0 0 0 0 0 0
          0 0 0 0 0 0
          0 0 0 0 0 0
          0 0 0 0 0 0
          0 0 0 0 0 0
          0 0 0 0 0 0
          0 0 0 0 0 0
          0 0 0 0 0 0
          0 0 0 0 0 0
          0 0 0 0 0 0
          0 0 0 0 0 0
          0 0 0 0 0 0
          0 0 0 0 0 0
          0 0 0 0 0 0
          0 0 0 0 0 0
          0 0 0 0 0 0
          0 0 0 0 0 0
          0 0 0 0 0 0
          0 0 0 0 0 0
          0 0 0 0 0 0
          0 0 0 0 0 0
          0 0 0 0 0 0
          0 0 0 0 0 0
          0 0 0 0 0 0
          0 0 0 0 0 0
          0 0 0 0 0 0
          0 0 0 0 0 0
          0 0 0 0 0 0
          0 0 0 0 0 0
          0 0 0 0 0 0
          0 0 0 0 0 0
          0 0 0 0 0 0
          0 0 0 0 0 0
          0 0 0 0 0 0
          0 0 0 0 0 0
          0 0 0 0 0 0
          0 0 0 0 0 0
          0 0 0 0 0 0
          0 0 0 0 0 0
          0 0 0 0 0 0
          0 0 0 0 0 0
          0 0 0 0 0 0
          0 0 0 0 0 0
          0 0 0 0 0 0
          0 0 0 0 0 0
          0 0 0 0 0 0
          0 0 0 0 0 0
          0 0 0 0 0 0
          0 0 0 0 0 0
          0 0 0 0 0 0
          0 0 0 0 0 0
          0 0 0 0 0 0
          0 0 0 0 0 0
          0 0 0 0 0 0
          0 0 0 0 0 0
          0 0 0 0 0 0
          0 0 0 0 0 0
          0 0 0 0 0 0
          0 0 0 0 0 0
          0 0 0 0 0 0
          0 0 0 0 0 0
          0 0 0 0 0 0
          0 0 0 0 0 0
          0 0 0 0 0 0
          0 0 0 0 0 0
          0 0 0 0 0 0
          0 0 0 0 0 0
          0 0 0 0 0 0
          0 0 0 0 0 0
          0 0 0 0 0 0
          0 0 0 0 0 0
          0 0 0 0 0 0
          0 0 0 0 0 0
          0 0 0 0 0 0
          0 0 0 0 0 0
          0 0 0 0 0 0
          0 0 0 0 0 0
          0 0 0 0 0 0
          0 0 0 0 0 0
          0 0 0 0 0 0
          0 0 0 0 0 0
          0 0 0 0 0 0
          0 0 0 0 0 0
          0 0 0 0 0 0
          0 0 0 0 0 0
          0 0 0 0 0 0
          0 0 0 0 0 0
          0 0 0 0 0 0
          0 0 0 0 0 0
          0 0 0 0 0 0
          0 0 0 0 0 0
          0 0 0 0 0 0
          0 0 0 0 0 0
          0 0 0 0 0 0
          0 0 0 0 0 0
          0 0 0 0 0 0
          0 0 0 0 0 0
          0 0 0 0 0 0
          0 0 0 0 0 0
          0 0 0 0 0 0
          0 0 0 0 0 0
          0 0 0 0 0 0
          0 0 0 0 0 0
          0 0 0 0 0 0
          0 0 0
        </DataArray>
        <DataArray type="Float64" Name="stress_zz" format="ascii" RangeMin="-9910239.50418135" RangeMax="5850213.834626305">
          2807936.4296215004 1938342.1950734486 1798668.9853153687 2127978.3774203733 2828061.447729211 1941042.9519070298
          1772814.7729923106 2068959.7042792737 2848186.4658369217 1943743.7087406113 1746960.5606692522 2009941.0311381735
          1426153.261967877 2225791.393962463 2336863.0481738676 1551649.4866966298 1387226.9102016198 2231765.788534707
          2306259.9509389326 1555563.2664946816 1348300.5584353632 2237740.1831069505 2275656.853703997 1559477.0462927336
          2182855.6504948903 1291171.3826424738 2172536.9834234864 1251426.5944171129 2162218.3163520824 1211681.8061917524
          2831511.756922345 2454716.467111348 3292944.647159881 2805542.465393428 2430151.7096531102 3274665.4997610506
          2779573.1738645113 2405586.952194872 3256386.3523622197 -1163551.274469191 -994978.4673109734 -137041.10622220027
          -840689.6604551766 -1120352.4810879633 -1004960.1191046761 -61761.62547539575 -851185.642219077 -1077153.6877067355
          -1014941.7708983788 13517.8552714088 -861681.6239829775 -212080.9684601957 2278961.8610049845 -689483.0217390787
          -1761477.8400187914 -12116.078558961482 1905433.1706430898 -871275.8097103274 -1671708.4760163787 187848.8113422729
          1531904.4802811956 -1053068.597681576 -1581939.112013966 1584516.584909894 3767998.5281153223 3603081.197334294
          1637546.742774858 3735584.284541524 3652201.665347523 1690576.9006398218 3703170.040967726 3701322.133360751
          3479134.3789106556 3524965.489804001 3570796.600697347 2105621.3955405466 4002923.658053565 2061295.0604865632
          3922293.9852474625 2016968.7254325794 3841664.3124413593 4008249.439573361 2763074.885486907 4070129.830657916
          2731698.2235754225 4132010.221742471 2700321.561663938 608609.196210179 -235951.6126928545 655847.1953883333
          -355357.4540688845 703085.1945664875 -474763.29544491443 -1182024.9660535788 -115645.44702678517 -643187.492900181
          -1222831.7883439693 -1146062.3208991552 -145069.75569137855 -665694.1254345145 -1204777.75455662 -1110099.6757447314
          -174494.064355972 -688200.7579688482 -1186723.7207692708 1087421.9127360196 1291657.371939072 1495892.8311421243
          245900.51987095218 243029.49766430684 240158.47545766152 2282162.891102622 2279905.3365790597 2277647.782055498
          1109186.397828295 1464519.0674850638 1087854.144449104 1435108.4621652372 1066521.8910699133 1405697.856845411
          334478.3126870231 -3588339.4188021645 -2945314.2528725835 -1922204.025893414 472693.1206952543 -3333953.334128407
          -2718291.0785033805 -1846463.4065516272 610907.9287034858 -3079567.2494546496 -2491267.9041341767 -1770722.7872098405
          595241.225751787 3306.2700193747296 570412.8738731532 -46526.08588603919 545584.5219945195 -96358.44179145305
          1051528.3781029012 1006016.3849014691 960504.3917000372 391564.9042066477 233220.79674259128 74876.68927853479
          3708332.485592304 4899980.922085244 3716628.7911171312 4931911.285950989 3724925.0966419596 4963841.649816734
          -1473125.6270790112 889782.2563160992 -1514934.5018625045 807811.2133730268 -1556743.3766459974 725840.1704299543
          -383750.99409326055 -2068985.0476676722 -561118.5401638513 -2226008.3547138353 -738486.0862344422 -2383031.661759999
          -503455.9233201361 -531990.1376544844 -560524.3519888328 -240364.24559216498 -133009.3533747114 -25654.461157257807
          -1297813.3654660224 -1115026.163774008 -932238.9620819933 337838.33542498417 113764.79811259179 -110308.73919980088
          3155017.001930157 3075257.432014874 2995497.8620995926 713282.5000239962 1470494.3640691107 1328729.420117713
          1725930.5833256377 1944176.34021143 1981366.8025821648 82291.25155325305 70170.40789639608 58049.56423953909
          267795.4458872484 477999.7005934238 307830.22182857845 560183.6247343775 347864.9977699085 642367.5488753312
          -965941.4372991815 -1565451.0460842745 -1039733.6073958739 -1505819.4481466059 -1113525.7774925665 -1446187.8502089367
          -590383.2410993774 272573.074767145 -685059.3906909835 191055.6196595171 -779735.5402825903 109538.16455188917
          1705086.120565681 1624710.3776667684 1544334.634767856 2755501.5866373368 2740536.3563382323 2725571.126039127
          -395684.099561424 -344771.8268352372 -293859.55410905054 -2381345.2443298264 -1689731.5584650605 -1901714.1000580848
          -923253.1308405943 -1422082.9557863432 -156774.7032161282 3418769.337512918 5850213.834626305 3327938.6176088294
          5690049.962142796 3237107.897704741 5529886.0896592885 -2686059.1450974713 1473158.5901196303 -668407.297559869
          -2427216.395899831 937224.1504865328 -996801.0730964676 -2168373.64670219 401289.7108534353 -1325194.848633066
          969901.4264039053 429258.7698641962 -111383.88667551288 -455733.4017359332 -184686.66100508615 -622779.1146224844
          -117072.76519562908 -789824.8275090357 -49458.869386172155 604028.9988054621 930262.1774142707 647834.6431208267
          856104.7988727693 691640.2874361912 781947.420331268 3280268.7412551027 2685851.6375779104 2091434.5339007182
          -319637.29329192976 128079.34295080311 575795.979193536 1869540.5803372588 1919084.0694885927 1968627.558639927
          2307205.461401513 769878.8215149983 2203894.9048075867 1048811.0230891362 2100584.34821366 1327743.2246632741
          5046975.969036603 4671637.109813139 4296298.250589673 783433.3608390563 740789.9901946847 698146.6195503131
          1314769.4730831734 1371454.2068896824 1428138.9406961915 426828.7964706012 503814.8017169835 580800.8069633658
          796472.0824663955 685405.2327133664 574338.3829603373 1047800.6195696847 1028706.1255274416 1009611.6314851984
          4257296.096458437 4245185.143103613 4233074.189748789 4319851.383621281 4314543.515994499 4309235.648367717
          3057327.783829922 3060957.5160228796 3064587.2482158374 1115323.2772655496 1120359.1892111446 1125395.1011567398
          -129284.74472635926 -126046.41085079964 -122808.07697524002 1057828.8717468851 533902.0704663214 1047415.0617637736
          528600.0537519741 1037001.2517806621 523298.03703762696 -354576.50212734257 -180875.54193882976 -348579.499194281
          -175203.08313330065 -342582.4962612195 -169530.62432777154 47596.886956707924 17163.963011291544 47962.01540731936
          16133.506760763543 48327.1438579308 15103.050510235544 20657.34920050461 32042.628465005146 19593.053563355137
          32268.72376721876 18528.757926205664 32494.81906943237 63760.87135329933 68836.2938804097 64339.03320070087
          68997.89849585244 64917.195048102425 69159.50311129517 73936.67687465914 78975.86533170205 73657.46990129288
          78893.50901759809 73378.26292792663 78811.15270349412 60061.0995121055 66609.0546920765 60178.87729361601
          66690.37420441433 60296.655075126495 66771.69371675214 12088.441522643365 22743.630676428827 11990.571510726168
          22736.84465978326 11892.701498808972 22730.058643137687 1306142.6225901763 1284744.813230313 1263347.0038704497
          -313033.11098033376 -311948.9049578234 -310864.6989353131 20778.16470684763 23881.966486369027 26985.768265890416
          48919.15235474135 47008.19949493495 45097.24663512854 67067.08769954587 67803.1329789802 68539.17825841451
          74194.32290586378 74015.74344455387 73837.16398324397 49278.697721052435 49530.419548990205 49782.14137692797
          -18978.975055977433 -19028.215489154958 -19077.455922332487 188530.24679173145 168137.08629392204 147743.92579611286
          695194.9224271596 683580.5110524452 671966.0996777306 12472.688888628545 14354.656891966917 16236.624895305285
          78987.823431314 79876.79645709359 80765.76948287318 69466.67179486013 69158.70070266566 68850.72961047123
          77312.03893667896 77405.94978761552 77499.86063855208 32379.962892554868 32327.877874470774 32275.79285638668
          -74010.36167147316 -74631.28266261792 -75252.20365376267 -1572784.6835472062 -1578969.2735382025 -1585153.8635291986
          1468239.798649928 1445606.8368532155 1422973.8750565029 579229.3595063671 571159.1175944898 563088.8756826128
          -69282.57256277389 -66303.06469237481 -63323.55682197574 76248.72408853329 75755.2980423526 75261.87199617192
          67968.5338704141 67866.55172006963 67764.56956972518 -3625.782048043722 -2538.5321847594532 -1451.2823214751807
          -158675.96144727268 -158744.7991264477 -158813.63680562272 -4022217.2409249605 -4011628.608083116 -4001039.9752412713
          -1131358.9406779418 -1137892.881607675 -1144426.822537408 820546.8603148113 803920.0552591912 787293.2502035709
          -54976.96363187101 -53188.19446589199 -51399.42529991299 57380.45965016514 58618.6278515347 59856.796052904254
          51411.06758503815 50169.63553195758 48928.203478876996 -76324.72049140316 -76507.91939993501 -76691.11830846686
          -305415.2295837974 -308257.07783558837 -311098.9260873794 1102843.4872756847 1061492.070609999 1020140.6539443132
          -4154555.9048767355 -4158723.682277536 -4162891.4596783365 -4861361.276119589 -4851422.471860703 -4841483.66760182
          -1069788.3946358 -1084702.1915790872 -1099615.988522374 398388.11969438195 390492.77684798115 382597.4340015803
          -75840.39561508584 -75509.48584502215 -75178.57607495844 63920.894597658116 65027.03673833969 66133.17887902126
          -138897.38325829696 -136728.4490501185 -134559.51484194008 -481622.61885034177 -481425.817322094 -481229.0157938463
          3095532.6656685923 3065353.9453579634 3035175.225047335 -256535.9329619987 -272659.0190937355 -288782.10522547236
          -5154090.234240735 -5135341.616687732 -5116592.999134729 -3712411.0586694228 -3706411.695919011 -3700412.333168598
          307843.09183919535 293639.9968683164 279436.9018974374 36514.6103037003 31708.492449129903 26902.374594559515
          20020.875314894318 22645.60789207732 25270.340469260314 -646692.7759808319 -645393.3921920703 -644094.0084033085
          -1293573.1370637945 -1296401.9121890955 -1299230.6873143965 1577693.3289944688 1537966.0639493538 1498238.798904239
          -1008989.2224331815 -1032605.0446087382 -1056220.8667842948 -6341639.497150412 -6321519.295141373 -6301399.093132335
          -7325715.485683011 -7300938.8888214175 -7276162.291959824 -1804494.514876276 -1811671.8935670918 -1818849.272257907
          723476.2643844836 710707.1774532414 697938.0905219992 494746.3421546351 496716.89536249934 498687.4485703635
          -308950.1465199913 -308187.6579408461 -307425.169361701 -1542702.2233795677 -1551363.3002909042 -1560024.3772022405
          -1211917.288117501 -1286908.7080459932 -1361900.127974485 -4261684.1953708865 -4305035.362398041 -4348386.529425196
          -8386802.203901922 -8377303.780472186 -8367805.35704245 -9910239.50418135 -9884716.549157463 -9859193.594133575
          -3525919.603993134 -3528522.5449116286 -3531125.485830122 1196494.428791314 1178860.4353468942 1161226.4419024747
          1035274.7349663031 1038388.6373226366 1041502.5396789699 523372.6946166668 529631.0477987833 535889.4009808998
          -1059395.353197047 -1063788.017444267 -1068180.681691487 -14081.13073901737 -22251.094719729783 -14073.155779620149
          -22221.922743073377 -14065.180820222928 -22192.750766416968 -46268.16920466723 -46033.37784403912 -45798.586483411
          -85000.61806251871 -84912.7042188281 -84824.7903751375 -135432.1486574319 -134365.05921373793 -133297.96977004394
          -219630.55266632995 -219616.16759740774 -219601.78252848558 -284427.474718309 -281504.6972624851 -278581.9198066611
          -776513.4656521322 -772433.2676131784 -768353.0695742246 -397252.2378902821 -391704.22434818966 -386156.21080609725
          465950.2705210231 477080.25122845144 488210.2319358798 -27839.170995608678 -32096.867987501042 -27835.683894565896
          -32076.232489921287 -27832.196793523115 -32055.59699234153 -43594.739503425226 -43480.815769176574 -43366.892034927914
          -59513.35714269329 -59423.752985678744 -59334.14882866419 -76793.48105297943 -76368.58374083614 -75943.68642869286
          -100286.59305985217 -100159.28817226109 -100031.98328467002 -110432.03049151656 -109245.42240059972 -108058.81430968287
          -326342.9689699224 -324737.9849626992 -323133.0009554759 520448.3604614101 519737.88928037434 519027.41809933877
          1587896.6221513068 1586244.9680660784 1584593.3139808504 -41496.71568047754 -45806.23671205517 -41502.201122600476
          -45819.89002079005 -41507.686564723415 -45833.54332952491 -57747.810549279806 -57807.7683624449 -57867.72617560998
          -75274.48586822276 -75463.95109458284 -75653.41632094292 -97482.0288774022 -97787.80336427607 -98093.57785114992
          -126303.56778426803 -126983.31181574901 -127663.05584722999 -178590.461986546 -179623.3664091837 -180656.27083182146
          -242721.4839499398 -245003.9480796362 -247286.41220933263 354545.4151692296 350219.0277614814 345892.64035373327
          980165.0604604972 975040.1801500692 969915.2998396413 -55197.81353001716 -59221.994832443954 -55207.287056996436
          -59210.031091458135 -55216.7605839757 -59198.06735047233 -70166.29146838903 -70111.20996536213 -70056.12846233521
          -86109.22375999646 -86018.95107967472 -85928.67839935297 -105787.49098004014 -105629.12947308867 -105470.76796613721
          -131836.2445085405 -131555.40877404658 -131274.57303955266 -155421.75682261505 -155003.01698466792 -154584.27714672076
          -97941.31280675839 -96995.19015729555 -96049.06750783272 385524.5997726085 388047.61378910346 390570.62780559843
          803317.85928859 806960.3898799231 810602.9204712561 -67922.07515811802 -71934.68087195873 -67923.43686505085
          -71924.13179868704 -67924.7985719837 -71913.58272541536 -82682.40922999862 -82669.2607907783 -82656.11235155797
          -97787.10955787699 -97812.89469060689 -97838.6798233368 -115342.5269783714 -115429.97054673982 -115517.41411510827
          -131219.9334760985 -131329.14685830675 -131438.36024051497 -118430.74894628859 -118839.66640256156 -119248.58385883455
          -2693.3260487614752 -3213.1843442956706 -3733.042639829866 364605.64765962027 363633.7328099373 362661.81796025444
          635647.9497611967 634024.9486584571 632401.9475557175 -78929.00551130643 -82835.14252803 -78924.2717860555
          -82815.55303000803 -78919.53806080457 -82795.96353198607 -93323.33986187933 -93296.0714764811 -93268.8030910829
          -107414.97836996801 -107413.9184291911 -107412.8584884142 -120545.81326980176 -120591.38547260567 -120636.95767540956
          -122270.50544125063 -122319.07468691899 -122367.64393258735 -80642.35714164456 -80798.03567565358 -80953.71420966256
          57614.45578353225 57808.215291059445 58001.97479858664 341496.49530179566 342104.87146257446 342713.24762335327
          524853.3056570664 525395.1475997302 525936.989542394 -87388.98950063944 -91172.00780749315 -87410.81270673289
          -91167.65455668945 -87432.63591282636 -91163.30130588575 -101614.1676727637 -101586.62755521324 -101559.08743766278
          -114884.25077254839 -114847.83929436313 -114811.42781617792 -122899.93732755465 -122797.00797940718 -122694.07863125973
          -110591.20950043107 -110270.82902049781 -109950.44854056457 -50218.918182254856 -49949.37533087902 -49679.83247950318
          92675.51001071231 93005.37106771514 93335.23212471795 322903.8464951208 323200.2278683675 323496.6092416142
          456896.57326397626 456885.52490667376 456874.47654937115 -92491.53023858502 -96657.5723028878 -92517.56102148617
          -96654.03348571918 -92543.59180438732 -96650.49466855054 -108843.17088259355 -108783.20047051513 -108723.2300584367
          -126883.32551808376 -126742.86807051786 -126602.41062295198 -146083.32831912435 -145636.6217836452 -145189.91524816607
          -155362.72413648374 -154245.215425688 -153127.7067148922 -98617.98958742883 -97402.52316302928 -96187.05673862973
          61846.86323229041 62714.49090867336 63582.11858505631 271361.0141701723 271977.3726789724 272593.7311877725
          377255.0379737958 377647.74564858264 378040.4533233695 -94154.2893843294 -98699.63112320786 -94154.45093878874
          -98685.94239479276 -94154.61249324807 -98672.25366637766 -112459.83527598297 -112394.674772939 -112329.51426989502
          -135457.01759185374 -135313.96668297623 -135170.9157740987 -168173.95463092442 -167679.78952998534 -167185.6244290463
          -205776.13963617297 -204511.14085915382 -203246.1420821347 -159786.68063361407 -158351.1787406136 -156915.67684761315
          18980.668011216127 20069.12584528989 21157.583679363655 227871.25987313353 228601.36221245062 229331.46455176768
          322651.5299609316 323080.8355823024 323510.14120367315
        </DataArray>
        <DataArray type="Float64" Name="peeq" format="ascii" RangeMin="0" RangeMax="0.006999741600338279">
          0.004727958512133486 0.004784566404758341 0.004828391886784072 0.004911261920909492 0.004727813287103942 0.00478445175269087
          0.004827795115549062 0.004910213145383242 0.004727668062074399 0.004784337100623398 0.004827198344314051 0.004909164369856992
          0.005162357866685924 0.005322562430734031 0.0051493924288771985 0.0051077031044365305 0.005162137432779965 0.005322917271479824
          0.005148611786804793 0.005106608551413337 0.005161916998874005 0.005323272112225616 0.005147831144732388 0.005105513998390144
          0.004975892311117735 0.004981050647602761 0.004974965909416318 0.0049797829854318874 0.004974039507714903 0.004978515323261014
          0.005192769259628292 0.004721521693555359 0.004870530997540309 0.005192642834753215 0.00472117905308502 0.004869901407538884
          0.005192516409878137 0.004720836412614679 0.004869271817537461 0.0045962927083771365 0.004466063475997165 0.004431526347402417
          0.00458219557137139 0.00459677874387177 0.0044669829943359855 0.0044330453155066365 0.004583404725780517 0.004597264779366404
          0.004467902512674806 0.004434564283610856 0.004584613880189645 0.004400410955585221 0.004318324378128423 0.004416841797227666
          0.0045686369229149945 0.00440152631310654 0.0043189366270058715 0.004417629687367884 0.004568905775973988 0.004402641670627859
          0.004319548875883321 0.004418417577508101 0.0045691746290329825 0.005414689759593647 0.005801363152007258 0.005561338723620921
          0.0054156535595006276 0.005801398576905969 0.0055620855325981735 0.005416617359407607 0.005801434001804681 0.005562832341575422
          0.004459246202942475 0.004459326260624309 0.004459406318306143 0.00602694811861049 0.006372422674752571 0.00602722132753741
          0.006371362863421838 0.006027494536464329 0.006370303052091105 0.0041436500549981966 0.004527102287139682 0.004143930625471382
          0.004527120207195254 0.004144211195944566 0.004527138127250828 0.00461962958507392 0.004879779981430974 0.004620261310707573
          0.0048813782788713 0.004620893036341226 0.004882976576311628 0.004556676891949687 0.004786336254339121 0.004907189026080299
          0.004642355929973025 0.004557957681549731 0.004787092544332225 0.004908159883471342 0.0046439740804334936 0.0045592384711497765
          0.004787848834325328 0.004909130740862385 0.004645592230893964 0.006996894069638267 0.006998317834988273 0.006999741600338279
          0.005204681805931693 0.005207653759745404 0.0052106257135591146 0.00537782220663566 0.0053786780080636925 0.005379533809491725
          0.004998282186806473 0.004992229979316059 0.004997361720988162 0.004992472317170822 0.00499644125516985 0.004992714655025585
          0.006606844192262727 0.006114271297415953 0.005763112038814 0.006217054364437268 0.006608523225788216 0.006116235587007232
          0.005765693937916839 0.006219068424484053 0.006610202259313704 0.006118199876598512 0.005768275837019679 0.006221082484530838
          0.004821695303237646 0.004810096948830379 0.004821030014071659 0.004808920051025443 0.004820364724905672 0.004807743153220507
          0.005052574882722436 0.005054596625101094 0.005056618367479754 0.004331390791877243 0.004333659870172139 0.004335928948467036
          0.0054823760664234715 0.005271371126631604 0.0054852754989886746 0.005273965832544046 0.005488174931553878 0.0052765605384564864
          0.004621478558544651 0.004532655665712898 0.004621049486446981 0.004532488778914587 0.004620620414349313 0.0045323218921162756
          0.005556988645481417 0.005833198428600551 0.005557735941910835 0.005833886896010725 0.005558483238340252 0.005834575363420899
          0.004772492828671308 0.004773152312565863 0.0047738117964604195 0.006506965935744088 0.006506713752163791 0.0065064615685834935
          0.004533638519013774 0.004534043057236223 0.004534447595458673 0.005866847075305824 0.005866313913206587 0.005865780751107352
          0.00505813344346602 0.005059458066093231 0.005060782688720441 0.004445557241666967 0.004480774030628732 0.004445380085573809
          0.004481134664609671 0.004445202929480652 0.004481495298590608 0.004789902530441757 0.004790100379022292 0.004790298227602827
          0.0047926797933303435 0.004923077198231877 0.004794079800228581 0.004924979742596447 0.004795479807126819 0.004926882286961019
          0.005228675201665796 0.005430793892682963 0.00522929170749418 0.0054327808815896874 0.005229908213322563 0.005434767870496411
          0.004749793807151704 0.0046599924962920135 0.004748518352643981 0.004659060547992864 0.0047472428981362585 0.004658128599693715
          0.005192314349387663 0.005193765110908552 0.005195215872429439 0.004555108892535498 0.004556101084253689 0.004557093275971881
          0.005826223960870236 0.005828931698054658 0.005831639435239081 0.004363243972933149 0.004413795697432629 0.004362746464224173
          0.004412436326094148 0.004362248955515197 0.004411076954755667 0.004424426905350102 0.0044353638241136015 0.004422807984166699
          0.004433318425528018 0.004421189062983296 0.004431273026942434 0.0042942324288329815 0.004243004436799272 0.004268735328077894
          0.004294090836944984 0.004246635815410962 0.0042705712462389805 0.004293949245056987 0.004250267194022651 0.004272407164400067
          0.004254769426555653 0.004257233962467493 0.004259698498379332 0.005466967850227616 0.00516717357958975 0.005467180187427494
          0.005168485593785934 0.0054673925246273725 0.005169797607982118 0.004747121231743625 0.004794267842447066 0.004746929948279622
          0.0047938573358655414 0.004746738664815618 0.004793446829284017 0.004193572409828577 0.004197902156426955 0.004202231903025332
          0.004410202841517322 0.0044087424390579395 0.004407282036598558 0.005007178302572962 0.005008865023572436 0.00501055174457191
          0.004479153378026637 0.004329287898952195 0.004478956838964758 0.004330573146852749 0.004478760299902879 0.004331858394753304
          0.004255732431679329 0.004256205355044717 0.004256678278410104 0.004606164872533581 0.004605457498624532 0.004604750124715483
          0.005169161928584794 0.005170471949030759 0.005171781969476723 0.004699172032145444 0.004699154333284444 0.004699136634423444
          0.004784756549985751 0.004784103053989909 0.004783449557994068 0.004815834514318532 0.004815427066904631 0.00481501961949073
          0.003424349359180924 0.003424186147532779 0.0034240229358846338 0.003887466805410214 0.003887234245267704 0.0038870016851251946
          0.0042784512235336195 0.004278226506250245 0.004278001788966871 0.0045956237369057275 0.004595412846036718 0.004595201955167708
          0.004735499053034942 0.004735299510848091 0.004735099968661241 0 0 0
          0 0 0 0 0 0
          0 0 0 0 0 0
          0 0 0 0 0 0
          0 0 0 0 0 0
          0 0 0 0 0 0
          0 0 0 0 0 0
          0 0 0 0 0 0
          0 0 0 0 0 0
          0 0 0 0 0 0
          0 0 0 0 0 0
          0 0 0 0 0 0
          0 0 0 4.7238132765420224e-7 5.198530666043721e-7 5.67324805554542e-7
          0 0 0 0 0 0
          0 0 0 0 0 0
          0 0 0 0 0 0
          0 0 0 0.00004950777490278983 0.00004972203566486362 0.000049936296426937424
          0 0 0 0 0 0
          0 0 0 0 0 0
          0 0 0 0 0 0
          0 0 0 0.0002330772456494341 0.00023349416845715615 0.00023391109126487817
          0.00002142147016271086 0.000021582791020137844 0.000021744111877564823 0 0 0
          0 0 0 0 0 0
          0 0 0 0 0 0
          0 0 0 0.0013913494475325458 0.001391308402188245 0.0013912673568439444
          0.0006089983860078159 0.0006094464766150733 0.0006098945672223307 0.0001338072925096655 0.00013429254067921854 0.00013477778884877158
          0.0000026778878122713195 0.0000027928695744794955 0.0000029078513366876715 0 0 0
          0 0 0 0 0 0
          0 0 0 0 0 0
          0.0021017318886875514 0.0021013353069619274 0.002100938725236303 0.0011691317403398646 0.001169295539426049 0.0011694593385122337
          0.0004033189070067771 0.0004039886388572534 0.0004046583707077296 0.000050220712208890005 0.00005056893702272037 0.00005091716183655074
          0 0 0 0 0 0
          0 0 0 0 0 0
          0 0 0 0.0029254451822367583 0.002924622483370141 0.0029237997845035246
          0.0018881491123919102 0.0018878875859554742 0.0018876260595190385 0.0008506064912389463 0.0008512167067156588 0.0008518269221923714
          0.00018835017279260677 0.0001889050251867571 0.00018945987758090742 7.592057803863764e-7 8.223740221591797e-7 8.85542263931983e-7
          0 0 0 0 0 0
          0 0 0 0 0 0
          0.003368371099066133 0.003367327627836435 0.003366284156606737 0.002287947811971126 0.002287493074571203 0.00228703833717128
          0.0011193468131582478 0.0011198756350349723 0.001120404456911697 0.0002816146967919762 0.00028225791547703246 0.0002829011341620887
          0.0000015184115607727528 0.0000016447480443183594 0.000001771084527863966 0 0 0
          0 0 0 0 0 0
          0 0 0 0 0 0
          0 0 0 0 0 0
          0 0 0 0 0 0
          0 0 0 0 0 0
          0 0 0 0 0 0
          0 0 0 0 0 0
          0 0 0 0 0 0
          0 0 0 0 0 0
          0 0 0 0 0 0
          0 0 0 0 0 0
          0 0 0 0 0 0
          0 0 0 0 0 0
          0 0 0 0 0 0
          0 0 0 0 0 0
          0 0 0 0 0 0
          0 0 0 0 0 0
          0 0 0 0 0 0
          0 0 0 0 0 0
          0 0 0 0 0 0
          0 0 0 0 0 0
          0 0 0 0 0 0
          0 0 0 0 0 0
          0 0 0 0 0 0
          0 0 0 0 0 0
          0 0 0 0 0 0
          0 0 0 0 0 0
          0 0 0 0 0 0
          0 0 0 0 0 0
          0 0 0 0 0 0
          0 0 0 0 0 0
          0 0 0 0 0 0
          0 0 0 0 0 0
          0 0 0 0 0 0
          0 0 0 0 0 0
          0 0 0 0 0 0
          0 0 0 0 0 0
          0 0 0 0 0 0
          0 0 0 0 0 0
          0 0 0 0 0 0
          0 0 0 0 0 0
          0 0 0 0 0 0
          0 0 0 0 0 0
          0 0 0 0 0 0
          0 0 0 0 0 0
          0 0 0 0 0 0
          0 0 0
        </DataArray>
        <DataArray type="Float64" Name="pe11" format="ascii" RangeMin="0" RangeMax="0.006997804684819452">
          0.00472687482495948 0.004784119936257709 0.004827895361523984 0.004910471861605058 0.004726725099729629 0.0047839993747343604
          0.004827288473143711 0.004909420241055046 0.004726575374499778 0.004783878813211012 0.004826681584763437 0.004908368620505034
          0.00516169395325445 0.005321581877038619 0.005148224949530985 0.005106922846795776 0.005161462931457273 0.005321915475459089
          0.0051474330670709416 0.005105822296145106 0.005161231909660094 0.005322249073879559 0.005146641184610898 0.005104721745494435
          0.004974911717709311 0.00498027866913928 0.004973982730213171 0.004979010527727172 0.00497305374271703 0.0049777423863150635
          0.005191223202319427 0.004719855196927969 0.004869276575908018 0.005191073615995456 0.004719497563424191 0.004868639015225272
          0.005190924029671485 0.004719139929920415 0.004868001454542526 0.004595919932013492 0.0044657543798787445 0.0044312038067686535
          0.004581768470617541 0.004596403855985389 0.004466671300776372 0.004432718508952863 0.004582973614757087 0.004596887779957286
          0.004467588221673998 0.004434233211137073 0.004584178758896634 0.004400112520447888 0.004318094997519916 0.0044166057764519
          0.00456829241709201 0.0044012251908451365 0.004318710170550415 0.004417395202227582 0.004568567065022235 0.004402337861242386
          0.0043193253435809134 0.004418184628003264 0.00456884171295246 0.005413954344963271 0.005799930304499386 0.005559871407392791
          0.005414898352549608 0.005799944803614293 0.005560584742759786 0.005415842360135944 0.005799959302729201 0.005561298078126781
          0.004457520639369946 0.00445759220845974 0.004457663777549533 0.006024353271704506 0.00637004857670957 0.00602460359143951
          0.006368990130427361 0.0060248539111745145 0.006367931684145152 0.0041413934746568045 0.004524414547035835 0.004141661102319599
          0.004524407142264363 0.004141928729982392 0.004524399737492889 0.004619095963996805 0.004879109754751344 0.004619721514839576
          0.004880703264736112 0.004620347065682345 0.004882296774720878 0.004556219717382893 0.004785754481135792 0.004906596296970038
          0.004641890145387217 0.004557497374310001 0.0047865116277872564 0.004907561393739107 0.004643503891951335 0.004558775031237109
          0.004787268774438719 0.004908526490508177 0.004645117638515455 0.006994973867008947 0.0069963892759142 0.006997804684819452
          0.005203963365579161 0.00520693720788906 0.005209911050198959 0.005375203789793069 0.005376022436531675 0.0053768410832702816
          0.004997739638077104 0.004991803422108526 0.004996814517473636 0.004992038264852396 0.004995889396870167 0.004992273107596268
          0.006605153452326379 0.00611292107323341 0.005761935283516716 0.006215798003898026 0.006606828481523764 0.006114890210125269
          0.005764517815206089 0.006217804345037922 0.006608503510721149 0.006116859347017128 0.005767100346895461 0.006219810686177817
          0.004821179755199914 0.00480955797251463 0.0048205129110019136 0.004808384668216487 0.004819846066803913 0.004807211363918345
          0.005051892123355524 0.005053923758493596 0.00505595539363167 0.004331195841622522 0.004333465195283521 0.004335734548944521
          0.005481039242931544 0.005270417857853434 0.005483954791491298 0.0052730352179199275 0.005486870340051053 0.005275652577986424
          0.0046211362833585845 0.004532388042904838 0.004620712357681069 0.004532214283764255 0.004620288432003552 0.00453204052462367
          0.00555600776328531 0.0058318587678213435 0.005556752078563036 0.005832554065773769 0.005557496393840761 0.005833249363726194
          0.00477187148749809 0.004772530812176946 0.0047731901368558 0.00650521476063366 0.0065049700090017235 0.0065047252573697855
          0.004533121774735692 0.004533522211418807 0.004533922648101923 0.0058654189773591076 0.005864883616503496 0.005864348255647884
          0.005057427015538322 0.005058764608683467 0.005060102201828611 0.004445352416561651 0.00448051099978705 0.004445148802754086
          0.004480849473156341 0.00444494518894652 0.004481187946525631 0.0047894407933470155 0.004789633241964758 0.004789825690582499
          0.0047922653402545975 0.004922680606726155 0.004793658012815423 0.004924574727061993 0.004795050685376249 0.0049264688473978305
          0.005227973735885098 0.00542967619432559 0.005228582089177575 0.005431666101008679 0.005229190442470053 0.005433656007691767
          0.0047493955190750625 0.0046597500880282295 0.004748115597077878 0.004658806714030302 0.004746835675080693 0.004657863340032373
          0.005191384586825765 0.005192846797765439 0.005194309008705113 0.004554743057847621 0.004555722039433894 0.004556701021020168
          0.005824813138607998 0.00582752244182341 0.005830231745038821 0.004362902781944084 0.004413429611209792 0.0043624029467491925
          0.004412068500999012 0.004361903111554301 0.004410707390788232 0.0044241617292036725 0.004435102541315538 0.004422521656649838
          0.004433020433434653 0.004420881584096004 0.004430938325553768 0.004294014572446613 0.004242822997007602 0.004268540148734042
          0.00429387414964935 0.0042464546858326955 0.004270368080449994 0.004293733726852086 0.00425008637465779 0.004272196012165948
          0.0042545735575367765 0.0042570203798661475 0.004259467202195518 0.005466214598231867 0.005166731559307868 0.0054664138664877295
          0.005168033325246218 0.005466613134743594 0.005169335091184568 0.004746789276874142 0.0047939410092885815 0.004746587722989979
          0.004793523824196457 0.004746386169105817 0.004793106639104333 0.004193380729443981 0.004197707403340126 0.004202034077236271
          0.004409924069519329 0.004408459417058299 0.004406994764597269 0.005006849877912129 0.00500852920641895 0.005010208534925772
          0.0044789247063697305 0.004329030348299467 0.00447871518267969 0.004330305248475294 0.004478505658989652 0.004331580148651121
          0.004255493702895812 0.004255967564497627 0.004256441426099442 0.00460595095800902 0.004605235556059736 0.004604520154110452
          0.005168708621638277 0.005170008583620387 0.005171308545602496 0.0046988872692312065 0.004698861934768175 0.004698836600305142
          0.004784477108004595 0.0047838167938119725 0.00478315647961935 0.004815546475222702 0.004815134077737917 0.004814721680253133
          0.003420355435357801 0.0034201833357383415 0.003420011236118883 0.003884423772393279 0.0038841831405429274 0.0038839425086925764
          0.004276612739645581 0.004276381704872004 0.0042761506700984275 0.004594680046547882 0.0045944640240582904 0.004594248001568699
          0.00473486256668104 0.004734657887923154 0.004734453209165268 0 0 0
          0 0 0 0 0 0
          0 0 0 0 0 0
          0 0 0 0 0 0
          0 0 0 0 0 0
          0 0 0 0 0 0
          0 0 0 0 0 0
          0 0 0 0 0 0
          0 0 0 0 0 0
          0 0 0 0 0 0
          0 0 0 0 0 0
          0 0 0 0 0 0
          0 0 0 4.670067638121396e-7 5.139193763403638e-7 5.608319888685881e-7
          0 0 0 0 0 0
          0 0 0 0 0 0
          0 0 0 0 0 0
          0 0 0 0.00004882159468898243 0.00004903366418360029 0.00004924573367821817
          0 0 0 0 0 0
          0 0 0 0 0 0
          0 0 0 0 0 0
          0 0 0 0.0002297831661497814 0.00023019675051203105 0.0002306103348742807
          0.00002105885704073204 0.000021218082063285996 0.00002137730708583995 0 0 0
          0 0 0 0 0 0
          0 0 0 0 0 0
          0 0 0 0.0013784697440501108 0.0013784320476737306 0.0013783943512973506
          0.0005996626705184877 0.0006001174573638186 0.0006005722442091495 0.0001309413461000227 0.00013142634528840206 0.00013191134447678146
          0.0000026100992207828354 0.0000027222612663069428 0.0000028344233118310506 0 0 0
          0 0 0 0 0 0
          0 0 0 0 0 0
          0.002084215688188857 0.0020838194855647076 0.0020834232829405586 0.0011494101528287917 0.0011495965431425872 0.0011497829334563827
          0.000392171726083311 0.00039285427237132763 0.0003935368186593442 0.000048131994176445667 0.00004847584706035408 0.000048819699944262504
          0 0 0 0 0 0
          0 0 0 0 0 0
          0 0 0 0.0029015364224104353 0.0029006993702802757 0.002899862318150116
          0.0018497963505865842 0.0018495780254428346 0.0018493597002990844 0.0008174179061158886 0.0008180876911495808 0.000818757476183273
          0.00017681057567575705 0.00017737725491481012 0.00017794393415386316 6.839026966422642e-7 7.411106654796019e-7 7.983186343169397e-7
          0 0 0 0 0 0
          0 0 0 0 0 0
          0.003340202681328565 0.003339136827655088 0.0033380709739816105 0.0022372405801033383 0.002236843867918589 0.0022364471557338402
          0.0010702573381837365 0.0010708833640067385 0.0010715093898297408 0.00026257736144018844 0.0002632473382415259 0.00026391731504286345
          0.0000013678053932845284 0.0000014822213309592039 0.0000015966372686338794 0 0 0
          0 0 0 0 0 0
          0 0 0 0 0 0
          0 0 0 0 0 0
          0 0 0 0 0 0
          0 0 0 0 0 0
          0 0 0 0 0 0
          0 0 0 0 0 0
          0 0 0 0 0 0
          0 0 0 0 0 0
          0 0 0 0 0 0
          0 0 0 0 0 0
          0 0 0 0 0 0
          0 0 0 0 0 0
          0 0 0 0 0 0
          0 0 0 0 0 0
          0 0 0 0 0 0
          0 0 0 0 0 0
          0 0 0 0 0 0
          0 0 0 0 0 0
          0 0 0 0 0 0
          0 0 0 0 0 0
          0 0 0 0 0 0
          0 0 0 0 0 0
          0 0 0 0 0 0
          0 0 0 0 0 0
          0 0 0 0 0 0
          0 0 0 0 0 0
          0 0 0 0 0 0
          0 0 0 0 0 0
          0 0 0 0 0 0
          0 0 0 0 0 0
          0 0 0 0 0 0
          0 0 0 0 0 0
          0 0 0 0 0 0
          0 0 0 0 0 0
          0 0 0 0 0 0
          0 0 0 0 0 0
          0 0 0 0 0 0
          0 0 0 0 0 0
          0 0 0 0 0 0
          0 0 0 0 0 0
          0 0 0 0 0 0
          0 0 0 0 0 0
          0 0 0 0 0 0
          0 0 0 0 0 0
          0 0 0 0 0 0
          0 0 0
        </DataArray>
        <DataArray type="Float64" Name="pe22" format="ascii" RangeMin="-0.0034837557940040603" RangeMax="0">
          -0.002354366240002803 -0.0023879756912288247 -0.002407854309399748 -0.002445154311365588 -0.0023545917212234053 -0.0023879558151358804
          -0.002407782013843808 -0.002445102289533062 -0.002354817202444009 -0.002387935939042935 -0.0024077097182878676 -0.002445050267700536
          -0.0025612790272183015 -0.002629582706517487 -0.0025364268530886744 -0.002523848673801778 -0.0025609560121997586 -0.00262939633119652
          -0.002536365638859828 -0.002523707037658855 -0.002560632997181216 -0.002629209955875553 -0.002536304424630981 -0.002523565401515931
          -0.002465616107022979 -0.0024733282912971443 -0.0024656590206475074 -0.0024731621926245627 -0.002465701934272036 -0.0024729960939519824
          -0.002545973085632399 -0.002325543079078357 -0.00240648132301209 -0.002545853111774423 -0.0023255670213288933 -0.0024065588886070985
          -0.002545733137916447 -0.0023255909635794296 -0.0024066364542021075 -0.0022951091789024914 -0.002235695503036602 -0.0022145790255931443
          -0.0022879794096499553 -0.002295180512206567 -0.0022357914618555525 -0.002214689472713225 -0.00228800109174836 -0.0022952518455106423
          -0.0022358874206745024 -0.0022147999198333067 -0.002288022773846765 -0.002200504394071698 -0.0021607450754118776 -0.0022103764086184165
          -0.0022798982543299835 -0.002201202628190602 -0.0021609476833453004 -0.002210611731817861 -0.002280248296548227 -0.002201900862309506
          -0.002161150291278723 -0.002210847055017305 -0.0022805983387664706 -0.0026774654198468547 -0.0028464290380857313 -0.0027303778630616287
          -0.0026767784364464292 -0.0028453397706072235 -0.002729996691450841 -0.0026760914530460037 -0.002844250503128716 -0.0027296155198400524
          -0.0022145241560189424 -0.0022148018269697385 -0.0022150794979205347 -0.00293822411165532 -0.0031072086331958727 -0.0029381393027043067
          -0.003106665656279115 -0.0029380544937532937 -0.003106122679362358 -0.002051865869376221 -0.00222020531014865 -0.0020521284758569383
          -0.00222018896574911 -0.002052391082337655 -0.0022201726213495697 -0.0023081620826437845 -0.0024460864605947074 -0.002307863603410753
          -0.002445903921993179 -0.0023075651241777208 -0.0024457213833916514 -0.002274452445848582 -0.002394507137716683 -0.002459296500447565
          -0.0023198814190085134 -0.0022745094904273694 -0.0023941804367909893 -0.00245885259489684 -0.00231998573133744 -0.0022745665350061566
          -0.002393853735865295 -0.002458408689346115 -0.0023200900436663664 -0.0034831878891073793 -0.00348347184155572 -0.0034837557940040603
          -0.002620988814614271 -0.0026213772152175654 -0.002621765615820859 -0.002618558954225324 -0.002618612274393942 -0.002618665594562559
          -0.002478533013234634 -0.002485812859860856 -0.0024781955995794493 -0.002485428332294065 -0.002477858185924264 -0.0024850438047272737
          -0.0033097073643771555 -0.0030216603999773935 -0.0028604902535398265 -0.0031175804821467713 -0.003310760401715974 -0.003023435100485833
          -0.002862092566818871 -0.003118908873847166 -0.0033118134390547928 -0.0030252098009942727 -0.0028636948800979164 -0.003120237265547561
          -0.002398756306621746 -0.0023931509735279732 -0.0023985978297584205 -0.002393023269120822 -0.002398439352895096 -0.0023928955647136716
          -0.0025382880980727536 -0.002537925680269967 -0.0025375632624671796 -0.002165680214487874 -0.0021660276472879403 -0.0021663750800880073
          -0.0027669398354303737 -0.0026608650925511955 -0.0027664882760191634 -0.0026600646329084147 -0.0027660367166079526 -0.002659264173265634
          -0.002302185976554139 -0.0022642399783685545 -0.0023022344915099332 -0.0022641667325588887 -0.0023022830064657273 -0.0022640934867492225
          -0.0027462786269552885 -0.00286303933378969 -0.0027460425864034785 -0.0028635921852645644 -0.0027458065458516694 -0.0028641450367394385
          -0.002385301544333896 -0.0023846850730356497 -0.0023840686017374043 -0.003198069216810076 -0.003198114602808731 -0.0031981599888073866
          -0.0022596033933247966 -0.002259207292487254 -0.0022588111916497116 -0.0028771779292752274 -0.00287625737525187 -0.002875336821228513
          -0.0025443942600833873 -0.002543634431689568 -0.002542874603295748 -0.0022265580424922233 -0.002244096124466638 -0.002226340560031308
          -0.0022441103405951854 -0.0022261230775703924 -0.0022441245567237323 -0.0023826754007758265 -0.0023824931231438266 -0.002382310845511827
          -0.002390755573842049 -0.002462843486160135 -0.002390741949656645 -0.0024628297078467688 -0.0023907283254712415 -0.0024628159295334035
          -0.0026092742910833254 -0.002719595135826214 -0.0026082962615570924 -0.0027193887916471563 -0.002607318232030859 -0.0027191824474680974
          -0.0023643105129849034 -0.002327194589779389 -0.002364095397956446 -0.0023268158673399857 -0.002363880282927989 -0.0023264371449005813
          -0.002616132180411712 -0.0026152713921457054 -0.002614410603879699 -0.0022794559588317225 -0.002279585277089118 -0.002279714595346513
          -0.0029307160591571157 -0.0029311514428454095 -0.0029315868265337034 -0.0021754460403438855 -0.0022048817091690656 -0.002174570948776338
          -0.002203705116846991 -0.0021736958572087907 -0.002202528524524917 -0.0022165634711409773 -0.002221856147537828 -0.002215498547983692
          -0.0022202434577912283 -0.0022144336248264064 -0.0022186307680446293 -0.002145659937422674 -0.0021208494914232365 -0.0021329105360030796
          -0.002144882089132848 -0.0021220924596240774 -0.002133299715930044 -0.0021441042408430217 -0.0021233354278249175 -0.0021336888958570083
          -0.0021255903843577914 -0.002126363918719107 -0.0021271374530804224 -0.0027025811300945063 -0.0025776938861184007 -0.0027013797244982572
          -0.0025770937316164427 -0.002700178318902008 -0.0025764935771144847 -0.002373066279189524 -0.002397336664589651 -0.0023729819019543226
          -0.0023970367026074995 -0.0023728975247191216 -0.002396736740625348 -0.0020955966721112875 -0.002097487140060662 -0.002099377608010037
          -0.0022086214995149975 -0.0022076588813281423 -0.002206696263141287 -0.0025019170143675946 -0.0025017990016044478 -0.002501680988841302
          -0.0022410776307225946 -0.002166256053158253 -0.0022408559128448725 -0.002166999313471322 -0.002240634194967151 -0.002167742573784391
          -0.0021295852296255363 -0.0021296961982235803 -0.0021298071668216247 -0.0023046291276811234 -0.002304148249766919 -0.002303667371852715
          -0.0025748769448040655 -0.00257454733591739 -0.0025742177270307153 -0.002350695916516859 -0.0023506573011771083 -0.002350618685837358
          -0.002392206083220402 -0.0023918384877357635 -0.002391470892251125 -0.0024036746554242754 -0.002403484748922016 -0.0024032948424197575
          -0.0016719105835846136 -0.0016719814833826025 -0.0016720523831805921 -0.0019099805212600056 -0.0019100883440300162 -0.0019101961668000274
          -0.002115232142440757 -0.0021153316497346994 -0.002115431157028642 -0.002279191663243761 -0.0022792251241339307 -0.0022792585850241005
          -0.0023491060015126725 -0.0023490932279754515 -0.0023490804544382305 0 0 0
          0 0 0 0 0 0
          0 0 0 0 0 0
          0 0 0 0 0 0
          0 0 0 0 0 0
          0 0 0 0 0 0
          0 0 0 0 0 0
          0 0 0 0 0 0
          0 0 0 0 0 0
          0 0 0 0 0 0
          0 0 0 0 0 0
          0 0 0 0 0 0
          0 0 0 -1.8068509439789818e-7 -1.9848571501639257e-7 -2.1628633563488693e-7
          0 0 0 0 0 0
          0 0 0 0 0 0
          0 0 0 0 0 0
          0 0 0 -0.000019319794720510583 -0.000019380213024408732 -0.000019440631328306877
          0 0 0 0 0 0
          0 0 0 0 0 0
          0 0 0 0 0 0
          0 0 0 -0.00009264136712019959 -0.00009272145793716376 -0.00009280154875412796
          -0.000008090378521298912 -0.000008141862942260081 -0.00000819334736322125 0 0 0
          0 0 0 0 0 0
          0 0 0 0 0 0
          0 0 0 -0.0006020610275953369 -0.0006019650642772312 -0.0006018691009591255
          -0.0002486875674510966 -0.00024874883710813907 -0.00024881010676518146 -0.00005232604798623008 -0.00005247774847194353 -0.00005262944895765696
          -0.0000010228172741479309 -0.0000010669352244468766 -0.0000011110531747458225 0 0 0
          0 0 0 0 0 0
          0 0 0 0 0 0
          -0.0009454969172247598 -0.0009452666539056494 -0.0009450363905865391 -0.0005000466224306864 -0.0004999514442623155 -0.0004998562660939446
          -0.00016552503404629088 -0.00016568836344370297 -0.00016585169284111508 -0.000020125908320219893 -0.0000202461033424498 -0.000020366298364679708
          0 0 0 0 0 0
          0 0 0 0 0 0
          0 0 0 -0.0013528376474636818 -0.0013522391104453537 -0.0013516405734270256
          -0.000836549952656671 -0.0008361629373872027 -0.0008357759221177346 -0.0003594560633211804 -0.00035951548481970053 -0.0003595749063182205
          -0.00007598684857758214 -0.0000761583968765814 -0.00007632994517558066 -2.7938367874489417e-7 -3.0249013967152505e-7 -3.255966005981559e-7
          0 0 0 0 0 0
          0 0 0 0 0 0
          -0.0015678703895937356 -0.0015670532828599986 -0.0015662361761262617 -0.0010233772803659887 -0.0010228411992105097 -0.0010223051180550309
          -0.00047633339747964144 -0.0004763260138113619 -0.00047631863014308234 -0.00011376751506302038 -0.00011395845751715697 -0.00011414939997129355
          -5.587673574897883e-7 -6.049802793430501e-7 -6.511932011963118e-7 0 0 0
          0 0 0 0 0 0
          0 0 0 0 0 0
          0 0 0 0 0 0
          0 0 0 0 0 0
          0 0 0 0 0 0
          0 0 0 0 0 0
          0 0 0 0 0 0
          0 0 0 0 0 0
          0 0 0 0 0 0
          0 0 0 0 0 0
          0 0 0 0 0 0
          0 0 0 0 0 0
          0 0 0 0 0 0
          0 0 0 0 0 0
          0 0 0 0 0 0
          0 0 0 0 0 0
          0 0 0 0 0 0
          0 0 0 0 0 0
          0 0 0 0 0 0
          0 0 0 0 0 0
          0 0 0 0 0 0
          0 0 0 0 0 0
          0 0 0 0 0 0
          0 0 0 0 0 0
          0 0 0 0 0 0
          0 0 0 0 0 0
          0 0 0 0 0 0
          0 0 0 0 0 0
          0 0 0 0 0 0
          0 0 0 0 0 0
          0 0 0 0 0 0
          0 0 0 0 0 0
          0 0 0 0 0 0
          0 0 0 0 0 0
          0 0 0 0 0 0
          0 0 0 0 0 0
          0 0 0 0 0 0
          0 0 0 0 0 0
          0 0 0 0 0 0
          0 0 0 0 0 0
          0 0 0 0 0 0
          0 0 0 0 0 0
          0 0 0 0 0 0
          0 0 0 0 0 0
          0 0 0 0 0 0
          0 0 0 0 0 0
          0 0 0
        </DataArray>
        <DataArray type="Float64" Name="pe33" format="ascii" RangeMin="-0.0035140488908153907" RangeMax="0">
          -0.002372508584956677 -0.0023961442450288837 -0.002420041052124235 -0.0024653175502394693 -0.0023721333785062236 -0.0023960435595984804
          -0.0024195064592999025 -0.0024643179515219838 -0.0023717581720557697 -0.002395942874168077 -0.0024189718664755695 -0.0024633183528044982
          -0.0026004149260361485 -0.002691999170521132 -0.00261179809644231 -0.002583074172993998 -0.002600506919257513 -0.002692519144262569
          -0.0026110674282111127 -0.0025821152584862513 -0.002600598912478877 -0.002693039118004006 -0.0026103367599799162 -0.002581156343978504
          -0.002509295610686332 -0.0025069503778421356 -0.002508323709565663 -0.0025058483351026073 -0.0025073518084449942 -0.0025047462923630795
          -0.002645250116687027 -0.002394312117849611 -0.0024627952528959276 -0.0026452205042210323 -0.002393930542095298 -0.002462080126618173
          -0.0026451908917550383 -0.002393548966340985 -0.0024613650003404183 -0.002300810753111002 -0.0022300588768421436 -0.00221662478117551
          -0.002293789060967586 -0.0023012233437788225 -0.00223087983892082 -0.0022180290362396383 -0.002294972523008727 -0.002301635934446643
          -0.002231700800999496 -0.002219433291303766 -0.0022961559850498683 -0.0021996081263761895 -0.002157349922108038 -0.002206229367833484
          -0.0022883941627620274 -0.0022000225626545343 -0.002157762487205114 -0.002206783470409721 -0.0022883187684740076 -0.0022004369989328796
          -0.0021581750523021904 -0.002207337572985959 -0.002288243374185989 -0.0027364889251164154 -0.0029535012664136536 -0.00282949354433116
          -0.0027381199161031784 -0.002954605033007069 -0.002830588051308944 -0.0027397509070899414 -0.002955708799600485 -0.002831682558286727
          -0.002242996483351004 -0.0022427903814900003 -0.002242584279628997 -0.003086129160049185 -0.0032628399435136973 -0.003086464288735202
          -0.003262324474148246 -0.00308679941742122 -0.0032618090047827944 -0.0020895276052805825 -0.0023042092368871846 -0.0020895326264626594
          -0.0023042181765152523 -0.0020895376476447363 -0.0023042271161433196 -0.0023109338813530203 -0.0024330232941566364 -0.002311857911428822
          -0.0024347993427429313 -0.0023127819415046237 -0.0024365753913292267 -0.002281767271534309 -0.002391247343419109 -0.0024472997965224725
          -0.0023220087263787033 -0.002282987883882631 -0.0023923311909962663 -0.0024487087988422666 -0.0023235181606138956 -0.0022842084962309533
          -0.002393415038573424 -0.002450117801162061 -0.002325027594849088 -0.003511785977901567 -0.003512917434358479 -0.0035140488908153907
          -0.002582974550964889 -0.002585559992671494 -0.0025881454343781 -0.002756644835567744 -0.0027574101621377326 -0.0027581754887077217
          -0.0025192066248424707 -0.0025059905622476695 -0.0025186189178941867 -0.0025066099325583313 -0.002518031210945902 -0.0025072293028689935
          -0.003295446087949224 -0.003091260673256017 -0.00290144502997689 -0.0030982175217512554 -0.0032960680798077902 -0.003091455109639436
          -0.0029024252483872176 -0.0030988954711907556 -0.0032966900716663566 -0.0030916495460228547 -0.0029034054667975455 -0.0030995734206302568
          -0.002422423448578168 -0.0024164069989866576 -0.002421915081243492 -0.002415361399095665 -0.002421406713908816 -0.0024143157992046723
          -0.002513604025282769 -0.002515998078223629 -0.00251839213116449 -0.0021655156271346483 -0.0021674375479955803 -0.0021693594688565123
          -0.00271409940750117 -0.002609552765302237 -0.002717466515472135 -0.002612970585011513 -0.0027208336234431 -0.002616388404720789
          -0.0023189503068044444 -0.002268148064536283 -0.0023184778661711346 -0.0022680475512053652 -0.0023180054255378247 -0.0022679470378744477
          -0.002809729136330022 -0.0029688194340316523 -0.002810709492159557 -0.0029689618805092033 -0.0028116898479890913 -0.0029691043269867543
          -0.002386569943164193 -0.0023878457391412946 -0.002389121535118396 -0.0033071455438235834 -0.003306855406192991 -0.003306565268562398
          -0.002273518381410894 -0.0022743149189315527 -0.002275111456452211 -0.0029882410480838797 -0.002988626241251625 -0.002989011434419371
          -0.002513032755454935 -0.0025151301769938987 -0.002517227598532862 -0.002218794374069427 -0.0022364148753204116 -0.0022188082427227773
          -0.002236739132561155 -0.0022188221113761276 -0.002237063389801898 -0.002406765392571189 -0.00240714011882093 -0.002407514845070671
          -0.002401509766412549 -0.0024598371205660197 -0.0024029160631587774 -0.0024617450192152227 -0.0024043223599050064 -0.0024636529178644257
          -0.0026186994448017717 -0.0027100810584993773 -0.0026202858276204825 -0.0027122773093615233 -0.0026218722104391938 -0.0027144735602236693
          -0.0023850850060901582 -0.00233255549824884 -0.0023840201991214313 -0.0023319908466903154 -0.0023829553921527044 -0.002331426195131791
          -0.0025752524064140535 -0.002577575405619734 -0.002579898404825414 -0.002275287099015898 -0.0022761367623447765 -0.0022769864256736547
          -0.0028940970794508825 -0.0028963709989780003 -0.0028986449185051176 -0.002187456741600198 -0.002208547902040726 -0.0021878319979728536
          -0.0022083633841520206 -0.0021882072543455092 -0.002208178866263315 -0.002207598258062695 -0.002213246393777711 -0.002207023108666147
          -0.002212776975643425 -0.002206447959269598 -0.002212307557509139 -0.002148354635023939 -0.0021219735055843653 -0.002135629612730963
          -0.0021489920605165013 -0.0021243622262086185 -0.0021370683645199518 -0.002149629486009064 -0.002126750946832872 -0.00213850711630894
          -0.002128983173178986 -0.0021306564611470414 -0.002132329749115097 -0.0027636334681373598 -0.002589037673189467 -0.0027650341419894735
          -0.0025909395936297755 -0.002766434815841587 -0.0025928415140700836 -0.0023737229976846176 -0.002396604344698929 -0.002373605821035657
          -0.0023964871215889573 -0.0023734886443866955 -0.002396369898478985 -0.0020977840573326943 -0.002100220263279463 -0.002102656469226233
          -0.002201302570004331 -0.0022008005357301566 -0.0022002985014559816 -0.0025049328635445346 -0.002506730204814502 -0.002508527546084469
          -0.0022378470756471355 -0.002162774295141212 -0.002237859269834818 -0.002163305935003971 -0.002237871464022501 -0.00216383757486673
          -0.0021259084732702747 -0.0021262713662740457 -0.002126634259277816 -0.002301321830327897 -0.002301087306292817 -0.0023008527822577373
          -0.002593831676834211 -0.0025954612477029956 -0.00259709081857178 -0.002348191352714347 -0.002348204633591066 -0.002348217914467785
          -0.0023922710247841917 -0.0023919783060762085 -0.002391685587368225 -0.002411871819798425 -0.0024116493288159 -0.002411426837833375
          -0.0017484448517731872 -0.001748201852355739 -0.0017479588529382903 -0.0019744432511332732 -0.0019740947965129108 -0.0019737463418925487
          -0.002161380597204824 -0.0021610500551373047 -0.0021607195130697848 -0.0023154883833041203 -0.002315238899924359 -0.0023149894165445982
          -0.0023857565651683654 -0.0023855646599477013 -0.002385372754727037 0 0 0
          0 0 0 0 0 0
          0 0 0 0 0 0
          0 0 0 0 0 0
          0 0 0 0 0 0
          0 0 0 0 0 0
          0 0 0 0 0 0
          0 0 0 0 0 0
          0 0 0 0 0 0
          0 0 0 0 0 0
          0 0 0 0 0 0
          0 0 0 0 0 0
          0 0 0 -2.863216694142413e-7 -3.1543366132397116e-7 -3.4454565323370105e-7
          0 0 0 0 0 0
          0 0 0 0 0 0
          0 0 0 0 0 0
          0 0 0 -0.00002950179996847185 -0.00002965345115919157 -0.00002980510234991129
          0 0 0 0 0 0
          0 0 0 0 0 0
          0 0 0 0 0 0
          0 0 0 -0.00013714179902958178 -0.00013747529257486724 -0.00013780878612015276
          -0.000012968478519433122 -0.000013076219121025911 -0.000013183959722618699 0 0 0
          0 0 0 0 0 0
          0 0 0 0 0 0
          0 0 0 -0.0007764087164547737 -0.0007764669833964994 -0.0007765252503382249
          -0.000350975103067391 -0.00035136862025567957 -0.0003517621374439682 -0.00007861529811379261 -0.00007894859681645856 -0.00007928189551912451
          -0.0000015872819466349058 -0.0000016553260418600662 -0.0000017233701370852268 0 0 0
          0 0 0 0 0 0
          0 0 0 0 0 0
          -0.0011387187709640972 -0.0011385528316590582 -0.0011383868923540194 -0.000649363530398105 -0.0006496450988802717 -0.0006499266673624383
          -0.00022664669203702 -0.0002271659089276246 -0.0002276851258182292 -0.00002800608585622577 -0.00002822974371790428 -0.000028453401579582793
          0 0 0 0 0 0
          0 0 0 0 0 0
          0 0 0 -0.0015486987749467533 -0.001548460259834922 -0.0015482217447230903
          -0.001013246397929913 -0.0010134150880556315 -0.0010135837781813498 -0.0004579618427947079 -0.00045857220632988013 -0.0004591825698650524
          -0.0001008237270981749 -0.00010121885803822872 -0.00010161398897828252 -4.0451901789737006e-7 -4.3862052580807694e-7 -4.727220337187838e-7
          0 0 0 0 0 0
          0 0 0 0 0 0
          -0.0017723322917348296 -0.001772083544795089 -0.0017718347978553483 -0.0012138632997373494 -0.0012140026687080794 -0.0012141420376788092
          -0.0005939239407040948 -0.0005945573501953764 -0.0005951907596866581 -0.00014880984637716808 -0.000149288880724369 -0.0001497679150715699
          -8.090380357947401e-7 -8.772410516161539e-7 -9.454440674375676e-7 0 0 0
          0 0 0 0 0 0
          0 0 0 0 0 0
          0 0 0 0 0 0
          0 0 0 0 0 0
          0 0 0 0 0 0
          0 0 0 0 0 0
          0 0 0 0 0 0
          0 0 0 0 0 0
          0 0 0 0 0 0
          0 0 0 0 0 0
          0 0 0 0 0 0
          0 0 0 0 0 0
          0 0 0 0 0 0
          0 0 0 0 0 0
          0 0 0 0 0 0
          0 0 0 0 0 0
          0 0 0 0 0 0
          0 0 0 0 0 0
          0 0 0 0 0 0
          0 0 0 0 0 0
          0 0 0 0 0 0
          0 0 0 0 0 0
          0 0 0 0 0 0
          0 0 0 0 0 0
          0 0 0 0 0 0
          0 0 0 0 0 0
          0 0 0 0 0 0
          0 0 0 0 0 0
          0 0 0 0 0 0
          0 0 0 0 0 0
          0 0 0 0 0 0
          0 0 0 0 0 0
          0 0 0 0 0 0
          0 0 0 0 0 0
          0 0 0 0 0 0
          0 0 0 0 0 0
          0 0 0 0 0 0
          0 0 0 0 0 0
          0 0 0 0 0 0
          0 0 0 0 0 0
          0 0 0 0 0 0
          0 0 0 0 0 0
          0 0 0 0 0 0
          0 0 0 0 0 0
          0 0 0 0 0 0
          0 0 0 0 0 0
          0 0 0
        </DataArray>
        <DataArray type="Float64" Name="disp_x" format="ascii" RangeMin="0.00012590980024041712" RangeMax="0.00023000000000000006">
          0.00016872854191599134 0.00016359525183294775 0.00015697208970263935 0.00015825013440679792 0.0001687268904531739 0.00016359472021770493
          0.00015697137909064573 0.00015824913065354195 0.00016872215650334967 0.00016359379838209805 0.00015696933180980266 0.00015824620614895407
          0.00015364155066214751 0.0001560749936214879 0.00016194466630346744 0.0001581283144579018 0.00015364191505431245 0.00015607416716189261
          0.00016194353698408922 0.00015812789534158702 0.00015364294636445493 0.00015607198366759289 0.00016194026624540863 0.00015812740503765902
          0.00016283914758994907 0.00015659204437761074 0.00016283796852939868 0.000156592357026987 0.00016283359668194463 0.0001565932206399996
          0.0001648854492599707 0.00017180974660366985 0.00016780374493781467 0.0001648839807302357 0.00017180623123930823 0.00016780148349468548
          0.00016488008006343557 0.00017179552207796027 0.00016779396020866815 0.0001457491327226781 0.00014251790160604055 0.00013949576624099048
          0.00014416177377721512 0.00014575048849839795 0.0001425188602641875 0.00013949632824451343 0.00014416262034873983 0.00014575510193346445
          0.000142521348223537 0.00013949710168304475 0.00014416574922193235 0.0001444103251441819 0.00014115213484337645 0.00014199573173640824
          0.00014644004993043036 0.00014441107255192082 0.00014115282616986878 0.00014199656365047734 0.0001464417613061957 0.0001444134765298472
          0.0001411547428366533 0.00014199885430541 0.00014644659130892075 0.0001505578168848047 0.00015099964808794125 0.00015774832737253832
          0.00015055657179389832 0.00015099629159927395 0.00015774642653701516 0.00015055381857153287 0.00015098705591184454 0.00015773933937848425
          0.0001734473718198041 0.00017344564824206264 0.0001734403093110087 0.00015799380188404524 0.0001504596392259012 0.00015798923088091593
          0.00015045660196633738 0.00015797362692651423 0.0001504475140608947 0.00017781347745543427 0.00017551700956402157 0.00017781100327738414
          0.0001755131097487488 0.00017780297575577223 0.0001755008012141577 0.0001301588210167681 0.00012797300154493302 0.00013015621441606087
          0.00012797154119204146 0.00013014978136827857 0.00012796700730033627 0.0001376257267630169 0.00013523159892024674 0.00013958498674668178
          0.0001420902785089691 0.00013762483358416356 0.0001352301078013682 0.00013958333804919314 0.00014209022128591062 0.00013762217552338026
          0.00013522571106417384 0.0001395790238645155 0.00014208918191215087 0.00013582831961326587 0.00013582578598378284 0.00013581722623698115
          0.0001259216445243142 0.00012591863865230623 0.00012590980024041712 0.00016745327147615826 0.0001674494467853671 0.0001674385209162568
          0.00015361911483573572 0.00015060026243020718 0.00015362024661229217 0.00015060150855122301 0.00015362273149482623 0.00015060524828366142
          0.00013455009210723923 0.00013900332724091824 0.00013732866277399412 0.0001330747050354034 0.0001345455967065804 0.0001390003888483288
          0.00013732585404094389 0.00013306982718645506 0.00013453250147707783 0.0001389936304073774 0.00013731916122803042 0.00013305412653010388
          0.00015075242914027665 0.000151853399629003 0.00015075392083138328 0.0001518547402875176 0.00015075807352181314 0.00015185849802125222
          0.0001294778822643817 0.0001294761403647892 0.00012947050385114315 0.00013844014311627435 0.00013844112058958755 0.00013844217115197108
          0.00013098336805821768 0.00013041565432444545 0.00013098043977001524 0.00013041297914069227 0.0001309723542183028 0.00013040593219617208
          0.00014866142698106177 0.0001474283932544134 0.00014866366664547864 0.0001474302570222075 0.00014866869697693864 0.0001474361750136351
          0.0001413220974280143 0.0001418175752869798 0.00014132086684879374 0.00014181863099061028 0.00014131637084263004 0.00014181949575189576
          0.00013161163206587597 0.00013160974387639506 0.00013160417212455095 0.0001427255881756319 0.00014272485593546213 0.00014272208776342947
          0.00013367685024790257 0.00013367598779534943 0.00013367088245834144 0.0001453915288379657 0.00014539054793828485 0.0001453837536373754
          0.00013249502219539545 0.00013249349019255524 0.00013248811703151991 0.00012900149631019732 0.00012911090182773962 0.00012899821275382675
          0.0001291107783529919 0.00012899955304930023 0.0001291105695470207 0.00014886678807432514 0.00014886885898417407 0.00014887441820957608
          0.00014664940021727279 0.00014515089939593428 0.00014665078470865823 0.00014515042641730512 0.00014665514220307496 0.00014514829520881402
          0.0001405345895973512 0.00013619332695882764 0.00014053327549340175 0.00013619159227940241 0.00014052969027312202 0.00013618666124210523
          0.00015186718455194358 0.00015074382664594598 0.00015186791231570784 0.0001507447952586873 0.00015186960583274433 0.00015074733607361882
          0.0001347196414222178 0.00013471808240576906 0.00013471228816208704 0.0001293881040493736 0.00012938825623186388 0.00012938434875083913
          0.00013189087217053622 0.0001318869236230963 0.00013187311683699482 0.00013497983827722836 0.00013252847684978676 0.00013497514434688063
          0.0001325356753117772 0.000134971828001456 0.00013253171512069272 0.00013202744984166425 0.0001319626894094189 0.00013202679176916712
          0.0001319648484036579 0.00013202518816093263 0.00013196289064592505 0.00013522557434244504 0.0001380149544426242 0.0001350143017756791
          0.00013522237182409492 0.00013801740813279247 0.0001350106221629185 0.00013522079876765 0.00013802094486514737 0.00013500252718276446
          0.0001348986319439879 0.0001348961909372708 0.00013488493046929137 0.00014562711416570533 0.00014510271361877993 0.00014562642148807227
          0.0001451017567228929 0.00014562026111563013 0.00014509774365762307 0.00015428571777469771 0.00015602239408216175 0.0001542865681311673
          0.0001560230197947482 0.00015428825765153437 0.00015602423229621674 0.00013764208438659197 0.0001376435086670923 0.00013764811462104457
          0.0001323100377204771 0.0001323104905585656 0.00013230743385242663 0.0001484093175342292 0.00014841091433525158 0.0001484145263422465
          0.00014618449818781887 0.00014327860921060492 0.00014618704822119314 0.0001432801181870174 0.00014619414487466163 0.00014328477845549834
          0.00014049140142128585 0.00014049193356763137 0.00014049219824315338 0.0001491567596098684 0.00014915757798544802 0.00014915903339972382
          0.00014943391679018674 0.00014943447075629033 0.00014943453021427585 0.00015217655138865136 0.00015217865026851413 0.00015218378469691193
          0.00015525938317890897 0.00015526066289958855 0.0001552647433803178 0.00015841415880580074 0.00015841481196426024 0.00015841538422443923
          0.0001863863503355606 0.00018638413947257988 0.00018637768275669002 0.00018272517361390486 0.00018272322205844366 0.00018271724268846185
          0.00017843380020040337 0.00017843285820465335 0.00017842946283120958 0.00017367459681254957 0.00017367431061691825 0.00017367276354991214
          0.0001686760691924131 0.00016867614865360316 0.0001686766528324918 0.0002048606676018797 0.00020481749668481395 0.0002048607062279235
          0.0002048173705470859 0.00020486080102774385 0.00020481696126955712 0.00020676235249499848 0.0002066935505610608 0.00020676221345619617
          0.00020669349910849383 0.00020676179350613495 0.00020669336692025198 0.00020865168865262464 0.000208570841846319 0.00020865161997787746
          0.00020857075384293257 0.00020865141764029303 0.0002085704786744648 0.00021054314354284947 0.00021045324381564016 0.00021054303760034828
          0.00021045314379239104 0.0002105427182025619 0.0002104528541959078 0.00021243836646508453 0.0002123447186509905 0.00021243826609462123
          0.0002123446173661782 0.00021243796502151918 0.00021234432011964696 0.00021433602805008152 0.0002142453840119 0.00021433592883604975
          0.00021424528822488803 0.00021433563012704634 0.00021424499909355714 0.00021623219614426542 0.0002161527248159722 0.00021623210619998916
          0.00021615263682510686 0.00021623183631650262 0.00021615237336039547 0.00021812201820746075 0.00021806306420503132 0.00021812193847328402
          0.00021806298504377258 0.00021812169658995078 0.0002180627485766859 0.00020497208158751668 0.00020497221313258275 0.00020497261565038334
          0.00020689837759099873 0.00020689818070779924 0.0002068975543070062 0.00020881207069996566 0.00020881201115704868 0.00020881186240096953
          0.00021072456436022682 0.00021072444068642339 0.00021072405894536115 0.0002126345174090401 0.00021263440768390978 0.0002126340890316997
          0.00021453867452502507 0.0002145385646998309 0.0002145382390954964 0.00021643063764891052 0.00021643054526700834 0.0002164302666486893
          0.0002183039097977954 0.00021830382580352315 0.00021830357600999205 0.00020514651680697107 0.00020514668050635896 0.00020514723948681504
          0.00020711223499573326 0.00020711216267180072 0.00020711191380310887 0.0002090666750155668 0.00020906650946854167 0.00020906601423227757
          0.00021101264252854502 0.00021101253044150558 0.00021101220379149204 0.00021294961562575243 0.00021294948245254933 0.0002129490848831569
          0.0002148685741804853 0.00021486845576283413 0.00021486810153279704 0.0002167618649762293 0.00021676176502651785 0.00021676146624209535
          0.0002186213921516398 0.0002186213028822107 0.00021862103821544584 0.00020544527315302988 0.00020544491685195156 0.00020544387273540177
          0.00020742182688030582 0.00020742196381085294 0.00020742241894427738 0.0002094391119640347 0.00020943894261189023 0.0002094384094400729
          0.00021143879444948037 0.00021143861764729596 0.0002114380984871054 0.0002134106661359351 0.00021341052936020894 0.0002134101198015766
          0.00021534956549470186 0.00021534942640379122 0.0002153490088071429 0.00021724670126953445 0.00021724659578595994 0.0002172462855245305
          0.00021909267803586923 0.00021909258351170003 0.00021909230360348897 0.00020584174115154415 0.00020584005591496983 0.00020583504860929394
          0.00020791565835958956 0.00020791557879483097 0.00020791537883094662 0.00020999009138372406 0.0002099900455120082 0.0002099899198949804
          0.0002120431667759201 0.00021204290835373526 0.00021204211103839456 0.00021405140077651504 0.0002140512614855839 0.00021405086716099584
          0.00021601073371860694 0.00021601056896013122 0.00021601006781383299 0.0002179093959371981 0.00021790928186583676 0.00021790894808795702
          0.00021973721887823562 0.00021973711580638034 0.00021973680676148522 0.00020251115122685252 0.0002025079828142427 0.00020249847363636083
          0.00020612829080020393 0.00020612523915283977 0.0002061160066377351 0.00020863505269566878 0.00020863396065571766 0.00020863068293660686
          0.00021076301045836441 0.00021076290493581552 0.0002107626440400697 0.0002128633181868137 0.0002128631333476996 0.00021286256474497322
          0.0002149097790773608 0.0002149095779138504 0.00021490898173758962 0.0002168830385240064 0.00021688286090168835 0.0002168823309397
          0.00021877376918260074 0.0002187736579036264 0.00021877333852647027 0.000220570108910425 0.00022057001062597906 0.00022056972897047247
          0.0002015118390628213 0.0002015085748766512 0.0002014988717305848 0.00020623349722558937 0.00020622961476054203 0.00020621791179393654
          0.00020947426782957055 0.00020947167957424486 0.00020946389442278238 0.00021179411127116905 0.0002117935785270334 0.00021179199501319753
          0.0002139487552150427 0.00021394870201442922 0.00021394857660808346 0.00021602491221690224 0.00021602466130080488 0.0002160238889415481
          0.00021799962981718237 0.0002179994062930042 0.00021799874458962217 0.00021986412181404253 0.00021986396165255164 0.00021986347972441234
          0.0002215967064290395 0.00022159657046439852 0.00022159615940897388 0.00020006835901108255 0.00020006498273687334 0.00020005482845850977
          0.00020611730972876417 0.00020611267691186087 0.0002060987895397355 0.00021033857598532946 0.00021033469448108956 0.00021032306851382753
          0.00021312462979015089 0.00021312307160894532 0.00021311842300667964 0.00021533937908312998 0.0002153392252587133 0.00021533886152454209
          0.00021744007753239606 0.0002174399005581144 0.00021743936347445273 0.00021941232409741312 0.00021941200119237437 0.00021941103212647062
          0.00022120696750829887 0.00022120690581484966 0.00022120677416778313 0.0002227884855858473 0.00022278842323692364 0.00022278823496576966
          0.00019822330721170822 0.0001982197507252196 0.00019820883935279876 0.000205830951863691 0.0002058253714528345 0.00020580841758066778
          0.00021123955427139292 0.00021123389011176293 0.00021121673169252286 0.00021468840642641004 0.00021468560960496795 0.00021467697578447456
          0.0002170694646241599 0.0002170690845605366 0.00021706798659801397 0.00021926537578156668 0.0002192651546208553 0.00021926454663013142
          0.00022124479926064107 0.00022124417372408216 0.0002212422108437579 0.00022287573547791263 0.00022287548171885256 0.00022287470673448844
          0.00022403898159812342 0.0002240389512240243 0.0002240388369401153 0.00021939873956221295 0.0002194536534184495 0.0002193986678787844
          0.00021945358104566876 0.00021939845437157377 0.00021945336368452942 0.0002196222120784607 0.0002196221328167693 0.00021962190223472322
          0.00021991435815094142 0.00021991427230738612 0.00021991402289573447 0.00022034389504506797 0.00022034380135322506 0.0002203435262993507
          0.00022092420943139703 0.00022092410800516292 0.00022092381126113914 0.0002216622969575922 0.00022166218402244037 0.00022166183876651458
          0.0002225458863177138 0.00022254578849224268 0.00022254549264992977 0.00022352474288482653 0.0002235246038953861 0.00022352412080270788
          0.0002243189477993788 0.00022431925527444148 0.00022432019171155052 0.0002207331039482003 0.00022078309995740276 0.0002207330401577495
          0.0002207830359223541 0.0002207328509543729 0.00022078284576855487 0.00022093598570875915 0.0002209359194709848 0.00022093572706661388
          0.00022119945784605251 0.00022119939039977546 0.00022119919818852502 0.00022158369198160518 0.00022158362615065235 0.00022158343990399897
          0.00022209722002579133 0.00022209716180110752 0.00022209699808800913 0.0002227396527375834 0.00022273961152743043 0.0002227394977071665
          0.0002234883608105883 0.00022348837490068259 0.0002234884320234105 0.00022426062694410373 0.00022426072248144104 0.00022426103114808648
          0.0002247703638873789 0.0002247709050377092 0.00022477259890447165 0.00022206521489126193 0.00022210954865681972 0.00022206516048630659
          0.0002221094943047654 0.00022206499875402909 0.00022210933205851898 0.00022224473564259284 0.00022224468042695474 0.0002222445161073304
          0.00022247661168272752 0.00022247655582579995 0.00022247639052913262 0.00022281243894854734 0.00022281238550314454 0.00022281222446958354
          0.0002232567861734421 0.0002232567402933227 0.00022325659651351544 0.000223803890781115 0.00022380386601893786 0.00022380377632121533
          0.0002244222162568541 0.0002244222270783836 0.00022442223811598895 0.0002250158446377888 0.00022501593782427883 0.00022501618149706692
          0.00022535262532669264 0.0002253528677648244 0.00022535352907915998 0.00022339445943445337 0.00022343248420777622 0.00022339441434340195
          0.00022343243921309636 0.00022339428003033163 0.00022343230588480357 0.0002235481505649385 0.00022354810582418582 0.00022354797307687382
          0.000223745764309784 0.00022374572006038262 0.00022374559056986584 0.00022403026002202996 0.00022403021959781488 0.0002240300992132747
          0.0002244032242031505 0.0002244031934581802 0.00022440310022103218 0.00022485509841609316 0.0002248550873862805 0.00022485505009322814
          0.00022534996766588035 0.00022534999398955293 0.0002253500685311122 0.0002257969852279953 0.0002257970763835826 0.00022579734359228716
          0.00022602235308800028 0.0002260225516587791 0.00022602316023944587 0.00022472056861727875 0.0002247517225697956 0.00022472053215180063
          0.00022475168592994094 0.00022472042463466467 0.00022475158015341397 0.0002248462833248236 0.00022484624724212275 0.00022484614327315897
          0.00022500730116624913 0.000225007266106561 0.0002250071653637144 0.0002252379344192564 0.00022523790507386377 0.00022523781575372226
          0.00022553773019735166 0.00022553771117531524 0.00022553764762500722 0.0002258954088381425 0.00022589540801838654 0.00022589539408447782
          0.0002262762302580381 0.0002262762611377664 0.0002262763347788168 0.000226604017141264 0.00022660409504051432 0.00022660431038130143
          0.00022675478413856738 0.00022675492373325714 0.00022675530970971185 0.00022604362667076787 0.00022606743199284196 0.0002260435994040554
          0.00022606740373022933 0.00022604351923661295 0.00022606732478518688 0.00022613955887300873 0.00022613953129791992 0.00022613945417339555
          0.0002262620457673936 0.0002262620201988114 0.00022626194668558583 0.00022643676436936378 0.0002264367451837031 0.0002264366833677848
          0.00022666221120679558 0.00022666220086693973 0.00022666216141540104 0.00022692764360816335 0.0002269276489040087 0.0002269276505482386
          0.00022720387140315283 0.0002272039014802592 0.00022720396931240092 0.00022743320274831402 0.0002274332621637673 0.00022743342422328798
          0.00022753147847584835 0.00022753157062215483 0.00022753184213071507 0.00022736405120941412 0.0002273801304422192 0.0002273640333779076
          0.00022738011126004518 0.00022736398098899385 0.00022738005853958318 0.00022742879486410824 0.00022742877588058006 0.00022742872440753857
          0.00022751127241225628 0.00022751125652997279 0.0002275112087393789 0.0002276285638731292 0.00022762855109719442 0.00022762851006437966
          0.00022777905841123893 0.00022777905211408283 0.00022777902477852475 0.00022795448944618187 0.000227954493860952 0.0002279544923620507
          0.0002281340287658269 0.00022813405117359152 0.00022813410178930716 0.00022827943221380193 0.00022827947178282642 0.0002282795781704065
          0.0002283386057182369 0.00022833866556800343 0.00022833883291208365 0.0002286825396546639 0.00022869064036661564 0.00022868252883275232
          0.00022869063010353023 0.0002286825010674163 0.00022869060293476395 0.00022871514388126036 0.00022871513538358127 0.00022871511060205903
          0.00022875662659386394 0.0002287566197678365 0.00022875659743633352 0.0002288155080728003 0.0002288155058016149 0.0002288154913400453
          0.00022889083683622552 0.00022889084071652243 0.0002288908411301198 0.00022897814075215672 0.00022897815320399044 0.00022897817717712
          0.00022906656571630748 0.00022906657777233653 0.00022906659779400174 0.00022913716637385637 0.00022913718831847813 0.0002291372399139292
          0.00022916492700915953 0.00022916495878045758 0.0002291650393368156 0.00023000000000000006 0.00023000000000000006 0.00023000000000000006
          0.00023000000000000006 0.00023000000000000006 0.00023000000000000006 0.00023000000000000006 0.00023000000000000006 0.00023000000000000006
          0.00023000000000000006 0.00023000000000000006 0.00023000000000000006 0.00023000000000000006 0.00023000000000000006 0.00023000000000000006
          0.00023000000000000006 0.00023000000000000006 0.00023000000000000006 0.00023000000000000006 0.00023000000000000006 0.00023000000000000006
          0.00023000000000000006 0.00023000000000000006 0.00023000000000000006 0.00023000000000000006 0.00023000000000000006 0.00023000000000000006
          0.00023000000000000006 0.00023000000000000006 0.00023000000000000006
        </DataArray>
        <DataArray type="Float64" Name="disp_y" format="ascii" RangeMin="-0.00004688729370384689" RangeMax="0">
          -0.00002245943521358598 -0.000026471064579148867 -0.000030475905494165633 -0.00002911261158031037 -0.00002245892536430088 -0.000026470941014280213
          -0.000030476767348485545 -0.00002911337612638385 -0.000022457300473602846 -0.000026470351592904058 -0.000030479493885014016 -0.00002911536283096428
          -0.00002932843765186393 -0.000027019547263773005 -0.000024099889832767458 -0.000027230630309214404 -0.000029329914072448222 -0.00002702064602192778
          -0.000024100182013110597 -0.00002723130821587322 -0.000029334230586938348 -0.00002702361324209305 -0.00002410088116600198 -0.00002723304351458261
          -0.0000251033462099092 -0.00002937200320417917 -0.00002510319317078732 -0.00002937257692376676 -0.00002510312494927557 -0.000029374868209934675
          -0.000021191615235355497 -0.000017800490456443547 -0.000021289299389380396 -0.00002119157567591766 -0.000017799960703102815 -0.000021288901226756366
          -0.000021191719378807755 -0.000017798002832057025 -0.000021288136969755623 -0.0000363530092853587 -0.00003834467125491587 -0.000039740762622492265
          -0.00003670631152040438 -0.0000363542527999281 -0.00003834591934965197 -0.00003974109111634997 -0.0000367078247623028 -0.00003635819321702266
          -0.00003834897025401175 -0.00003974351737824941 -0.00003671142906694791 -0.00003826322749685851 -0.000040031680605080293 -0.000039052513054024705
          -0.00003657550822293923 -0.000038265053639453224 -0.00004003384120952373 -0.00003905354082939673 -0.000036576971996648944 -0.00003827097507304251
          -0.00004003919917940539 -0.00003905592058976301 -0.00003658155475170872 -0.000029789324085175097 -0.000028213308663136902 -0.00002482632361924709
          -0.00002979196415548536 -0.000028216685890912787 -0.000024828131767833742 -0.000029799702491762776 -0.000028226655683921024 -0.000024833683983914125
          -0.0000185423594214973 -0.000018541159512842592 -0.000018537686529761834 -0.000023038941858571904 -0.000026601964828760724 -0.00002304207865084835
          -0.000026605840775350448 -0.000023051985524955992 -0.00002661864625520872 -0.000014833134494740975 -0.000014391960472554864 -0.000014831642680610808
          -0.000014391092085796857 -0.000014827394822210298 -0.00001438882177684907 -0.000044573423317571455 -0.000044962505322124985 -0.00004457375530312954
          -0.00004496366001927527 -0.000044574682936231774 -0.000044966403917029865 -0.00004004813875398821 -0.00004057223368817006 -0.00003762312401584577
          -0.00003725772721384674 -0.000040049497813819195 -0.00004057369855714236 -0.0000376249690153063 -0.000037258916171603936 -0.000040053503684651493
          -0.00004057846625598039 -0.00003763017047046429 -0.00003726294853989542 -0.000030798500774783205 -0.000030802820033864734 -0.000030816478703809256
          -0.0000451236201316033 -0.00004512491964329082 -0.000045129323437460463 -0.00001804831335266526 -0.000018048665906274164 -0.000018049783170512718
          -0.00003049047729955933 -0.00003169025433035329 -0.00003049144344762229 -0.00003169194421022712 -0.000030494768609637263 -0.000031696863282992295
          -0.00003358713043081974 -0.00003310669463158492 -0.000035298066202002207 -0.00003621086320637306 -0.000033590145781844294 -0.0000331105377656059
          -0.000035301581017215364 -0.00003621398902283568 -0.00003359801924132034 -0.00003312223742061088 -0.00003531245517900483 -0.00003622414891952461
          -0.00003319273586042581 -0.00003314615715279446 -0.00003319391778616876 -0.000033147200113561 -0.00003319756524050657 -0.00003315043346944632
          -0.00004312517861140615 -0.00004312664739411726 -0.0000431308513131898 -0.00004096445522430527 -0.00004096544391648399 -0.00004096891621530223
          -0.00004048380431866803 -0.00004160386683572655 -0.000040486588916689976 -0.000041605595053517324 -0.000040494932825533 -0.000041611723202650176
          -0.0000355613531942912 -0.00003659027749041465 -0.00003556264288797886 -0.000036591965560210606 -0.00003556757282684136 -0.00003659718837702287
          -0.000034017674801963585 -0.00003269889128927547 -0.00003402145218462703 -0.00003270229233289312 -0.00003403275317192467 -0.000032713090623447626
          -0.00004284205488116876 -0.00004284353381556549 -0.000042847981721232666 -0.00002995794932286563 -0.0000299626350162121 -0.000029975904080454347
          -0.00004245297315182743 -0.00004245372799163003 -0.000042457183795059965 -0.0000309381232344717 -0.00003094142597175793 -0.00003095118219379577
          -0.00004118827584044515 -0.00004118987778311654 -0.000041194191015119316 -0.00004688190521178131 -0.000046329823064453564 -0.00004688362389013983
          -0.000046330751045318194 -0.00004688729370384689 -0.000046334375325206645 -0.000033686567448126826 -0.00003368773443301118 -0.000033692127787904006
          -0.0000343548124256661 -0.00003448430038274119 -0.00003435643538210705 -0.00003448636496948152 -0.000034361279531956886 -0.000034492449665926044
          -0.00003570825978983853 -0.00003734273842296538 -0.000035710972784163324 -0.000037345421717829544 -0.00003571990202308691 -0.0000373531943713411
          -0.000033616987674925134 -0.00003467566567494385 -0.00003361804738259509 -0.000034677326738493615 -0.00003362165781389471 -0.000034682375098012524
          -0.00003930450650275699 -0.000039306223615296784 -0.00003931127223068526 -0.000045666308157413106 -0.00004566787081909707 -0.00004567034681963618
          -0.00003856138810142765 -0.00003856473287305886 -0.00003857486108740389 -0.00004230324392579843 -0.00004371077423507546 -0.00004230592968754827
          -0.000043711326750608215 -0.000042309992978249604 -0.00004371318011789824 -0.000044832138453586595 -0.00004535814230016881 -0.00004483113317470211
          -0.00004535524383687451 -0.00004482844982002671 -0.00004535013545491184 -0.00004266165999691116 -0.00004172738440063403 -0.00004328468220035092
          -0.000042661724130036875 -0.000041726993488491574 -0.000043285408683243114 -0.00004266190790884547 -0.000041729916817934633 -0.000043284721933414695
          -0.00004382838552309749 -0.00004383089604353872 -0.00004383670672961338 -0.000032148288705532176 -0.00003355771281044653 -0.00003215166532910743
          -0.00003356038684049868 -0.000032162282747949004 -0.000033568475270230365 -0.0000325637077674531 -0.00003161210989739164 -0.000032564480714531754
          -0.00003161254693509056 -0.00003256735721590038 -0.00003161322367033909 -0.00004240578750317204 -0.00004240758575480068 -0.00004241253764145432
          -0.000044196158128713745 -0.00004419354026439718 -0.00004419125789205298 -0.00003252860914004102 -0.00003253005678872777 -0.00003253622774230084
          -0.00003769487563916212 -0.00003931620566077478 -0.00003769574369203628 -0.00003931875898822919 -0.000037699362873882966 -0.000039327081106505604
          -0.000040858760135906124 -0.00004086105904120245 -0.00004086904952440442 -0.00003599387499953754 -0.000035995462942195554 -0.00003600108541241807
          -0.00003137854795442145 -0.000031380590941282054 -0.0000313878647520524 -0.00003420667759936153 -0.00003420751184310199 -0.00003421174042457652
          -0.000032384313830789725 -0.000032383855858762426 -0.00003238430155315785 -0.00003052183386285913 -0.0000305212096296735 -0.000030519813772957586
          -0.000010135836226645565 -0.00001013381754404025 -0.000010127653823040659 -0.000013300400950007492 -0.000013298946829442799 -0.000013294688796022293
          -0.000016789425382477843 -0.000016788244975179657 -0.000016784978691175255 -0.000020558235839489666 -0.000020557050586486355 -0.000020553530199897147
          -0.00002452536209698394 -0.000024524506922463015 -0.00002452259464270828 -3.246789038422185e-7 0 -3.2456596509663696e-7
          0 -3.2419834086026346e-7 0 -3.5519049934793864e-7 0 -3.5519669022521787e-7
          0 -3.552264375885175e-7 0 -4.0862008071237825e-7 0 -4.086014944447181e-7
          0 -4.0854114040142515e-7 0 -4.809179628303953e-7 0 -4.809121870628361e-7
          0 -4.808949484766815e-7 0 -5.660707319901418e-7 0 -5.660712184292522e-7
          0 -5.660707974916347e-7 0 -6.586483630898087e-7 0 -6.586541653231032e-7
          0 -6.586713272457073e-7 0 -7.545392369844359e-7 0 -7.545498789350565e-7
          0 -7.545814829284005e-7 0 -8.509171378723491e-7 0 -8.509296111676234e-7
          0 -8.509675690131834e-7 0 -6.536941142887959e-7 -6.537347613072811e-7 -6.538410062392458e-7
          -7.101225101005408e-7 -7.100351141265941e-7 -7.097747899341451e-7 -8.193380362798089e-7 -8.193251310893497e-7 -8.19298929226138e-7
          -9.661364913179358e-7 -9.661254869930221e-7 -9.660918812361795e-7 -0.0000011369540470511893 -0.0000011369570478030853 -0.0000011369710172876368
          -0.0000013209161444568528 -0.0000013209294241899905 -0.0000013209728544400867 -0.000001510004399627934 -0.0000015100265096003315 -0.00000151009824734927
          -0.000001698817394184825 -0.0000016988436651589553 -0.0000016989263613894085 -9.701155945364379e-7 -9.703077055606322e-7 -9.709543858134378e-7
          -0.0000010635586902692501 -0.0000010634942167053085 -0.0000010632785871439812 -0.0000012330486846071218 -0.0000012330040289588666 -0.000001232882975742381
          -0.0000014572361564591965 -0.0000014572224610958027 -0.000001457188313182126 -0.000001713893070720195 -0.0000017139014310793295 -0.0000017139299781964216
          -0.0000019862108344796996 -0.0000019862348551587273 -0.0000019863125315550194 -0.000002263804137837253 -0.0000022638412767796676 -0.0000022639597624160225
          -0.000002538455481505902 -0.0000025384978944564276 -0.0000025386311599790894 -0.0000012514308858377496 -0.0000012511301758282177 -0.0000012502881613748784
          -0.000001420988765625952 -0.0000014211146771251716 -0.0000014215435000000054 -0.0000016507094532556926 -0.0000016506096755358686 -0.0000016503013032411112
          -0.0000019555837914246313 -0.0000019555897556809613 -0.0000019556202600966373 -0.0000022940267266520207 -0.0000022940467217552395 -0.000002294110604438205
          -0.0000026495879585308336 -0.000002649629514713409 -0.0000026497616594773526 -0.000003008914784779691 -0.0000030089731126245964 -0.0000030091616355169893
          -0.000003360411481309414 -0.0000033604780518477842 -0.0000033606891739978555 -0.0000015605050949752458 -0.000001559203418928136 -0.0000015553015955539902
          -0.0000017464458455765314 -0.0000017463334766449453 -0.000001746067886814461 -0.0000020751301889394363 -0.0000020751666112628345 -0.0000020752841364962075
          -0.0000024540803863177315 -0.0000024540860822061323 -0.0000024541122445159408 -0.0000028683753652212313 -0.000002868417831696688 -0.00000286855624488683
          -0.0000032995372742279165 -0.0000032995984695170225 -0.0000032997907440886492 -0.0000037319781997143256 -0.0000037320608732974895 -0.000003732319096574595
          -0.000004149658369687472 -0.000004149745848118973 -0.000004150011663360773 -0.0000030103452644521484 -0.0000030075558387823034 -0.0000029991477353595874
          -0.000002057783269387409 -0.0000020555023370606014 -0.000002048523225743098 -0.0000020799802804146443 -0.0000020792362751172797 -0.0000020770280613881497
          -0.000002490515628629436 -0.000002490656237254841 -0.0000024911397186855364 -0.000002941068375536238 -0.0000029410705566242544 -0.000002941062663050217
          -0.0000034205189253581552 -0.00000342058310611613 -0.000003420790902020538 -0.000003915241975383741 -0.000003915334651362834 -0.000003915623785493697
          -0.000004411583124072588 -0.000004411722634898258 -0.000004412164521544396 -0.000004884040950697767 -0.000004884201154821743 -0.000004884701813190138
          -0.000004502900104351541 -0.000004500268026360113 -0.000004492423980342242 -0.000002895761595043282 -0.0000028932904229359897 -0.000002885932970965414
          -0.000002505611183769554 -0.000002504347438325802 -0.0000025005539094610585 -0.0000028852770891306374 -0.000002885172473447311 -0.0000028849237190118316
          -0.0000034021680103378713 -0.0000034023041004353327 -0.0000034027375646894085 -0.000003921817675550091 -0.000003921896353025037 -0.000003922143137307953
          -0.000004464592956970029 -0.000004464703408937606 -0.000004465047082845693 -0.000005016431050800499 -0.0000050165743847269014 -0.000005017008673838726
          -0.000005531322496120441 -0.000005531449056517631 -0.0000055318156771725645 -0.000006618607996112804 -0.0000066150253983585535 -0.000006604122873618991
          -0.000004242529792916601 -0.000004239327180868675 -0.000004229800539302237 -0.0000031966560548074336 -0.0000031944951381676905 -0.000003187979768432918
          -0.000003285010808537003 -0.0000032843905259935473 -0.000003282608847209768 -0.000003813970926496185 -0.0000038141063620090718 -0.0000038145621343807777
          -0.0000043334347443973225 -0.000004333484956328819 -0.000004333632422925472 -0.000004896159502120241 -0.000004896333269996416 -0.000004896873413581579
          -0.000005485059552410644 -0.000005485408812211919 -0.0000054864797945367776 -0.0000060351338840038546 -0.000006035611557369381 -0.000006037037072274169
          -0.00000941844485142722 -0.00000941313063987893 -0.000009397231209498089 -0.0000061888010203744324 -0.000006184172346537606 -0.00000617028305458702
          -0.000004275149922077356 -0.000004272261701591706 -0.000004263405900962734 -0.0000037606941215679216 -0.0000037598850431510614 -0.0000037573374460996277
          -0.000004148795933379306 -0.0000041488160296129685 -0.000004148902475243773 -0.000004607140302898812 -0.000004607126127700043 -0.000004607116905330232
          -0.000005111304573025928 -0.000005111550410622659 -0.000005112303023807946 -0.0000056707795970057865 -0.00000567142180137309 -0.000005673353299667835
          -0.000006300758731411888 -0.0000063016995922826044 -0.000006304574486784742 0 -8.830584860108711e-7 0
          -8.830731486301399e-7 0 -8.831177035724998e-7 -0.0000017612271971265442 -0.000001761257098158263 -0.0000017613516035279415
          -0.000002627723807785195 -0.000002627771809084383 -0.000002627922084623457 -0.0000034724736659990303 -0.000003472546974112674 -0.0000034727782254998474
          -0.0000042810919054474716 -0.000004281189508457865 -0.000004281488375642733 -0.000005033537467713486 -0.000005033704773369307 -0.00000503422154746284
          -0.000005703123176988976 -0.0000057032960754391454 -0.000005703811725411168 -0.00000624822669993503 -0.0000062486652682661596 -0.000006249996168196915
          -0.000006588521139546085 -0.000006589308957705528 -0.000006591690599443815 0 -9.096607294134388e-7 0
          -9.096759456285215e-7 0 -9.09722607371238e-7 -0.0000018124386961673938 -0.0000018124696750722898 -0.000001812566515600541
          -0.000002699880269183989 -0.0000026999296017916682 -0.0000027000833793479905 -0.0000035607970704153215 -0.0000035608689704167618 -0.0000035610908752143084
          -0.000004380368405680116 -0.000004380468304781089 -0.000004380773971393382 -0.000005139077816692284 -0.00000513921928464807 -0.000005139647781761714
          -0.000005811465100181283 -0.000005811643225282354 -0.00000581218284472652 -0.000006352071776988179 -0.000006352353125172307 -0.000006353189020024921
          -0.000006724109748661896 -0.000006724467943827554 -0.000006725548778571342 0 -9.309904513229206e-7 0
          -9.310061348504167e-7 0 -9.310541010837053e-7 -0.000001853076496429594 -0.0000018531084153599833 -0.0000018532072458246486
          -0.0000027559852458311063 -0.000002756035199903351 -0.0000027561893438336434 -0.000003627038971594962 -0.000003627109828643723 -0.0000036273274411104166
          -0.00000445031498881623 -0.000004450410906376462 -0.000004450701759853992 -0.000005205748744793161 -0.000005205874742207626 -0.000005206254947703459
          -0.0000058663206779354086 -0.000005866476109478913 -0.000005866945225303575 -0.000006396012412560775 -0.000006396200761112166 -0.0000063967664166624836
          -0.000006791460895186096 -0.000006791660000120858 -0.0000067922706985818925 0 -9.475237533322912e-7 0
          -9.475396599662966e-7 0 -9.475879063118329e-7 -0.000001884174111804292 -0.0000018842061836457449 -0.000001884305217533977
          -0.0000027978189491511786 -0.0000027978678127468294 -0.0000027980193307101107 -0.000003674130486758155 -0.000003674198460495628 -0.0000036744070980430217
          -0.000004495869841147585 -0.000004495958602567561 -0.000004496228116900804 -0.000005242065362538839 -0.000005242175093915179 -0.000005242506975335269
          -0.000005887475276288412 -0.000005887602366979051 -0.000005887987998515531 -0.000006409514016240856 -0.000006409638823883764 -0.00000641001533192841
          -0.000006824130427860626 -0.000006824243031244284 -0.000006824584254301531 0 -9.598496665749897e-7 0
          -9.598653694677925e-7 0 -9.59913448064448e-7 -0.000001906999373036686 -0.0000019070307880280472 -0.0000019071282952466926
          -0.000002827575014856144 -0.0000028276222589498614 -0.000002827769003189613 -0.0000037056751031009396 -0.0000037057396504752333 -0.000003705937308015769
          -0.0000045228404978578106 -0.000004522921553214315 -0.0000045231686983854024 -0.000005258048443519302 -0.000005258143539884161 -0.00000525843219121373
          -0.000005890080137306212 -0.000005890182448493557 -0.000005890493859125621 -0.000006408094092268725 -0.000006408180625582679 -0.000006408439915855886
          -0.0000068382619903575705 -0.0000068383257113300845 -0.000006838521778100868 0 -9.685872611099576e-7 0
          -9.686027249006716e-7 0 -9.686501123669425e-7 -0.000001922906593252623 -0.0000019229373190699927 -0.000001923032620558463
          -0.000002847594857497208 -0.0000028476413093007635 -0.0000028477833355175133 -0.000003725421743046504 -0.0000037254833963342723 -0.000003725670967114463
          -0.000004537072514826474 -0.000004537147394671988 -0.00000453737460784047 -0.000005262277597061261 -0.000005262361510676019 -0.0000052626155571854644
          -0.000005884203209267739 -0.000005884288059886335 -0.000005884544945884694 -0.000006400662225483232 -0.000006400724435032151 -0.000006400911057142588
          -0.000006842807176382646 -0.000006842845836285333 -0.000006842964134004409 0 -9.743256510305083e-7 0
          -9.743408097121324e-7 0 -9.74387539133818e-7 -0.000001933177368225702 -0.000001933207729576856 -0.0000019333003208788794
          -0.0000028600688535841875 -0.000002860114010267521 -0.0000028602509736632546 -0.0000037367826528666465 -0.0000037368418884402147 -0.0000037370196133476836
          -0.000004543550774336832 -0.000004543621052222341 -0.000004543832565477816 -0.0000052611063522144184 -0.000005261181950529916 -0.000005261408858454172
          -0.000005876239975096428 -0.0000058763120470939336 -0.00000587653103280838 -0.000006392417430650579 -0.000006392463277654949 -0.0000063926031819708565
          -0.0000068430388360009125 -0.000006843057384413057 -0.0000068431249086698395 0 -9.775533988716002e-7 0
          -9.775687869091019e-7 0 -9.77615059116454e-7 -0.000001938876137320345 -0.0000019389059103722293 -0.0000019389971619297603
          -0.0000028667839707708266 -0.0000028668271545858968 -0.000002866958764545033 -0.0000037424937001881796 -0.000003742551383295838 -0.0000037427236557696274
          -0.000004546023501979207 -0.000004546090156942519 -0.000004546291193536635 -0.000005258823695253592 -0.00000525889453882872 -0.000005259108488120017
          -0.000005870089537061133 -0.0000058701536623770135 -0.0000058703491215064505 -0.000006386401787327485 -0.000006386438714508869 -0.00000638655520900181
          -0.000006842016420276355 -0.000006842024583270189 -0.000006842067563777504 0 -9.785952443299767e-7 0
          -9.786102540241764e-7 0 -9.786559826599679e-7 -0.0000019407002257968325 -0.000001940729461849038 -0.000001940819662707092
          -0.0000028688960501063666 -0.0000028689431771067494 -0.0000028690763022851265 -0.000003744218877396836 -0.0000037442788680483528 -0.000003744448936482639
          -0.000004546613767603453 -0.000004546682297464599 -0.000004546877811681422 -0.000005257833476119752 -0.000005257904445501665 -0.000005258113100261652
          -0.000005867781305929254 -0.000005867843757795193 -0.0000058680397903263475 -0.0000063841995794764154 -0.000006384231785052221 -0.000006384334519677502
          -0.000006841542571634381 -0.000006841545946120787 -0.00000684158558238012
        </DataArray>
        <DataArray type="Float64" Name="disp_z" format="ascii" RangeMin="-0.0000011369390208281043" RangeMax="0">
          0 0 0 0 -4.114400728509094e-7 -4.165152184862542e-7
          -4.2229127644992297e-7 -4.346747644394744e-7 -8.228459698751091e-7 -8.330505442570763e-7 -8.446622852360282e-7 -8.690107588955082e-7
          0 0 0 0 -4.475630111450784e-7 -4.6271449747784834e-7
          -4.5218684813706124e-7 -4.4853599075816863e-7 -8.947742668631127e-7 -9.25589342053462e-7 -9.038920977015031e-7 -8.966143750178827e-7
          0 0 -4.408823848518238e-7 -4.397198731744941e-7 -8.814144746385027e-7 -8.787935881004614e-7
          0 0 0 -4.541484642052644e-7 -4.2703856497284325e-7 -4.3125235035077863e-7
          -9.078795996306779e-7 -8.539642350643906e-7 -8.623168351569137e-7 0 0 0
          0 -4.011878983807295e-7 -3.895717736618039e-7 -3.874371598302763e-7 -3.9747741349260707e-7 -8.025830545107971e-7
          -7.789430506296268e-7 -7.76134496587548e-7 -7.953123532031507e-7 0 0 0
          0 -3.853630519085001e-7 -3.833684630337229e-7 -3.874286255451342e-7 -3.9980307945926647e-7 -7.708407782602474e-7
          -7.657266521288502e-7 -7.749764860633265e-7 -7.996305797135399e-7 0 0 0
          -4.6666332755494785e-7 -4.984784010668432e-7 -4.753841176038095e-7 -9.339213649847312e-7 -9.971433496799087e-7 -9.516884894375077e-7
          0 -3.917855808524871e-7 -7.834665045591946e-7 0 0 -5.238707859179678e-7
          -5.530122570381324e-7 -0.0000010483347705499737 -0.0000011055864213453978 0 0 -3.670980965856483e-7
          -4.083899841595069e-7 -7.343369310142633e-7 -8.166857042109801e-7 0 0 -4.073077884285116e-7
          -4.194217050679102e-7 -8.153892552040125e-7 -8.390539857296019e-7 0 0 0
          0 -3.9617360526005657e-7 -4.163667321270819e-7 -4.209975628625256e-7 -3.9955717613451136e-7 -7.927027331349066e-7
          -8.330297102583957e-7 -8.423700048336096e-7 -7.997361660177509e-7 0 -5.683424648369894e-7 -0.0000011369390208281043
          0 -4.3856177483089624e-7 -8.789446383613627e-7 0 -4.6377624970802816e-7 -9.27889339689804e-7
          0 0 -4.38215515068862e-7 -4.3507619316701823e-7 -8.760408272384533e-7 -8.701416065041454e-7
          0 0 0 0 -5.437551196608059e-7 -5.157635602408374e-7
          -4.837879752209963e-7 -5.185334750718727e-7 -0.0000010884223796665292 -0.000001031486818950889 -9.674736255671868e-7 -0.0000010367241744574916
          0 0 -4.228153781083734e-7 -4.248689653487529e-7 -8.454459863458015e-7 -8.491641164507046e-7
          0 -4.31162234771052e-7 -8.63188538903284e-7 0 -3.8196513465743325e-7 -7.642939353269531e-7
          0 0 -4.5686788165112956e-7 -4.431955513158866e-7 -9.151312615305636e-7 -8.887582629066393e-7
          0 0 -4.073046699099995e-7 -3.9721661799533896e-7 -8.145788073504294e-7 -7.94613011779203e-7
          0 0 -4.810995458383503e-7 -5.114361733420943e-7 -9.634487945439099e-7 -0.00000102298109463084
          0 -4.1349328250014355e-7 -8.269677285887254e-7 0 -5.492097019481327e-7 -0.0000010983589697074018
          0 -3.960076026764003e-7 -7.925030324233895e-7 0 -5.081624109097415e-7 -0.0000010168837472790624
          0 -4.3037821257072703e-7 -8.61020686446938e-7 0 0 -3.853779438284101e-7
          -3.9144551735727486e-7 -7.67138515447401e-7 -7.831961005241058e-7 0 -4.200336999829655e-7 -8.402220110051296e-7
          0 0 -4.126540867112117e-7 -4.1907854316918824e-7 -8.260511818745381e-7 -8.388456658884858e-7
          0 0 -4.502055527904624e-7 -4.5326086232978606e-7 -9.007252611714027e-7 -9.07888063525605e-7
          0 0 -4.201291190122602e-7 -4.0981522082012236e-7 -8.39328177809743e-7 -8.193550291615002e-7
          0 -4.3669836729500145e-7 -8.738523460301628e-7 0 -3.9939780151431963e-7 -8.000008579732307e-7
          0 -4.846692224089294e-7 -9.706769674784553e-7 0 0 -3.8123396519054484e-7
          -3.8832839620230364e-7 -7.610426426457059e-7 -7.751650443276866e-7 0 0 -3.918891896911005e-7
          -3.946120066756061e-7 -7.831267941271829e-7 -7.895814436688865e-7 0 0 0
          -3.772841424812308e-7 -3.7015618381650154e-7 -3.790195652029937e-7 -7.558565891727187e-7 -7.448350013106347e-7 -7.582120539995541e-7
          0 -3.682350805688654e-7 -7.378841702862226e-7 0 0 -4.687302524295713e-7
          -4.440316221669184e-7 -9.373125668399185e-7 -8.887484420765227e-7 0 0 -4.1388382652740375e-7
          -4.173208102800752e-7 -8.275611391413135e-7 -8.350517105437286e-7 0 -3.6347884221201855e-7 -7.269985616948582e-7
          0 -3.847920153053212e-7 -7.671527219871034e-7 0 -4.2841439168815863e-7 -8.578538573700086e-7
          0 0 -3.9089417983331275e-7 -3.686794535449121e-7 -7.824473160774691e-7 -7.369138407153332e-7
          0 -3.678603717115224e-7 -7.356786361891327e-7 0 -3.966224859720833e-7 -7.927009433109048e-7
          0 -4.4383927284156465e-7 -8.883558195932297e-7 0 -4.036471017990441e-7 -8.074655454464615e-7
          0 -4.1810702355490873e-7 -8.356057553529036e-7 0 -4.239419244965778e-7 -8.477354137124965e-7
          0 -3.271879853985415e-7 -6.541469699269438e-7 0 -3.654814753642778e-7 -7.308358455066825e-7
          0 -3.831463954094881e-7 -7.661564527682223e-7 0 -4.0966744443325146e-7 -8.192279889570835e-7
          0 -4.24884264570491e-7 -8.497152045790546e-7 0 0 -6.343656534337731e-8
          -6.176678204064774e-8 -1.268360078270776e-7 -1.2350693531443885e-7 0 0 -6.064513429240646e-8
          -6.057801444351955e-8 -1.2129421090775147e-7 -1.211654134593346e-7 0 0 -5.9083814923535e-8
          -5.8960305179533346e-8 -1.1817421641065441e-7 -1.1791479364288993e-7 0 0 -5.702089453151373e-8
          -5.6963255689145977e-8 -1.140374287727451e-7 -1.1392796324609608e-7 0 0 -5.486624315604812e-8
          -5.488034123720969e-8 -1.0973443598827304e-7 -1.0976029921931001e-7 0 0 -5.273098624308867e-8
          -5.280593216151184e-8 -1.0546151865885376e-7 -1.0561213159935394e-7 0 0 -5.0713512241062245e-8
          -5.084576072647769e-8 -1.0142703951393317e-7 -1.0169148857833386e-7 0 0 -4.8926222540926585e-8
          -4.908211147606309e-8 -9.785234795975151e-8 -9.816432845414447e-8 0 -6.501709877712362e-8 -1.3000713789688243e-7
          0 -6.077250619605751e-8 -1.2150864490804792e-7 0 -5.951918084793432e-8 -1.1906526170071288e-7
          0 -5.711279574938697e-8 -1.1421291478806836e-7 0 -5.4767273186318933e-8 -1.0953906738369246e-7
          0 -5.246204118054286e-8 -1.0492290229224972e-7 0 -5.028331741130842e-8 -1.0056701238537821e-7
          0 -4.842624609284949e-8 -9.685287818782626e-8 0 -6.188609229472398e-8 -1.2383006219378997e-7
          0 -6.340587031250296e-8 -1.2677727997761788e-7 0 -5.967547738601427e-8 -1.193525169907352e-7
          0 -5.735569648800548e-8 -1.1471752952702249e-7 0 -5.458064578969572e-8 -1.0915682855492462e-7
          0 -5.19766807533923e-8 -1.0395628132389528e-7 0 -4.951229978596321e-8 -9.902236368149734e-8
          0 -4.751930034148445e-8 -9.503883335117484e-8 0 -6.04590983715082e-8 -1.2109397615341456e-7
          0 -6.242926891898862e-8 -1.2487149040330763e-7 0 -6.132527656048378e-8 -1.2261774761487017e-7
          0 -5.732378014096762e-8 -1.1465419251938242e-7 0 -5.419958850949288e-8 -1.0839833702028093e-7
          0 -5.1142736703441644e-8 -1.0228691980492632e-7 0 -4.8275697936090866e-8 -9.655178705200707e-8
          0 -4.609981019000604e-8 -9.220385336340526e-8 0 -7.533566828577962e-8 -1.510087892871241e-7
          0 -6.03449532887179e-8 -1.2083080369441146e-7 0 -6.256907095946511e-8 -1.2511998721428992e-7
          0 -5.6911730600628396e-8 -1.1380764221853435e-7 0 -5.3432622462605e-8 -1.0687960779117423e-7
          0 -4.984615706227373e-8 -9.968706731898257e-8 0 -4.641777155482287e-8 -9.283038284071022e-8
          0 -4.39947568719846e-8 -8.798478276030652e-8 0 -1.8375195089852542e-7 -3.674743473883489e-7
          0 -1.1115254814731629e-7 -2.2254097605993965e-7 0 -6.80348050980974e-8 -1.3632741196298631e-7
          0 -5.975806041607732e-8 -1.1953546540067187e-7 0 -5.6853430099878556e-8 -1.1368705755886016e-7
          0 -5.2048876500057956e-8 -1.0409304934556162e-7 0 -4.7977127963024426e-8 -9.59662201057546e-8
          0 -4.373431828677174e-8 -8.747114831766515e-8 0 -4.1060155812694633e-8 -8.21417076188432e-8
          0 -2.3563374340102343e-7 -4.711410532716323e-7 0 -1.6069376535486886e-7 -3.2158310658766626e-7
          0 -8.787571644952898e-8 -1.761370761115497e-7 0 -5.7853078089865015e-8 -1.1589914430616411e-7
          0 -5.5852859762221565e-8 -1.11719707838799e-7 0 -5.0290558286749625e-8 -1.0055291661086637e-7
          0 -4.53596803812998e-8 -9.07382358642509e-8 0 -3.966133820983069e-8 -7.928941695813985e-8
          0 -3.64032296041478e-8 -7.279698331635813e-8 0 -2.907839310774383e-7 -5.814196506074462e-7
          0 -2.088085871515142e-7 -4.176632654671898e-7 0 -1.1940307591979888e-7 -2.392048641833754e-7
          0 -6.385851959547849e-8 -1.2794058745312804e-7 0 -5.1505473621043345e-8 -1.0306839729674398e-7
          0 -4.8586154324972765e-8 -9.714598515915326e-8 0 -4.2157213578358533e-8 -8.43401823455543e-8
          0 -3.4870158604442914e-8 -6.972846220399364e-8 0 -3.1487568892850824e-8 -6.300044976234745e-8
          0 -3.8195522106124407e-7 -7.642045680203491e-7 0 -2.888027233833633e-7 -5.77662874205731e-7
          0 -1.721838332240262e-7 -3.44836400964954e-7 0 -7.890044964963251e-8 -1.582266094248823e-7
          0 -4.987774234236894e-8 -9.986388678420703e-8 0 -4.8178613562293964e-8 -9.635243140972266e-8
          0 -3.671080920714708e-8 -7.342854191177187e-8 0 -2.1411161140481907e-8 -4.280319968387497e-8
          0 -1.0700917454795863e-8 -2.1406634965373476e-8 0 0 -4.797149438925417e-8
          -4.7784394840745084e-8 -9.594307493989913e-8 -9.556861548515397e-8 0 -4.719618668473851e-8 -9.439176254854844e-8
          0 -4.615102101238449e-8 -9.229961946306336e-8 0 -4.4545482784132394e-8 -8.908946047994e-8
          0 -4.2205531523534707e-8 -8.440197996581405e-8 0 -3.896667963817922e-8 -7.79311204748959e-8
          0 -3.387553665431457e-8 -6.772575128719178e-8 0 -2.7744896960230594e-8 -5.545451506469229e-8
          0 -1.0093119860492987e-8 -2.0126681590034125e-8 0 0 -4.697333964385838e-8
          -4.677580058415661e-8 -9.394662629147944e-8 -9.35516397250697e-8 0 -4.616582549717568e-8 -9.233227758824926e-8
          0 -4.509961188643223e-8 -9.02006973361067e-8 0 -4.3492824946755196e-8 -8.698875049473636e-8
          0 -4.1234446103751954e-8 -8.247307674565536e-8 0 -3.810728388036258e-8 -7.622566418332629e-8
          0 -3.3875240609304516e-8 -6.77621404692372e-8 0 -2.8263074825622912e-8 -5.6562430720080396e-8
          0 -1.966296986814105e-8 -3.936384734408412e-8 0 0 -4.6105822565425534e-8
          -4.590198057745751e-8 -9.221175386698774e-8 -9.180400029345739e-8 0 -4.527812879377699e-8 -9.055606102016847e-8
          0 -4.4200724004325133e-8 -8.840082847856801e-8 0 -4.2613072834050575e-8 -8.522484187923783e-8
          0 -4.0431733965330567e-8 -8.086076842600535e-8 0 -3.7560696901807084e-8 -7.511757891741578e-8
          0 -3.3886447489778667e-8 -6.776352166841094e-8 0 -2.9461975485153097e-8 -5.8909086932103136e-8
          0 -2.4307434912917926e-8 -4.855661402150046e-8 0 0 -4.5371355310935254e-8
          -4.5166148637159574e-8 -9.074274597875928e-8 -9.03322853314203e-8 0 -4.454019651681696e-8 -8.908048027294534e-8
          0 -4.347329121873316e-8 -8.694688231064364e-8 0 -4.1931034811037605e-8 -8.386256536438767e-8
          0 -3.987700964188512e-8 -7.975509071836103e-8 0 -3.728992685449597e-8 -7.458100046464721e-8
          0 -3.4187452776267406e-8 -6.837899950235122e-8 0 -3.08107024213419e-8 -6.162545881058601e-8
          0 -2.7752950358003294e-8 -5.551945434626811e-8 0 0 -4.4771623494640786e-8
          -4.45666196360289e-8 -8.954321231485954e-8 -8.913315771568206e-8 0 -4.3946452523005596e-8 -8.789278754978105e-8
          0 -4.290046006452199e-8 -8.580079366718168e-8 0 -4.1418425595026677e-8 -8.283681036377938e-8
          0 -3.950118142245835e-8 -7.900235715172028e-8 0 -3.718540195858571e-8 -7.437058153662508e-8
          0 -3.45766096214072e-8 -6.915293282234248e-8 0 -3.2011639133205695e-8 -6.402056690614247e-8
          0 -3.012734120984249e-8 -6.024414168102155e-8 0 0 -4.430670550069212e-8
          -4.4102922393284296e-8 -8.861351606219013e-8 -8.82058090132649e-8 0 -4.349141500630958e-8 -8.698270101720311e-8
          0 -4.2470460060367724e-8 -8.494097776336591e-8 0 -4.104877012631303e-8 -8.209737667659618e-8
          0 -3.925634302339334e-8 -7.851247596842432e-8 0 -3.717026376086642e-8 -7.433968200842471e-8
          0 -3.495041972525406e-8 -6.990212843614785e-8 0 -3.295545836067476e-8 -6.591005366725967e-8
          0 -3.1754960800643655e-8 -6.351020787569343e-8 0 0 -4.397622308359765e-8
          -4.377382545858477e-8 -8.79524700979834e-8 -8.754758733006679e-8 0 -4.317089901086327e-8 -8.634184112797098e-8
          0 -4.2173321770207724e-8 -8.434676700398739e-8 0 -4.08016859958684e-8 -8.160360936035355e-8
          0 -3.910610314116851e-8 -7.821279927873361e-8 0 -3.719500107246477e-8 -7.439090839848078e-8
          0 -3.524914475500856e-8 -7.049778357221219e-8 0 -3.362886300081934e-8 -6.725618615348167e-8
          0 -3.2829287673863485e-8 -6.565637780380341e-8 0 0 -4.377719398780977e-8
          -4.3577320184525906e-8 -8.755435541967423e-8 -8.715466643412587e-8 0 -4.298210918627477e-8 -8.596420574273298e-8
          0 -4.2001875932287724e-8 -8.400370481081451e-8 0 -4.0661951406375205e-8 -8.132321908438742e-8
          0 -3.903017672878945e-8 -7.805929171116107e-8 0 -3.721859253838091e-8 -7.443391205298629e-8
          0 -3.544921360664174e-8 -7.089934761349828e-8 0 -3.403365696950796e-8 -6.806612447607064e-8
          0 -3.344176829441987e-8 -6.688280429988673e-8 0 0 -4.371173814277373e-8
          -4.3511576461743875e-8 -8.742358574363584e-8 -8.702339383177229e-8 0 -4.2922829537001e-8 -8.584546443196194e-8
          0 -4.195377895711742e-8 -8.390719388616195e-8 0 -4.065267920840323e-8 -8.13048561212871e-8
          0 -3.9092587902475544e-8 -7.818235505661899e-8 0 -3.7408976581396275e-8 -7.481435518500723e-8
          0 -3.5500057958673764e-8 -7.099877725045816e-8 0 -3.419248159121287e-8 -6.838368649127822e-8
          0 -3.365375692401663e-8 -6.730456807964569e-8
        </DataArray>
      </PointData>
      <CellData>
        <DataArray type="Int32" Name="libmesh_elem_id" format="ascii" RangeMin="1398" RangeMax="3643">
          1398 1399 1422 1423 1460 1461
          1470 1471 1482 1483 1494 1495
          1502 1503 1506 1507 1520 1521
          1528 1529 1580 1581 1584 1585
          1612 1613 1636 1637 1652 1653
          1722 1723 1798 1799 1850 1851
          2298 2299 2406 2407 2442 2443
          2450 2451 2472 2473 2558 2559
          2610 2611 2646 2647 2648 2649
          2662 2663 2672 2673 2680 2681
          2748 2749 2756 2757 2776 2777
          2808 2809 2814 2815 2822 2823
          2828 2829 2836 2837 2852 2853
          2876 2877 2898 2899 2910 2911
          2926 2927 2936 2937 2950 2951
          2952 2953 2954 2955 2966 2967
          2980 2981 2982 2983 2990 2991
          3006 3007 3014 3015 3026 3027
          3068 3069 3074 3075 3104 3105
          3110 3111 3124 3125 3126 3127
          3168 3169 3194 3195 3204 3205
          3208 3209 3210 3211 3212 3213
          3220 3221 3222 3223 3224 3225
          3226 3227 3234 3235 3236 3237
          3240 3241 3252 3253 3254 3255
          3264 3265 3296 3297 3302 3303
          3308 3309 3314 3315 3324 3325
          3326 3327 3328 3329 3330 3331
          3332 3333 3334 3335 3336 3337
          3342 3343 3344 3345 3346 3347
          3348 3349 3350 3351 3352 3353
          3354 3355 3360 3361 3362 3363
          3364 3365 3366 3367 3368 3369
          3370 3371 3372 3373 3378 3379
          3380 3381 3382 3383 3384 3385
          3386 3387 3388 3389 3390 3391
          3396 3397 3398 3399 3400 3401
          3402 3403 3404 3405 3406 3407
          3408 3409 3414 3415 3416 3417
          3418 3419 3420 3421 3422 3423
          3424 3425 3426 3427 3430 3431
          3432 3433 3434 3435 3436 3437
          3438 3439 3440 3441 3442 3443
          3444 3445 3448 3449 3450 3451
          3452 3453 3454 3455 3456 3457
          3458 3459 3460 3461 3462 3463
          3466 3467 3468 3469 3470 3471
          3472 3473 3474 3475 3476 3477
          3478 3479 3480 3481 3482 3483
          3484 3485 3486 3487 3488 3489
          3490 3491 3492 3493 3494 3495
          3496 3497 3498 3499 3500 3501
          3502 3503 3504 3505 3506 3507
          3508 3509 3510 3511 3512 3513
          3514 3515 3516 3517 3518 3519
          3520 3521 3522 3523 3524 3525
          3526 3527 3528 3529 3530 3531
          3532 3533 3534 3535 3536 3537
          3538 3539 3540 3541 3542 3543
          3544 3545 3546 3547 3548 3549
          3550 3551 3552 3553 3554 3555
          3556 3557 3558 3559 3560 3561
          3562 3563 3564 3565 3566 3567
          3568 3569 3570 3571 3572 3573
          3574 3575 3576 3577 3578 3579
          3580 3581 3582 3583 3584 3585
          3586 3587 3588 3589 3590 3591
          3592 3593 3594 3595 3596 3597
          3598 3599 3600 3601 3602 3603
          3604 3605 3606 3607 3608 3609
          3610 3611 3612 3613 3614 3615
          3616 3617 3618 3619 3620 3621
          3622 3623 3624 3625 3626 3627
          3628 3629 3630 3631 3632 3633
          3634 3635 3636 3637 3638 3639
          3640 3641 3642 3643
        </DataArray>
        <DataArray type="Int32" Name="subdomain_id" format="ascii" RangeMin="107" RangeMax="110">
          107 107 107 107 107 107
          107 107 107 107 107 107
          107 107 107 107 107 107
          107 107 107 107 107 107
          107 107 107 107 107 107
          107 107 107 107 107 107
          107 107 107 107 107 107
          107 107 107 107 107 107
          107 107 107 107 107 107
          107 107 107 107 107 107
          107 107 107 107 107 107
          107 107 107 107 107 107
          107 107 107 107 107 107
          107 107 107 107 107 107
          107 107 107 107 107 107
          107 107 107 107 107 107
          107 107 107 107 107 107
          107 107 107 107 107 107
          107 107 107 107 107 107
          107 107 107 107 107 107
          107 107 107 107 107 107
          107 107 107 107 107 107
          107 107 107 107 107 107
          107 107 107 107 107 107
          107 107 107 107 107 107
          107 107 108 108 108 108
          108 108 108 108 109 109
          109 109 109 109 109 109
          109 109 109 109 109 109
          109 109 109 109 109 109
          109 109 109 109 109 109
          109 109 109 109 109 109
          109 109 109 109 109 109
          109 109 109 109 109 109
          109 109 109 109 109 109
          109 109 109 109 109 109
          109 109 109 109 109 109
          109 109 109 109 109 109
          109 109 109 109 109 109
          109 109 109 109 109 109
          109 109 109 109 109 109
          109 109 109 109 109 109
          109 109 109 109 109 109
          109 109 109 109 109 109
          109 109 109 109 109 109
          109 109 109 109 109 109
          109 109 109 109 109 109
          109 109 109 109 109 109
          109 109 109 109 110 110
          110 110 110 110 110 110
          110 110 110 110 110 110
          110 110 110 110 110 110
          110 110 110 110 110 110
          110 110 110 110 110 110
          110 110 110 110 110 110
          110 110 110 110 110 110
          110 110 110 110 110 110
          110 110 110 110 110 110
          110 110 110 110 110 110
          110 110 110 110 110 110
          110 110 110 110 110 110
          110 110 110 110 110 110
          110 110 110 110 110 110
          110 110 110 110 110 110
          110 110 110 110 110 110
          110 110 110 110 110 110
          110 110 110 110 110 110
          110 110 110 110 110 110
          110 110 110 110 110 110
          110 110 110 110 110 110
          110 110 110 110 110 110
          110 110 110 110 110 110
          110 110 110 110 110 110
          110 110 110 110 110 110
          110 110 110 110 110 110
          110 110 110 110
        </DataArray>
        <DataArray type="Int32" Name="processor_id" format="ascii" RangeMin="0" RangeMax="0">
          0 0 0 0 0 0
          0 0 0 0 0 0
          0 0 0 0 0 0
          0 0 0 0 0 0
          0 0 0 0 0 0
          0 0 0 0 0 0
          0 0 0 0 0 0
          0 0 0 0 0 0
          0 0 0 0 0 0
          0 0 0 0 0 0
          0 0 0 0 0 0
          0 0 0 0 0 0
          0 0 0 0 0 0
          0 0 0 0 0 0
          0 0 0 0 0 0
          0 0 0 0 0 0
          0 0 0 0 0 0
          0 0 0 0 0 0
          0 0 0 0 0 0
          0 0 0 0 0 0
          0 0 0 0 0 0
          0 0 0 0 0 0
          0 0 0 0 0 0
          0 0 0 0 0 0
          0 0 0 0 0 0
          0 0 0 0 0 0
          0 0 0 0 0 0
          0 0 0 0 0 0
          0 0 0 0 0 0
          0 0 0 0 0 0
          0 0 0 0 0 0
          0 0 0 0 0 0
          0 0 0 0 0 0
          0 0 0 0 0 0
          0 0 0 0 0 0
          0 0 0 0 0 0
          0 0 0 0 0 0
          0 0 0 0 0 0
          0 0 0 0 0 0
          0 0 0 0 0 0
          0 0 0 0 0 0
          0 0 0 0 0 0
          0 0 0 0 0 0
          0 0 0 0 0 0
          0 0 0 0 0 0
          0 0 0 0 0 0
          0 0 0 0 0 0
          0 0 0 0 0 0
          0 0 0 0 0 0
          0 0 0 0 0 0
          0 0 0 0 0 0
          0 0 0 0 0 0
          0 0 0 0 0 0
          0 0 0 0 0 0
          0 0 0 0 0 0
          0 0 0 0 0 0
          0 0 0 0 0 0
          0 0 0 0 0 0
          0 0 0 0 0 0
          0 0 0 0 0 0
          0 0 0 0 0 0
          0 0 0 0 0 0
          0 0 0 0 0 0
          0 0 0 0 0 0
          0 0 0 0 0 0
          0 0 0 0 0 0
          0 0 0 0 0 0
          0 0 0 0 0 0
          0 0 0 0 0 0
          0 0 0 0 0 0
          0 0 0 0 0 0
          0 0 0 0 0 0
          0 0 0 0 0 0
          0 0 0 0 0 0
          0 0 0 0 0 0
          0 0 0 0
        </DataArray>
      </CellData>
      <Points>
        <DataArray type="Float64" Name="Points" NumberOfComponents="3" format="ascii" RangeMin="0.019949534490770096" RangeMax="0.057059767276955435">
          0.025 0.010111111111103 0 0.025 0.011555555555552 0
          0.023969654121399 0.011643457228511 0 0.023712354871128 0.010827306146479 0
          0.025 0.010111111111103 0.00015 0.025 0.011555555555552 0.00015
          0.023969654121399 0.011643457228511 0.00015 0.023712354871128 0.010827306146479 0.00015
          0.025 0.010111111111103 0.0003 0.025 0.011555555555552 0.0003
          0.023969654121399 0.011643457228511 0.0003 0.023712354871128 0.010827306146479 0.0003
          0.021832836898909 0.0086447924127183 0 0.021823224979211 0.0078559681587773 0
          0.022737846371709 0.0079006862580081 0 0.022634898807434 0.0088549234284915 0
          0.021832836898909 0.0086447924127183 0.00015 0.021823224979211 0.0078559681587773 0.00015
          0.022737846371709 0.0079006862580081 0.00015 0.022634898807434 0.0088549234284915 0.00015
          0.021832836898909 0.0086447924127183 0.0003 0.021823224979211 0.0078559681587773 0.0003
          0.022737846371709 0.0079006862580081 0.0003 0.022634898807434 0.0088549234284915 0.0003
          0.023595500831214 0.0092794942281182 0 0.023071107871262 0.010124307969263 0
          0.023595500831214 0.0092794942281182 0.00015 0.023071107871262 0.010124307969263 0.00015
          0.023595500831214 0.0092794942281182 0.0003 0.023071107871262 0.010124307969263 0.0003
          0.022679909737796 0.0068405181074087 0 0.023816654948859 0.0069324696013164 0
          0.023805320189621 0.0081867285281858 0 0.022679909737796 0.0068405181074087 0.00015
          0.023816654948859 0.0069324696013164 0.00015 0.023805320189621 0.0081867285281858 0.00015
          0.022679909737796 0.0068405181074087 0.0003 0.023816654948859 0.0069324696013164 0.0003
          0.023805320189621 0.0081867285281858 0.0003 0.021890570917318 0.011219591567605 0
          0.021490495874743 0.011513015985888 0 0.020878683694742 0.011349585571751 0
          0.021380466308845 0.010767094219468 0 0.021890570917318 0.011219591567605 0.00015
          0.021490495874743 0.011513015985888 0.00015 0.020878683694742 0.011349585571751 0.00015
          0.021380466308845 0.010767094219468 0.00015 0.021890570917318 0.011219591567605 0.0003
          0.021490495874743 0.011513015985888 0.0003 0.020878683694742 0.011349585571751 0.0003
          0.021380466308845 0.010767094219468 0.0003 0.022336312736143 0.012467557709352 0
          0.021763745105177 0.012476629724541 0 0.021622459990569 0.011931223094182 0
          0.02233098651665 0.011816769005978 0 0.022336312736143 0.012467557709352 0.00015
          0.021763745105177 0.012476629724541 0.00015 0.021622459990569 0.011931223094182 0.00015
          0.02233098651665 0.011816769005978 0.00015 0.022336312736143 0.012467557709352 0.0003
          0.021763745105177 0.012476629724541 0.0003 0.021622459990569 0.011931223094182 0.0003
          0.02233098651665 0.011816769005978 0.0003 0.021047379294988 0.0079667793778881 0
          0.020813290684512 0.007243328880283 0 0.021666975794544 0.0069715825078724 0
          0.021047379294988 0.0079667793778881 0.00015 0.020813290684512 0.007243328880283 0.00015
          0.021666975794544 0.0069715825078724 0.00015 0.021047379294988 0.0079667793778881 0.0003
          0.020813290684512 0.007243328880283 0.0003 0.021666975794544 0.0069715825078724 0.0003
          0.025 0.0086666666666559 0 0.025 0.0086666666666559 0.00015
          0.025 0.0086666666666559 0.0003 0.021356284292895 0.0061182113295331 0
          0.020489019208248 0.0065103794253073 0 0.021356284292895 0.0061182113295331 0.00015
          0.020489019208248 0.0065103794253073 0.00015 0.021356284292895 0.0061182113295331 0.0003
          0.020489019208248 0.0065103794253073 0.0003 0.025 0.0072222222222063 0
          0.023829479378086 0.0056593315311521 0 0.025 0.0072222222222063 0.00015
          0.023829479378086 0.0056593315311521 0.00015 0.025 0.0072222222222063 0.0003
          0.023829479378086 0.0056593315311521 0.0003 0.019357361519954 0.01157618305141 0
          0.01884046117173 0.011223113854601 0 0.019357361519954 0.01157618305141 0.00015
          0.01884046117173 0.011223113854601 0.00015 0.019357361519954 0.01157618305141 0.0003
          0.01884046117173 0.011223113854601 0.0003 0.020274347850796 0.01080512315655 0
          0.019692191057164 0.010418143528135 0 0.020104676199583 0.0097475599042502 0
          0.020792052735599 0.010316149813733 0 0.020274347850796 0.01080512315655 0.00015
          0.019692191057164 0.010418143528135 0.00015 0.020104676199583 0.0097475599042502 0.00015
          0.020792052735599 0.010316149813733 0.00015 0.020274347850796 0.01080512315655 0.0003
          0.019692191057164 0.010418143528135 0.0003 0.020104676199583 0.0097475599042502 0.0003
          0.020792052735599 0.010316149813733 0.0003 0.018734278863615 0.0068564365277259 0
          0.018734278863615 0.0068564365277259 0.00015 0.018734278863615 0.0068564365277259 0.0003
          0.018384253973557 0.010894663204421 0 0.018384253973557 0.010894663204421 0.00015
          0.018384253973557 0.010894663204421 0.0003 0.022477642087048 0.0055533155338694 0
          0.022477642087048 0.0055533155338694 0.00015 0.022477642087048 0.0055533155338694 0.0003
          0.022333445868241 0.0096250088550796 0 0.021678233976573 0.0092839168226163 0
          0.022333445868241 0.0096250088550796 0.00015 0.021678233976573 0.0092839168226163 0.00015
          0.022333445868241 0.0096250088550796 0.0003 0.021678233976573 0.0092839168226163 0.0003
          0.018696511924608 0.0075816988835645 0 0.019307778433714 0.0076950261479263 0
          0.019244919669154 0.0083241905034728 0 0.018643245907353 0.0082916041839039 0
          0.018696511924608 0.0075816988835645 0.00015 0.019307778433714 0.0076950261479263 0.00015
          0.019244919669154 0.0083241905034728 0.00015 0.018643245907353 0.0082916041839039 0.00015
          0.018696511924608 0.0075816988835645 0.0003 0.019307778433714 0.0076950261479263 0.0003
          0.019244919669154 0.0083241905034728 0.0003 0.018643245907353 0.0082916041839039 0.0003
          0.02247089481133 0.010746063389313 0 0.022956441030322 0.011313723369763 0
          0.02247089481133 0.010746063389313 0.00015 0.022956441030322 0.011313723369763 0.00015
          0.02247089481133 0.010746063389313 0.0003 0.022956441030322 0.011313723369763 0.0003
          0.018817000838468 0.010560792840001 0 0.018817000838468 0.010560792840001 0.00015
          0.018817000838468 0.010560792840001 0.0003 0.021028725472558 0.011993213484042 0
          0.021028725472558 0.011993213484042 0.00015 0.021028725472558 0.011993213484042 0.0003
          0.018719100515555 0.0096191331103102 0 0.018769006148643 0.010016813571171 0
          0.018719100515555 0.0096191331103102 0.00015 0.018769006148643 0.010016813571171 0.00015
          0.018719100515555 0.0096191331103102 0.0003 0.018769006148643 0.010016813571171 0.0003
          0.022845614094026 0.012068678060928 0 0.022870050818517 0.012481997757377 0
          0.022845614094026 0.012068678060928 0.00015 0.022870050818517 0.012481997757377 0.00015
          0.022845614094026 0.012068678060928 0.0003 0.022870050818517 0.012481997757377 0.0003
          0.01980903614198 0.0082923028866096 0 0.019733887771193 0.007830319872041 0
          0.01980903614198 0.0082923028866096 0.00015 0.019733887771193 0.007830319872041 0.00015
          0.01980903614198 0.0082923028866096 0.0003 0.019733887771193 0.007830319872041 0.0003
          0.019287865107188 0.010870204720027 0 0.019287865107188 0.010870204720027 0.00015
          0.019287865107188 0.010870204720027 0.0003 0.019611341590458 0.0069319215290848 0
          0.019611341590458 0.0069319215290848 0.00015 0.019611341590458 0.0069319215290848 0.0003
          0.019793192887703 0.011218191570876 0 0.019793192887703 0.011218191570876 0.00015
          0.019793192887703 0.011218191570876 0.0003 0.02014052068744 0.0075597001530957 0
          0.02014052068744 0.0075597001530957 0.00015 0.02014052068744 0.0075597001530957 0.0003
          0.019142781766586 0.010156284019367 0 0.019142781766586 0.010156284019367 0.00015
          0.019142781766586 0.010156284019367 0.0003 0.019871794871807 0.013 0
          0.019671681078705 0.012567114388191 0 0.019871794871807 0.013 0.00015
          0.019671681078705 0.012567114388191 0.00015 0.019871794871807 0.013 0.0003
          0.019671681078705 0.012567114388191 0.0003 0.02189605775595 0.01024368797285 0
          0.02189605775595 0.01024368797285 0.00015 0.02189605775595 0.01024368797285 0.0003
          0.021306208963658 0.0098107932917518 0 0.020830530356293 0.0093484326970494 0
          0.021306208963658 0.0098107932917518 0.00015 0.020830530356293 0.0093484326970494 0.00015
          0.021306208963658 0.0098107932917518 0.0003 0.020830530356293 0.0093484326970494 0.0003
          0.019927087042343 0.0089401115508047 0 0.019284140679376 0.0089915496868705 0
          0.019927087042343 0.0089401115508047 0.00015 0.019284140679376 0.0089915496868705 0.00015
          0.019927087042343 0.0089401115508047 0.0003 0.019284140679376 0.0089915496868705 0.0003
          0.023272296973232 0.01187913061167 0 0.023408043049707 0.012441583397961 0
          0.023272296973232 0.01187913061167 0.00015 0.023408043049707 0.012441583397961 0.00015
          0.023272296973232 0.01187913061167 0.0003 0.023408043049707 0.012441583397961 0.0003
          0.019291729405334 0.009640079412969 0 0.019291729405334 0.009640079412969 0.00015
          0.019291729405334 0.009640079412969 0.0003 0.019497075330812 0.012129782091497 0
          0.019497075330812 0.012129782091497 0.00015 0.019497075330812 0.012129782091497 0.0003
          0.018655444813331 0.0089912542068827 0 0.018655444813331 0.0089912542068827 0.00015
          0.018655444813331 0.0089912542068827 0.0003 0.020217772280624 0.01161574996656 0
          0.019866459267603 0.011787315550137 0 0.020217772280624 0.01161574996656 0.00015
          0.019866459267603 0.011787315550137 0.00015 0.020217772280624 0.01161574996656 0.0003
          0.019866459267603 0.011787315550137 0.0003 0.020169909004412 0.012559422291794 0
          0.020384615384626 0.013 0 0.020169909004412 0.012559422291794 0.00015
          0.020384615384626 0.013 0.00015 0.020169909004412 0.012559422291794 0.0003
          0.020384615384626 0.013 0.0003 0.02048968364866 0.012063778985416 0
          0.021216890903006 0.012503701361908 0 0.020684692364028 0.012535095885709 0
          0.02048968364866 0.012063778985416 0.00015 0.021216890903006 0.012503701361908 0.00015
          0.020684692364028 0.012535095885709 0.00015 0.02048968364866 0.012063778985416 0.0003
          0.021216890903006 0.012503701361908 0.0003 0.020684692364028 0.012535095885709 0.0003
          0.020897435897446 0.013 0 0.020897435897446 0.013 0.00015
          0.020897435897446 0.013 0.0003 0.020387511226442 0.0081443073342907 0
          0.02056343795537 0.0087688297792787 0 0.020387511226442 0.0081443073342907 0.00015
          0.02056343795537 0.0087688297792787 0.00015 0.020387511226442 0.0081443073342907 0.0003
          0.02056343795537 0.0087688297792787 0.0003 0.023967653117571 0.012391671962311 0
          0.024322147732379 0.012509260561901 0 0.023967653117571 0.012391671962311 0.00015
          0.024322147732379 0.012509260561901 0.00015 0.023967653117571 0.012391671962311 0.0003
          0.024322147732379 0.012509260561901 0.0003 0.021410256410266 0.013 0
          0.021410256410266 0.013 0.00015 0.021410256410266 0.013 0.0003
          0.019993073529409 0.012116879865089 0 0.019993073529409 0.012116879865089 0.00015
          0.019993073529409 0.012116879865089 0.0003 0.02122910202584 0.0090825003429501 0
          0.02122910202584 0.0090825003429501 0.00015 0.02122910202584 0.0090825003429501 0.0003
          0.022948717948721 0.013 0 0.022435897435903 0.013 0
          0.022948717948721 0.013 0.00015 0.022435897435903 0.013 0.00015
          0.022948717948721 0.013 0.0003 0.022435897435903 0.013 0.0003
          0.021923076923085 0.013 0 0.021923076923085 0.013 0.00015
          0.021923076923085 0.013 0.0003 0.023461538461539 0.013 0
          0.023461538461539 0.013 0.00015 0.023461538461539 0.013 0.0003
          0.021171209164951 0.0086229949315581 0 0.021171209164951 0.0086229949315581 0.00015
          0.021171209164951 0.0086229949315581 0.0003 0.023974358974358 0.013 0
          0.023974358974358 0.013 0.00015 0.023974358974358 0.013 0.0003
          0.024487179487177 0.013 0 0.024487179487177 0.013 0.00015
          0.024487179487177 0.013 0.0003 0.025 0.013 0
          0.025 0.013 0.00015 0.025 0.013 0.0003
          0.026666666666667 0.0072222222222063 0 0.026666666666667 0.0072222222222063 0.00015
          0.026666666666667 0.0072222222222063 0.0003 0.026666666666668 0.0086666666666559 0
          0.026666666666668 0.0086666666666559 0.00015 0.026666666666668 0.0086666666666559 0.0003
          0.026666666666669 0.010111111111103 0 0.026666666666669 0.010111111111103 0.00015
          0.026666666666669 0.010111111111103 0.0003 0.026666666666669 0.011555555555552 0
          0.026666666666669 0.011555555555552 0.00015 0.026666666666669 0.011555555555552 0.0003
          0.02666666666667 0.013 0 0.02666666666667 0.013 0.00015
          0.02666666666667 0.013 0.0003 0.033201501647561 0.0014698753983525 0
          0.033179797338052 0 0 0.033201501647561 0.0014698753983525 0.00015
          0.033179797338052 0 0.00015 0.033201501647561 0.0014698753983525 0.0003
          0.033179797338052 0 0.0003 0.034800103200053 0.0015015548376625 0
          0.034769696007096 0 0 0.034800103200053 0.0015015548376625 0.00015
          0.034769696007096 0 0.00015 0.034800103200053 0.0015015548376625 0.0003
          0.034769696007096 0 0.0003 0.03639613666046 0.0015457026119765 0
          0.036359594676111 0 0 0.03639613666046 0.0015457026119765 0.00015
          0.036359594676111 0 0.00015 0.03639613666046 0.0015457026119765 0.0003
          0.036359594676111 0 0.0003 0.037988764334349 0.001602116400018 0
          0.037949493345121 0 0 0.037988764334349 0.001602116400018 0.00015
          0.037949493345121 0 0.00015 0.037988764334349 0.001602116400018 0.0003
          0.037949493345121 0 0.0003 0.039577164134098 0.001670537667151 0
          0.039539392014149 0 0 0.039577164134098 0.001670537667151 0.00015
          0.039539392014149 0 0.00015 0.039577164134098 0.001670537667151 0.0003
          0.039539392014149 0 0.0003 0.041160533348121 0.0017506528505884 0
          0.041129290683195 0 0 0.041160533348121 0.0017506528505884 0.00015
          0.041129290683195 0 0.00015 0.041160533348121 0.0017506528505884 0.0003
          0.041129290683195 0 0.0003 0.042738092320879 0.0018420947973532 0
          0.042719189352233 0 0 0.042738092320879 0.0018420947973532 0.00015
          0.042719189352233 0 0.00015 0.042738092320879 0.0018420947973532 0.0003
          0.042719189352233 0 0.0003 0.044309088021254 0.0019444444444413 0
          0.044309088021254 0 0 0.044309088021254 0.0019444444444413 0.00015
          0.044309088021254 0 0.00015 0.044309088021254 0.0019444444444413 0.0003
          0.044309088021254 0 0.0003 0.033223205957069 0.0029397507967035 0
          0.033223205957069 0.0029397507967035 0.00015 0.033223205957069 0.0029397507967035 0.0003
          0.03483051039301 0.0030031096753234 0 0.03483051039301 0.0030031096753234 0.00015
          0.03483051039301 0.0030031096753234 0.0003 0.036432678644808 0.0030914052239513 0
          0.036432678644808 0.0030914052239513 0.00015 0.036432678644808 0.0030914052239513 0.0003
          0.038028035323577 0.0032042328000343 0 0.038028035323577 0.0032042328000343 0.00015
          0.038028035323577 0.0032042328000343 0.0003 0.039614936254047 0.0033410753343001 0
          0.039614936254047 0.0033410753343001 0.00015 0.039614936254047 0.0033410753343001 0.0003
          0.041191776013048 0.0035013057011749 0 0.041191776013048 0.0035013057011749 0.00015
          0.041191776013048 0.0035013057011749 0.0003 0.042756995289524 0.0036841895947044 0
          0.042756995289524 0.0036841895947044 0.00015 0.042756995289524 0.0036841895947044 0.0003
          0.044309088021254 0.0038888888888803 0 0.044309088021254 0.0038888888888803 0.00015
          0.044309088021254 0.0038888888888803 0.0003 0.033244910266578 0.0044096261950543 0
          0.033244910266578 0.0044096261950543 0.00015 0.033244910266578 0.0044096261950543 0.0003
          0.034860917585967 0.004504664512984 0 0.034860917585967 0.004504664512984 0.00015
          0.034860917585967 0.004504664512984 0.0003 0.036469220629156 0.0046371078359259 0
          0.036469220629156 0.0046371078359259 0.00015 0.036469220629156 0.0046371078359259 0.0003
          0.038067306312805 0.0048063492000502 0 0.038067306312805 0.0048063492000502 0.00015
          0.038067306312805 0.0048063492000502 0.0003 0.039652708373995 0.0050116130014489 0
          0.039652708373995 0.0050116130014489 0.00015 0.039652708373995 0.0050116130014489 0.0003
          0.041223018677975 0.005251958551761 0 0.041223018677975 0.005251958551761 0.00015
          0.041223018677975 0.005251958551761 0.0003 0.04277589825817 0.0055262843920551 0
          0.04277589825817 0.0055262843920551 0.00015 0.04277589825817 0.0055262843920551 0.0003
          0.044309088021254 0.0058333333333189 0 0.044309088021254 0.0058333333333189 0.00015
          0.044309088021254 0.0058333333333189 0.0003 0.033266614576087 0.0058795015934051 0
          0.033266614576087 0.0058795015934051 0.00015 0.033266614576087 0.0058795015934051 0.0003
          0.034891324778924 0.0060062193506447 0 0.034891324778924 0.0060062193506447 0.00015
          0.034891324778924 0.0060062193506447 0.0003 0.036505762613504 0.0061828104479004 0
          0.036505762613504 0.0061828104479004 0.00015 0.036505762613504 0.0061828104479004 0.0003
          0.038106577302032 0.0064084656000662 0 0.038106577302032 0.0064084656000662 0.00015
          0.038106577302032 0.0064084656000662 0.0003 0.039690480493944 0.0066821506685977 0
          0.039690480493944 0.0066821506685977 0.00015 0.039690480493944 0.0066821506685977 0.0003
          0.041254261342902 0.0070026114023471 0 0.041254261342902 0.0070026114023471 0.00015
          0.041254261342902 0.0070026114023471 0.0003 0.042794801226816 0.0073683791894058 0
          0.042794801226816 0.0073683791894058 0.00015 0.042794801226816 0.0073683791894058 0.0003
          0.044309088021254 0.0077777777777574 0 0.044309088021254 0.0077777777777574 0.00015
          0.044309088021254 0.0077777777777574 0.0003 0.033288318885596 0.0073493769917596 0
          0.033288318885596 0.0073493769917596 0.00015 0.033288318885596 0.0073493769917596 0.0003
          0.034921731971881 0.0075077741883091 0 0.034921731971881 0.0075077741883091 0.00015
          0.034921731971881 0.0075077741883091 0.0003 0.036542304597852 0.0077285130598789 0
          0.036542304597852 0.0077285130598789 0.00015 0.036542304597852 0.0077285130598789 0.0003
          0.03814584829126 0.0080105820000862 0 0.03814584829126 0.0080105820000862 0.00015
          0.03814584829126 0.0080105820000862 0.0003 0.039728252613893 0.0083526883357508 0
          0.039728252613893 0.0083526883357508 0.00015 0.039728252613893 0.0083526883357508 0.0003
          0.041285504007829 0.0087532642529377 0 0.041285504007829 0.0087532642529377 0.00015
          0.041285504007829 0.0087532642529377 0.0003 0.042813704195461 0.0092104739867613 0
          0.042813704195461 0.0092104739867613 0.00015 0.042813704195461 0.0092104739867613 0.0003
          0.044309088021254 0.0097222222222011 0 0.044309088021254 0.0097222222222011 0.00015
          0.044309088021254 0.0097222222222011 0.0003 0.031657595460571 0.0087048568522863 0
          0.031657595460571 0.0087048568522863 0.00015 0.031657595460571 0.0087048568522863 0.0003
          0.033310023195106 0.0088192523901195 0 0.033310023195106 0.0088192523901195 0.00015
          0.033310023195106 0.0088192523901195 0.0003 0.034952139164838 0.009009329025979 0
          0.034952139164838 0.009009329025979 0.00015 0.034952139164838 0.009009329025979 0.0003
          0.0365788465822 0.0092742156718627 0 0.0365788465822 0.0092742156718627 0.00015
          0.0365788465822 0.0092742156718627 0.0003 0.038185119280488 0.0096126984001116 0
          0.038185119280488 0.0096126984001116 0.00015 0.038185119280488 0.0096126984001116 0.0003
          0.039766024733842 0.010023226002909 0 0.039766024733842 0.010023226002909 0.00015
          0.039766024733842 0.010023226002909 0.0003 0.041316746672756 0.010503917103534 0
          0.041316746672756 0.010503917103534 0.00015 0.041316746672756 0.010503917103534 0.0003
          0.042832607164107 0.011052568784123 0 0.042832607164107 0.011052568784123 0.00015
          0.042832607164107 0.011052568784123 0.0003 0.044309088021254 0.011666666666651 0
          0.044309088021254 0.011666666666651 0.00015 0.044309088021254 0.011666666666651 0.0003
          0.031668878259163 0.010155666327672 0 0.031668878259163 0.010155666327672 0.00015
          0.031668878259163 0.010155666327672 0.0003 0.033331727504615 0.010289127788478 0
          0.033331727504615 0.010289127788478 0.00015 0.033331727504615 0.010289127788478 0.0003
          0.034982546357795 0.010510883863647 0 0.034982546357795 0.010510883863647 0.00015
          0.034982546357795 0.010510883863647 0.0003 0.036615388566549 0.010819918283845 0
          0.036615388566549 0.010819918283845 0.00015 0.036615388566549 0.010819918283845 0.0003
          0.038224390269716 0.011214814800136 0 0.038224390269716 0.011214814800136 0.00015
          0.038224390269716 0.011214814800136 0.0003 0.039803796853791 0.011693763670067 0
          0.039803796853791 0.011693763670067 0.00015 0.039803796853791 0.011693763670067 0.0003
          0.041347989337683 0.012254569954129 0 0.041347989337683 0.012254569954129 0.00015
          0.041347989337683 0.012254569954129 0.0003 0.042851510132752 0.012894663581483 0
          0.042851510132752 0.012894663581483 0.00015 0.042851510132752 0.012894663581483 0.0003
          0.044309088021254 0.0136111111111 0 0.044309088021254 0.0136111111111 0.00015
          0.044309088021254 0.0136111111111 0.0003 0.031680161057755 0.011606475803059 0
          0.031680161057755 0.011606475803059 0.00015 0.031680161057755 0.011606475803059 0.0003
          0.033353431814124 0.011759003186837 0 0.033353431814124 0.011759003186837 0.00015
          0.033353431814124 0.011759003186837 0.0003 0.035012953550752 0.012012438701317 0
          0.035012953550752 0.012012438701317 0.00015 0.035012953550752 0.012012438701317 0.0003
          0.036651930550897 0.012365620895829 0 0.036651930550897 0.012365620895829 0.00015
          0.036651930550897 0.012365620895829 0.0003 0.038263661258944 0.012816931200161 0
          0.038263661258944 0.012816931200161 0.00015 0.038263661258944 0.012816931200161 0.0003
          0.03984156897374 0.013364301337225 0 0.03984156897374 0.013364301337225 0.00015
          0.03984156897374 0.013364301337225 0.0003 0.04137923200261 0.014005222804725 0
          0.04137923200261 0.014005222804725 0.00015 0.04137923200261 0.014005222804725 0.0003
          0.042870413101398 0.014736758378844 0 0.042870413101398 0.014736758378844 0.00015
          0.042870413101398 0.014736758378844 0.0003 0.044309088021254 0.015555555555549 0
          0.044309088021254 0.015555555555549 0.00015 0.044309088021254 0.015555555555549 0.0003
          0.031691443856347 0.013057285278446 0 0.031691443856347 0.013057285278446 0.00015
          0.031691443856347 0.013057285278446 0.0003 0.033375136123633 0.013228878585196 0
          0.033375136123633 0.013228878585196 0.00015 0.033375136123633 0.013228878585196 0.0003
          0.035043360743709 0.013513993538986 0 0.035043360743709 0.013513993538986 0.00015
          0.035043360743709 0.013513993538986 0.0003 0.036688472535245 0.013911323507812 0
          0.036688472535245 0.013911323507812 0.00015 0.036688472535245 0.013911323507812 0.0003
          0.038302932248172 0.014419047600187 0 0.038302932248172 0.014419047600187 0.00015
          0.038302932248172 0.014419047600187 0.0003 0.039879341093689 0.015034839004384 0
          0.039879341093689 0.015034839004384 0.00015 0.039879341093689 0.015034839004384 0.0003
          0.041410474667538 0.015755875655322 0 0.041410474667538 0.015755875655322 0.00015
          0.041410474667538 0.015755875655322 0.0003 0.042889316070044 0.016578853176207 0
          0.042889316070044 0.016578853176207 0.00015 0.042889316070044 0.016578853176207 0.0003
          0.044309088021254 0.0175 0 0.044309088021254 0.0175 0.00015
          0.044309088021254 0.0175 0.0003 0.045420199132363 0 0
          0.045420199132363 0.0019444444444413 0 0.045420199132363 0 0.00015
          0.045420199132363 0.0019444444444413 0.00015 0.045420199132363 0 0.0003
          0.045420199132363 0.0019444444444413 0.0003 0.045420199132363 0.0038888888888803 0
          0.045420199132363 0.0038888888888803 0.00015 0.045420199132363 0.0038888888888803 0.0003
          0.045420199132363 0.0058333333333189 0 0.045420199132363 0.0058333333333189 0.00015
          0.045420199132363 0.0058333333333189 0.0003 0.045420199132363 0.0077777777777574 0
          0.045420199132363 0.0077777777777574 0.00015 0.045420199132363 0.0077777777777574 0.0003
          0.045420199132363 0.0097222222222011 0 0.045420199132363 0.0097222222222011 0.00015
          0.045420199132363 0.0097222222222011 0.0003 0.045420199132363 0.011666666666651 0
          0.045420199132363 0.011666666666651 0.00015 0.045420199132363 0.011666666666651 0.0003
          0.045420199132363 0.0136111111111 0 0.045420199132363 0.0136111111111 0.00015
          0.045420199132363 0.0136111111111 0.0003 0.045420199132363 0.015555555555549 0
          0.045420199132363 0.015555555555549 0.00015 0.045420199132363 0.015555555555549 0.0003
          0.045420199132363 0.0175 0 0.045420199132363 0.0175 0.00015
          0.045420199132363 0.0175 0.0003 0.046531310243475 0 0
          0.046531310243475 0.0019444444444413 0 0.046531310243475 0 0.00015
          0.046531310243475 0.0019444444444413 0.00015 0.046531310243475 0 0.0003
          0.046531310243475 0.0019444444444413 0.0003 0.046531310243475 0.0038888888888803 0
          0.046531310243475 0.0038888888888803 0.00015 0.046531310243475 0.0038888888888803 0.0003
          0.046531310243475 0.0058333333333189 0 0.046531310243475 0.0058333333333189 0.00015
          0.046531310243475 0.0058333333333189 0.0003 0.046531310243475 0.0077777777777574 0
          0.046531310243475 0.0077777777777574 0.00015 0.046531310243475 0.0077777777777574 0.0003
          0.046531310243475 0.0097222222222011 0 0.046531310243475 0.0097222222222011 0.00015
          0.046531310243475 0.0097222222222011 0.0003 0.046531310243475 0.011666666666651 0
          0.046531310243475 0.011666666666651 0.00015 0.046531310243475 0.011666666666651 0.0003
          0.046531310243475 0.0136111111111 0 0.046531310243475 0.0136111111111 0.00015
          0.046531310243475 0.0136111111111 0.0003 0.046531310243475 0.015555555555549 0
          0.046531310243475 0.015555555555549 0.00015 0.046531310243475 0.015555555555549 0.0003
          0.046531310243475 0.0175 0 0.046531310243475 0.0175 0.00015
          0.046531310243475 0.0175 0.0003 0.04764242135458 0 0
          0.04764242135458 0.0019444444444413 0 0.04764242135458 0 0.00015
          0.04764242135458 0.0019444444444413 0.00015 0.04764242135458 0 0.0003
          0.04764242135458 0.0019444444444413 0.0003 0.04764242135458 0.0038888888888803 0
          0.04764242135458 0.0038888888888803 0.00015 0.04764242135458 0.0038888888888803 0.0003
          0.04764242135458 0.0058333333333189 0 0.04764242135458 0.0058333333333189 0.00015
          0.04764242135458 0.0058333333333189 0.0003 0.04764242135458 0.0077777777777574 0
          0.04764242135458 0.0077777777777574 0.00015 0.04764242135458 0.0077777777777574 0.0003
          0.04764242135458 0.0097222222222011 0 0.04764242135458 0.0097222222222011 0.00015
          0.04764242135458 0.0097222222222011 0.0003 0.04764242135458 0.011666666666651 0
          0.04764242135458 0.011666666666651 0.00015 0.04764242135458 0.011666666666651 0.0003
          0.04764242135458 0.0136111111111 0 0.04764242135458 0.0136111111111 0.00015
          0.04764242135458 0.0136111111111 0.0003 0.04764242135458 0.015555555555549 0
          0.04764242135458 0.015555555555549 0.00015 0.04764242135458 0.015555555555549 0.0003
          0.04764242135458 0.0175 0 0.04764242135458 0.0175 0.00015
          0.04764242135458 0.0175 0.0003 0.048753532465692 0 0
          0.048753532465692 0.0019444444444413 0 0.048753532465692 0 0.00015
          0.048753532465692 0.0019444444444413 0.00015 0.048753532465692 0 0.0003
          0.048753532465692 0.0019444444444413 0.0003 0.048753532465692 0.0038888888888803 0
          0.048753532465692 0.0038888888888803 0.00015 0.048753532465692 0.0038888888888803 0.0003
          0.048753532465692 0.0058333333333189 0 0.048753532465692 0.0058333333333189 0.00015
          0.048753532465692 0.0058333333333189 0.0003 0.048753532465692 0.0077777777777574 0
          0.048753532465692 0.0077777777777574 0.00015 0.048753532465692 0.0077777777777574 0.0003
          0.048753532465692 0.0097222222222011 0 0.048753532465692 0.0097222222222011 0.00015
          0.048753532465692 0.0097222222222011 0.0003 0.048753532465692 0.011666666666651 0
          0.048753532465692 0.011666666666651 0.00015 0.048753532465692 0.011666666666651 0.0003
          0.048753532465692 0.0136111111111 0 0.048753532465692 0.0136111111111 0.00015
          0.048753532465692 0.0136111111111 0.0003 0.048753532465692 0.015555555555549 0
          0.048753532465692 0.015555555555549 0.00015 0.048753532465692 0.015555555555549 0.0003
          0.048753532465692 0.0175 0 0.048753532465692 0.0175 0.00015
          0.048753532465692 0.0175 0.0003 0.0498646435768 0 0
          0.0498646435768 0.0019444444444413 0 0.0498646435768 0 0.00015
          0.0498646435768 0.0019444444444413 0.00015 0.0498646435768 0 0.0003
          0.0498646435768 0.0019444444444413 0.0003 0.0498646435768 0.0038888888888803 0
          0.0498646435768 0.0038888888888803 0.00015 0.0498646435768 0.0038888888888803 0.0003
          0.0498646435768 0.0058333333333189 0 0.0498646435768 0.0058333333333189 0.00015
          0.0498646435768 0.0058333333333189 0.0003 0.0498646435768 0.0077777777777574 0
          0.0498646435768 0.0077777777777574 0.00015 0.0498646435768 0.0077777777777574 0.0003
          0.0498646435768 0.0097222222222011 0 0.0498646435768 0.0097222222222011 0.00015
          0.0498646435768 0.0097222222222011 0.0003 0.0498646435768 0.011666666666651 0
          0.0498646435768 0.011666666666651 0.00015 0.0498646435768 0.011666666666651 0.0003
          0.0498646435768 0.0136111111111 0 0.0498646435768 0.0136111111111 0.00015
          0.0498646435768 0.0136111111111 0.0003 0.0498646435768 0.015555555555549 0
          0.0498646435768 0.015555555555549 0.00015 0.0498646435768 0.015555555555549 0.0003
          0.0498646435768 0.0175 0 0.0498646435768 0.0175 0.00015
          0.0498646435768 0.0175 0.0003 0.050975754687912 0 0
          0.050975754687912 0.0019444444444413 0 0.050975754687912 0 0.00015
          0.050975754687912 0.0019444444444413 0.00015 0.050975754687912 0 0.0003
          0.050975754687912 0.0019444444444413 0.0003 0.050975754687912 0.0038888888888803 0
          0.050975754687912 0.0038888888888803 0.00015 0.050975754687912 0.0038888888888803 0.0003
          0.050975754687912 0.0058333333333189 0 0.050975754687912 0.0058333333333189 0.00015
          0.050975754687912 0.0058333333333189 0.0003 0.050975754687912 0.0077777777777574 0
          0.050975754687912 0.0077777777777574 0.00015 0.050975754687912 0.0077777777777574 0.0003
          0.050975754687912 0.0097222222222011 0 0.050975754687912 0.0097222222222011 0.00015
          0.050975754687912 0.0097222222222011 0.0003 0.050975754687912 0.011666666666651 0
          0.050975754687912 0.011666666666651 0.00015 0.050975754687912 0.011666666666651 0.0003
          0.050975754687912 0.0136111111111 0 0.050975754687912 0.0136111111111 0.00015
          0.050975754687912 0.0136111111111 0.0003 0.050975754687912 0.015555555555549 0
          0.050975754687912 0.015555555555549 0.00015 0.050975754687912 0.015555555555549 0.0003
          0.050975754687912 0.0175 0 0.050975754687912 0.0175 0.00015
          0.050975754687912 0.0175 0.0003 0.052086865799025 0 0
          0.052086865799025 0.0019444444444413 0 0.052086865799025 0 0.00015
          0.052086865799025 0.0019444444444413 0.00015 0.052086865799025 0 0.0003
          0.052086865799025 0.0019444444444413 0.0003 0.052086865799025 0.0038888888888803 0
          0.052086865799025 0.0038888888888803 0.00015 0.052086865799025 0.0038888888888803 0.0003
          0.052086865799025 0.0058333333333189 0 0.052086865799025 0.0058333333333189 0.00015
          0.052086865799025 0.0058333333333189 0.0003 0.052086865799025 0.0077777777777574 0
          0.052086865799025 0.0077777777777574 0.00015 0.052086865799025 0.0077777777777574 0.0003
          0.052086865799025 0.0097222222222011 0 0.052086865799025 0.0097222222222011 0.00015
          0.052086865799025 0.0097222222222011 0.0003 0.052086865799025 0.011666666666651 0
          0.052086865799025 0.011666666666651 0.00015 0.052086865799025 0.011666666666651 0.0003
          0.052086865799025 0.0136111111111 0 0.052086865799025 0.0136111111111 0.00015
          0.052086865799025 0.0136111111111 0.0003 0.052086865799025 0.015555555555549 0
          0.052086865799025 0.015555555555549 0.00015 0.052086865799025 0.015555555555549 0.0003
          0.052086865799025 0.0175 0 0.052086865799025 0.0175 0.00015
          0.052086865799025 0.0175 0.0003 0.05319797691014 0 0
          0.05319797691014 0.0019444444444413 0 0.05319797691014 0 0.00015
          0.05319797691014 0.0019444444444413 0.00015 0.05319797691014 0 0.0003
          0.05319797691014 0.0019444444444413 0.0003 0.05319797691014 0.0038888888888803 0
          0.05319797691014 0.0038888888888803 0.00015 0.05319797691014 0.0038888888888803 0.0003
          0.05319797691014 0.0058333333333189 0 0.05319797691014 0.0058333333333189 0.00015
          0.05319797691014 0.0058333333333189 0.0003 0.05319797691014 0.0077777777777574 0
          0.05319797691014 0.0077777777777574 0.00015 0.05319797691014 0.0077777777777574 0.0003
          0.05319797691014 0.0097222222222011 0 0.05319797691014 0.0097222222222011 0.00015
          0.05319797691014 0.0097222222222011 0.0003 0.05319797691014 0.011666666666651 0
          0.05319797691014 0.011666666666651 0.00015 0.05319797691014 0.011666666666651 0.0003
          0.05319797691014 0.0136111111111 0 0.05319797691014 0.0136111111111 0.00015
          0.05319797691014 0.0136111111111 0.0003 0.05319797691014 0.015555555555549 0
          0.05319797691014 0.015555555555549 0.00015 0.05319797691014 0.015555555555549 0.0003
          0.05319797691014 0.0175 0 0.05319797691014 0.0175 0.00015
          0.05319797691014 0.0175 0.0003 0.054309088021254 0 0
          0.054309088021254 0.0019444444444413 0 0.054309088021254 0 0.00015
          0.054309088021254 0.0019444444444413 0.00015 0.054309088021254 0 0.0003
          0.054309088021254 0.0019444444444413 0.0003 0.054309088021254 0.0038888888888803 0
          0.054309088021254 0.0038888888888803 0.00015 0.054309088021254 0.0038888888888803 0.0003
          0.054309088021254 0.0058333333333189 0 0.054309088021254 0.0058333333333189 0.00015
          0.054309088021254 0.0058333333333189 0.0003 0.054309088021254 0.0077777777777574 0
          0.054309088021254 0.0077777777777574 0.00015 0.054309088021254 0.0077777777777574 0.0003
          0.054309088021254 0.0097222222222011 0 0.054309088021254 0.0097222222222011 0.00015
          0.054309088021254 0.0097222222222011 0.0003 0.054309088021254 0.011666666666651 0
          0.054309088021254 0.011666666666651 0.00015 0.054309088021254 0.011666666666651 0.0003
          0.054309088021254 0.0136111111111 0 0.054309088021254 0.0136111111111 0.00015
          0.054309088021254 0.0136111111111 0.0003 0.054309088021254 0.015555555555549 0
          0.054309088021254 0.015555555555549 0.00015 0.054309088021254 0.015555555555549 0.0003
          0.054309088021254 0.0175 0 0.054309088021254 0.0175 0.00015
          0.054309088021254 0.0175 0.0003
          <InformationKey name="L2_NORM_RANGE" location="vtkDataArray" length="2">
            <Value index="0">
              0.019949534491
            </Value>
            <Value index="1">
              0.057059767277
            </Value>
          </InformationKey>
        </DataArray>
      </Points>
      <Cells>
        <DataArray type="Int64" Name="connectivity" format="ascii" RangeMin="0" RangeMax="818">
          0 1 2 3 4 5
          6 7 4 5 6 7
          8 9 10 11 12 13
          14 15 16 17 18 19
          16 17 18 19 20 21
          22 23 24 0 3 25
          26 4 7 27 26 4
          7 27 28 8 11 29
          30 31 32 14 33 34
          35 18 33 34 35 18
          36 37 38 22 39 40
          41 42 43 44 45 46
          43 44 45 46 47 48
          49 50 51 52 53 54
          55 56 57 58 55 56
          57 58 59 60 61 62
          13 63 64 65 17 66
          67 68 17 66 67 68
          21 69 70 71 0 24
          32 72 4 26 35 73
          4 26 35 73 8 28
          38 74 24 15 14 32
          26 19 18 35 26 19
          18 35 28 23 22 38
          13 65 30 14 17 68
          33 18 17 68 33 18
          21 71 36 22 93 94
          95 96 97 98 99 100
          97 98 99 100 101 102
          103 104 72 32 31 81
          73 35 34 83 73 35
          34 83 74 38 37 85
          53 40 39 54 57 44
          43 58 57 44 43 58
          61 48 47 62 31 30
          111 82 34 33 112 84
          34 33 112 84 37 36
          113 86 12 15 114 115
          16 19 116 117 16 19
          116 117 20 23 118 119
          120 121 122 123 124 125
          126 127 124 125 126 127
          128 129 130 131 64 76
          75 65 67 78 77 68
          67 78 77 68 70 80
          79 71 132 133 54 39
          134 135 58 43 134 135
          58 43 136 137 62 47
          53 141 41 40 57 142
          45 44 57 142 45 44
          61 143 49 48 111 30
          65 75 112 33 68 77
          112 33 68 77 113 36
          71 79 54 150 151 51
          58 152 153 55 58 152
          153 55 62 154 155 59
          156 122 121 157 158 126
          125 159 158 126 125 159
          160 130 129 161 162 88
          108 138 163 90 109 139
          163 90 109 139 164 92
          110 140 168 87 88 162
          169 89 90 163 169 89
          90 163 170 91 92 164
          121 165 171 157 125 166
          172 159 125 166 172 159
          129 167 173 161 132 39
          42 183 134 43 46 184
          134 43 46 184 136 47
          50 185 186 96 95 187
          188 100 99 189 188 100
          99 189 190 104 103 191
          192 193 122 156 194 195
          126 158 194 195 126 158
          196 197 130 160 183 42
          96 186 184 46 100 188
          184 46 100 188 185 50
          104 190 151 150 198 199
          153 152 200 201 153 152
          200 201 155 154 202 203
          174 145 144 204 175 147
          146 205 175 147 146 205
          176 149 148 206 193 192
          95 204 195 194 99 205
          195 194 99 205 197 196
          103 206 123 122 193 210
          127 126 195 211 127 126
          195 211 131 130 197 212
          93 96 42 41 97 100
          46 45 97 100 46 45
          101 104 50 49 213 214
          87 168 215 216 89 169
          215 216 89 169 217 218
          91 170 178 219 220 177
          180 221 222 179 180 221
          222 179 182 223 224 181
          225 141 226 227 228 142
          229 230 228 142 229 230
          231 143 232 233 120 105
          165 121 124 106 166 125
          124 106 166 125 128 107
          167 129 210 193 204 144
          211 195 205 146 211 195
          205 146 212 197 206 148
          219 227 234 220 221 230
          235 222 221 230 235 222
          223 233 236 224 94 174
          204 95 98 175 205 99
          98 175 205 99 102 176
          206 103 192 156 237 238
          194 158 239 240 194 158
          239 240 196 160 241 242
          243 2 1 244 245 6
          5 246 245 6 5 246
          247 10 9 248 227 226
          249 234 230 229 250 235
          230 229 250 235 233 232
          251 236 238 187 95 192
          240 189 99 194 240 189
          99 194 242 191 103 196
          252 207 87 214 253 208
          89 216 253 208 89 216
          254 209 91 218 187 255
          115 186 189 256 117 188
          189 256 117 188 191 257
          119 190 94 162 138 174
          98 163 139 175 98 163
          139 175 102 164 140 176
          64 63 237 171 67 66
          239 172 67 66 239 172
          70 69 241 173 41 213
          168 93 45 215 169 97
          45 215 169 97 49 217
          170 101 2 198 133 3
          6 200 135 7 6 200
          135 7 10 202 137 11
          25 114 15 24 27 116
          19 26 27 116 19 26
          29 118 23 28 114 183
          186 115 116 184 188 117
          116 184 188 117 118 185
          190 119 51 151 258 259
          55 153 260 261 55 153
          260 261 59 155 262 263
          226 52 264 249 229 56
          265 250 229 56 265 250
          232 60 266 251 198 150
          54 133 200 152 58 135
          200 152 58 135 202 154
          62 137 64 171 165 76
          67 172 166 78 67 172
          166 78 70 173 167 80
          52 51 259 264 56 55
          261 265 56 55 261 265
          60 59 263 266 171 237
          156 157 172 239 158 159
          172 239 158 159 173 241
          160 161 252 214 213 225
          253 216 215 228 253 216
          215 228 254 218 217 231
          151 199 267 258 153 201
          268 260 153 201 268 260
          155 203 269 262 63 13
          12 270 66 17 16 271
          66 17 16 271 69 21
          20 272 270 255 187 238
          271 256 189 240 271 256
          189 240 272 257 191 242
          199 198 2 243 201 200
          6 245 201 200 6 245
          203 202 10 247 225 213
          41 141 228 215 45 142
          228 215 45 142 231 217
          49 143 52 226 141 53
          56 229 142 57 56 229
          142 57 60 232 143 61
          25 132 183 114 27 134
          184 116 27 134 184 116
          29 136 185 118 252 225
          227 219 253 228 230 221
          253 228 230 221 254 231
          233 223 219 178 207 252
          221 180 208 253 221 180
          208 253 223 182 209 254
          25 3 133 132 27 7
          135 134 27 7 135 134
          29 11 137 136 93 168
          162 94 97 169 163 98
          97 169 163 98 101 170
          164 102 270 12 115 255
          271 16 117 256 271 16
          117 256 272 20 119 257
          199 243 273 267 201 245
          274 268 201 245 274 268
          203 247 275 269 63 270
          238 237 66 271 240 239
          66 271 240 239 69 272
          242 241 243 244 276 273
          245 246 277 274 245 246
          277 274 247 248 278 275
          276 244 1 279 277 246
          5 280 277 246 5 280
          278 248 9 281 285 72
          81 282 286 73 83 283
          286 73 83 283 287 74
          85 284 288 0 72 285
          289 4 73 286 289 4
          73 286 290 8 74 287
          291 1 0 288 292 5
          4 289 292 5 4 289
          293 9 8 290 294 279
          1 291 295 280 5 292
          295 280 5 292 296 281
          9 293 303 297 298 304
          305 299 300 306 305 299
          300 306 307 301 302 308
          309 303 304 310 311 305
          306 312 311 305 306 312
          313 307 308 314 315 309
          310 316 317 311 312 318
          317 311 312 318 319 313
          314 320 321 315 316 322
          323 317 318 324 323 317
          318 324 325 319 320 326
          327 321 322 328 329 323
          324 330 329 323 324 330
          331 325 326 332 333 327
          328 334 335 329 330 336
          335 329 330 336 337 331
          332 338 339 333 334 340
          341 335 336 342 341 335
          336 342 343 337 338 344
          348 345 297 303 349 346
          299 305 349 346 299 305
          350 347 301 307 351 348
          303 309 352 349 305 311
          352 349 305 311 353 350
          307 313 354 351 309 315
          355 352 311 317 355 352
          311 317 356 353 313 319
          357 354 315 321 358 355
          317 323 358 355 317 323
          359 356 319 325 360 357
          321 327 361 358 323 329
          361 358 323 329 362 359
          325 331 363 360 327 333
          364 361 329 335 364 361
          329 335 365 362 331 337
          366 363 333 339 367 364
          335 341 367 364 335 341
          368 365 337 343 372 369
          345 348 373 370 346 349
          373 370 346 349 374 371
          347 350 375 372 348 351
          376 373 349 352 376 373
          349 352 377 374 350 353
          378 375 351 354 379 376
          352 355 379 376 352 355
          380 377 353 356 381 378
          354 357 382 379 355 358
          382 379 355 358 383 380
          356 359 384 381 357 360
          385 382 358 361 385 382
          358 361 386 383 359 362
          387 384 360 363 388 385
          361 364 388 385 361 364
          389 386 362 365 390 387
          363 366 391 388 364 367
          391 388 364 367 392 389
          365 368 396 393 369 372
          397 394 370 373 397 394
          370 373 398 395 371 374
          399 396 372 375 400 397
          373 376 400 397 373 376
          401 398 374 377 402 399
          375 378 403 400 376 379
          403 400 376 379 404 401
          377 380 405 402 378 381
          406 403 379 382 406 403
          379 382 407 404 380 383
          408 405 381 384 409 406
          382 385 409 406 382 385
          410 407 383 386 411 408
          384 387 412 409 385 388
          412 409 385 388 413 410
          386 389 414 411 387 390
          415 412 388 391 415 412
          388 391 416 413 389 392
          420 417 393 396 421 418
          394 397 421 418 394 397
          422 419 395 398 423 420
          396 399 424 421 397 400
          424 421 397 400 425 422
          398 401 426 423 399 402
          427 424 400 403 427 424
          400 403 428 425 401 404
          429 426 402 405 430 427
          403 406 430 427 403 406
          431 428 404 407 432 429
          405 408 433 430 406 409
          433 430 406 409 434 431
          407 410 435 432 408 411
          436 433 409 412 436 433
          409 412 437 434 410 413
          438 435 411 414 439 436
          412 415 439 436 412 415
          440 437 413 416 447 444
          417 420 448 445 418 421
          448 445 418 421 449 446
          419 422 450 447 420 423
          451 448 421 424 451 448
          421 424 452 449 422 425
          453 450 423 426 454 451
          424 427 454 451 424 427
          455 452 425 428 456 453
          426 429 457 454 427 430
          457 454 427 430 458 455
          428 431 459 456 429 432
          460 457 430 433 460 457
          430 433 461 458 431 434
          462 459 432 435 463 460
          433 436 463 460 433 436
          464 461 434 437 465 462
          435 438 466 463 436 439
          466 463 436 439 467 464
          437 440 471 468 441 444
          472 469 442 445 472 469
          442 445 473 470 443 446
          474 471 444 447 475 472
          445 448 475 472 445 448
          476 473 446 449 477 474
          447 450 478 475 448 451
          478 475 448 451 479 476
          449 452 480 477 450 453
          481 478 451 454 481 478
          451 454 482 479 452 455
          483 480 453 456 484 481
          454 457 484 481 454 457
          485 482 455 458 486 483
          456 459 487 484 457 460
          487 484 457 460 488 485
          458 461 489 486 459 462
          490 487 460 463 490 487
          460 463 491 488 461 464
          492 489 462 465 493 490
          463 466 493 490 463 466
          494 491 464 467 498 495
          468 471 499 496 469 472
          499 496 469 472 500 497
          470 473 501 498 471 474
          502 499 472 475 502 499
          472 475 503 500 473 476
          504 501 474 477 505 502
          475 478 505 502 475 478
          506 503 476 479 507 504
          477 480 508 505 478 481
          508 505 478 481 509 506
          479 482 510 507 480 483
          511 508 481 484 511 508
          481 484 512 509 482 485
          513 510 483 486 514 511
          484 487 514 511 484 487
          515 512 485 488 516 513
          486 489 517 514 487 490
          517 514 487 490 518 515
          488 491 519 516 489 492
          520 517 490 493 520 517
          490 493 521 518 491 494
          525 522 495 498 526 523
          496 499 526 523 496 499
          527 524 497 500 528 525
          498 501 529 526 499 502
          529 526 499 502 530 527
          500 503 531 528 501 504
          532 529 502 505 532 529
          502 505 533 530 503 506
          534 531 504 507 535 532
          505 508 535 532 505 508
          536 533 506 509 537 534
          507 510 538 535 508 511
          538 535 508 511 539 536
          509 512 540 537 510 513
          541 538 511 514 541 538
          511 514 542 539 512 515
          543 540 513 516 544 541
          514 517 544 541 514 517
          545 542 515 518 546 543
          516 519 547 544 517 520
          547 544 517 520 548 545
          518 521 340 549 550 339
          342 551 552 341 342 551
          552 341 344 553 554 343
          339 550 555 366 341 552
          556 367 341 552 556 367
          343 554 557 368 366 555
          558 390 367 556 559 391
          367 556 559 391 368 557
          560 392 390 558 561 414
          391 559 562 415 391 559
          562 415 392 560 563 416
          414 561 564 438 415 562
          565 439 415 562 565 439
          416 563 566 440 438 564
          567 465 439 565 568 466
          439 565 568 466 440 566
          569 467 465 567 570 492
          466 568 571 493 466 568
          571 493 467 569 572 494
          492 570 573 519 493 571
          574 520 493 571 574 520
          494 572 575 521 519 573
          576 546 520 574 577 547
          520 574 577 547 521 575
          578 548 549 579 580 550
          551 581 582 552 551 581
          582 552 553 583 584 554
          550 580 585 555 552 582
          586 556 552 582 586 556
          554 584 587 557 555 585
          588 558 556 586 589 559
          556 586 589 559 557 587
          590 560 558 588 591 561
          559 589 592 562 559 589
          592 562 560 590 593 563
          561 591 594 564 562 592
          595 565 562 592 595 565
          563 593 596 566 564 594
          597 567 565 595 598 568
          565 595 598 568 566 596
          599 569 567 597 600 570
          568 598 601 571 568 598
          601 571 569 599 602 572
          570 600 603 573 571 601
          604 574 571 601 604 574
          572 602 605 575 573 603
          606 576 574 604 607 577
          574 604 607 577 575 605
          608 578 579 609 610 580
          581 611 612 582 581 611
          612 582 583 613 614 584
          580 610 615 585 582 612
          616 586 582 612 616 586
          584 614 617 587 585 615
          618 588 586 616 619 589
          586 616 619 589 587 617
          620 590 588 618 621 591
          589 619 622 592 589 619
          622 592 590 620 623 593
          591 621 624 594 592 622
          625 595 592 622 625 595
          593 623 626 596 594 624
          627 597 595 625 628 598
          595 625 628 598 596 626
          629 599 597 627 630 600
          598 628 631 601 598 628
          631 601 599 629 632 602
          600 630 633 603 601 631
          634 604 601 631 634 604
          602 632 635 605 603 633
          636 606 604 634 637 607
          604 634 637 607 605 635
          638 608 609 639 640 610
          611 641 642 612 611 641
          642 612 613 643 644 614
          610 640 645 615 612 642
          646 616 612 642 646 616
          614 644 647 617 615 645
          648 618 616 646 649 619
          616 646 649 619 617 647
          650 620 618 648 651 621
          619 649 652 622 619 649
          652 622 620 650 653 623
          621 651 654 624 622 652
          655 625 622 652 655 625
          623 653 656 626 624 654
          657 627 625 655 658 628
          625 655 658 628 626 656
          659 629 627 657 660 630
          628 658 661 631 628 658
          661 631 629 659 662 632
          630 660 663 633 631 661
          664 634 631 661 664 634
          632 662 665 635 633 663
          666 636 634 664 667 637
          634 664 667 637 635 665
          668 638 639 669 670 640
          641 671 672 642 641 671
          672 642 643 673 674 644
          640 670 675 645 642 672
          676 646 642 672 676 646
          644 674 677 647 645 675
          678 648 646 676 679 649
          646 676 679 649 647 677
          680 650 648 678 681 651
          649 679 682 652 649 679
          682 652 650 680 683 653
          651 681 684 654 652 682
          685 655 652 682 685 655
          653 683 686 656 654 684
          687 657 655 685 688 658
          655 685 688 658 656 686
          689 659 657 687 690 660
          658 688 691 661 658 688
          691 661 659 689 692 662
          660 690 693 663 661 691
          694 664 661 691 694 664
          662 692 695 665 663 693
          696 666 664 694 697 667
          664 694 697 667 665 695
          698 668 669 699 700 670
          671 701 702 672 671 701
          702 672 673 703 704 674
          670 700 705 675 672 702
          706 676 672 702 706 676
          674 704 707 677 675 705
          708 678 676 706 709 679
          676 706 709 679 677 707
          710 680 678 708 711 681
          679 709 712 682 679 709
          712 682 680 710 713 683
          681 711 714 684 682 712
          715 685 682 712 715 685
          683 713 716 686 684 714
          717 687 685 715 718 688
          685 715 718 688 686 716
          719 689 687 717 720 690
          688 718 721 691 688 718
          721 691 689 719 722 692
          690 720 723 693 691 721
          724 694 691 721 724 694
          692 722 725 695 693 723
          726 696 694 724 727 697
          694 724 727 697 695 725
          728 698 699 729 730 700
          701 731 732 702 701 731
          732 702 703 733 734 704
          700 730 735 705 702 732
          736 706 702 732 736 706
          704 734 737 707 705 735
          738 708 706 736 739 709
          706 736 739 709 707 737
          740 710 708 738 741 711
          709 739 742 712 709 739
          742 712 710 740 743 713
          711 741 744 714 712 742
          745 715 712 742 745 715
          713 743 746 716 714 744
          747 717 715 745 748 718
          715 745 748 718 716 746
          749 719 717 747 750 720
          718 748 751 721 718 748
          751 721 719 749 752 722
          720 750 753 723 721 751
          754 724 721 751 754 724
          722 752 755 725 723 753
          756 726 724 754 757 727
          724 754 757 727 725 755
          758 728 729 759 760 730
          731 761 762 732 731 761
          762 732 733 763 764 734
          730 760 765 735 732 762
          766 736 732 762 766 736
          734 764 767 737 735 765
          768 738 736 766 769 739
          736 766 769 739 737 767
          770 740 738 768 771 741
          739 769 772 742 739 769
          772 742 740 770 773 743
          741 771 774 744 742 772
          775 745 742 772 775 745
          743 773 776 746 744 774
          777 747 745 775 778 748
          745 775 778 748 746 776
          779 749 747 777 780 750
          748 778 781 751 748 778
          781 751 749 779 782 752
          750 780 783 753 751 781
          784 754 751 781 784 754
          752 782 785 755 753 783
          786 756 754 784 787 757
          754 784 787 757 755 785
          788 758 759 789 790 760
          761 791 792 762 761 791
          792 762 763 793 794 764
          760 790 795 765 762 792
          796 766 762 792 796 766
          764 794 797 767 765 795
          798 768 766 796 799 769
          766 796 799 769 767 797
          800 770 768 798 801 771
          769 799 802 772 769 799
          802 772 770 800 803 773
          771 801 804 774 772 802
          805 775 772 802 805 775
          773 803 806 776 774 804
          807 777 775 805 808 778
          775 805 808 778 776 806
          809 779 777 807 810 780
          778 808 811 781 778 808
          811 781 779 809 812 782
          780 810 813 783 781 811
          814 784 781 811 814 784
          782 812 815 785 783 813
          816 786 784 814 817 787
          784 814 817 787 785 815
          818 788
        </DataArray>
        <DataArray type="Int64" Name="offsets" format="ascii" RangeMin="8" RangeMax="3632">
          8 16 24 32 40 48
          56 64 72 80 88 96
          104 112 120 128 136 144
          152 160 168 176 184 192
          200 208 216 224 232 240
          248 256 264 272 280 288
          296 304 312 320 328 336
          344 352 360 368 376 384
          392 400 408 416 424 432
          440 448 456 464 472 480
          488 496 504 512 520 528
          536 544 552 560 568 576
          584 592 600 608 616 624
          632 640 648 656 664 672
          680 688 696 704 712 720
          728 736 744 752 760 768
          776 784 792 800 808 816
          824 832 840 848 856 864
          872 880 888 896 904 912
          920 928 936 944 952 960
          968 976 984 992 1000 1008
          1016 1024 1032 1040 1048 1056
          1064 1072 1080 1088 1096 1104
          1112 1120 1128 1136 1144 1152
          1160 1168 1176 1184 1192 1200
          1208 1216 1224 1232 1240 1248
          1256 1264 1272 1280 1288 1296
          1304 1312 1320 1328 1336 1344
          1352 1360 1368 1376 1384 1392
          1400 1408 1416 1424 1432 1440
          1448 1456 1464 1472 1480 1488
          1496 1504 1512 1520 1528 1536
          1544 1552 1560 1568 1576 1584
          1592 1600 1608 1616 1624 1632
          1640 1648 1656 1664 1672 1680
          1688 1696 1704 1712 1720 1728
          1736 1744 1752 1760 1768 1776
          1784 1792 1800 1808 1816 1824
          1832 1840 1848 1856 1864 1872
          1880 1888 1896 1904 1912 1920
          1928 1936 1944 1952 1960 1968
          1976 1984 1992 2000 2008 2016
          2024 2032 2040 2048 2056 2064
          2072 2080 2088 2096 2104 2112
          2120 2128 2136 2144 2152 2160
          2168 2176 2184 2192 2200 2208
          2216 2224 2232 2240 2248 2256
          2264 2272 2280 2288 2296 2304
          2312 2320 2328 2336 2344 2352
          2360 2368 2376 2384 2392 2400
          2408 2416 2424 2432 2440 2448
          2456 2464 2472 2480 2488 2496
          2504 2512 2520 2528 2536 2544
          2552 2560 2568 2576 2584 2592
          2600 2608 2616 2624 2632 2640
          2648 2656 2664 2672 2680 2688
          2696 2704 2712 2720 2728 2736
          2744 2752 2760 2768 2776 2784
          2792 2800 2808 2816 2824 2832
          2840 2848 2856 2864 2872 2880
          2888 2896 2904 2912 2920 2928
          2936 2944 2952 2960 2968 2976
          2984 2992 3000 3008 3016 3024
          3032 3040 3048 3056 3064 3072
          3080 3088 3096 3104 3112 3120
          3128 3136 3144 3152 3160 3168
          3176 3184 3192 3200 3208 3216
          3224 3232 3240 3248 3256 3264
          3272 3280 3288 3296 3304 3312
          3320 3328 3336 3344 3352 3360
          3368 3376 3384 3392 3400 3408
          3416 3424 3432 3440 3448 3456
          3464 3472 3480 3488 3496 3504
          3512 3520 3528 3536 3544 3552
          3560 3568 3576 3584 3592 3600
          3608 3616 3624 3632
        </DataArray>
        <DataArray type="UInt8" Name="types" format="ascii" RangeMin="12" RangeMax="12">
          12 12 12 12 12 12
          12 12 12 12 12 12
          12 12 12 12 12 12
          12 12 12 12 12 12
          12 12 12 12 12 12
          12 12 12 12 12 12
          12 12 12 12 12 12
          12 12 12 12 12 12
          12 12 12 12 12 12
          12 12 12 12 12 12
          12 12 12 12 12 12
          12 12 12 12 12 12
          12 12 12 12 12 12
          12 12 12 12 12 12
          12 12 12 12 12 12
          12 12 12 12 12 12
          12 12 12 12 12 12
          12 12 12 12 12 12
          12 12 12 12 12 12
          12 12 12 12 12 12
          12 12 12 12 12 12
          12 12 12 12 12 12
          12 12 12 12 12 12
          12 12 12 12 12 12
          12 12 12 12 12 12
          12 12 12 12 12 12
          12 12 12 12 12 12
          12 12 12 12 12 12
          12 12 12 12 12 12
          12 12 12 12 12 12
          12 12 12 12 12 12
          12 12 12 12 12 12
          12 12 12 12 12 12
          12 12 12 12 12 12
          12 12 12 12 12 12
          12 12 12 12 12 12
          12 12 12 12 12 12
          12 12 12 12 12 12
          12 12 12 12 12 12
          12 12 12 12 12 12
          12 12 12 12 12 12
          12 12 12 12 12 12
          12 12 12 12 12 12
          12 12 12 12 12 12
          12 12 12 12 12 12
          12 12 12 12 12 12
          12 12 12 12 12 12
          12 12 12 12 12 12
          12 12 12 12 12 12
          12 12 12 12 12 12
          12 12 12 12 12 12
          12 12 12 12 12 12
          12 12 12 12 12 12
          12 12 12 12 12 12
          12 12 12 12 12 12
          12 12 12 12 12 12
          12 12 12 12 12 12
          12 12 12 12 12 12
          12 12 12 12 12 12
          12 12 12 12 12 12
          12 12 12 12 12 12
          12 12 12 12 12 12
          12 12 12 12 12 12
          12 12 12 12 12 12
          12 12 12 12 12 12
          12 12 12 12 12 12
          12 12 12 12 12 12
          12 12 12 12 12 12
          12 12 12 12 12 12
          12 12 12 12 12 12
          12 12 12 12 12 12
          12 12 12 12 12 12
          12 12 12 12 12 12
          12 12 12 12 12 12
          12 12 12 12 12 12
          12 12 12 12
        </DataArray>
      </Cells>
    </Piece>
  </UnstructuredGrid>
</VTKFile>
