<?xml version="1.0"?>
<VTKFile type="UnstructuredGrid" version="0.1" byte_order="LittleEndian" header_type="UInt32" compressor="vtkZLibDataCompressor">
  <UnstructuredGrid>
    <Piece NumberOfPoints="789" NumberOfCells="452">
      <PointData>
        <DataArray type="Int32" Name="libmesh_node_id" format="ascii" RangeMin="0" RangeMax="1901">
          0 1 2 3 4 5
          6 7 8 9 10 11
          12 13 14 15 16 17
          18 19 20 21 22 23
          24 25 26 27 28 29
          30 31 32 33 34 35
          36 37 38 39 40 41
          42 43 44 45 46 47
          48 49 50 51 52 53
          54 55 56 57 58 59
          60 61 62 63 64 65
          66 67 68 69 70 71
          72 73 74 75 76 77
          78 79 80 81 82 83
          84 85 86 87 88 89
          90 91 92 93 94 95
          96 97 98 99 100 101
          102 103 104 105 106 107
          108 109 110 111 112 113
          114 115 116 117 118 119
          180 181 182 183 184 185
          186 187 188 189 190 191
          192 193 194 195 196 197
          198 199 200 201 202 203
          204 205 206 207 208 209
          210 211 212 213 214 215
          216 217 218 219 220 221
          222 223 224 225 226 227
          228 229 230 231 232 233
          234 235 236 237 238 239
          270 271 272 273 274 275
          276 277 278 279 280 281
          282 283 284 285 286 287
          288 289 290 291 292 293
          294 295 296 297 298 299
          300 301 302 303 304 305
          306 307 308 309 310 311
          312 313 314 315 316 317
          318 319 320 321 322 323
          324 325 326 327 328 329
          360 361 362 363 364 365
          366 367 368 369 370 371
          372 373 374 375 376 377
          378 379 380 381 382 383
          384 385 386 387 388 389
          390 391 392 393 394 395
          396 397 398 399 400 401
          402 403 404 405 406 407
          408 409 410 411 412 413
          414 415 416 417 418 419
          450 451 452 453 454 455
          456 457 458 459 460 461
          462 463 464 465 466 467
          468 469 470 471 472 473
          474 475 476 477 478 479
          480 481 482 483 484 485
          486 487 488 489 490 491
          492 493 494 495 496 497
          498 499 500 501 502 503
          504 505 506 507 508 509
          540 541 542 543 544 545
          546 547 548 549 550 551
          552 553 554 555 556 557
          558 559 560 561 562 563
          564 565 566 567 568 569
          570 571 572 573 574 575
          576 577 578 579 580 581
          582 583 584 585 586 587
          588 589 590 591 592 593
          594 595 596 597 598 599
          630 631 632 633 634 635
          636 637 638 639 640 641
          642 643 644 645 646 647
          648 649 650 651 652 653
          654 655 656 657 658 659
          660 661 662 663 664 665
          666 667 668 669 670 671
          672 673 674 675 676 677
          678 679 680 681 682 683
          684 685 686 687 688 689
          720 721 722 723 724 725
          726 727 728 729 730 731
          732 733 734 735 736 737
          738 739 740 741 742 743
          744 745 746 747 748 749
          750 751 752 753 754 755
          756 757 758 759 760 761
          762 763 764 765 766 767
          768 769 770 771 772 773
          774 775 776 777 778 779
          810 811 812 813 814 815
          816 817 818 819 820 821
          822 823 824 825 826 827
          828 829 830 831 832 833
          834 835 836 837 838 839
          840 841 842 843 844 845
          846 847 848 849 850 851
          852 853 854 855 856 857
          858 859 860 861 862 863
          864 865 866 867 868 869
          870 871 872 873 874 875
          1272 1273 1274 1275 1276 1277
          1326 1327 1328 1353 1354 1355
          1380 1381 1382 1407 1408 1409
          1434 1435 1436 1677 1678 1679
          1704 1705 1706 1731 1732 1733
          1758 1759 1760 1785 1786 1787
          1788 1789 1790 1812 1813 1814
          1815 1816 1817 1839 1840 1841
          1842 1843 1844 1866 1867 1868
          1869 1870 1871 120 121 122
          123 124 125 240 241 242
          330 331 332 420 421 422
          510 511 512 600 601 602
          690 691 692 780 781 782
          783 784 785 876 786 877
          787 878 788 1278 1279 1280
          1281 1282 1283 1329 1330 1331
          1356 1357 1358 1383 1384 1385
          1410 1411 1412 1437 1438 1439
          1461 1462 1463 1464 1465 1466
          1488 1489 1490 1515 1516 1517
          1542 1543 1544 1569 1570 1571
          1596 1597 1598 1623 1624 1625
          1650 1651 1652 1680 1653 1681
          1654 1682 1655 1707 1708 1709
          1734 1735 1736 1761 1762 1763
          1791 1764 1792 1765 1793 1766
          1818 1819 1820 1845 1846 1847
          1872 1873 1874 1893 879 1894
          880 1895 881 1896 1897 1898
          1899 1900 1901
        </DataArray>
        <DataArray type="Float64" Name="resid_x" format="ascii" RangeMin="-16.87609995502649" RangeMax="0.5005759799834415">
          -4.010232582720781 0.00000137664368526913 0.000006495058278765953 -8.07863934535873 -8.020036093290544 0.000009352372729587444
          -0.000005698909179230327 -16.14010867149726 -4.010327017430767 -0.000033520954675125836 -0.000001968817157305125 -8.057937313341721
          -0.0000016831292413144183 -8.194728974859657 -0.00005207799377249245 -16.25291980666761 -0.00003951936542767598 -8.039034233421631
          -0.000012103979838862244 -8.205687579972402 -0.00002883176001233778 -16.381086044261238 -0.000021579269263050094 -8.169666228871764
          -0.00021246113817241508 -8.118505156945883 -0.0003723596720455191 -16.24467891958553 -0.0005704042655398922 -8.129845798716898
          -0.0036532651445879694 -7.934517483246744 0.001234280409069477 -15.9100413371184 0.001030557675276711 -7.987706532017943
          -0.04728580792913872 -7.677314254110788 -0.06201412333234524 -15.469230279335655 -0.015044724423220135 -7.839901176178261
          -0.060564767574585066 -7.415475423114286 -0.6055291299380863 -14.81224937105766 -0.33035930734280017 -7.598823555421113
          0.2056433125850381 -7.673573613144875 -1.0291500826402211 -14.98791143381565 -0.6067097386172726 -7.666529275435205
          -0.00034318192262805525 -8.1757062684729 -0.0018520320491015596 -16.367078194471663 -0.0019329867836272996 -8.211781588028362
          -0.0003955510667816853 -8.395726305947056 -0.0008655870565608126 -16.78244515803515 -0.000367700716682684 -8.381884479778954
          0.0018196246576405173 -8.449949056464474 0.0051025037248084715 -16.87609995502649 0.0028561409987339914 -8.417170095188986
          0.020185731467302404 -8.435693679097277 0.038890348154951404 -16.847557503959095 0.018468401902691944 -8.396503133391336
          -0.006340451992821627 -8.401666140225917 -0.002793304149900422 -16.80672120771456 0.0028840514367853842 -8.400560450835554
          -0.0025726644971957313 -8.395264445546232 -0.003913455269048072 -16.79715582905832 -0.001290187115660757 -8.406182181971026
          0.00019100566629237647 -8.35003556403921 0.0006251425629271168 -16.699224051098902 -0.00039598151515019 -8.349818295069362
          0.0003213081165931442 -8.30428516047929 -0.0008730140886274995 -16.598916462634314 -0.000581826359505655 -8.288507666541616
          -0.00043819004827039265 -8.263938075101919 -0.0008524194714203404 -16.512506922970132 0.00031931619719482995 -8.240040326173533
          -0.00042191785611578325 -8.23640464203087 -0.0004340039437336074 -16.460352843237562 0.0005711107178072439 -8.223664525407578
          -0.0005069331917493258 -8.225772643188385 -0.00040074619687846535 -16.459384227397283 -0.00041368834043797875 -8.262322642328808
          0.00006687419425599472 -0.000016691128467805072 0.00002991472603319778 0.00018038102404016598 -0.000008580577639527576 0.0002608233682934724
          0.0002726812660789335 0.000374464392566054 0.000009354574060260745 0.0003676816626718704 0.00034807634844113977 0.00007570876882656563
          -0.0018634341736589732 -0.0019716082333278706 -0.0006767247025587508 -0.023966037181382127 -0.033427528816847296 -0.010061380983903412
          -0.10631199088919008 -0.17214145513976842 -0.06261676989139353 -0.49722362162428535 -0.5361434177281201 -0.11539825504331125
          -0.8290634790475782 -0.4751211828027655 0.0541763096311394 0.0003478312179110432 0.00044679205167330593 -0.00012322736024206193
          -0.0004351433277474115 -0.00015241211836247714 0.0004967615592219587 0.033055381394117234 0.07182556539508855 0.04197120364525109
          0.047394354933645744 0.09525015622502941 0.04695371680577587 0.009136762325967496 0.01411123369689804 0.0035557070433895888
          -0.000933317308074777 -0.000820936809639683 -0.002081842722696514 0.00006493968222631707 0.0025578611656289496 0.0005609688258507717
          0.0006882393912546192 0.00038111599098122895 -0.00019514493503347552 -0.00019925217731042721 0.00010954007110797193 0.0009296485465224436
          0.000024229108387174847 0.0006241779793079161 0.0011517523387807316 -0.0011252617257282438 -0.0013648988264449713 -0.000780471420086748
          0.0000171529477706045 -0.000028767364086412783 -0.000016639824173658724 0.00005994073477122441 0.000008442992776025449 0.00006995658309705277
          -0.0000016556773303477712 0.00002815372485187595 0.0000517349815822854 0.00008530989891841756 -0.0000465498810875431 -0.00008478577056614256
          -0.0048487327945796466 -0.02863838326924295 -0.029268666556666822 -0.06665390277127559 -0.2120560179776101 -0.1591840923273411
          -0.18425571352197068 -0.32704766820852704 -0.12737778939041 -0.31859334643313275 -0.6399726771599656 -0.41611322587893795
          -0.03928393621392168 -0.07917596761921875 -0.04192009812442965 -0.0002468348807234122 -0.00019068523200793663 -0.00005501778569794169
          0.00010314127696631203 0.006279426259297338 0.007115499943142645 0.03128141825813824 0.09022901780148906 0.0610857949635335
          0.05479123101690497 0.09844914157423723 0.04130863193894907 0.010342148148191121 0.013789593734819583 0.0023526884135200987
          -0.0008325110490581267 -0.001514438540836771 -0.00020512535018202271 0.00010709601442293604 0.0007577428679503839 0.0011948017646439268
          0.00008405903860797537 -0.00004125390218945313 0.0004192447078921191 -0.0005831113282015465 -0.0006363554159536378 0.00035510479163480824
          -0.000008748523078416781 0.0006053106768835192 0.0006653570370156459 -0.000864393483628767 -0.0004954646280301844 -0.0008881579265160866
          0.000014376544293259741 -0.000027310347453735062 0.00001447795643816363 0.000026084127791925482 0.00004602432824851732 0.00004776546384643865
          0.00003331504071457658 -0.00006197223642967487 -0.00000479376808559806 0.00004816708060317865 0.000007166264835767322 -0.00004844918739088655
          -0.028781014207306832 -0.038093040671291156 -0.0026993784327844494 -0.2806887119632524 -0.4799446038430988 -0.17702443604202234
          -0.3119978800283967 -0.66391521511291 -0.358379339385003 -0.06239097010736927 -0.13183008528701556 0.01590334819613215
          -0.0002352175163142789 0.000005061211068912996 -0.000023020903220150046 -0.00011652906675951868 -0.00009352897636638602 0.00002029990849461427
          0.061975440754414635 0.1693963997685115 0.09042208577306798 0.16046996924779755 0.30901731745383465 0.1379010271906953
          0.05300362339680653 0.08608307688370687 0.02941174262019519 0.005021793863237534 0.0003779181220169292 -0.005093218169035296
          -0.0007199821721801669 -0.0014300414825161312 0.0005850399485662905 0.00036450611248994846 0.00044579259383326075 0.0006125269481547235
          -0.00002545360254924134 0.0001261163065020554 0.0007821295532206562 -0.0005541597443263768 -0.0008788477401040495 -0.00016926022792684847
          -0.00011744370621613598 0.00037676413049236857 0.000279383465802141 -0.0005313320368882657 -0.0002198513141538072 -0.0013445195818064803
          0.000023862131960150634 -0.000004975646671567802 0.00003526884926730034 -0.000017617455799090465 0.000054536265283289254 0.00004922164707821253
          0.000021271852769899624 -0.00004205624517794604 0.00000849787068446517 0.000039411630738506176 -0.000059334270789968 -0.00007482440822670355
          -0.000027081236384951524 -0.0000015826931401008437 -0.00003499904611459215 -0.00015668414881364612 -0.00006432404568368355 -0.0001909945966351856
          -0.0000027633317039033045 -0.00000520308960805238 -0.00001753264486747952 -0.00005580665674109753 0.000040232925325511815 0.00009270737569355703
          -0.000030290603129756732 -0.000010985991575118703 0.00006407139701014586 0.027222989641333406 0.05517836229351758 0.02823864964777112
          0.20685595330503137 0.36194539020808403 0.17279544512295697 0.12270757759404916 0.19759896181090397 0.0750522194719565
          0.03731910635819524 0.05080273555769388 0.008724419294593666 -0.0012330281167525214 -0.01457853561000988 -0.014686958688572282
          -0.00033488556871930086 -0.0011125066198180988 -0.00018934096340128548 0.0004091464377227183 -0.00014746576446178494 0.00031995692895758765
          0.00022142495732246914 -0.0003363811294541108 -0.0001889481558725592 -0.0004668951786470643 -0.0008175099793437113 -0.0007632592251365367
          -0.000756016256450387 -0.0006835397044397951 -0.0008163839146471119 -0.00044233182268715865 -0.00009669633906117525 -0.002337989663345752
          0.00003720934630191408 -0.000010254268930864896 0.0000313070331121601 -0.00004637100426130303 0.00006634568321883805 0.00007536737183144737
          5.812020322792932e-7 -0.00006371140888017379 0.000007039148801624151 0.00003623214934478369 -0.00005482801750389399 0.000008096015446490412
          -0.000025857404407858553 -0.0000031008648777586245 -0.000050697054166271016 -0.000032129336737796166 -0.000035354025936129574 -0.00006199395872563684
          0.00010001214968280436 0.000025257483549978588 0.00008363003590439178 0.00008722657607762585 0.00002003204427669658 0.00013925868298247934
          0.0000502634611967423 -0.00002842817606918402 0.00009283600413212412 0.01110416495361477 0.03116987924282011 0.04851070160804216
          0.09982030688619181 0.18413292156847794 0.08667035757311403 0.07782893279723169 0.1321642017239295 0.04903589696788213
          0.005832179250484515 -0.004382463590970609 -0.014494056233689712 -0.015908923276303888 -0.038169373365796844 -0.022594804020983794
          0.0004264778040816708 -0.0005795072444962912 -0.0016523574937155061 0.0006261938743232776 -0.0001798210443535453 -0.0007884992792090983
          0.0003203625719025993 -0.0004548790308582795 -0.001628720689736518 -0.00033026833484228746 -0.0005077906393475828 -0.0015147913076889452
          -0.0011026038106063396 -0.001576298445954194 -0.002974052269103744 -0.0003803455574420411 0.000036047772251635024 -0.003887644050427852
          0.00006573519375629999 0.0000013574576414043804 0.000004046859380935075 -0.00006928809316164575 0.00009318043786032959 0.00009362038613325296
          0.0000017806503516126782 -0.000079834350239949 0.00000972256840370278 0.00001896297285863824 -0.00003267693240616154 0.00000945352779790909
          -0.0000011739165239887939 -0.00002824073801743765 -0.000025193680076363023 -0.000022857786665220203 -0.000029887123677241334 -0.000014422804881064621
          0.00010573566421090419 0.000013695162204285793 0.00009574972441139806 0.00011324122730815844 0.000005887214903133042 0.00015832369795987233
          0.00009638349829543813 -0.000014327265813740553 0.00012452420339670311 0.14135607558008978 0.26687840135361185 0.09550028061672311
          0.11477401342689664 0.2136459611758177 0.08509671498669036 0.015855543149293716 0.03599658475413836 0.015421380247540029
          -0.04527474118950625 -0.07446074939021496 -0.034878640096996705 -0.03238981457051704 -0.04156454880670246 -0.00948995788829965
          0.00021103128551214212 -0.0002197447152472165 -0.0013293088468886438 0.0006063699626324137 -0.00047049364689488726 -0.0018233346617835267
          0.00029072907177862817 -0.0005003575623705458 -0.0020758683298147673 -0.0000731159099096601 -0.0002577471670184295 -0.0027003491975934324
          -0.0003456695256369713 -0.0008945759687808419 -0.00507642609785286 -0.00011862456595501669 0.000820867979888007 -0.005959818117037052
          0.00006858958555744366 0.00004762938699887087 0.000043105012204947 -0.000029512969486056306 0.00020473028806788918 0.00015833767621575845
          0.000007595211389599399 -0.00008072395811975497 0.000015776169835390874 0.00004848012161318138 -0.000015196154950380958 0.000021778865275656756
          0.0000035473823043474795 -0.000035644142394986034 -0.000023670332542025108 -0.000029254065097461535 -0.00003983148007069559 0.000004080191400746003
          0.0000736002903156674 -0.0000011975029874378151 0.00008723262720078395 0.00007277919793935439 -0.00003306901952360164 0.00012505081984581778
          0.00011203489153022161 -0.0000022450162919795957 0.00014169697221078081 0.03035710674395009 0.05537790402660381 0.022634311862819168
          0.02822948747656895 0.05273685754069657 0.02514058731862656 -0.0523596872202714 -0.09958879924712427 -0.04009683527372143
          -0.0911438996522973 -0.16998573079216772 -0.06458420718529112 -0.012810676163307555 -0.023236034565958796 -0.007275235750540787
          -0.0003475199138120999 -0.00009541211192232169 -0.00014885683837650987 0.0006311226844850637 -0.00048815931018619807 -0.0026154487720440045
          0.0004271593260032347 0.000005054933523318539 -0.002907056672722952 0.00008124601864256675 0.00023050688204229175 -0.003840746870589662
          -0.0005550656081307892 -0.00040609512977285434 -0.0054912169437919545 -0.0002118458109547916 0.001494952270524319 -0.005621546861000581
          0.02170832828609326 0.10090436307436601 0.05182963163721244 0.2124386776868885 0.023524901559802913 0.10998222382350864
          0.04957700383224761 0.10133465090867588 0.05303639746618316 0.00009509894670767238 0.000040412289455282746 0.0002267428515301262
          0.00014158361721516854 0.00006537879250068102 0.0003300497612261921 0.00011585562347971035 0.00008801936241198405 0.0002922509739109458
          -0.0001701273522956015 -0.00040731997262266617 0.000008821182626128632 -0.00014388233113837856 -0.0004548159334012425 -0.00017207956637488309
          0.03713363221424437 0.07199134720544009 0.03454445262285866 0.1374964618512169 0.26942859479101866 0.13173572535775335
          -0.1712893759187457 -0.3354795557745316 -0.1585678197697984 -0.2898863599509971 -0.5648114660809522 -0.27084456151755454
          -0.1163407468297395 -0.20692804342252913 -0.09105744474507738 -0.0024808006226564316 0.0005231182969032133 -0.0002480098451069779
          -0.0003738976084664003 -0.00031403243271288517 -0.0028220981865088035 0.00048700490363096094 0.00045286605901218024 -0.004243240372309387
          0.0005242635856879119 0.0007597148490035011 -0.005750374411835679 0.0005666676413067506 0.0007920553303426559 -0.008265081838578325
          0.0009400788012166039 0.0020387929056120413 -0.010668049874269059 -0.0011386882349095906 -0.0010519266548669748 -0.0114373246681021
          -0.056262047580049934 -0.02672300787561621 -0.014762472520934988 -0.34972145105492114 -0.09551771686011534 -0.0054198529733748835
          -0.07211728266871464 -0.022239747417402533 -0.15003770622188473 -0.04647944897569234 -0.07513325087829781 -0.022360054554971143
          -0.02220512448705847 -0.034297435591163605 -0.009114265369666086 -0.00039497445796854436 -0.0007753417427922571 -0.00013552089230550735
          -0.00041284048376954985 -0.0010447475565467101 -0.00007902244833957184 -0.0003237246690366291 -0.0008460674653525402 -0.0001556053602937979
          -0.00014277669774642732 -0.0002135788349022505 0.000048760761976573974 -0.0006632375818198533 -0.0008268210029305223 -0.007297039927873783
          -0.0003710310504705383 -0.00012548544071266932 -0.008696828829034331 -0.00003097260689921555 0.00032540852024354194 -0.010067795740791752
          0.000683538885643209 0.001656160894200287 -0.010907056868353582 0.0009565948132768121 0.0021468513764903996 -0.010319974749781302
          -0.0021007552561966847 -0.00274345521314201 -0.01051020557380955 0.00025795339645373616 0.00003138590773410499 -0.010505414503320765
          -0.002868194785780709 -0.0036904562210851033 -0.008741672904382547 0.004335919221241102 0.01119490231808351 -0.0021123834735066183
          -0.0028495134755561757 -0.002562361545555003 -0.003372765063906158 -0.0030136305419130593 -0.004006941274710574 -0.007916079045291458
          -0.016878399928097032 -0.01993753796412756 0.004043147002441128 -0.000045596927714441904 -8.22984906353689 0.00019964197353417035
          -16.518815742330013 -0.000011953346233717355 -8.385168116721466 0.0004486765959841321 0.0013273484721887385 0.00007833595629769263
          -0.00039807993504759054 0.000002446047695947584 -0.0012936433363837097 -0.0004119005000839948 0.0001551522483671519 -0.002251049228991775
          -0.00037949443193419086 0.0001680198756490725 -0.003915254509243127 -0.00033965722580564517 -0.00002450073220128246 -0.006286193975314269
          -0.0016324620629033504 -0.0002898883571740285 -0.0074744574986693735 0.029824173551857847 -0.0008904751407001754 -0.014423633473681363
          0.3402575377168571 0.09908890052441777 -0.015474011594536208 -0.04448945438946161 0.054512310321919166 -0.010611176955567458
          0.01874099453472411 -0.00923796335699345 -0.01289574159832707 0.28279445782266777 0.18434314973761934 0.5005759799834415
          0.26579241336179127 0.19694178984087607 0.03989521003505736 0.13577916103001542 0.2566037183561143 0.1158837285692016
          0.0186557750968106 0.03760831515495511 0.018932456619115356 0.0015401206216267838 0.002468892344079876 0.0013758340320624285
          0.0011266742312976419 0.002067109515689225 0.0011420408844973196 0.044456857838747865 0.08256499600961575 0.03720704760697302
          0.01140588258244346 0.021441019027747643 0.010347248251630248 0.07872822471402507 0.13562793777754756 0.05347614626381514
          0.10280725588739692 0.19133422738762107 0.0864098279592529 -0.24100894714505294 -0.48929151364169954 -0.25115896559719175
          -0.3289406389996241 -0.634788691779562 -0.30503133341386857 -0.10745566463040035 -0.19357055361475517 -0.08384738273406711
          -0.005291888317128013 -0.010168190991645787 -0.004176444334850871 0.0023567855647446123 0.0030883524825355835 -0.0002428421434679251
          -0.0014833117336836565 -0.003366254155260151 -0.006435746016240529 -0.00003573101931308997 -0.000025900107409881912 -0.0005721983979007916
          0.00025381332559248904 -0.010468598368188253 -0.008518126393265213 -0.0008915582153861124 -0.002662216986742294 -0.01231618180197458
          -0.0007923849187640997 -0.0022401614180758145 -0.011950359906442998 -0.00043863534475008237 -0.0015186666867155196 -0.010453687331708927
          -0.0009425766460449125 -0.0022416597383676518 -0.0009634878752393661 -0.003213020994914828 -0.00669943340661483 -0.011554662716488195
          0.0004492908138384877 0.0010165939845130367 -0.0030453482833543433 -0.002179379764026379 -0.006682817378759864 -0.005522110371952493
          0.000662053265529039 -0.00813047855123017 -0.006086247330159722 -0.002999569999968088 0.0005583781914335617 -0.0020862147329223646
          -0.0011653542101566217 0.0008560716560532811 -0.013556095706896976 -0.012678596738677328 -0.013327801679853923 0.011732095253488062
          0.0033327987121083424 0.0008362229508609431 0.001483815923394971
        </DataArray>
        <DataArray type="Float64" Name="resid_y" format="ascii" RangeMin="-0.3786188578430767" RangeMax="0.2490850512939828">
          -0.011601732837898324 -0.02189130246629338 -0.000012566709437916712 -0.00011558352334101966 -0.02545019954076026 -0.04712202704987682
          -0.00002714794195362441 -0.00017432281829474162 -0.015879999326321274 -0.021108017581477536 -0.00006188323238937032 -0.00009869709153041781
          -0.00007453910430867063 -0.00020794198502648584 -0.000012950836896837709 -0.0005629562944233601 -0.000023482062060545955 -0.00037694170987749055
          -0.000046762536832432346 -0.00030747248605068195 -0.000015644073269606082 -0.0008142686223587738 -0.000033163695833167244 -0.00048260647222233416
          -0.021684645403449603 -0.01104687393953702 -0.04244532169799809 -0.02174901956170488 -0.02033636762928856 -0.010633542164020082
          -0.045616905156899396 -0.023172548560097612 -0.08681961390054421 -0.04372567436024435 -0.04037689894258417 -0.020309714667463757
          -0.03145441414572374 -0.018955712236141002 -0.057981114572674346 -0.03596093567252032 -0.025403762522805563 -0.01617187861133078
          -0.07217892787521507 -0.027008963334702426 -0.06780209592168197 -0.08713063297655274 0.02519321259030302 -0.04566462790547547
          0.16523586224214426 0.07818205119139156 0.2490850512939828 0.18240817324987219 0.06093580401959644 0.0842564130700474
          0.0003141632615429428 -0.0007540095601203905 0.000031826577386921684 -0.0025677318419368923 0.0001159025708696651 -0.0012557115787828615
          -0.00017372764967240467 -0.0011717904221007214 0.0003532064456297553 -0.0024111743823334447 -0.00008684755815872511 -0.00123149491231243
          -0.002722348335287568 -0.001580068680822104 -0.006538611294846432 -0.004470168838487623 -0.0043349602497869694 -0.003222047342610262
          -0.005482568967388735 -0.003513014983785697 -0.011131619364514485 -0.007791597769917082 -0.00617175918503117 -0.004548078261532713
          0.007449717526412047 0.00207590102068312 0.01740624916320993 0.004914775278574628 0.010353621531839989 0.0032617225897981425
          0.00123847750290949 -0.0002097133182176799 0.0023465429655354156 -0.0013520519995280991 0.0006067404431321505 -0.0011804683816578239
          -0.0007059878579535918 -0.0009256592069576538 -0.0012080208005925738 -0.002671022178501837 -0.000807045052441344 -0.0019350646122735203
          -0.000925014904009553 -0.0009053953133252267 -0.0010797582137796954 -0.002494632800520244 -0.00009368058894858311 -0.0016121027344912012
          -0.000799696421329342 -0.001642405852758523 -0.0012200003979104118 -0.003909235160583981 -0.0007374848401935641 -0.0023063519402452062
          -0.001022361533971429 -0.001663271911236594 -0.0015074048626784256 -0.004051220756073046 -0.0010042509870882566 -0.002695466516325816
          -0.0018286427773254177 -0.001916064471910811 -0.0031101981622049454 -0.004463176610510079 -0.00166853424604654 -0.0026632333310511944
          -0.021843476131316993 -0.0001934639981725425 -0.046459913674989084 -0.00038564136319738096 -0.020762598154396725 -0.00020170949423271856
          -0.0005560749296847529 -0.0007152217852356034 -0.00036623803248138354 -0.00034965476158137774 -0.0006400570466231882 -0.0004446952368076032
          -0.021615771064937065 -0.04259683559758603 -0.020486557355682326 -0.0431477230734731 -0.08455399814073637 -0.040696645602194395
          -0.013732517466709858 -0.026686872515063628 -0.013051462504686362 -0.023218984888769625 0.05845394900001089 0.043782230777806165
          0.0979744920006533 0.08855805580780954 0.025972271895513124 -0.0014926054317718554 -0.00248583984614182 -0.0013454785494956371
          -0.0017745594063976362 -0.0023567227061244245 -0.0014333789485374525 -0.008930296806243836 -0.018745705924379255 -0.010845882105357713
          -0.004955272230776124 -0.008908321587136038 -0.004506238903783558 0.0102235016418777 0.022421676742525903 0.012140131579335134
          -0.0011826563078904465 -0.0015359843188103989 -0.0007142743791266268 -0.0022058289512731644 -0.0034735307372182056 -0.0022707222547350206
          -0.0023464119966966194 -0.0032643014299277395 -0.0017790327779568637 -0.00253830736700289 -0.00423772746800518 -0.0026134863274621303
          -0.003114357807532636 -0.0049790874116684425 -0.002762854018889732 -0.003096304451019466 -0.005266460904780328 -0.0030188978893439175
          -0.02310850021142045 -0.000021077367845828004 -0.048878448877613834 -0.00009093294886678566 -0.029289190029082215 -0.00010899787893755425
          -0.00017238480865085226 -0.00007867992759889343 -0.00017879373271600463 -0.00008909950037506043 0.000032722975621748106 -0.000054878959377415576
          -0.019460999977766714 -0.03394280042920339 -0.011276840686469735 -0.03414400673165799 -0.0723530178926075 -0.041431294814992525
          0.007025645032239916 0.014415716587596258 0.01580537995635361 0.03545898848251272 0.06985434866315787 0.02434524889814326
          0.01111222712616447 0.023239456031354168 0.011801881069748428 -0.0006927314486232867 -0.00019187475844910026 -0.00038879925382309666
          -0.0004890211019007661 -0.0008818750873857998 -0.001338330214852839 -0.015861245987185815 -0.032317879410183 -0.017757899760475655
          0.0004212003550052787 0.00338087246510263 0.0026726260416223002 0.015445387120050835 0.03202848074252218 0.016131342698599796
          -0.0005549243411659618 -0.0006630351292522263 -0.0004458103701180244 -0.0004232996759872057 0.00013100980266522733 -0.0010924682505470684
          -0.0007817881671162742 -0.00039462058957386373 -0.0009294681604126338 -0.0015481973735957943 -0.0018220856620959414 -0.0012928680988680032
          -0.0014901611772024093 -0.0017167293694895502 -0.0014056994097805026 -0.001924351841615296 -0.00309696739952333 -0.0022552902160001206
          -0.02353602358517698 -0.000021824565702613374 -0.048796241112892894 -0.00006863443123634322 -0.028388978062431486 -0.00008358941710995965
          -0.00016275385557870843 -0.00006508587920488196 -0.00014843624920351899 -0.00008846289097919654 -0.00006175218526275651 -0.00008671028895663319
          -0.008951406394144955 -0.009824630418306056 -0.0005975684464471064 -0.0124199652158484 -0.032105110285176514 -0.021546673487726438
          0.01350180410692585 0.022721697314111413 0.010628446902818438 0.010094285016757625 0.025672132769099555 0.01360770605976849
          -0.0003879347931330032 -0.0000856048641889387 -0.00036082248703761186 -0.0005779833202383799 -0.0001945818103963031 -0.0004910702633560762
          -0.009410121983408754 -0.027119203433412474 -0.01678816058437492 -0.017411153432467658 -0.025553627257491437 -0.010984492998677056
          0.008108232086051055 0.01957260947415632 0.011032582447380548 0.018901304352358254 0.03664670279566518 0.016489698464961997
          -0.0002597613010425215 0.00005799923798137374 -0.0005951992271430034 -0.0007882791829623426 -0.0004897560328384343 -0.0006856937369084243
          -0.0014091566180054818 -0.0013664068688933606 -0.0011915967490059368 -0.001065209880744905 -0.000647356715716977 -0.0007369675090400443
          -0.001108055313507078 -0.0012778926267157575 -0.0011495199054011515 -0.0020492581538704147 -0.003198208825497831 -0.0024552481408785937
          -0.025056108033124434 -0.0000388392776331653 -0.05176224042077991 -0.000035230560762433694 -0.03112253312425341 -0.00008035544998675342
          -0.00012729041233114184 -0.00011343163345235198 -0.00014118030879176416 -0.0001056535107351311 0.000020379825868440532 -0.00005521080167819126
          -0.00019537841768300576 -0.000038979263967536815 -0.00031367493497476244 -0.00021100821998166304 0.000047506335017673436 -0.00015456545050314754
          -0.0003521744265434657 -0.00009127988449182667 -0.0003341762627833821 -0.0003891534076179079 -0.00010995198318381957 -0.0003681025471215654
          -0.00042834050498894577 -0.00011195834759148218 -0.000451803101824879 -0.008541390239111475 -0.016409724039005646 -0.008766698855017997
          -0.025110090284704796 -0.05163607379286656 -0.0264584148894373 -0.003948999060871691 -0.002699598108529662 0.00041516977134770094
          0.018154049701505408 0.03870178228816098 0.019712986204165867 0.020070851500867327 0.03612615978026404 0.014043046008214016
          -0.00037397724396667775 0.0003010023702036263 -0.0001487240493181219 -0.0005267452153315325 -0.00003805318155883364 -0.00047934499128383934
          -0.001348764204007133 -0.0010722917187123149 -0.0009806601765678241 -0.0009481946313653067 -0.000259761964904244 -0.000468214030211786
          -0.0011218231483371977 -0.001255171427034572 -0.0011136164043649838 -0.0022263352453849306 -0.0034602019497524256 -0.002689473352156871
          -0.027720287404304593 -0.000029711972176285628 -0.05835731856540019 -0.00004188177594973558 -0.03803330897615732 -0.00010283183202780544
          -0.00008911506798482335 -0.00007413092229682783 -0.00010996689435824412 -0.0000936007732765011 0.00000954265676418077 -0.00014915943908342354
          -0.00013876776267302687 -0.00005898098794468454 -0.00023470302146345878 -0.0002626159366450956 0.0000033730509290917643 -0.00024112743216625834
          -0.0004214672234453907 -0.00008776175783552654 -0.00035053129129705273 -0.00041106187185248333 -0.00009873585755381178 -0.0004064999424141097
          -0.0004385020170942361 -0.00009881250720317897 -0.0005005127514960406 -0.020292172353946945 -0.04000543579445847 -0.021324615066908276
          -0.03146601556668488 -0.05899774360691941 -0.026503021091122316 0.00709379189533365 0.01704571348570597 0.009738884024011615
          0.026802459545916264 0.05477235688150966 0.026779072615620438 0.018654971175547076 0.031228843636255804 0.01000532828056111
          -0.00043215569661940456 0.0004233049308164927 0.0001408696025040762 -0.0003745188552186432 0.00024157430313635764 -0.0005014854618707043
          -0.00098659280970868 -0.00041128288094348375 -0.0007600502879359095 -0.001059905244571526 -0.00045722498312791154 -0.0004716111754109187
          -0.0010629105888391305 -0.0010865937094918753 -0.0011190038406638791 -0.0020235321312575827 -0.0029296198327126155 -0.002343726980619895
          -0.031597877783914805 -0.000049346986719156494 -0.06974637713376616 -0.00005826446759879533 -0.05176181513097732 -0.00009827212681600556
          -0.0000728858935058055 -0.00004844016703485466 -0.00009717494694249382 -0.00009336185609877187 -0.000010507677042449759 -0.0001310072047768368
          -0.00014305399624476786 -0.00004285120307171916 -0.00021217484612721244 -0.00022522964214474056 -0.00002193550851628534 -0.0002667124881006004
          -0.0003792733104997935 -0.0000811045603717718 -0.00037106464447044635 -0.000420857213074121 -0.0000870333223533526 -0.00045223169770360755
          -0.00046395889694663545 -0.00010233150516303705 -0.0005138083586524733 -0.036919829441615634 -0.07299123653185584 -0.040112783088384354
          -0.024625989146269497 -0.04390607551579662 -0.015256305679848245 0.017039834951947972 0.03528690150104836 0.017693428326964945
          0.034164203362640186 0.06729513870720032 0.031258571844597315 0.012138818221348303 0.02037136607528736 0.0059541255833626405
          -0.000609145635439054 0.0001035803150420539 -0.0003340568378519537 -0.000764442169301327 -0.00028825798683460024 -0.00041657893663926693
          -0.0007893740171874969 -0.0003335260325734446 -0.0008997116537900474 -0.0007955627934224142 -0.00009786249098739375 -0.0005400734482792768
          -0.0007892229820281281 -0.00029356369840706845 -0.0007359918104678231 -0.0016303165011602935 -0.0022260134020547807 -0.0018553437618792426
          -0.04022245087785724 -0.00007953491164935933 -0.08842099218886613 -0.00007993944742275272 -0.08584388622327058 -0.0001036884428465279
          -0.00006885440536478875 -0.00002200809671791537 -0.00010472403886193499 -0.00014443811873592755 -0.000020136469173558103 -0.00014944232187663956
          -0.00013874811654467425 -0.000040100138779183836 -0.0002086291030520479 -0.00017555918062280018 -0.0000318385840442012 -0.0002733575276328559
          -0.00034309885242470755 -0.00007716007353725793 -0.0003740544678162835 -0.00041543104129757036 -0.00006689036747416048 -0.0004411107741247068
          -0.0004667421260051291 -0.00009073138940847436 -0.0004904800972052314 -0.055343022872534564 -0.10688549228454301 -0.05115861644244876
          -0.009839113685566857 -0.01756001834222704 -0.008060396045257094 0.027824112330912705 0.05517188461581413 0.026456704185041563
          0.035581018630529045 0.06821969635226116 0.030364555796288675 0.003247833470175751 0.005861523582680758 0.0008783186147426625
          -0.0009979488895297123 -0.0008553398661198391 -0.0007978328163986415 -0.000825531205792554 0.00002678179980659945 -0.00037875655914476614
          -0.0006274493035652723 0.00005985649666691295 -0.0007146029860509717 -0.0006875563308763946 0.00011062003051154345 -0.0005637046331220807
          -0.0000868789675939341 0.0012917257735960141 -0.00013816422262966088 -0.0015459332822476898 -0.0024276540211514396 -0.0016910556677677685
          0.04482024625715918 -0.002481365880130237 0.0850740968626904 -0.0029659707986332585 0.015194438910578704 -0.0027525612986585117
          0.026427194196556304 0.05260759577124148 0.026585189437332908 -0.00030716875335208907 -0.000024264406566561203 -0.00031168917959262243
          -0.0003269227646554365 -0.00007708132094030873 -0.0004930386699906301 -0.000387951795211082 -0.00014869321170138394 -0.0007842706355043541
          -0.0010173130652742918 -0.0009662353553756275 -0.001308010873783197 -0.0010292137238222185 -0.0006087483618465173 -0.0010424333897346427
          -0.04655458188194829 -0.08963321176516276 -0.04349143048677812 -0.09210104942982426 -0.17786600831419064 -0.08545679546192478
          0.036604681442123366 0.07599319913295682 0.03763597519003656 0.07586403237953655 0.1481561918350628 0.0698590342420514
          0.018566080111210886 0.031159636362736248 0.011324624841464875 -0.0026774259584276816 -0.0039168668510398685 -0.004031581598902323
          -0.001122993767790792 0.00003100088950280799 -0.0007536000708329715 -0.0014713574586486255 -0.0009577703108538116 -0.0021601035039260363
          -0.0010608252707415833 0.0006946731833411546 -0.0014380827028658283 -0.0013508767952016276 0.0002831124574669275 -0.0017752114499189897
          -0.0015318100526050538 0.00009179899283084936 -0.002175039209608043 -0.0005747106783613454 0.0008049023611395034 -0.0024038459606138263
          0.007742655464921588 0.009573563783556116 -0.0003761159984616569 0.054834289067229314 0.026110267529625197 -0.004951994979467189
          -0.02487499556249481 -0.15979214372062972 -0.05280541093990898 -0.24465251541032296 -0.032725863622149576 0.2039060283132123
          0.036650428571197255 0.0786491249624323 0.044877933095998024 -0.00003315162410189032 -0.001233928354784572 -0.0009528485059428771
          -0.0005741278516070147 -0.0010284344180204186 -0.0009535253668050969 -0.0008164785303759678 -0.0009182683780051132 -0.0012183020612334117
          -0.001955957524805839 -0.002569810107939448 -0.001787982324379725 -0.005488859700255255 -0.009255747163224637 -0.0058664633463989535
          -0.0033316943641644725 -0.003244383062415035 -0.0034933445233255034 -0.0029742476552803154 -0.0021688481987870434 -0.003139865127238295
          -0.0019016920438862384 0.00041607030864687644 -0.002117336941052095 -0.002238825704373948 -0.0007978218773369017 -0.003704705609476
          -0.0035446352821910665 -0.005464436919144111 -0.003890433730841192 -0.0019912696273812758 0.00037548665225528577 -0.0023183769399932608
          -0.004533979189259463 -0.005030335629420568 -0.00275347531806297 -0.0033908844131185223 -0.001691742514060346 -0.003960358992317503
          -0.007767014126234262 -0.0096413960924715 -0.007101458400585514 -0.00613378567643047 -0.01022664757761016 -0.006399895979760706
          -0.007025758415490163 -0.014799875017551187 -0.0095201520264772 -0.0011684685234648745 -0.0005609673606412138 -0.002387213674502661
          -0.0021372893534244916 -0.0012681409753636016 -0.0016617413604225533 -0.0024773092370320438 -0.0037484763096653773 -0.0019899425246735145
          -0.0013125428223151048 -0.00169464436083748 -0.0012143336917097847 -0.0011667819696075943 -0.0013695917106701233 -0.0011089402026205064
          -0.0013479558475373854 -0.0015822548733117336 -0.0011941796189099962 -0.0021183320717750864 -0.002893938448882971 -0.0015558537677283768
          -0.00358236521711891 -0.005240003853919095 -0.002142387298641024 -0.03823455548350291 -0.03634104750995992 -0.009877428226180929
          -0.06589869394180126 -0.04711149069915832 -0.005841773285944596 0.019285334498054696 0.005994580319554799 0.014024474729313452
          -0.006368035942759809 -0.0023746826188728587 -0.0038292606885299563 0.012888989655392702 -0.24027562984187256 0.013503144145036394
          -0.3786188578430767 -0.024266939840653867 0.11360799533947608 0.047873598245056714 0.09475129158932019 0.04598128443167923
          0.021377132294421022 0.04412063119223496 0.021400350890652453 -0.0007083572653473064 -0.0004150423560466063 -0.0011249257040916102
          -0.0005775573096831119 -0.00013388509658439351 -0.0011850562858818983 -0.02416542703173341 -0.04298590100352547 -0.019333117191601197
          -0.007837675099140004 -0.015453917165159092 -0.008142237601060524 -0.008056577501067523 -0.013258148881722248 -0.007005510927216435
          -0.09214802403829256 -0.17572867599692382 -0.08233309831803128 -0.012652953862116872 -0.02541707540798005 -0.015667104825369482
          0.056182354931920774 0.11042600003062333 0.050766418943665265 0.051982969342138384 0.09872447077162946 0.043138815158287214
          -0.0021576537345529834 -0.0016915503884301353 -0.0018223043455883811 -0.002508993417053476 -0.004447490254405287 -0.004685392252429421
          -0.006847659874811951 -0.010839787392546318 -0.007035448161042068 -0.0024172871277391428 -0.004002011540686273 -0.0017607830093550048
          -0.004595840135199092 -0.0027378826455287664 -0.0046734578925287235 -0.003097690030150868 -0.0035539502414830837 -0.003306453022613398
          -0.0024736325800491232 -0.00242076561764748 -0.002891627776971717 -0.003941708049183701 -0.005629990849344679 -0.004299403419501857
          -0.004132696476320863 -0.0031897207728277255 -0.005201426810517162 -0.002918286953510596 -0.004068827884985804 -0.002896481677370416
          -0.003967720623002213 -0.005938921311992917 -0.003838281683887168 -0.004314608207425297 -0.005598957762064316 -0.004877280400119366
          -0.005341251315554685 -0.011153344342574645 -0.007105913777331552 -0.0005588721016026588 0.0027144387810205117 -0.0012215367689463186
          0.006237085946072085 -0.005291181694364044 -0.0001600962412862117 -0.003876655174848087 -0.00492093198564128 -0.00544595168129311
          -0.00369029727756498 -0.006281684669509735 -0.004972563593185875
        </DataArray>
        <DataArray type="Float64" Name="resid_z" format="ascii" RangeMin="0" RangeMax="0">
          0 0 0 0 0 0
          0 0 0 0 0 0
          0 0 0 0 0 0
          0 0 0 0 0 0
          0 0 0 0 0 0
          0 0 0 0 0 0
          0 0 0 0 0 0
          0 0 0 0 0 0
          0 0 0 0 0 0
          0 0 0 0 0 0
          0 0 0 0 0 0
          0 0 0 0 0 0
          0 0 0 0 0 0
          0 0 0 0 0 0
          0 0 0 0 0 0
          0 0 0 0 0 0
          0 0 0 0 0 0
          0 0 0 0 0 0
          0 0 0 0 0 0
          0 0 0 0 0 0
          0 0 0 0 0 0
          0 0 0 0 0 0
          0 0 0 0 0 0
          0 0 0 0 0 0
          0 0 0 0 0 0
          0 0 0 0 0 0
          0 0 0 0 0 0
          0 0 0 0 0 0
          0 0 0 0 0 0
          0 0 0 0 0 0
          0 0 0 0 0 0
          0 0 0 0 0 0
          0 0 0 0 0 0
          0 0 0 0 0 0
          0 0 0 0 0 0
          0 0 0 0 0 0
          0 0 0 0 0 0
          0 0 0 0 0 0
          0 0 0 0 0 0
          0 0 0 0 0 0
          0 0 0 0 0 0
          0 0 0 0 0 0
          0 0 0 0 0 0
          0 0 0 0 0 0
          0 0 0 0 0 0
          0 0 0 0 0 0
          0 0 0 0 0 0
          0 0 0 0 0 0
          0 0 0 0 0 0
          0 0 0 0 0 0
          0 0 0 0 0 0
          0 0 0 0 0 0
          0 0 0 0 0 0
          0 0 0 0 0 0
          0 0 0 0 0 0
          0 0 0 0 0 0
          0 0 0 0 0 0
          0 0 0 0 0 0
          0 0 0 0 0 0
          0 0 0 0 0 0
          0 0 0 0 0 0
          0 0 0 0 0 0
          0 0 0 0 0 0
          0 0 0 0 0 0
          0 0 0 0 0 0
          0 0 0 0 0 0
          0 0 0 0 0 0
          0 0 0 0 0 0
          0 0 0 0 0 0
          0 0 0 0 0 0
          0 0 0 0 0 0
          0 0 0 0 0 0
          0 0 0 0 0 0
          0 0 0 0 0 0
          0 0 0 0 0 0
          0 0 0 0 0 0
          0 0 0 0 0 0
          0 0 0 0 0 0
          0 0 0 0 0 0
          0 0 0 0 0 0
          0 0 0 0 0 0
          0 0 0 0 0 0
          0 0 0 0 0 0
          0 0 0 0 0 0
          0 0 0 0 0 0
          0 0 0 0 0 0
          0 0 0 0 0 0
          0 0 0 0 0 0
          0 0 0 0 0 0
          0 0 0 0 0 0
          0 0 0 0 0 0
          0 0 0 0 0 0
          0 0 0 0 0 0
          0 0 0 0 0 0
          0 0 0 0 0 0
          0 0 0 0 0 0
          0 0 0 0 0 0
          0 0 0 0 0 0
          0 0 0 0 0 0
          0 0 0 0 0 0
          0 0 0 0 0 0
          0 0 0 0 0 0
          0 0 0 0 0 0
          0 0 0 0 0 0
          0 0 0 0 0 0
          0 0 0 0 0 0
          0 0 0 0 0 0
          0 0 0 0 0 0
          0 0 0 0 0 0
          0 0 0 0 0 0
          0 0 0 0 0 0
          0 0 0 0 0 0
          0 0 0 0 0 0
          0 0 0 0 0 0
          0 0 0 0 0 0
          0 0 0 0 0 0
          0 0 0 0 0 0
          0 0 0 0 0 0
          0 0 0 0 0 0
          0 0 0 0 0 0
          0 0 0 0 0 0
          0 0 0 0 0 0
          0 0 0 0 0 0
          0 0 0 0 0 0
          0 0 0 0 0 0
          0 0 0 0 0 0
          0 0 0 0 0 0
          0 0 0 0 0 0
          0 0 0 0 0 0
          0 0 0 0 0 0
          0 0 0 0 0 0
          0 0 0
        </DataArray>
        <DataArray type="Float64" Name="stress_zz" format="ascii" RangeMin="-13671116.595911738" RangeMax="12791792.197858322">
          172984.3671397184 136704.005506531 237783.88891387812 22424.560992415885 245088.10865772248 200749.8081118681
          309167.82719760394 -287877.74610921403 317191.8501757265 264795.6107172052 380551.76548132964 -598180.0532108439
          285079.46379397495 -218967.6136883125 527270.0922611452 -933786.0658896687 769460.7207283155 -1648604.5180910248
          -12739.171292841726 -290386.8730461601 169638.84856256135 -686291.5170001651 352016.8684179645 -1082196.1609541702
          1322776.7232398852 1408220.4404618503 1265868.0743780765 1309753.1665152996 1208959.4255162678 1211285.8925687487
          5821817.23871855 6189175.442852262 5589273.8235671865 5835870.906442736 5356730.408415825 5482566.37003321
          9976011.608498968 10650832.556401337 9688247.978771815 10173017.951034402 9400484.349044662 9695203.345667472
          11615256.279801061 12383095.79995811 11357958.452784304 12587443.998908216 11100660.625767548 12791792.197858322
          7094525.103281258 7274033.594490096 6828249.079758402 7932561.151032948 6561973.056235545 8591088.7075758
          892624.6111643896 759991.9828763016 752367.0482928259 889871.011577589 612109.485421262 1019750.0402788763
          -304751.7512748093 -310015.1697399175 -288196.9262168249 -341070.2851609479 -271642.1011588405 -372125.4005819782
          302451.52401605726 113265.19929685278 359051.48699692084 204875.42856686245 415651.4499777844 296485.6578368721
          1172160.0168330793 1002853.2003619 1226983.9702435876 1044614.412261809 1281807.9236540964 1086375.624161718
          956274.9181642829 951942.9167540814 1022218.8609039186 1002733.4711442762 1088162.8036435542 1053524.0255344708
          350658.7463386615 354757.010668364 366057.87713302 373018.55338938977 381457.00792737846 391280.0961104155
          365797.89337315114 301718.58587293694 344964.8532907083 304380.5081917879 324131.8132082656 307042.430510639
          463982.0759429058 379025.37775925343 366900.2755394355 314730.1823443827 269818.4751359652 250434.98692951197
          583487.7217330381 472549.27832892677 363916.87439559714 295687.3114953218 144346.02705815627 118825.34466171684
          813711.8507543511 711930.1184926282 427551.9111515705 371322.6468543012 41391.97154879002 30715.175215974195
          1098478.6628299146 1069895.3878360738 520270.8567826929 521231.823618445 -57936.94926452893 -27431.740599183704
          114672.64484148775 301661.63444045925 190275.2672598625 329471.0044876267 265877.8896782372 357280.37453479425
          457033.301924303 581452.3076509667 705871.3133776304 96779.64624048756 222211.72034847824 347643.7944564689
          1104079.964930328 1049531.2858463053 994982.6067622826 4794548.95575218 4791505.046299157 4788461.1368461335
          8093039.672661813 8086611.164907556 8080182.6571533 9614433.706205338 8389029.859276734 7163626.012348132
          6561947.873666488 4715254.468525177 2868561.063383866 1165007.6304731758 603764.1461419414 42520.66181070675
          -205650.0213547325 -139550.22539946387 -73450.42944419525 819018.3430208412 792716.5602183416 766414.7774158417
          1610790.7977678091 1678896.0276702023 1747001.2575725953 1068681.104525682 1120302.903117945 1171924.7017102079
          419481.1556390275 389116.447893357 358751.7401476866 551106.7315777749 453888.4660549318 356670.20053208875
          701815.4856598018 505540.9147338858 309266.3438079699 862634.9975151761 526336.2971559046 190037.59679663312
          1029812.217255557 530857.5028135916 31902.788371626288 1059920.5258814446 433827.9932712622 -192264.53933891986
          149771.29851287344 -11643.22762471957 195453.00635753095 -161279.0996214121 241134.71420218845 -310914.9716181046
          -240463.0351780716 -598202.6136065942 -955942.1920351167 -252915.9287596105 -443628.3712382822 -634340.8137169539
          813529.1345027036 708387.2050503417 603245.2755979798 3357531.3115856936 3407454.0355278165 3457376.7594699403
          5631045.008228221 5645422.008797632 5659799.009367043 6263952.438345147 5188020.844492917 4112089.250640688
          3921249.894069798 2557761.85605796 1194273.8180461226 766151.4006231431 386230.38210092724 6309.363578711458
          519184.9514011771 479949.43409419735 440713.91678721766 1846408.2010536743 1789491.080871635 1732573.9606895945
          2324707.4429717925 2365280.9446147024 2405854.446257613 1319700.8466915588 1293711.5989532284 1267722.351214898
          596141.8526697858 476252.839945733 356363.8272216802 805051.3632761906 598484.9580862194 391918.5528962483
          1000069.331200729 670323.2904524626 340577.2497041964 1129984.6541109604 656563.9647135591 183143.27531615784
          1057880.9779422337 474232.83560389286 -109415.3067344479 570106.3503432168 12309.847654106212 -545486.6550350044
          217834.20643010436 -100270.56886958695 203448.21601903642 -41744.03494115616 189062.22560796852 16782.498987274623
          -496957.27881325595 -336966.02647603984 -176974.77413882385 -387193.46063012234 -286426.00262605306 -185658.54462198366
          690368.8240204009 495526.4285051662 300684.0329899314 2746265.3587072934 2452997.7413493013 2159730.1239913087
          3952691.5188537873 3657640.479454048 3362589.440054308 2836701.1073596366 2445544.7285391237 2054388.3497186108
          729221.9579270743 610724.7657850492 492227.57364302396 348064.3364973212 316447.5009371923 284830.6653770634
          1783026.7418917408 1658146.5772779125 1533266.4126640838 3133574.1054352745 3135805.463417392 3138036.8213995094
          3107089.900564369 3066455.2408258542 3025820.5810873406 1597751.911336505 1465190.855407538 1332629.79947857
          725222.1385735974 546703.9848701424 368185.8311666873 940345.1571475607 663830.3841770833 387315.6112066059
          1062634.377293707 672431.2917303081 282228.20616690896 939614.3279415937 468088.624909502 -3437.078122589817
          277674.82943402627 -129961.74086261034 -537598.311159247 -1014011.2314029812 -1122781.6967063302 -1231552.162009679
          455067.8968136518 120711.38355068196 371176.8000974506 87072.81834930553 287285.70338124945 53434.253147929114
          -300300.15525849373 -251293.5615210199 -202286.9677835461 -273266.2844518313 -215053.90468134335 -156841.52491085543
          431552.9643952319 274356.56349591434 117160.1625965968 1819315.4528627598 1399010.4659971793 978705.4791315983
          2139747.053978732 1718075.0307547946 1296403.0075308576 682488.1724598532 517045.8585253144 351603.5445907757
          -372802.41238066566 -297027.83732576633 -221253.262270867 617568.3323168529 619296.5335986892 621024.7348805257
          2964168.1157598505 2943231.9443737976 2922295.7729877457 4475948.495919207 4486548.585740934 4497148.675562661
          3760260.0831860625 3569725.642764272 3379191.2023424814 1671014.3366886016 1455811.4572988353 1240608.577909069
          590066.8000384071 446768.82158493093 303470.84313145495 607983.7601834775 428370.9677787916 248758.1753741056
          323733.04151474417 161329.59347096563 -1073.8545728129466 -519368.0158927272 -523163.4959370709 -526958.9759814148
          -2196167.2163053425 -1774304.1847282373 -1352441.1531511317 -4331621.8795214575 -3278858.9367332757 -2226095.9939450943
          1115952.2801702707 577768.7328450064 829311.0297158653 385734.30121242895 542669.7792614598 193699.86957985154
          -104331.34123620682 -136682.12506312138 -169032.90889003593 -151771.41460936348 -120297.84089103474 -88824.26717270601
          51232.08892711362 45780.09345524303 40328.09798337244 321726.61874522653 205459.43515515423 89192.25156508193
          260455.93415313476 137340.85733424884 14225.780515362912 -352706.7635246556 -247077.78204012476 -141448.8005555939
          -418446.21919289953 -293671.1352286092 -168896.05126431887 1482755.9515401449 1450929.161227292 1419102.370914439
          4585730.709018215 4596041.890818102 4606353.072617988 5829462.548588815 5745231.590601468 5661000.632614122
          3950666.1886939197 3657370.221964646 3364074.255235374 1181998.645954586 1034067.1313455557 886135.6167365251
          -146788.29627280118 -41579.88990609009 63628.51646062102 -717351.8344317471 -433837.5203616983 -150323.20629164943
          -1958506.9574591024 -1310349.5582411427 -662192.1590231832 -4055877.1695545684 -2783481.070364346 -1511084.9711741228
          -6824924.929868121 -4695436.244257028 -2565947.5586459367 -9217542.876024174 -6306629.278942674 -3395715.681861176
          2625684.532810089 1531077.1707926488 1761509.0037553643 952377.7706365992 897333.4747006394 373678.3704805495
          173619.99109731455 20625.74787281733 -132368.49535167989 -28063.303516472846 -23240.09946854337 -18416.89542061389
          -61703.979849048505 -8276.131266145117 45151.717316758266 -207044.59557994915 -119030.92112060267 -31017.246661256195
          -310935.9294605139 -210471.0169266343 -110006.10439275467 -467149.5768774139 -318854.4639808777 -170559.35108434162
          -120264.9433578439 -78081.50891458947 -35898.07447133505 2541216.893917603 2469990.1730886903 2398763.452259778
          6086408.647381127 6076021.908722028 6065635.170062928 6371662.309903702 6283077.946261711 6194493.582619723
          3120661.193884972 2998846.0878539863 2877030.981823 -151975.9273486801 39802.0300115289 231579.9873717379
          -1778729.5401674043 -1166326.9652083854 -553924.3902493663 -3345494.9456067486 -2240953.154502658 -1136411.363398568
          -5877437.898563068 -4005438.7382125743 -2133439.5778620797 -9127489.958771337 -6281937.257815219 -3436384.556859102
          -12127605.261124805 -8382800.859249453 -4637996.457374102 -13595450.38129012 -9378250.594460238 -5161050.8076303555
          4283568.630746327 2525526.765542609 4494608.198465288 2508141.949107647 4705647.766184249 2490757.132672685
          474372.5994504149 348255.61167602974 222138.6239016447 132757.02731772402 131222.12413296723 129687.22094821042
          70106.28839614522 65354.38618887816 60602.483981611134 8773.600205343027 -3765.64115364162 -16304.882512626242
          -163418.22991756044 -103056.65928192632 -42695.08864629217 -352129.0821862711 -248539.44442124222 -144949.8066562134
          427258.55678981 404188.79798620444 381119.0391825989 3768660.4348897985 3711173.7763564154 3653687.1178230317
          6821674.852181628 6796999.663624039 6772324.475066447 5694878.782500522 5550780.074188258 5406681.365875993
          1497755.3530777288 1396681.278582138 1295607.2040865468 -1853794.3807263006 -1705544.8862964595 -1557295.3918666183
          -3607050.161220696 -3218934.836013509 -2830819.5108063216 -5893502.219514661 -5218498.644808239 -4543495.070101818
          -8833296.368584797 -7842835.251859096 -6852374.135133393 -11589696.69019379 -10429571.26764817 -9269445.845102549
          -12905733.166275334 -11939981.676574107 -10974230.18687288 -12064733.134518612 -11712402.479840247 -11360071.82516188
          -5836348.234996624 -2973937.252064934 -4877743.185529299 -2371480.9210697114 -3919138.136061973 -1769024.5900744894
          134444.81490016633 253018.74803187963 371592.6811635929 204631.06917417166 210602.34233337105 216573.61549257045
          73742.44803257224 69366.04639976646 64989.6447669607 99409.05753687231 63701.24525944387 27993.432982015456
          -74388.4166183191 -40371.89648286134 -6355.376347403577 -182938.71355058654 -155889.51484239145 -128840.31613419631
          1201890.0457292662 1121462.9003764319 1041035.7550235967 4437478.201553204 4362937.530163404 4288396.858773604
          5575371.393015791 5404577.942868781 5233784.492721772 2696785.270107194 2381685.017125544 2066584.764143895
          -1007293.4986297175 -1279704.5783673096 -1552115.6581049021 -3321651.375937881 -3545904.8567463686 -3770158.3375548553
          -4991702.207033223 -5265366.276531991 -5539030.346030759 -6982788.575074822 -7395293.560412358 -7807798.5457498925
          -8861234.535844423 -9591329.387509862 -10321424.239175301 -9844378.085256657 -11168018.970320517 -12491659.85538438
          -9296887.183906883 -11484001.889909312 -13671116.595911738 -7275608.421024544 -10432397.295621492 -13589186.170218442
          -5094430.207082678 -8790646.190274976 -12486862.173467277 -2964791.187580681 -6732779.064995666 -10500766.94241065
          4275954.371704444 6893098.850038596 4401209.82165 6603918.215280382 4526465.271595556 6314737.5805221675
          1108449.4024203704 1301996.509905307 1495543.6173902436 127099.39878343692 59111.51983247741 -8876.359118482083
          -293457.7595738762 -259771.6081919209 -226085.4568099656 -209011.07015813663 -172652.9716548146 -136294.87315149262
          81172.4416235007 74091.94533942564 67011.44905535056 -6166450.445905399 -6177505.1178646255 -6188559.789823853
          -6305626.234568583 -6385814.527999643 -6466002.821430703 -5772890.41408149 -5955718.026098319 -6138545.638115147
          -4674898.935680492 -4959618.453002686 -5244337.9703248795 -3262424.486039043 -3595393.2717758836 -3928362.0575127243
          2260994.369731668 3063806.7043161104 3866619.038900553 -1489394.4516122425 -1912035.5732531112 -2334676.6948939804
          3194944.616092954 4254984.914445073 5315025.212797191 252163.93388611864 -175362.2577469529 -602888.4493800246
          3899868.7235486777 5153200.173747497 6406531.623946317 1494308.1263598697 1308349.4846506475 1122390.842941425
          4481078.381401844 5748982.450848226 7016886.5202946095 1086542.74626242 1207240.6171655527 391001.19607192907
          493836.1400328401 -304540.3541185618 -219568.33709987244 623778.9421573189 19604.118217746087 -584570.7057218268
          -456686.0805058776 -776175.5832296133 -1095665.0859533492 -2527433.7613099995 -2164685.549461331 -1801937.3376126634
          -5740924.644802363 -4145053.2325257706 -2549181.8202491794 -9496971.185038721 -6367974.065087146 -3238976.9451355706
          -11909755.018323198 -8254534.7434754865 -4599314.468627774 -9793669.085471313 -10184415.169107411 -10575161.252743509
          -6563741.990469969 -7701431.041004779 -8839120.091539588 -5879.374898677575 -2729309.007618063 -3809750.9933087276
          -4473446.721236528 -7613622.611718778 -6217584.434854992 5693905.171750542 8500036.447558146 5367510.4517141795
          7378449.298516191 5041115.731677818 6256862.149474236 2362533.1908269404 2479721.939187372 2596910.687547804
          1436823.96124296 1265701.7987328274 1094579.6362226943 1078779.2621146082 977797.456271824 876815.6504290396
          943966.7048143856 827974.4276470515 711982.1504797176 554291.2549117501 411620.7197129518 268950.1845141535
          467071.4065627299 370741.3223373033 274411.23811187677 -245005.00509379216 -341383.90669691295 -437762.8083000338
          1255335.639728159 1113069.648936597 970803.6581450349 1904430.6579552856 1805621.8199416273 1706812.981927969
          948010.6787724986 817463.1912996653 686915.7038268314 -1406653.8300361263 -1532212.8232983914 -1657771.8165606565
          -3323138.1894889483 -3355172.025442303 -3387205.861395659 -4437408.100912057 -4429350.704872062 -4421293.308832066
          -5466872.807656125 -5450291.138443547 -5433709.4692309685 -3100918.855026235 -3871024.432708913 -2877147.6765902312
          -3678306.3761353767 -2653376.4981542267 -3485588.319561841 -1862171.7434113203 -1581763.8490192315 -1301355.9546271425
          -401486.7946571056 -10828.683185458649 379829.42828618817 1020431.9667414713 1593163.4737825072 2165894.980823543
          5886682.341654662 4757102.474963745 5652417.838514772 4534288.321142469 5418153.3353748815 4311474.167321191
          6595513.570200768 6357018.788433699 6118524.006666629 6830815.294726778 6613679.176416445 6396543.058106111
          6548976.446900644 6387016.725602986 6225057.004305329 2675342.2201781464 2742479.3862931835 2699754.3805950857
          -693490.6217459727 2724166.5410120245 -4129460.629785129 4650166.822318984 5793653.274250264 6937139.726181544
          5573080.152977947 5454418.433658427 5335756.714338906
        </DataArray>
        <DataArray type="Float64" Name="peeq" format="ascii" RangeMin="0" RangeMax="0.009365045668365404">
          0 0 0 0 0 0
          0.000003967627975064111 0 0 0 0.000007935255950128223 0
          0 0 0.000010302388907044012 0 0.000020604777814088024 0
          0 0 0.000006334760931979901 0 0.000012669521863959802 0
          0 0 0 0 0 0
          0 0 0 0 0 0
          0 0 0 0 0 0
          0 0 0 0 0 0
          0 0 0 0 0 0
          0 0 5.115861067272581e-8 1.0231722134545162e-7 1.0231722134545162e-7 2.0463444269090325e-7
          3.2589546291921445e-8 6.517909258384289e-8 6.745338381868654e-8 1.3490676763737308e-7 1.0231722134545162e-7 2.0463444269090325e-7
          3.2589546291921445e-8 6.517909258384289e-8 1.6294773145960723e-8 3.2589546291921445e-8 0 0
          2.1090188408114395e-7 4.218037681622879e-7 1.0545094204057198e-7 2.1090188408114395e-7 0 0
          0.0000052979784396107745 0.000005827087848092099 0.000004816532755326315 0.0000050070658906261806 0.000004335087071041857 0.000004187043933160262
          0.000041635180671050234 0.00004160145497763291 0.000041080192313683864 0.00004076622548869777 0.000040525203956317495 0.00003993099599976264
          0.00011901847948809818 0.00011896952937847673 0.00011854861973287792 0.00011831558615615915 0.00011807875997765764 0.00011766164293384158
          0.00021009203546273788 0.0002112757983907312 0.00020958908512241654 0.00021034640826880964 0.0002090861347820952 0.00020941701814688804
          0.00028614956557628635 0.00028798981985165206 0.00028656006902705875 0.00028758708190378953 0.0002869705724778312 0.000287184343955927
          0.00032530468962658327 0.00032630304643971244 0.0003287820535083816 0.0003283291322102102 0.0003322594173901799 0.00033035521798070803
          0.0003210133760415249 0.00031777021752730226 0.00033147817290970285 0.00032599832419192936 0.00034194296977788075 0.00033422643085655645
          0 0 0 0.000003967627975064111 0 0.000007935255950128223
          0 0.000010302388907044012 0.000020604777814088024 0 0.000006334760931979901 0.000012669521863959802
          0 0 0 0 0 0
          0 0 0 0 0 0
          0 0 0 0 0 0
          0 0 0 0 0 0
          0 0 0 0.000005092428666000919 0.000005045831907658993 0.000004999235149317067
          0.00004241946027092073 0.00004241652133570637 0.000042413582400492025 0.00011879162061757828 0.00011905064461298626 0.00011930966860839424
          0.00020654141293189422 0.00020758467942725455 0.00020862794592261494 0.0002810684381191523 0.0002843638623139433 0.0002876592865087343
          0.00032365624081308894 0.00033199845475216156 0.0003403406686912342 0.00033363101802193413 0.000351206903483866 0.00036878278894579786
          0 0 0 0 0 0
          0 0 0 0 0 0
          0 0 0 0 0 0
          0 0 0 0 0 0
          0 0 0 0 0 0
          0 0 0 0 0 0
          0 0 0 0.00000600137136522883 0.000006318552962190767 0.000006635734559152705
          0.000044191593752183214 0.000045156080952039796 0.00004612056815189638 0.00011795844631818484 0.0001200051463435259 0.00012205184636886692
          0.0002011873793908136 0.00020566812171116984 0.00021014886403152608 0.00027493543387100837 0.00028425724908611485 0.00029357906430122133
          0.0003266036683159545 0.0003443359724952775 0.00036206827667460033 0.00036546206946677 0.0003958102678252956 0.0004261584661838213
          0 0 0 0 0 0
          0 0 0 0 0 0
          0 0 0 0 0 0
          0 0 0 0 0 0
          0 0 0 1.224035315115515e-7 6.120176575577575e-8 0
          1.224035315115515e-7 6.120176575577575e-8 0 0 0 0
          0 0 0 0.0000073220906809884195 0.000008386565842711417 0.000009451041004434416
          0.000046524998781058974 0.000049490269924232734 0.000052455541067406494 0.00011731721776704423 0.00012288595636417098 0.00012845469496129772
          0.00019677441523570412 0.00020739168591387392 0.00021800895659204375 0.0002741177164861076 0.00029329824651795405 0.0003124787765498006
          0.0003464078769419073 0.0003783505156214282 0.0004102931543009491 0.00043643515094767276 0.0004847020887777983 0.0005329690266079239
          0 0 0 0 0 0
          0 0 0 0 0 0
          0 0 0 0 0 0
          0 0 0 0 0 0
          0 0 0 1.224035315115515e-7 6.120176575577575e-8 0
          1.224035315115515e-7 6.120176575577575e-8 0 0 0 0
          0 0 0 0.000009479374236860458 0.000011708291040686438 0.00001393720784451242
          0.00005079433876736449 0.00005688095414144838 0.00006296756951553225 0.0001203267353044703 0.00013110662825727024 0.00014188652121007014
          0.0002009295717165746 0.0002197735541004392 0.00023861753648430384 0.00029280634939314674 0.00032390228202307074 0.0003549982146529947
          0.0004067853722410977 0.0004541655325518449 0.000501545692862592 0.0005809009675274788 0.0006463845721453342 0.0007118681767631899
          0 0 0 0 0 0
          0 0 0 0 0 0
          0 0 0 0 0 0
          0 0 0 0 0 0
          0 0 0 0 0 0
          0 0 0 0 0 0
          0 1.0582642004929705e-7 2.116528400985941e-7 0.000014051783866300878 0.000017608117604646804 0.000021164451342992727
          0.00006149422204658089 0.000070665604142436 0.0000798369862382911 0.00013550889277251453 0.0001507958359213675 0.0001660827790702205
          0.0002291362619855985 0.0002538617619366005 0.0002785872618876025 0.00035681395369748756 0.00039423518645287364 0.0004316564192082597
          0.0005468075681335279 0.0005987402525065962 0.0006506729368796645 0.0008500820970046951 0.0009153184035897245 0.0009805547101747539
          0 0 0 0 0 0
          0 0 0 0 0 0
          0 0 0 0 0 0
          0 0 0 0 0 0
          0 0 0 0 0 0
          0 0 0 0 0 0
          7.51319598506087e-7 0.0000014682985870783078 0.0000021852775756505286 0.000024708110624305033 0.00002895499311198409 0.00003320187559966315
          0.00008688297381986273 0.00009584470300205185 0.00010480643218424096 0.0001773314694934574 0.00019090291841926445 0.0002044743673450715
          0.0003053104795793751 0.0003245624682701062 0.0003438144569608372 0.0005026196510994001 0.0005270693650894682 0.0005515190790795363
          0.0008156423087106298 0.0008424031991933099 0.0008691640896759901 0.0013013680609089296 0.0013255573811622875 0.0013497467014156452
          0.0000011930907955286568 5.965453977643284e-7 5.965453977643284e-7 2.982726988821642e-7 0 0
          0 0 0 0 0 0
          9.126522856915897e-7 4.5632614284579484e-7 0 0.0000020703497562169963 0.0000010351748781084981 0
          0.0000011576974705254064 5.788487352627032e-7 0 0 0 0
          0 0 0 0 0 0
          0 0 0 0 0 0
          0.000005627551439932896 0.000007025856286220957 0.000008424161132509019 0.0000480041225583898 0.00005200344657089439 0.000056002770583398994
          0.00013551874994173328 0.00014151274507932744 0.0001475067402169216 0.00025949202822851935 0.00026669667317786146 0.0002739013181272035
          0.0004492342563357077 0.00045581909344118615 0.0004624039305466645 0.0007545722443305401 0.000756336516631464 0.0007581007889323879
          0.0012357634218119295 0.0012264103313389123 0.001217057240865895 0.0019474928927732703 0.0019199832649959203 0.0018924736372185704
          0.0000025190944775232626 0.0000012595472387616313 0.0000020938044192698836 0.000001076842543967067 0.0000016685143610165037 8.941378491725023e-7
          0 2.9940334332125234e-8 5.988066866425047e-8 0 0 0
          9.865488684684723e-7 4.932744342342362e-7 0 0.0000021442463389938787 0.0000010721231694969394 0
          0.0000011576974705254064 5.788487352627032e-7 0 0 0 0
          0 0 0 0 0 0
          0 0 0 0.000007029531980154186 0.000007728358145035379 0.00000842718430991657
          0.00004484029429664224 0.000047498680512519116 0.000050157066728395996 0.00013355695729524476 0.00013799784237754486 0.00014243872745984493
          0.0002703721781624319 0.00027556524947027416 0.0002807583207781164 0.00046551030362604567 0.00047039181973614676 0.00047527333584624785
          0.000760723403873739 0.000762838597784295 0.000764953791694851 0.0012116198402933374 0.0012066892295279873 0.0012017586187626375
          0.0018745759848473168 0.0018570162822884831 0.0018394565797296499 0.002787445161896416 0.00275138834168793 0.0027153315214794448
          0.003944224109879045 0.003889804571021758 0.0038353850321644696 0.0053164005287134825 0.0052441685600610995 0.005171936591408717
          0.00011204016759939163 0.00021151476877128764 0.0001199909202961428 0.00022896673604226757 0.00012794167299289396 0.0002464187033132475
          0.000006282783213747811 0.000005507552275008997 0.000004732321336270184 0 0 0
          7.389658277688268e-8 3.694829138844134e-8 0 7.389658277688268e-8 3.694829138844134e-8 0
          0 0 0 0.0009677707423630689 0.0009745939575806625 0.0009814171727982562
          0.001426668757333094 0.0014315508706156256 0.0014364329838981568 0.002048993099963663 0.0020497024514916713 0.0020504118030196805
          0.0028624445038375576 0.002856387444858315 0.0028503303858790708 0.0038749356199130293 0.0038597324106581965 0.0038445292014033638
          0.005141139367214602 0.005138340829882356 0.005135542292550111 0.005066460399651479 0.005040433606884404 0.00501440681411733
          0.0062243911745514914 0.006220116196987313 0.006215841219423134 0.006385196882916285 0.0063493474636473705 0.006313498044378455
          0.007338629795763132 0.007333464946129661 0.007328300096496192 0.007754831880266732 0.007713201629817725 0.007671571379368721
          0.008416125889437789 0.0084107563976913 0.008405386905944811 0.0002950614563053697 0.0002807211915899088 0.0003186090111854027
          0.0003014268339497093 0.00034215656606543566 0.0003221324763095098 0.00034268736162413227 0.0003749921729251947 0.0004072969842262572
          0.0004381976438211294 0.00048533526133356025 0.0005324728788459912 0.0006080931782104343 0.0006741723889830283 0.000740251599755622
          0.0008933554270213129 0.0009738198548230485 0.0010542842826247842 0.001348453758956127 0.0014186181023306565 0.0014887824457051862
          0.002024577144697044 0.0020377487820421834 0.002050920419387323 0.002914980699461903 0.0028679972689125617 0.00282101383836322
          0.00415625641660553 0.004086294670193378 0.004016332923781226 0.0068508581892446265 0.005660113445873635 0.006758356545009619
          0.005559984122732428 0.006665854900774612 0.00545985479959122 0.00012227229583323566 0.00022355156029207475 0.000130911135276949
          0.0002435824065637346 0.00013954997472066233 0.0002636132528353945 0.000010496515687198292 0.00000911993199508168 0.000007743348302965066
          0 0 0 0 0 0
          0 0 0 0 0 0
          0 0 0 0.0000027237034104231236 0.0000033649617037715505 0.0000040062199971199774
          0 0 0 0.0000051936817268688795 0.000005898446002011266 0.000006603210277153653
          0.000034338840258219654 0.000036214226423941224 0.000038089612589662794 0.00010090364578428066 0.0001042781866280772 0.00010765272747187376
          0.00021797419927679115 0.00022320156673465662 0.0002284289341925221 0.0003943219217959821 0.000400851547766354 0.000407381173736726
          0.0006355033539660824 0.000642661829288039 0.0006498203046099956 0.0018387876409298016 0.0013283473885961307 0.0018447107251971693
          0.0013353703113873484 0.0018506338094645372 0.0013423932341785662 0.0024749072900008455 0.0024789107455559477 0.0024829142011110494
          0.0032426790396722924 0.0032442848424484604 0.003245890645224628 0.004137046115721437 0.004136248489485519 0.004135450863249602
          0.006325015449810607 0.005421888327634114 0.0063185628440427565 0.005415960665082367 0.006312110238274906 0.0054100330025306205
          0.007216872949826193 0.007210999011453776 0.007205125073081358 0.008052617394772194 0.008047965818457879 0.008043314242143561
          0.008768468600029469 0.008765149507363162 0.008761830414696855 0.009075268164534047 0.008426823100006128 0.009032922878335306
          0.008325632101772085 0.008990577592136569 0.008224441103538043 0.009365045668365404 0.009360056369813425 0.00935506707126145
          0.009275164813662579 0.009273285689170544 0.009271406564678508
        </DataArray>
        <DataArray type="Float64" Name="pe11" format="ascii" RangeMin="0" RangeMax="0.009352347964285329">
          0 0 0 0 0 0
          0.0000039573622795013915 0 0 0 0.000007914724559002783 0
          0 0 0.000010284128826337366 0 0.000020568257652674732 0
          0 0 0.000006326766546835974 0 0.000012653533093671948 0
          0 0 0 0 0 0
          0 0 0 0 0 0
          0 0 0 0 0 0
          0 0 0 0 0 0
          0 0 0 0 0 0
          0 0 5.115349690835808e-8 1.0230699381671616e-7 1.0230699381671616e-7 2.0461398763343232e-7
          3.2585682310780646e-8 6.517136462156129e-8 6.74463380637484e-8 1.348926761274968e-7 1.0230699381671616e-7 2.0461398763343232e-7
          3.2585682310780646e-8 6.517136462156129e-8 1.6292841155390323e-8 3.2585682310780646e-8 0 0
          2.1086502555181842e-7 4.2173005110363684e-7 1.0543251277590921e-7 2.1086502555181842e-7 0 0
          0.000005297425303133183 0.000005826416723850287 0.000004816033267590645 0.000005006518265121314 0.000004334641232048108 0.00000418661980639234
          0.000041632317278334814 0.00004159910644518069 0.00004107705238833523 0.00004076398845166205 0.00004052178749833564 0.0000399288704581434
          0.00011900741421366077 0.00011895993230631982 0.00011853715015572742 0.00011830611972878985 0.00011806688609779405 0.00011765230715125988
          0.00021005544400278154 0.00021124305088004539 0.00020955103203269514 0.00021031194920522034 0.00020904662006260868 0.00020938084753039526
          0.00028605597778498477 0.0002879019750031362 0.0002864650920038458 0.00028749600213285464 0.00028687420622270683 0.0002870900292625731
          0.0003251371580014005 0.0003261406080559281 0.0003286254966986526 0.000328173140886344 0.00033211383539590467 0.00033020567371676003
          0.00032080435933388887 0.000317569908890712 0.0003313094259646364 0.00032583065659075105 0.00034181449259538393 0.0003340914042907901
          0 0 0 0.0000039573622795013915 0 0.000007914724559002783
          0 0.000010284128826337366 0.000020568257652674732 0 0.000006326766546835974 0.000012653533093671948
          0 0 0 0 0 0
          0 0 0 0 0 0
          0 0 0 0 0 0
          0 0 0 0 0 0
          0 0 0 0.000005091949352756141 0.000005045306494858843 0.000004998663636961545
          0.000042414779049317153 0.000042411205533392874 0.000042407632017468595 0.00011877391706631146 0.00011903210231114836 0.00011929028755598524
          0.0002064913231229351 0.00020753419449899717 0.00020857706587505933 0.0002809586290854514 0.00028425782424806536 0.0002875570194106794
          0.0003234751026797203 0.00033184072135382126 0.0003402063400279222 0.0003333912895903016 0.0003510263892907377 0.0003686614889911739
          0 0 0 0 0 0
          0 0 0 0 0 0
          0 0 0 0 0 0
          0 0 0 0 0 0
          0 0 0 0 0 0
          0 0 0 0 0 0
          0 0 0 0.000006000721384803882 0.00000631768682122886 0.0000066346522576538376
          0.00004418302577526122 0.00004514704511509233 0.00004611106445492345 0.00011792780252218861 0.00011997398284756287 0.00012202016317293716
          0.00020111605237710343 0.00020559733502781055 0.00021007861767851764 0.0002748054363570874 0.00028413641328046133 0.0002934673902038352
          0.0003264071803489059 0.00034417553077631754 0.0003619438812037291 0.000365144063035643 0.00039555999912368805 0.00042597593521173313
          0 0 0 0 0 0
          0 0 0 0 0 0
          0 0 0 0 0 0
          0 0 0 0 0 0
          0 0 0 1.2229844771454607e-7 6.114922385727304e-8 0
          1.2229844771454607e-7 6.114922385727304e-8 0 0 0 0
          0 0 0 0.000007321075376731848 0.000008384453632437594 0.000009447831888143342
          0.00004651200724143812 0.00004947492514230293 0.000052437843043167725 0.00011727237496831142 0.000122837504118171 0.00012840263326803055
          0.00019668347236173237 0.0002072963624057886 0.0002179092524498449 0.0002739791569529775 0.00029316209860450886 0.0003123450402560402
          0.0003462028679325678 0.0003781636357871573 0.00041012440364174675 0.0004358805684815457 0.00048414469950795454 0.0005324088305343635
          0 0 0 0 0 0
          0 0 0 0 0 0
          0 0 0 0 0 0
          0 0 0 0 0 0
          0 0 0 1.2229844771454607e-7 6.114922385727304e-8 0
          1.2229844771454607e-7 6.114922385727304e-8 0 0 0 0
          0 0 0 0.000009477618921089381 0.000011704872467703757 0.000013932126014318133
          0.00005077700255188924 0.00005685806554070344 0.00006293912852951764 0.0001202711768092465 0.00013103808115608417 0.00014180498550292182
          0.0002008332005724761 0.00021965131320105015 0.00023846942582962414 0.00029268657131237643 0.00032373551712231206 0.0003547844629322476
          0.00040651873772144895 0.000453801869429413 0.0005010850011373769 0.0005795014187302937 0.0006447391968086289 0.0007099769748869641
          0 0 0 0 0 0
          0 0 0 0 0 0
          0 0 0 0 0 0
          0 0 0 0 0 0
          0 0 0 0 0 0
          0 0 0 0 0 0
          0 1.0580983779189013e-7 2.1161967558378027e-7 0.000014048504500771283 0.000017602679808864764 0.000021156855116958243
          0.00006147115048985385 0.00007063228975749266 0.00007979342902513149 0.00013544670226167107 0.0001507034759061878 0.00016596024955070453
          0.00022904272035956797 0.00025369598483521475 0.00027834924931086156 0.00035663758268494807 0.00039390831037882236 0.00043117903807269665
          0.0005458805731865434 0.0005975484700338263 0.0006492163668811094 0.0008455507644673209 0.0009103878391448307 0.0009752249138223403
          0 0 0 0 0 0
          0 0 0 0 0 0
          0 0 0 0 0 0
          0 0 0 0 0 0
          0 0 0 0 0 0
          0 0 0 0 0 0
          7.512566017858666e-7 0.0000014680914409262865 0.0000021849262800667065 0.00002470143689977777 0.00002894467352204123 0.00003318791014430469
          0.00008684735422536302 0.00009579243846472053 0.000104737522704078 0.00017723465647361626 0.00019075928371601987 0.0002042839109584235
          0.00030504936559817256 0.0003242034763774613 0.00034335758715675006 0.0005015676300973288 0.0005258949057934419 0.0005502221814895553
          0.0008112877776570695 0.0008380906706433829 0.0008648935636296962 0.0012870984099206668 0.0013118584750932078 0.0013366185402657487
          0.0000011897021356595081 5.948510678297541e-7 5.948510678297541e-7 2.9742553391487704e-7 0 0
          0 0 0 0 0 0
          9.120821378914853e-7 4.5604106894574263e-7 0 0.0000020676629384324787 0.0000010338314692162393 0
          0.0000011555808005409934 5.777904002704967e-7 0 0 0 0
          0 0 0 0 0 0
          0 0 0 0 0 0
          0.0000056267385458108615 0.000007024169193975599 0.000008421599842140337 0.000047987575996880976 0.00005197815474568914 0.000055968733494497315
          0.0001354385479872906 0.0001413966720868225 0.00014735479618635435 0.00025920258740475466 0.00026629822373114124 0.00027339386005752783
          0.00044812532347774563 0.00045444217491524217 0.0004607590263527387 0.0007504113001961082 0.0007516597317942007 0.000752908163392293
          0.0012225437832454336 0.0012124246045202693 0.001202305425795105 0.0019139240227081683 0.001885532974361898 0.0018571419260156275
          0.000002513891561112101 0.0000012569457805560505 0.0000020897606994198693 0.0000010747695280310148 0.000001665629837727638 8.925932755059793e-7
          0 2.9889178321080095e-8 5.977835664216019e-8 0 0 0
          9.859665603072747e-7 4.929832801536374e-7 0 0.0000021415473608482684 0.0000010707736804241342 0
          0.0000011555808005409934 5.777904002704967e-7 0 0 0 0
          0 0 0 0 0 0
          0 0 0 0.000007027452099505166 0.000007725612859127979 0.000008423773618750792
          0.000044821765590093786 0.000047475058249546823 0.000050128350908999854 0.00013346955453530618 0.0001378894832963766 0.000142309412057447
          0.00027003454486805285 0.0002751655537495696 0.0002802965626310863 0.0004643314432344594 0.0004690572825783887 0.0004737831219223179
          0.0007570001971576089 0.0007587759005180704 0.000760551603878532 0.0012012419380923798 0.0011956512480535472 0.0011900605580147145
          0.0018497513298727257 0.0018310292862174454 0.0018123072425621656 0.0027374931132610985 0.0026996135404013678 0.0026617339675416365
          0.0038603826993632794 0.0038033867296315823 0.003746390759899885 0.005197240281644592 0.005122064013874607 0.005046887746104622
          0.00011133630330871342 0.000210125761214164 0.00011895469642370309 0.00022690740951637203 0.00012657308953869275 0.00024368905781858006
          0.00000627342270163143 0.000005500991665517078 0.000004728560629402726 0 0 0
          7.388442241578949e-8 3.6942211207894746e-8 0 7.388442241578949e-8 3.6942211207894746e-8 0
          0 0 0 0.0009633582191173249 0.0009700517879787144 0.0009767453568401041
          0.0014172475533191877 0.0014219289316547649 0.0014266103099903422 0.0020309121604888142 0.0020313349362962047 0.0020317577121035956
          0.0028313970373353833 0.0028249683277169263 0.0028185396180984692 0.0038276105241182383 0.003811990677566064 0.00379637083101389
          0.005108292578102031 0.005105008024393803 0.005101723470685578 0.005002912293752833 0.004976514569165729 0.004950116844578625
          0.006191301023010654 0.006186499535619797 0.006181698048228938 0.00631053270575355 0.006274391759073298 0.006238250812393043
          0.007309674770691388 0.007304039091809255 0.007298403412927122 0.0076787134158210245 0.007636852020895537 0.007594990625970048
          0.008394938407911931 0.008389213432480454 0.008383488457048975 0.0002948572305746267 0.00028056156696654286 0.00031845146151511386
          0.0003013069624644484 0.000342045692455601 0.0003220523579623539 0.00034229476635222846 0.0003746547820681873 0.00040701479778414607
          0.00043724500162372194 0.0004843950784720573 0.0005315451553203926 0.0006056330485687673 0.0006715197605859428 0.0007374064726031182
          0.0008870929016074989 0.0009669715338610182 0.0010468501661145377 0.001332964195274708 0.0014026259715312999 0.001472287747787892
          0.0019889942217632102 0.0020035152836849228 0.002018036345606635 0.00284755745507334 0.0027995756861239757 0.002751593917174611
          0.004045478625885597 0.003974617006355891 0.003903755386826186 0.00670543853353687 0.00550720762848133 0.006610389243633144
          0.005406474250364182 0.0065153399537294186 0.005305740872247036 0.00012150970387232554 0.00022205517231284647 0.0001297657659641842
          0.00024131333970026848 0.0001380218280560429 0.00026057150708769044 0.000010482117715902309 0.000009109096114049987 0.000007736074512197665
          0 0 0 0 0 0
          0 0 0 0 0 0
          0 0 0 0.00000272314110153051 0.0000033641067781180047 0.000004005072454705499
          0 0 0 0.000005192111453935731 0.000005896401519677144 0.000006600691585418557
          0.000034324130343322065 0.000036197029901121685 0.0000380699294589213 0.00010083987630275328 0.00010420627880723645 0.00010757268131171964
          0.00021774854291570987 0.0002229560717013403 0.00022816360048697067 0.00039363032254836623 0.00040011866411936473 0.00040660700569036324
          0.0006336481360147651 0.0006407306214063846 0.0006478131067980042 0.001828477404910121 0.0013224408472960027 0.001834317282373075
          0.0013294091114205062 0.001840157159836029 0.00133637737554501 0.0024587384540599878 0.0024626020833673204 0.0024664657126746534
          0.003219856483302601 0.0032212240598866156 0.00322259163647063 0.004108112389647648 0.004106944326500977 0.004105776263354306
          0.006306558566793888 0.00540082566287265 0.006299747287362558 0.0053946307477409795 0.0062929360079312276 0.005388435832609308
          0.007203128049247012 0.007196846357335798 0.007190564665424582 0.008044141817385523 0.008039105107985747 0.008034068398585968
          0.008763048170035596 0.008759443217365707 0.008755838264695816 0.009009809360071256 0.008275087383384054 0.008967226740067988
          0.008171833287600377 0.008924644120064721 0.0080685791918167 0.009352347964285329 0.009347135950375982 0.009341923936466632
          0.009266629737625032 0.009264615926316973 0.00926260211500891
        </DataArray>
        <DataArray type="Float64" Name="pe22" format="ascii" RangeMin="-0.004833498042160255" RangeMax="0">
          0 0 0 0 0 0
          -0.0000017818654476670138 0 0 0 -0.0000035637308953340277 0
          0 0 -0.000004757702972588545 0 -0.00000951540594517709 0
          0 0 -0.0000029758375249215313 0 -0.000005951675049843063 0
          0 0 0 0 0 0
          0 0 0 0 0 0
          0 0 0 0 0 0
          0 0 0 0 0 0
          0 0 0 0 0 0
          0 0 -2.5131417532078317e-8 -5.026283506415663e-8 -5.026283506415663e-8 -1.0052567012831327e-7
          -1.585941366763086e-8 -3.171882733526172e-8 -3.306112436589374e-8 -6.612224873178749e-8 -5.026283506415663e-8 -1.0052567012831327e-7
          -1.585941366763086e-8 -3.171882733526172e-8 -7.92970683381543e-9 -1.585941366763086e-8 0 0
          -1.0202158778943158e-7 -2.0404317557886316e-7 -5.101079389471579e-8 -1.0202158778943158e-7 0 0
          -0.000002585979202958722 -0.0000028380269934796796 -0.00000235155199058363 -0.0000024404477589804353 -0.000002117124778208538 -0.0000020428685244811915
          -0.000020619028655217417 -0.000020570972053680046 -0.00002033310527511229 -0.00002016471439468149 -0.00002004718189500716 -0.00001975845673568293
          -0.0000598100955699813 -0.000059678529303739476 -0.00005955303682472803 -0.00005938370454575271 -0.00005929597807947476 -0.000059088879787765935
          -0.00010753720798417113 -0.00010801186042562648 -0.00010732694039403304 -0.00010765436718703902 -0.00010711667280389492 -0.00010729687394845155
          -0.00014893948588473404 -0.0001497843503769878 -0.00014918217082967214 -0.00014970180334848346 -0.00014942485577461024 -0.00014961925631997916
          -0.00017138728410928412 -0.0001718014924862458 -0.00017284344411642327 -0.00017267694560323116 -0.00017429960412356245 -0.00017355239872021645
          -0.00017003393878265872 -0.00016836009901470826 -0.00017419807340547604 -0.00017164116331043445 -0.0001783622080282933 -0.0001749222276061607
          0 0 0 -0.0000017818654476670138 0 -0.0000035637308953340277
          0 -0.000004757702972588545 -0.00000951540594517709 0 -0.0000029758375249215313 -0.000005951675049843063
          0 0 0 0 0 0
          0 0 0 0 0 0
          0 0 0 0 0 0
          0 0 0 0 0 0
          0 0 0 -0.000002497982235625947 -0.000002472823858112455 -0.000002447665480598963
          -0.00002107739540130961 -0.000021048895858230154 -0.000021020396315150692 -0.00005988588538763448 -0.000059940481530028855 -0.00005999507767242323
          -0.00010599345463918333 -0.00010642333937547368 -0.00010685322411176402 -0.00014660944808334397 -0.00014802421956066836 -0.00014943899103799277
          -0.00017076779898446764 -0.00017417642986432578 -0.0001775850607441839 -0.00017637167669104858 -0.00018327764287279103 -0.0001901836090545335
          0 0 0 0 0 0
          0 0 0 0 0 0
          0 0 0 0 0 0
          0 0 0 0 0 0
          0 0 0 0 0 0
          0 0 0 0 0 0
          0 0 0 -0.0000029597083931557567 -0.0000031054257604050306 -0.000003251143127654304
          -0.000022033158223007698 -0.00002247213549865032 -0.000022911112774292937 -0.00005962339500245751 -0.000060537660701101 -0.00006145192639974449
          -0.00010353939464982368 -0.00010547884335482273 -0.0001074182920598218 -0.0001437846868321466 -0.00014768298932603716 -0.00015158129181992768
          -0.00017233265012416327 -0.00017946794688725057 -0.00018660324365033792 -0.0001917037750492035 -0.00020323124594269108 -0.00021475871683617864
          0 0 0 0 0 0
          0 0 0 0 0 0
          0 0 0 0 0 0
          0 0 0 0 0 0
          0 0 0 -5.684050605294028e-8 -2.842025302647014e-8 0
          -5.684050605294028e-8 -2.842025302647014e-8 0 0 0 0
          0 0 0 -0.0000036340219697185446 -0.000004118058842652552 -0.000004602095715586559
          -0.000023312881498164132 -0.000024654438394259996 -0.000025995995290355863 -0.00005954669411854193 -0.00006202874683916512 -0.00006451079955978834
          -0.00010153359571627235 -0.0001061117205624276 -0.00011068984540858286 -0.00014330294166958876 -0.0001512213111685619 -0.00015913968066753507
          -0.00018144002725289834 -0.00019388664865961085 -0.00020633327006632342 -0.0002240051740364143 -0.00024108151282011266 -0.0002581578516038111
          0 0 0 0 0 0
          0 0 0 0 0 0
          0 0 0 0 0 0
          0 0 0 0 0 0
          0 0 0 -5.684050605294028e-8 -2.842025302647014e-8 0
          -5.684050605294028e-8 -2.842025302647014e-8 0 0 0 0
          0 0 0 -0.000004730757944049373 -0.000005785495093706703 -0.000006840232243364032
          -0.000025548577238836096 -0.00002834203226921907 -0.00003113548729960204 -0.00006118839922567446 -0.00006593590858534671 -0.00007068341794501894
          -0.0001033581078109994 -0.0001113611713445969 -0.0001193642348781944 -0.0001512540906490418 -0.00016370458354019623 -0.0001761550764313506
          -0.00020737602566373584 -0.00022467113554137935 -0.00024196624541902287 -0.0002843140921774751 -0.0003049759083541419 -0.00032563772453080865
          0 0 0 0 0 0
          0 0 0 0 0 0
          0 0 0 0 0 0
          0 0 0 0 0 0
          0 0 0 0 0 0
          0 0 0 0 0 0
          0 -5.20798503968994e-8 -1.041597007937988e-7 -0.0000070241184369467454 -0.000008736047869577274 -0.000010447977302207804
          -0.00003083700665147461 -0.00003508222366158448 -0.000039327440671694344 -0.00006828274875770609 -0.0000749813690202997 -0.00008167998928289334
          -0.00011552973233528612 -0.00012577175929106055 -0.00013601378624683496 -0.00017739665882460947 -0.00019159749825240388 -0.00020579833768019835
          -0.00026198095521648445 -0.0002793013734001424 -0.0002966217915838003 -0.0003832627845545468 -0.00040124554952183054 -0.0004192283144891143
          0 0 0 0 0 0
          0 0 0 0 0 0
          0 0 0 0 0 0
          0 0 0 0 0 0
          0 0 0 0 0 0
          0 0 0 0 0 0
          -3.709589625693742e-7 -7.22056955346826e-7 -0.0000010731549481242777 -0.000012247576102156706 -0.000014269691570855992 -0.000016291807039555278
          -0.00004291500602683939 -0.0000470102255400653 -0.00005110544505329121 -0.00008696004055739141 -0.00009282194217080967 -0.0000986838437842279
          -0.00014679099584164292 -0.0001545195017319984 -0.0001622480076223539 -0.00023197921274134114 -0.00024083874762919073 -0.00024969828251704044
          -0.0003540197662199907 -0.00036254112688102286 -0.000371062487542055 -0.0005252824661876416 -0.0005317339210711282 -0.0005381853759546148
          -5.35002982364428e-7 -2.67501491182214e-7 -2.67501491182214e-7 -1.33750745591107e-7 0 0
          0 0 0 0 0 0
          -4.4031529946601e-7 -2.20157649733005e-7 0 -9.973109326550752e-7 -4.986554663275376e-7 0
          -5.569956331890651e-7 -2.7849781659453256e-7 0 0 0 0
          0 0 0 0 0 0
          0 0 0 0 0 0
          -0.0000027505067430332826 -0.0000034205768347106987 -0.000004090646926388115 -0.00002338450864323733 -0.00002520650454927436 -0.00002702850045531139
          -0.00006523475609709844 -0.00006773506185390672 -0.00007023536761071502 -0.00012193947927103029 -0.00012453304303489682 -0.00012712660679876334
          -0.00020207922611935775 -0.00020371135151931347 -0.00020534347691926916 -0.00031825304535342263 -0.00031723828661488 -0.0003162235278763373
          -0.0004827474939710897 -0.00047752027666244355 -0.00047229305935379736 -0.0007062892151069795 -0.0006962578270534355 -0.0006862264389998915
          -0.00000117715991093635 -5.88579955468175e-7 -9.937981319754607e-7 -5.118607069165539e-7 -8.104363530145712e-7 -4.3514145836493267e-7
          0 -1.4961640928823524e-8 -2.992328185764705e-8 0 0 0
          -4.761908438510018e-7 -2.380954219255009e-7 0 -0.0000010331864770400669 -5.165932385200334e-7 0
          -5.569956331890651e-7 -2.7849781659453256e-7 0 0 0 0
          0 0 0 0 0 0
          0 0 0 -0.0000034044238599236854 -0.0000037270751466604275 -0.0000040497264333971695
          -0.00002160741788781503 -0.00002277718119764331 -0.000023946944507471597 -0.00006376140438925379 -0.0000654749018307352 -0.00006718839927221662
          -0.00012633419099555664 -0.00012781308033188012 -0.00012929196966820366 -0.00020976744602806406 -0.00021019699081063382 -0.00021062653559320363
          -0.00032621553215425185 -0.00032422311397619014 -0.00032223069579812843 -0.0004899082353014432 -0.0004838380844567673 -0.0004777679336120915
          -0.0007138058244519022 -0.0007025829204046338 -0.0006913600163573651 -0.0010095790709015709 -0.00099351897961254 -0.000977458888323509
          -0.0013878188049762355 -0.0013702015841956443 -0.0013525843634150535 -0.0018658780550827058 -0.001850156681408703 -0.0018344353077346998
          -0.00005196603586544205 -0.00009815426876346809 -0.000053431712758355874 -0.00010174527164282246 -0.0000548973896512697 -0.00010533627452217684
          -0.0000028889014837080115 -0.000002559076936944644 -0.000002229252390181277 0 0 0
          -3.587554438499179e-8 -1.7937772192495895e-8 0 -3.587554438499179e-8 -1.7937772192495895e-8 0
          0 0 0 -0.00042763121588902816 -0.00042750772479414656 -0.00042738423369926507
          -0.0006109154921896939 -0.000608868562140132 -0.00060682163209057 -0.0008526768562794192 -0.0008483205247357061 -0.000843964193191993
          -0.0011652887962845771 -0.0011588905509145326 -0.0011524923055444883 -0.0015594118812734582 -0.0015521177869585526 -0.001544823692643647
          -0.0022758261886857995 -0.0022754573193011353 -0.00227508844991647 -0.002042573112302144 -0.0020359628964210633 -0.0020293526805399823
          -0.0028087491443335414 -0.0028106984888434643 -0.002812647833353386 -0.002614978601093345 -0.002610860559658814 -0.0026067425182242834
          -0.0033961562330514575 -0.0034009305358929844 -0.0034057048387345105 -0.003266423664856877 -0.0032665553165410173 -0.0032666869682251567
          -0.00401157797678818 -0.004019504564974172 -0.004027431153160163 -0.0001548920624160014 -0.00014784222081358126 -0.00016395676989411633
          -0.00015592792239156099 -0.00017302147737223127 -0.0001640136239695407 -0.00017786965881913273 -0.0001897487582609596 -0.00020162785770278652
          -0.00022222830591153516 -0.0002381188347761055 -0.00025400936364067587 -0.0002962198065469175 -0.0003155884687601432 -0.0003349571309733689
          -0.0004085726722377394 -0.0004280582673342904 -0.00044754386243084127 -0.0005647849111468509 -0.0005784372190362306 -0.0005920895269256102
          -0.0007638129875506662 -0.0007658325025822941 -0.0007678520176139219 -0.0010008864592009094 -0.0009881937723600868 -0.0009755010855192643
          -0.0013934629908502701 -0.0013802752011193872 -0.0013670874113885041 -0.0024598380384966397 -0.001913634441317665 -0.0024467990689886693
          -0.0018997776682412157 -0.0024337600994806985 -0.0018859208951647664 -0.000056875008787118494 -0.00010396530018345562 -0.00005846443522001227
          -0.00010834096552700966 -0.00006005386165290606 -0.00011271663087056371 -0.000004892358695390685 -0.0000042939524565074416 -0.000003695546217624198
          0 0 0 0 0 0
          0 0 0 0 0 0
          0 0 0 -0.0000013304583736732649 -0.0000016355898739974362 -0.0000019407213743216075
          0 0 0 -0.0000025280484503492816 -0.00000285616428185437 -0.000003184280113359459
          -0.000016665576521727094 -0.00001748436724817979 -0.000018303157974632484 -0.000048637587628587095 -0.000049982025323949924 -0.00005132646301931276
          -0.00010374984160558724 -0.00010558853261436814 -0.00010742722362314906 -0.00018425137636605702 -0.00018603858057947658 -0.00018782578479289617
          -0.00028948246647743527 -0.0002906291948450272 -0.00029177592321261907 -0.0008135287383636695 -0.0005972718005798323 -0.0008122467049646788
          -0.0005970643298180145 -0.0008109646715656882 -0.0005968568590561966 -0.0010829546827294317 -0.0010807821378467062 -0.0010786095929639808
          -0.0014131153659256547 -0.0014106390557412584 -0.0014081627455568618 -0.0018097795115327635 -0.001807875170193457 -0.0018059708288541505
          -0.0029660561323955007 -0.0024960900507892333 -0.0029671689228038794 -0.0024956707550668838 -0.0029682817132122585 -0.0024952514593445337
          -0.0034613145088762073 -0.0034642963490106506 -0.0034672781891450944 -0.003961388467706961 -0.003966494259306785 -0.003971600050906609
          -0.004430833860200064 -0.004438219888638766 -0.004445605917077467 -0.003969855946818802 -0.003158741709409151 -0.003975124679817859
          -0.0031505939923535987 -0.003980393412816916 -0.0031424462752980466 -0.004608273020479894 -0.004619564100280876 -0.004630855180081859
          -0.004813856500231988 -0.004823677271196121 -0.004833498042160255
        </DataArray>
        <DataArray type="Float64" Name="pe33" format="ascii" RangeMin="-0.005116345673974904" RangeMax="0">
          0 0 0 0 0 0
          -0.000002175496831834377 0 0 0 -0.000004350993663668754 0
          0 0 -0.000005526425853748821 0 -0.000011052851707497642 0
          0 0 -0.0000033509290219144437 0 -0.0000067018580438288875 0
          0 0 0 0 0 0
          0 0 0 0 0 0
          0 0 0 0 0 0
          0 0 0 0 0 0
          0 0 0 0 0 0
          0 0 -2.602207937627976e-8 -5.204415875255952e-8 -5.204415875255952e-8 -1.0408831750511904e-7
          -1.6726268643149787e-8 -3.3452537286299575e-8 -3.4385213697854654e-8 -6.877042739570931e-8 -5.204415875255952e-8 -1.0408831750511904e-7
          -1.6726268643149787e-8 -3.3452537286299575e-8 -8.363134321574894e-9 -1.6726268643149787e-8 0 0
          -1.0884343776238685e-7 -2.176868755247737e-7 -5.442171888119343e-8 -1.0884343776238685e-7 0 0
          -0.00000271144610017446 -0.0000029883897303706073 -0.0000024644812770070147 -0.000002566070506140878 -0.0000022175164538395704 -0.000002143751281911149
          -0.000021013288623117404 -0.000021028134391500647 -0.000020743947113222936 -0.00002059927405698055 -0.000020474605603328472 -0.000020170413722460457
          -0.000059197318643679465 -0.000059281403002580326 -0.000058984113330999367 -0.000058922415183037116 -0.000058770908018319275 -0.0000585634273634939
          -0.0001025182360186104 -0.00010323119045441893 -0.00010222409163866206 -0.0001026575820181813 -0.00010192994725871375 -0.00010208397358194368
          -0.00013711649190025076 -0.00013811762462614843 -0.00013728292117417363 -0.00013779419878437115 -0.00013744935044809653 -0.00013747077294259388
          -0.0001537498738921164 -0.00015433911556968222 -0.00015578205258222924 -0.0001554961952831129 -0.00015781423127234217 -0.00015665327499654358
          -0.00015077042055123012 -0.00014920980987600374 -0.0001571113525591603 -0.00015418949328031655 -0.00016345228456709053 -0.0001591691766846294
          0 0 0 -0.000002175496831834377 0 -0.000004350993663668754
          0 -0.000005526425853748821 -0.000011052851707497642 0 -0.0000033509290219144437 -0.0000067018580438288875
          0 0 0 0 0 0
          0 0 0 0 0 0
          0 0 0 0 0 0
          0 0 0 0 0 0
          0 0 0 -0.0000025939671171301925 -0.0000025724826367463873 -0.000002550998156362582
          -0.000021337383648007544 -0.00002136230967516272 -0.000021387235702317897 -0.00005888803167867697 -0.00005909162078111948 -0.000059295209883561994
          -0.00010049786848375175 -0.00010111085512352352 -0.00010172384176329531 -0.00013434918100210742 -0.000136233604687397 -0.00013811802837268664
          -0.00015270730369525262 -0.0001576642914894954 -0.00016262127928373823 -0.000157019612899253 -0.00016774874641794672 -0.00017847787993664036
          0 0 0 0 0 0
          0 0 0 0 0 0
          0 0 0 0 0 0
          0 0 0 0 0 0
          0 0 0 0 0 0
          0 0 0 0 0 0
          0 0 0 -0.0000030410129916481246 -0.0000032122610608238292 -0.000003383509129999533
          -0.00002214986755225351 -0.000022674909616442007 -0.000023199951680630507 -0.00005830440751973107 -0.00005943632214646186 -0.00006056823677319264
          -0.00009757665772727976 -0.00010011849167298781 -0.00010266032561869585 -0.00013102074952494079 -0.00013645342395442411 -0.00014188609838390747
          -0.00015407453022474264 -0.00016470758388906686 -0.00017534063755339117 -0.0001734402879864394 -0.00019232875318099695 -0.0002112172183755544
          0 0 0 0 0 0
          0 0 0 0 0 0
          0 0 0 0 0 0
          0 0 0 0 0 0
          0 0 0 -6.545794166160574e-8 -3.272897083080287e-8 0
          -6.545794166160574e-8 -3.272897083080287e-8 0 0 0 0
          0 0 0 -0.0000036870534070133025 -0.000004266394789785042 -0.0000048457361725567806
          -0.00002319912574327398 -0.00002482048674804292 -0.000026441847752811855 -0.00005772568084976949 -0.00006080875727900585 -0.00006389183370824223
          -0.00009514987664545998 -0.000101184641843361 -0.00010721940704126203 -0.0001306762152833887 -0.00014194078743594692 -0.0001532053595885051
          -0.00016476284067966945 -0.0001842769871275464 -0.00020379113357542333 -0.0002118753944451314 -0.00024306318668784185 -0.0002742509789305523
          0 0 0 0 0 0
          0 0 0 0 0 0
          0 0 0 0 0 0
          0 0 0 0 0 0
          0 0 0 -6.545794166160574e-8 -3.272897083080287e-8 0
          -6.545794166160574e-8 -3.272897083080287e-8 0 0 0 0
          0 0 0 -0.000004746860977040005 -0.000005919377373997052 -0.0000070918937709540995
          -0.000025228425313053144 -0.000028516033271484363 -0.00003180364122991558 -0.00005908277758357202 -0.00006510217257073745 -0.00007112156755790286
          -0.00009747509276147668 -0.0001082901418564532 -0.00011910519095142972 -0.00014143248066333458 -0.00016003093358211577 -0.000178629386500897
          -0.00019914271205771306 -0.0002291307338880335 -0.0002591187557183539 -0.00029518732655281845 -0.0003397632884544869 -0.00038433925035615533
          0 0 0 0 0 0
          0 0 0 0 0 0
          0 0 0 0 0 0
          0 0 0 0 0 0
          0 0 0 0 0 0
          0 0 0 0 0 0
          0 -5.372998739499072e-8 -1.0745997478998144e-7 -0.000007024386063824536 -0.000008866631939287487 -0.00001070887781475044
          -0.00003063414383837924 -0.00003555006609590818 -0.00004046598835343713 -0.00006716395350396499 -0.00007572210688588806 -0.00008428026026781115
          -0.00011351298802428185 -0.00012792422554415423 -0.00014233546306402658 -0.00017924092386033854 -0.0002023108121264184 -0.0002253807003924983
          -0.00028389961797005875 -0.00031824709663368393 -0.000352594575297309 -0.000462287979912774 -0.000509142289623 -0.000555996599333226
          0 0 0 0 0 0
          0 0 0 0 0 0
          0 0 0 0 0 0
          0 0 0 0 0 0
          0 0 0 0 0 0
          0 0 0 0 0 0
          -3.802976392164924e-7 -7.460344855794604e-7 -0.0000011117713319424285 -0.00001245386079762106 -0.000014674981951185237 -0.000016896103104749418
          -0.00004393234819852363 -0.00004878221292465521 -0.0000536320776507868 -0.00009027461591622481 -0.00009793734154521019 -0.00010560006717419555
          -0.0001582583697565296 -0.00016968397464546287 -0.0001811095795343961 -0.0002695884173559876 -0.00028505615816425123 -0.00030052389897251483
          -0.00045726801143707865 -0.00047554954376235987 -0.0004938310760876411 -0.000761815943733025 -0.0007801245540220795 -0.0007984331643111341
          -6.546991532950794e-7 -3.273495766475397e-7 -3.273495766475397e-7 -1.6367478832376986e-7 0 0
          0 0 0 0 0 0
          -4.7176683842547504e-7 -2.3588341921273752e-7 0 -0.000001070352005777403 -5.351760028887015e-7 0
          -5.98585167351928e-7 -2.99292583675964e-7 0 0 0 0
          0 0 0 0 0 0
          0 0 0 0 0 0
          -0.000002876231802777577 -0.000003603592359264898 -0.000004330952915752219 -0.000024603067353643636 -0.000026771650196414777 -0.000028940233039185914
          -0.00007020379189019215 -0.00007366161023291574 -0.00007711942857563932 -0.00013726310813372432 -0.0001417651806962444 -0.0001462672532587645
          -0.0002460460973583878 -0.00025073082339592865 -0.00025541554943346947 -0.00043215825484268545 -0.00043442144517932065 -0.00043668463551595573
          -0.0007397962892743437 -0.0007349043278578257 -0.0007300123664413077 -0.0012076348076011886 -0.0011892751473084624 -0.0011709154870157361
          -0.0000013367316501757505 -6.683658250878753e-7 -0.0000010959625674444086 -5.629088211144608e-7 -8.551934847130663e-7 -4.5745181714104627e-7
          0 -1.492753739225657e-8 -2.985507478451314e-8 0 0 0
          -5.097757164562728e-7 -2.548878582281364e-7 0 -0.0000011083608838082009 -5.541804419041003e-7 0
          -5.98585167351928e-7 -2.99292583675964e-7 0 0 0 0
          0 0 0 0 0 0
          0 0 0 -0.0000036230282395814804 -0.0000039985377124675515 -0.000004374047185353623
          -0.000023214347702278755 -0.000024697877051903502 -0.000026181406401528253 -0.0000697081501460524 -0.00007241458146564138 -0.00007512101278523033
          -0.00014370035387249622 -0.00014735247341768942 -0.00015100459296288256 -0.00025456399720639534 -0.00025886029176775473 -0.0002631565863291142
          -0.0004307846650033569 -0.0004345527865418802 -0.0004383209080804034 -0.0007113337027909363 -0.0007118131635967797 -0.0007122926244026229
          -0.0011359455054208228 -0.0011284463658128116 -0.0011209472262048005 -0.0017279140423595274 -0.0017060945607888277 -0.001684275079218128
          -0.0024725638943870433 -0.002433185145435937 -0.0023938063964848316 -0.0033313622265618856 -0.003271907332465904 -0.003212452438369922
          -0.000059370267443271396 -0.00011197149245069596 -0.00006552298366534724 -0.0001251621378735496 -0.00007167569988742308 -0.00013835278329640325
          -0.0000033845212179234164 -0.000002941914728572433 -0.00000249930823922145 0 0 0
          -3.8008878030797715e-8 -1.9004439015398857e-8 0 -3.8008878030797715e-8 -1.9004439015398857e-8 0
          0 0 0 -0.0005357270032282967 -0.0005425440631845678 -0.0005493611231408388
          -0.000806332061129494 -0.0008130603695146331 -0.0008197886778997721 -0.0011782353042093946 -0.0011830144115604986 -0.0011877935189116026
          -0.0016661082410508055 -0.0016660777768023928 -0.0016660473125539802 -0.00226819864284478 -0.002259872890607511 -0.002251547138370242
          -0.0028324663894162302 -0.0028295507050926684 -0.002826635020769107 -0.002960339181450688 -0.002940551672744665 -0.0029207641640386422
          -0.0033825518786771125 -0.003375801046776332 -0.0033690502148755515 -0.0036955541046602056 -0.0036635311994144826 -0.00363150829416876
          -0.00391351853763993 -0.0039031085559162694 -0.0038926985741926097 -0.004412289750964148 -0.00437029670435452 -0.00432830365774489
          -0.004383360431123752 -0.00436970886750628 -0.004356057303888808 -0.00013996516815862532 -0.0001327193461529616 -0.0001544946916209975
          -0.00014537904007288734 -0.0001690242150833697 -0.00015803873399281308 -0.00016442510753309576 -0.00018490602380722768 -0.0002053869400813596
          -0.0002150166957121868 -0.00024627624369595174 -0.00027753579167971666 -0.00030941324202184996 -0.0003559312918257996 -0.0004024493416297492
          -0.0004785202293697594 -0.0005389132665267278 -0.0005993063036836962 -0.0007681792841278568 -0.0008241887524950693 -0.0008801982208622817
          -0.0012251812342125436 -0.0012376827811026283 -0.001250184327992713 -0.00184667099587243 -0.0018113819137638887 -0.0017760928316553465
          -0.002652015635035326 -0.0025943418052365042 -0.0025366679754376814 -0.0042456004950402314 -0.0035935731871636653 -0.004163590174644475
          -0.003506696582122967 -0.0040815798542487205 -0.0034198199770822694 -0.00006463469508520708 -0.0001180898721293909 -0.00007130133074417196
          -0.0001329723741732588 -0.00007796796640313684 -0.00014785487621712677 -0.000005589759020511619 -0.000004815143657542544 -0.0000040405282945734685
          0 0 0 0 0 0
          0 0 0 0 0 0
          0 0 0 -0.0000013926827278572443 -0.0000017285169041205677 -0.000002064351080383891
          0 0 0 -0.00000266406300358645 -0.0000030402372378227735 -0.000003416411472059097
          -0.000017658553821594968 -0.000018712662652941897 -0.000019766771484288827 -0.000052202288674166154 -0.00005422425348328652 -0.00005624621829240687
          -0.00011399870131012261 -0.00011736753908697211 -0.00012073637686382162 -0.00020937894618230918 -0.00021408008353988813 -0.00021878122089746707
          -0.0003441656695373299 -0.00035010142656135754 -0.00035603718358538514 -0.0010149486665464514 -0.0007251690467161701 -0.0010220705774083958
          -0.0007323447816024916 -0.0010291924882703403 -0.0007395205164888131 -0.001375783771330556 -0.0013818199455206141 -0.0013878561197106722
          -0.0018067411173769456 -0.0018105850041453568 -0.001814428890913768 -0.002298332878114883 -0.002299069156307519 -0.002299805434500155
          -0.0033405024343983857 -0.002904735612083414 -0.0033325783645586776 -0.0028989599926740944 -0.0033246542947189687 -0.002893184373264774
          -0.0037418135403708046 -0.0037325500083251464 -0.0037232864762794873 -0.00408275334967856 -0.0040726108486789595 -0.004062468347679359
          -0.00433221430983553 -0.004321223328726939 -0.00431023234761835 -0.0050399534132524555 -0.005116345673974904 -0.0049921020602501295
          -0.005021239295246779 -0.0049442507072478045 -0.004926132916518654 -0.004744074943805433 -0.004727571850095102 -0.004711068756384771
          -0.004452773237393042 -0.0044409386551208475 -0.004429104072848654
        </DataArray>
        <DataArray type="Float64" Name="disp_x" format="ascii" RangeMin="0" RangeMax="0.00001892980078911002">
          0 1.360682502741668e-7 1.3733327702492916e-7 0 0 1.3598460637054757e-7
          1.3741033260109828e-7 0 0 1.3562039129036767e-7 1.3798096480256403e-7 0
          1.4015122393098226e-7 0 1.397908595955245e-7 0 1.358475416548947e-7 0
          1.4046754837868727e-7 0 1.405362342740407e-7 0 1.4066881049779748e-7 0
          1.390103981223282e-7 0 1.390943717000242e-7 0 1.393206274378171e-7 0
          1.337286011823239e-7 0 1.3394455227788098e-7 0 1.3464493543289075e-7 0
          1.2821649112096498e-7 0 1.2976222946021426e-7 0 1.321313684252454e-7 0
          1.2057722211375864e-7 0 1.2053445500198216e-7 0 1.253950136715429e-7 0
          1.3091107928766962e-7 0 1.2073669132310564e-7 0 1.2692700311571803e-7 0
          1.4026587025737138e-7 0 1.432244344044925e-7 0 1.4275805370997065e-7 0
          1.432804428770878e-7 0 1.4237785664731628e-7 0 1.4239230338908308e-7 0
          1.4352895073728404e-7 0 1.4353864430143825e-7 0 1.42973148598069e-7 0
          1.427675720445065e-7 0 1.4247428934534245e-7 0 1.4161157540095353e-7 0
          1.4210232789753883e-7 0 1.4199433372561349e-7 0 1.4165819143452784e-7 0
          1.4644227653082295e-7 0 1.4637859217901964e-7 0 1.4638923449777691e-7 0
          1.556691065253164e-7 0 1.5559183352556376e-7 0 1.5545262971962102e-7 0
          1.66468469646201e-7 0 1.6624006029562659e-7 0 1.657982814438481e-7 0
          1.7528496267666703e-7 0 1.751184385604226e-7 0 1.7470135146771344e-7 0
          1.7951081301509977e-7 0 1.7958145281416e-7 0 1.798176218092497e-7 0
          1.7779724671764613e-7 0 1.7858013068415836e-7 0 1.80792044280245e-7 0
          2.7195970814783907e-7 2.7478725099812035e-7 2.7190808555449386e-7 2.7465285849919736e-7 2.719915152554221e-7 2.738967977831644e-7
          2.7907166318729563e-7 2.801098159844968e-7 2.850274296207674e-7 2.8087607231715037e-7 2.8095804561963795e-7 2.811061358955298e-7
          2.781712497804605e-7 2.782946076522399e-7 2.7865245445963584e-7 2.6738496003662385e-7 2.677843828135905e-7 2.694773816619e-7
          2.574093910615378e-7 2.5908791520248225e-7 2.63357145637123e-7 2.448225629385425e-7 2.47022598264939e-7 2.5508111120422614e-7
          2.4938529353926105e-7 2.579177547709314e-7 2.6785022454304746e-7 2.8409406866971807e-7 2.823334073262358e-7 2.814529030146281e-7
          2.8543119094839956e-7 2.8554022116654543e-7 2.853183946274049e-7 2.872778193527561e-7 2.8686055481177696e-7 2.856125320215519e-7
          2.8470584971199984e-7 2.842768384282997e-7 2.8266911125510195e-7 2.84092744258654e-7 2.838501331115587e-7 2.8330377987131357e-7
          2.9313150215795833e-7 2.93050940791927e-7 2.930361072589346e-7 3.113460945316943e-7 3.11237823759541e-7 3.1101134498758603e-7
          3.3257994948014905e-7 3.32260279034012e-7 3.3160729029329406e-7 3.5000346805558433e-7 3.498655897299644e-7 3.495341581420172e-7
          3.584793327666963e-7 3.589826773657988e-7 3.6041772271921286e-7 3.5564065004490127e-7 3.578218877308391e-7 3.6395052186264436e-7
          4.0773729445347375e-7 4.120867479096504e-7 4.076305539961065e-7 4.118930116340571e-7 4.07305701616173e-7 4.115651410514224e-7
          4.185113695867262e-7 4.199942472398194e-7 4.219643262767747e-7 4.211569656585195e-7 4.212725958643975e-7 4.2155049119067553e-7
          4.17503537769135e-7 4.177176826432465e-7 4.182362423746726e-7 4.0158948429676775e-7 4.017291139475036e-7 4.040496563798499e-7
          3.8811214306871443e-7 3.896017913227664e-7 3.95716207613751e-7 3.785227337357359e-7 3.8073693886992387e-7 3.867005169017104e-7
          3.928447723496425e-7 3.9797680499185686e-7 4.0542630923423246e-7 4.2182809367209113e-7 4.2096506231066593e-7 4.2054595263286625e-7
          4.289375028198998e-7 4.286714093774263e-7 4.275769321734645e-7 4.2984656656656963e-7 4.2943808753629145e-7 4.2720838719616505e-7
          4.2535630762041986e-7 4.2463763511556655e-7 4.225520518419922e-7 4.2589451347878264e-7 4.256503881159136e-7 4.250820081075613e-7
          4.4017718905500747e-7 4.4012437543596144e-7 4.402650858873408e-7 4.669300671522353e-7 4.668809435407785e-7 4.6682429671763804e-7
          4.979447491567834e-7 4.978492455347805e-7 4.976739789544918e-7 5.235923466085068e-7 5.23996419303548e-7 5.250764379454754e-7
          5.364812140997659e-7 5.383285230756639e-7 5.433583794347075e-7 5.341916517946498e-7 5.390850005472574e-7 5.527830952411535e-7
          5.432721397060151e-7 5.492402270947655e-7 5.430431623915545e-7 5.491231144083454e-7 5.424307843157379e-7 5.488633009507969e-7
          5.585222702239638e-7 5.591090804943101e-7 5.59858506784313e-7 5.612995981559417e-7 5.614182567126422e-7 5.617096143678928e-7
          5.56972244637536e-7 5.572125880836438e-7 5.57786949923848e-7 5.367499972688845e-7 5.379206269639459e-7 5.4229980689628e-7
          5.22863969454636e-7 5.234584354850394e-7 5.275395832704063e-7 5.205760768239068e-7 5.222322810673845e-7 5.283061602162156e-7
          5.360144163030411e-7 5.384830179669924e-7 5.414632875203286e-7 5.602110478699263e-7 5.597914918717925e-7 5.598014098387242e-7
          5.718431796696169e-7 5.716158448032554e-7 5.691772035446475e-7 5.714147051586096e-7 5.704973573260548e-7 5.669346510504759e-7
          5.642244367835687e-7 5.635201951914467e-7 5.615851961098915e-7 5.676350646211547e-7 5.674888518216152e-7 5.672115581854774e-7
          5.875162445026507e-7 5.877056466173635e-7 5.883449732210128e-7 6.222637176461568e-7 6.225495660903209e-7 6.233933226334623e-7
          6.621784296710784e-7 6.629221604524451e-7 6.64716512247407e-7 6.956799114191692e-7 6.976972675420212e-7 7.028535427856134e-7
          7.138257357454142e-7 7.186583405042631e-7 7.315735961709426e-7 7.155318909614201e-7 7.252466488172877e-7 7.524912161031436e-7
          6.782762454881584e-7 6.863549817990619e-7 6.779912665167765e-7 6.862297819418029e-7 6.769848676096112e-7 6.858770908972954e-7
          6.981668570341614e-7 6.984112974656394e-7 6.987405776820607e-7 7.014227022600963e-7 7.015247565165049e-7 7.017986660744735e-7
          6.960898004687273e-7 6.963332601483673e-7 6.969450985972268e-7 6.774770341069647e-7 6.786433639379995e-7 6.815158641701691e-7
          6.642372341964311e-7 6.648526996906616e-7 6.676996247224201e-7 6.63481672318447e-7 6.649217820606664e-7 6.675075927395988e-7
          6.779134667890381e-7 6.789145881031105e-7 6.798883420309839e-7 6.995258299943709e-7 6.992570698317294e-7 6.989399627867509e-7
          7.135116698772181e-7 7.12547349012126e-7 7.09017470871208e-7 7.08721888780658e-7 7.075113838378772e-7 7.038444084927005e-7
          7.02095688009377e-7 7.01687925911879e-7 7.004255752368636e-7 7.092604421612885e-7 7.094460559432021e-7 7.100040182886117e-7
          7.351240742420842e-7 7.358536902351055e-7 7.377586322154223e-7 7.771756957985784e-7 7.784847976523178e-7 7.816736410021599e-7
          8.252588017561636e-7 8.278630775547083e-7 8.342040186345303e-7 8.668018360425711e-7 8.721093808316969e-7 8.855076206170721e-7
          8.926448809079001e-7 9.027461746522534e-7 9.296080034461261e-7 9.047600405554399e-7 9.22056081272937e-7 9.70516543114926e-7
          8.123633395036647e-7 8.233317873645073e-7 8.122043305176835e-7 8.232394493643319e-7 8.107133886737963e-7 8.227699085700943e-7
          8.37924379446064e-7 8.380395060249244e-7 8.382668108562483e-7 8.414655357457315e-7 8.415692360094795e-7 8.418576273843173e-7
          8.354375940229408e-7 8.356347503472889e-7 8.361506185514034e-7 8.189122362002097e-7 8.197517524465149e-7 8.21176537325266e-7
          8.066694247701902e-7 8.073204019995932e-7 8.085539482316457e-7 8.064807638443146e-7 8.071838479020205e-7 8.079320855691714e-7
          8.188927178191043e-7 8.192008845624246e-7 8.191709735941427e-7 8.396401280680742e-7 8.392539299411032e-7 8.383817120178342e-7
          8.49939461248571e-7 8.489650216479105e-7 8.452503296844672e-7 8.430605994854309e-7 8.42244794011147e-7 8.398118995257362e-7
          8.390505988609619e-7 8.391582718412819e-7 8.392027425540365e-7 8.510665355534801e-7 8.519343551944539e-7 8.540822286823026e-7
          8.831211461535864e-7 8.848674258901847e-7 8.892446542594596e-7 9.321477026868406e-7 9.353003772931236e-7 9.429732489498791e-7
          9.884107019668605e-7 9.94108478270195e-7 0.0000010082663264753028 0.0000010398279016527042 0.000001050079790880682 0.0000010764582727253112
          0.000001078953124868194 0.0000010962000419321433 0.000001142969106638902 0.0000011127291715777317 0.0000011393212411910067 0.0000012152390380798434
          9.446782118147216e-7 9.600813217816463e-7 9.452915864702804e-7 9.601812592461052e-7 9.436124206570529e-7 9.597775538812697e-7
          9.78046524370871e-7 9.781538211126633e-7 9.78394405268395e-7 9.815167796640093e-7 9.816310628494632e-7 9.819441401639577e-7
          9.750401728874796e-7 9.751644196045664e-7 9.755388650300625e-7 9.602359542875816e-7 9.608872206317815e-7 9.615176368833826e-7
          9.493972102918648e-7 9.497046359966541e-7 9.499790217633279e-7 9.489989672820697e-7 9.492545259567159e-7 9.491282216425251e-7
          9.593865266350163e-7 9.593397946082546e-7 9.592108262029495e-7 9.799197177958408e-7 9.794401024263656e-7 9.76780136262989e-7
          9.833103347485442e-7 9.825544121864092e-7 9.798853433144538e-7 9.752537611554315e-7 9.751860945785916e-7 9.74814708552624e-7
          9.758265440373817e-7 9.766087771525585e-7 9.785419080432614e-7 9.937225986958663e-7 9.954339339770523e-7 9.999680487220243e-7
          0.0000010325001893756274 0.0000010355550567107726 0.0000010436390417451934 0.0000010892379387770935 0.00000109445991502166 0.00000110840032935173
          0.0000011556941724290515 0.0000011645659431703625 0.0000011888520978919695 0.0000012222485784925054 0.0000012368944557040115 0.0000012785390266715697
          0.0000012856297965354818 0.0000013082513240681612 0.0000013759708934430474 0.0000013590805920509394 0.000001391378795152115 0.0000014927888038926815
          0.0000010731260277145672 0.000001096450972070539 0.0000010767528943613932 0.0000010970868409909053 0.000001076448852613118 0.0000010974361883794283
          0.000001118710828581907 0.0000011189374350905537 0.0000011192765723902598 0.0000011215755534678253 0.0000011217169859613401 0.0000011220604460101323
          0.0000011148424674856096 0.0000011148567087296939 0.0000011151274136707761 0.0000011012364179230304 0.000001102080899511304 0.0000011021787792908673
          0.0000010919081102200207 0.0000010919319363381437 0.000001091787924807838 0.0000010909588541753155 0.0000010910248713180432 0.0000010906804588185064
          0.0000011002491158695255 0.0000011000479377477886 0.0000010996788931870848 0.0000011172092255024288 0.0000011167445518106147 0.0000011140743016605344
          0.000001114082938230133 0.0000011137460409661308 0.0000011129991605221178 0.0000011072254413861837 0.0000011076579723780223 0.0000011094819534380818
          0.000001113668035541718 0.0000011148106283360016 0.0000011188359608815281 0.0000011388428003833892 0.0000011408274931247413 0.0000011479546804159643
          0.0000011859075847545517 0.0000011892969053491932 0.000001201226857922955 0.0000012531587595486808 0.000001258644433937827 0.0000012784828287277045
          0.0000013353546850648666 0.0000013441122802996727 0.0000013766533561637434 0.000001427589841975547 0.0000014410147494244826 0.0000014927749471662018
          0.0000015326997770795865 0.0000015522422153661767 0.000001630038029510056 0.000001670682634198384 0.000001697121078773444 0.0000018054573580538177
          0.0000011987967692129897 0.0000012328912757264429 0.0000012025280895988488 0.0000012337024502537397 0.000001210130855238673 0.000001236578612089168
          0.0000012601467760115746 0.0000012604706227036334 0.0000012612068415265464 0.0000012615724030431382 0.000001261694958963987 0.0000012620732890909622
          0.0000012545329023020625 0.000001254707431368567 0.0000012548963533893974 0.0000012435125879434448 0.0000012431500471885154 0.0000012430216497368999
          0.0000012339039634705044 0.0000012339260389025413 0.000001233703089136202 0.0000012327687098997527 0.0000012326650503790624 0.000001232483810070182
          0.0000012409146997208006 0.0000012406727616789583 0.0000012400180596917438 0.000001253327043200211 0.0000012529541097166525 0.0000012513589469092204
          0.0000012438310962915631 0.0000012439901720343078 0.0000012451622914777446 0.000001240542398144458 0.0000012414903846121858 0.000001244733543858368
          0.0000012536709622616924 0.0000012553810774542074 0.0000012606246475066633 0.0000012877663403717296 0.0000012904044436570599 0.0000012987365923559812
          0.000001345626801512346 0.0000013498102435280632 0.0000013631346767107088 0.000001427820107781936 0.0000014343316513530953 0.0000014553037314550167
          0.0000015336856857510443 0.0000015434710009595293 0.0000015753704987106953 0.0000016648839430378325 0.0000016790675301583792 0.000001725761326400751
          0.000001831942030026478 0.0000018514001485219407 0.0000019159799167936093 0.0000020599819857833525 0.0000020853546675664947 0.000002169172594704476
          0.000002395025890967254 0.0000024252891183850807 0.000002526564463922765 0.000002902751274767995 0.0000029427936460036114 0.0000030559820310551556
          0.0000017933564450840527 0.0000017319563360491045 0.0000017953673866477162 0.000001719167643427908 0.0000017990109312438123 0.000001731537666366169
          0.0000018228173678835542 0.0000018228761025753447 0.0000018235195801705284 0.0000018206483796068744 0.0000018207469605913009 0.000001821177551989323
          0.000001814344975954595 0.0000018143825682327704 0.000001814783902354863 0.00000180630483478557 0.0000018062823524340016 0.0000018063635919236104
          0.0000018002204898686406 0.000001800093317551037 0.0000017999158165145171 0.000002260330753755265 0.000002270281880298873 0.000002298374919733487
          0.0000025212526853120487 0.000002533794592061485 0.000002568734263740761 0.000002882519632899387 0.0000028973687142394607 0.00000293726747558254
          0.000003377041810929858 0.0000033932776767650453 0.000003434003573746447 0.0000040422714858004834 0.000004058480100649994 0.000004094515109338871
          0.000006589969318068314 0.000006600151905187254 0.000006639830527166104 0.00000492017010932154 0.000004934969050244131 0.000004960886378232671
          0.000007991339333696823 0.000007996483605218436 0.000008023764419845393 0.000006061298089484971 0.000006072456249321988 0.000006085040608096435
          0.000009696235127890125 0.000009695163398952276 0.000009705799212271364 0.00000752461437153108 0.000007531470050836803 0.000007526601446554719
          0.000011729530316222433 0.000011722516195118809 0.000011715736908409035 1.7151211286135404e-7 0 1.7387452917577149e-7
          0 1.8060193791571586e-7 0 3.452768537065833e-7 3.507080867016911e-7 3.6638751760895055e-7
          5.245090695937656e-7 5.345034882445099e-7 5.637821145428698e-7 7.147495974233627e-7 7.316457385118633e-7 7.813906528265694e-7
          9.255416905551339e-7 9.520190980017934e-7 0.0000010299675035526789 0.000001172886082544755 0.000001209942773299034 0.0000013208898103115845
          0.0000014817522411226288 0.0000015243865607322432 0.0000016622869539868975 0.0000018837109127361348 0.0000019187301028803955 0.000002056946333114535
          0.000002257965140424898 0.000002291082798660309 0.000002448404118336234 0.000003693986907753194 0.000002859667569461433 0.000003727378494887361
          0.000002902813220655074 0.000003837089917217664 0.0000030681077717751794 0.0000024038202757038235 0.00000246380279746467 0.0000024020705717131436
          0.000002472934438302233 0.000002398117755995852 0.0000024603110903205505 0.000002382161678960852 0.0000023817659385083156 0.0000023801823841437493
          0.0000023801810906114234 0.0000023798243444176913 0.0000023789684977327584 0.000002376089407046281 0.000002375728422368546 0.0000023747874772600593
          0.000002369009759952885 0.000002368703103436439 0.0000023678491318914023 0.0000023632426371463983 0.000002363090003350568 0.0000023623748243189504
          0.0000017984239745834602 0.0000017982372924728114 0.0000017976663099604346 0.0000023606192477233957 0.0000023607018657076664 0.0000023605266659483073
          0.000001800171436325599 0.0000018001252030197132 0.0000017994402812986481 0.00000178639495798202 0.0000017870506296066695 0.0000017892594324906214
          0.0000017817228949582698 0.0000017835068116738642 0.0000017886192074883677 0.0000018026748765439108 0.000001805413571823827 0.000001813170558891215
          0.0000018548543389397233 0.000001858640287490225 0.0000018697191929366802 0.00000194309867873369 0.000001948542343629269 0.0000019639631247383927
          0.000002073944154666812 0.000002081397424908284 0.000002102600835780213 0.0000033997578814042177 0.0000030301330351918907 0.0000034131443591132594
          0.0000030415320282148564 0.0000034556215426505526 0.00000307719294126536 0.0000039044867712217965 0.0000039192142380521974 0.000003966888057182001
          0.000004579944400933978 0.000004594883664561209 0.00000464458962952226 0.00000546353846658257 0.000005476992907893704 0.0000055242178950707245
          0.000009735618489955564 0.00000816927519729522 0.000009747047326414055 0.000008183369830011887 0.00000977968180557897 0.000008224349924464265
          0.000011592044497055986 0.000011599740510055334 0.000011621037202065514 0.000013747444798795048 0.000013750485375724602 0.000013758020068406587
          0.000016200019335179017 0.000016197384381150784 0.000016188790584232436 0.000009372265436797577 0.000004855573902270597 0.000009372791860589474
          0.000004885055386482674 0.00000935006960395247 0.000004978590666834615 0.000014115832919669057 0.00001410262426865695 0.000014076554615183834
          0.00001892980078911002 0.000018921212392166016 0.000018895369780829496
        </DataArray>
        <DataArray type="Float64" Name="disp_y" format="ascii" RangeMin="-0.000015093587278547124" RangeMax="0">
          0 0 -1.4875204411821018e-7 -1.4887504714743506e-7 0 0
          -1.4864258437561881e-7 -1.487766290291855e-7 0 0 -1.478058223576691e-7 -1.4870092144966365e-7
          -3.026679104320152e-7 -3.0275897950470325e-7 -3.025361300159088e-7 -3.0266560386772256e-7 -3.02198950970296e-7 -3.025676967631456e-7
          -4.611267969870767e-7 -4.6127950845026405e-7 -4.61296685382448e-7 -4.6141395694498273e-7 -4.621271019119537e-7 -4.6118742952977364e-7
          -6.198917118913122e-7 -6.203025152175091e-7 -6.202935228631916e-7 -6.207172925697333e-7 -6.21532895208154e-7 -6.222346293533065e-7
          -7.729452649537137e-7 -7.733884226905198e-7 -7.734000177836042e-7 -7.739232836972989e-7 -7.75363442729897e-7 -7.759638035156364e-7
          -9.160742988380769e-7 -9.175411644319092e-7 -9.163578411570351e-7 -9.17397204784211e-7 -9.178357047657951e-7 -9.187868532147132e-7
          -0.0000010526812594838195 -0.0000010521701920298765 -0.0000010508987972973665 -0.00000105308658356785 -0.0000010483948054423584 -0.000001052813315317353
          -0.0000011772720175760226 -0.0000011759599245291994 -0.000001178209297744713 -0.0000011746199255498325 -0.000001177373072355041 -0.0000011717962783107165
          -0.0000013315512417782614 -0.0000013301420282826244 -0.000001331025250741067 -0.0000013294681807341145 -0.000001328440964398092 -0.0000013267555675316875
          -0.000001485850225761108 -0.000001485416038593084 -0.0000014856113401500454 -0.000001485339062756744 -0.0000014853937775263088 -0.000001485124934293233
          -0.0000016375222511848276 -0.0000016373053016720165 -0.0000016377068304926602 -0.0000016374281163888403 -0.0000016379457488237253 -0.0000016376128636107615
          -0.0000017865180624327867 -0.000001786604495516714 -0.0000017865394215145896 -0.0000017866866311090164 -0.000001786921568444605 -0.0000017871140918338495
          -0.000001934371302719001 -0.0000019345940130373637 -0.0000019340617571760223 -0.000001934302038460566 -0.0000019333673598208273 -0.000001933696294578289
          -0.000002090291343758341 -0.000002090102953958286 -0.000002089605893491395 -0.000002089436924867216 -0.000002087519454764654 -0.0000020873550380325526
          -0.0000022652627834238137 -0.0000022647284102207614 -0.000002264347118377533 -0.000002263835167245849 -0.000002261389752809989 -0.0000022608751113640707
          -0.0000024659519251919895 -0.000002465418900783484 -0.000002465010559033734 -0.000002464521255972701 -0.0000024621386537778613 -0.000002461682619576871
          -0.0000026924233465281094 -0.0000026921604520760055 -0.000002691663742238911 -0.0000026914723855613123 -0.000002689603752506475 -0.000002689498272708748
          -0.0000029376555896436 -0.000002937593993042016 -0.0000029370223574316536 -0.000002937107359024164 -0.000002935956823872244 -0.000002936306891784986
          -0.0000031895927104991814 -0.00000318945604721489 -0.000003188670753850497 -0.000003188756577050326 -0.0000031877245692951754 -0.000003188304217544486
          0 -1.4866376717345304e-7 0 -1.4851270855407543e-7 0 -1.4764112032670056e-7
          -3.0245991685129753e-7 -3.023076509183865e-7 -3.0159774734905463e-7 -4.604602187553966e-7 -4.60636765032989e-7 -4.6154394495183e-7
          -6.187205919550821e-7 -6.190459795020945e-7 -6.200939946480658e-7 -7.713983683286078e-7 -7.717809251371205e-7 -7.735597241707911e-7
          -9.131825432575153e-7 -9.136088167937004e-7 -9.142311073010111e-7 -0.0000010504541788495175 -0.0000010479162163080226 -0.0000010464578001643793
          -0.0000011840504155715866 -0.000001185737539447704 -0.0000011842042947848306 -0.000001335485908570526 -0.0000013350042330057794 -0.0000013335908873700616
          -0.0000014869761106393558 -0.000001486815963441639 -0.0000014865283965451707 -0.00000163836706761827 -0.0000016385361157754698 -0.0000016389870831065177
          -0.0000017861176352876982 -0.0000017860637031793157 -0.0000017862859312413945 -0.0000019338830207095972 -0.0000019335282416610576 -0.0000019326221893932226
          -0.000002091032599520379 -0.0000020903256899347187 -0.0000020881980701486 -0.0000022669047204180828 -0.000002265957812571301 -0.000002263064134025406
          -0.0000024675806355850533 -0.000002466557417569576 -0.000002463647895024693 -0.0000026934282650674313 -0.000002692471744054775 -0.0000026901283065660965
          -0.0000029381161341806316 -0.0000029370888317476794 -0.0000029352514877331184 -0.0000031904855887253707 -0.0000031889556610996478 -0.0000031865174559124415
          0 -1.486244466827295e-7 0 -1.4851832936324988e-7 0 -1.4828708123782336e-7
          -3.021727027076569e-7 -3.0203596251232516e-7 -3.018461307924957e-7 -4.594130227050573e-7 -4.5945895850493544e-7 -4.592852718958546e-7
          -6.167492195518006e-7 -6.168950045425796e-7 -6.175265927878927e-7 -7.686711941694513e-7 -7.690297077040642e-7 -7.706485769206915e-7
          -9.1022659364052e-7 -9.103488118656133e-7 -9.099217027530425e-7 -0.000001048719768740521 -0.0000010488504493580626 -0.0000010480710956060667
          -0.0000011932034947680071 -0.0000011926778186901896 -0.0000011917480177342547 -0.0000013402608918382628 -0.0000013397332540135597 -0.00000133894359687444
          -0.0000014890111911511027 -0.0000014892313138975064 -0.0000014893106446927344 -0.0000016394200897685844 -0.0000016394432854403459 -0.0000016399990950463054
          -0.0000017852420853187755 -0.000001785087156889906 -0.0000017849813094193354 -0.0000019333533266119304 -0.0000019329327500305446 -0.000001931743379620787
          -0.000002092420749251239 -0.0000020916602114029907 -0.0000020894580810159445 -0.000002269599307056295 -0.0000022685865670330917 -0.0000022657024000380864
          -0.0000024702972173496 -0.0000024691141085194723 -0.00000246601969841966 -0.0000026952895043384014 -0.0000026939483367841337 -0.0000026909322169446843
          -0.0000029393670356697122 -0.0000029376692461617523 -0.000002934353132010683 -0.0000031931927671690202 -0.000003190682691107725 -0.000003185601342128663
          0 -1.4840940902847655e-7 0 -1.4833442154569468e-7 0 -1.4798615418713847e-7
          -3.0184212605666284e-7 -3.017390622791689e-7 -3.015011703249741e-7 -4.5853258971620843e-7 -4.584720419080939e-7 -4.5835362079453467e-7
          -6.140623194776488e-7 -6.141014155151312e-7 -6.14290238646619e-7 -7.649221181711728e-7 -7.652146826953291e-7 -7.660686911646922e-7
          -9.087356772163879e-7 -9.088479974720607e-7 -9.084021970716779e-7 -0.0000010523377008598941 -0.0000010522925041929268 -0.0000010515817570411537
          -0.0000011989387140643653 -0.0000011985872245858684 -0.0000011984313292984951 -0.0000013448002989559426 -0.0000013446473260270923 -0.0000013445081148152652
          -0.0000014925190292299008 -0.0000014928726594601396 -0.0000014934913432934633 -0.0000016398664769283567 -0.000001639672241493361 -0.0000016400551396631923
          -0.0000017839226987801467 -0.0000017836785711579916 -0.0000017831182501796814 -0.00000193326704700243 -0.0000019327392318407135 -0.0000019312428673388365
          -0.0000020946307942501554 -0.0000020937671909457906 -0.00000209139274711991 -0.0000022735390757355633 -0.000002272345593336103 -0.0000022692806072303274
          -0.000002474375184328217 -0.0000024728619631724553 -0.000002469237063482764 -0.0000026984781449651657 -0.000002696515299905475 -0.0000026922096116140265
          -0.000002942486398577038 -0.0000029398135336276557 -0.000002934026050392721 -0.0000031998716544283415 -0.0000031960775093722225 -0.000003187038198446277
          0 -1.4804200127064312e-7 0 -1.4789799885855727e-7 0 -1.473673980636891e-7
          -3.0159907158521323e-7 -3.0147786903028283e-7 -3.0117606300498274e-7 -4.5789396961544263e-7 -4.5781932263856727e-7 -4.576949614239448e-7
          -6.117010769776565e-7 -6.117959502946845e-7 -6.118486341802188e-7 -7.618092010700998e-7 -7.619179918144686e-7 -7.61886611827773e-7
          -9.092201337089408e-7 -9.091463529449686e-7 -9.08807258741611e-7 -0.0000010560416821292078 -0.0000010559657813828883 -0.000001055751094150449
          -0.000001203219305971612 -0.00000120314734933837 -0.000001203205602381621 -0.0000013498669234509425 -0.0000013500168847858908 -0.0000013506792600136912
          -0.0000014963501925896429 -0.0000014965595810183635 -0.0000014975529016820455 -0.0000016392561827785116 -0.0000016390875523288183 -0.0000016391004233452215
          -0.0000017826283878024105 -0.0000017822491037820924 -0.0000017811864026302946 -0.000001933938607552995 -0.0000019332502049657416 -0.000001931361457515642
          -0.0000020979223871972027 -0.000002096881838300334 -0.0000020942273231696365 -0.0000022787922255300632 -0.0000022773218611821313 -0.0000022737698254814614
          -0.0000024801192467187777 -0.0000024780745754663084 -0.0000024733688977197697 -0.0000027038303288653 -0.0000027010032838676982 -0.000002694538829443117
          -0.0000029491347841779432 -0.0000029452394459360697 -0.0000029357329616034916 -0.000003213857936291262 -0.0000032086504531082585 -0.000003194221999934594
          0 -1.4754531605212857e-7 0 -1.473433637861284e-7 0 -1.4655184993601226e-7
          -3.015850041701268e-7 -3.0142645515673765e-7 -3.0103856958541687e-7 -4.5760333948019416e-7 -4.5754625178929883e-7 -4.574409544160864e-7
          -6.104217852239491e-7 -6.104340115538193e-7 -6.102523627148546e-7 -7.604181571638379e-7 -7.603955151923724e-7 -7.601025565091482e-7
          -9.097007412246592e-7 -9.096359752108709e-7 -9.093833401228363e-7 -0.0000010588432812850028 -0.0000010587823915636194 -0.0000010587974344480026
          -0.000001207014554806691 -0.0000012071584706298727 -0.000001207505843883139 -0.0000013549039126478114 -0.0000013552041468740018 -0.0000013565314145846203
          -0.0000014992147977979044 -0.000001499292990555845 -0.0000015003818583270976 -0.0000016383732096894354 -0.0000016381984693913518 -0.0000016377105636494596
          -0.0000017819506759827638 -0.0000017813982788128117 -0.0000017797883107317804 -0.000001935609753536273 -0.0000019347059630382046 -0.0000019322898208684146
          -0.0000021025752395373192 -0.0000021012701155544756 -0.000002098002781571951 -0.0000022857353523350616 -0.0000022838602002339563 -0.000002279394399789883
          -0.000002488160884691485 -0.0000024854328603299826 -0.000002478927667837641 -0.0000027127582607743167 -0.0000027089118497558813 -0.0000026991999527261492
          -0.000002962044265559176 -0.000002956825561949917 -0.000002942254155598687 -0.000003240254367413687 -0.000003233459344360778 -0.0000032121222821800774
          0 -1.4695372532903494e-7 0 -1.4674607666882526e-7 0 -1.4557631953334594e-7
          -3.019769416193855e-7 -3.0177354752167095e-7 -3.0130371598824584e-7 -4.5789178740948146e-7 -4.5785187877305867e-7 -4.577425818952115e-7
          -6.099295406296832e-7 -6.098663040418256e-7 -6.096067533249309e-7 -7.599538845827529e-7 -7.598882525248557e-7 -7.595433436996252e-7
          -9.103905767280248e-7 -9.103424907263963e-7 -9.101852504705944e-7 -0.0000010610544403285647 -0.000001061039453643362 -0.0000010611368298571581
          -0.0000012105483805833434 -0.0000012108153889682256 -0.000001211420198964718 -0.0000013593050443193182 -0.0000013596690061170137 -0.0000013615354297441545
          -0.000001500517694399292 -0.0000015005725523893525 -0.0000015014272843358719 -0.0000016377484355000637 -0.000001637447767092367 -0.0000016364385800297991
          -0.0000017822521714061132 -0.0000017815085437798721 -0.0000017792824686636643 -0.000001938676558778858 -0.0000019375315813392517 -0.0000019344442380357908
          -0.0000021089332778236923 -0.0000021073055739765484 -0.000002103158749054103 -0.000002294960730325667 -0.0000022926059748142597 -0.000002286633356074828
          -0.0000024996898256273408 -0.000002496245091901379 -0.000002487148460710967 -0.000002727665637170571 -0.000002722738513023794 -0.0000027086897900944218
          -0.0000029856993097255773 -0.0000029790313932019242 -0.000002958112740016512 -0.0000032860670575908648 -0.000003277295968098003 -0.0000032477937866694196
          0 -1.4626860941666957e-7 0 -1.460525776634519e-7 0 -1.444333008858302e-7
          -3.0307162685519024e-7 -3.0284479088243447e-7 -3.023401111779581e-7 -4.588740191856647e-7 -4.5881674363052536e-7 -4.587063564806021e-7
          -6.098971574711058e-7 -6.098995655103018e-7 -6.096482538093997e-7 -7.600663321325087e-7 -7.59993667702891e-7 -7.596970727219987e-7
          -9.113176114455941e-7 -9.111723767871899e-7 -9.110848052949274e-7 -0.0000010629064884352477 -0.0000010629646898930058 -0.0000010630617369168544
          -0.0000012136318220622471 -0.00000121398677437391 -0.0000012149312995427376 -0.0000013625717544058403 -0.0000013629306445009606 -0.0000013648213720732614
          -0.0000015005409450019112 -0.000001500550684201751 -0.0000015011880160725071 -0.000001637560208572801 -0.000001637104777654519 -0.000001635484693356253
          -0.0000017840376790072216 -0.0000017830543681135568 -0.0000017801936193869252 -0.0000019435951710991535 -0.000001942182701202563 -0.0000019382532985946086
          -0.0000021176650070660278 -0.0000021156722650844433 -0.000002110266571635101 -0.0000023076492568630475 -0.000002304739592516755 -0.0000022967152388786247
          -0.0000025169759052148558 -0.0000025126780003659287 -0.0000025001966531395028 -0.0000027526210115537992 -0.0000027463617568868806 -0.0000027270076072632312
          -0.0000030270601084113547 -0.0000030182735773473853 -0.000002989810117400088 -0.000003360340351969426 -0.000003348918075471189 -0.000003309844999718183
          0 -1.4519441398577198e-7 0 -1.448238567059057e-7 0 -1.4306129117644457e-7
          -3.054934498814404e-7 -3.0546174601364127e-7 -3.049138125744166e-7 -4.6028474797264095e-7 -4.6021186833582444e-7 -4.60083811394072e-7
          -6.104400312167782e-7 -6.104184308019342e-7 -6.102143048110077e-7 -7.605026701229108e-7 -7.604631916698629e-7 -7.602428574846634e-7
          -9.121367387340449e-7 -9.120216987143235e-7 -9.120246641849719e-7 -0.0000010643906952122992 -0.0000010645081962891703 -0.0000010645458789232883
          -0.0000012166031331267688 -0.0000012169552608159423 -0.000001218295979634374 -0.0000013637366756517926 -0.000001364107288297342 -0.0000013660419944217163
          -0.0000014997208495897233 -0.0000014997402079825394 -0.0000014996019567109113 -0.0000016384765098916581 -0.0000016377760453676441 -0.0000016355425252356484
          -0.0000017876601920495869 -0.0000017864767690901254 -0.0000017828358332533884 -0.0000019510364302418117 -0.0000019493616198804583 -0.000001944353800119587
          -0.0000021298738483605105 -0.0000021275589209819206 -0.000002120479219554773 -0.0000023258323967701685 -0.000002322459781873738 -0.0000023116997502877104
          -0.0000025434467737386964 -0.000002538451670178208 -0.000002521615337329284 -0.000002793320268627892 -0.0000027860068348990028 -0.0000027601015260902173
          -0.000003094084207742315 -0.0000030837492391653165 -0.0000030461596432486618 -0.0000034740351556448037 -0.000003460208523983228 -0.0000034098048405299438
          -0.000003971507988090568 -0.000003953633033275464 -0.000003892270706145806 -0.000004630782705554139 -0.000004610752720483687 -0.0000045414743736327435
          -1.7814759323803404e-7 0 -1.7959272553317015e-7 0 -1.8549988309387074e-7 0
          -3.2355316122063084e-7 -3.2406304887987776e-7 -3.2475451097136017e-7 -4.6763448577534556e-7 -4.6755677857230633e-7 -4.6749863848757546e-7
          -6.140097475743441e-7 -6.140185604161027e-7 -6.140969717180056e-7 -7.63224483332698e-7 -7.632132491634744e-7 -7.632175036600817e-7
          -9.144135529561161e-7 -9.144719960240033e-7 -9.144488858994538e-7 -0.0000025228812222225527 -0.0000025166518461254528 -0.0000024977574268391356
          -0.0000028361189030201898 -0.000002827510948108302 -0.000002801279564860763 -0.0000032243345627450777 -0.0000032128398148455 -0.0000031777677861921597
          -0.0000037201567696968084 -0.0000037055343086524435 -0.0000036612075189295053 -0.000004363381658562871 -0.0000043459315228063304 -0.000004293681063693019
          -0.000005843174557995191 -0.000005828975302632375 -0.000005785543097166254 -0.000005197669906848837 -0.000005178739825748031 -0.000005121577040071344
          -0.000007030706811178804 -0.000007016401638245401 -0.000006973136225329886 -0.000006269486991624413 -0.0000062498279107393154 -0.000006192142471803936
          -0.000008469319786902352 -0.00000845612368066522 -0.000008416123035601207 -0.000007618880814903977 -0.000007600861937872058 -0.0000075476622112823805
          -0.00001017982930231566 -0.000010168860434042792 -0.000010135583951803801 -0.000003434998840607171 -0.00000343384472511457 -0.0000034329146667779564
          -0.0000034320585125270773 -0.000003429787357206738 -0.000003429789936310056 -0.0000034391449459360317 -0.0000034362478802746274 -0.000003430618352159923
          -0.0000034485192711913225 -0.000003444436741851084 -0.0000034346699282711646 -0.0000034671376623789823 -0.000003461734206789576 -0.000003446415136706969
          -0.0000035010643814489026 -0.0000034944046677340117 -0.0000034722227043308995 -0.000003558407986678553 -0.0000035501750533949807 -0.000003520014454942199
          -0.000003648908628788132 -0.0000036383907920431316 -0.0000035990894317622253 -0.000003784823711709841 -0.0000037693278404563215 -0.0000037192943904229827
          -0.000004340707936456918 -0.0000043207661406903545 -0.000004259727764341203 -0.000005510356196225797 -0.00000507908540899182 -0.0000054868961346767815
          -0.000005059123012208013 -0.000005413795085061896 -0.000004990524344221533 -1.784738915865878e-7 0 -1.7985363707612875e-7
          0 -1.8600184194109887e-7 0 -3.2452117792095534e-7 -3.2514011800764004e-7 -3.2567629434417695e-7
          -4.6798067099507396e-7 -4.6781692579130075e-7 -4.6741363332256086e-7 -6.148205068501666e-7 -6.148498952497366e-7 -6.150376325370541e-7
          -7.641099762660922e-7 -7.641791195910486e-7 -7.644113961152787e-7 -9.146431077461268e-7 -9.146811318197441e-7 -9.151103309292415e-7
          -0.000001067243390353809 -0.0000010674451583033132 -0.0000010678763445653667 -0.0000010644561916662697 -0.0000010642582316220643 -0.0000010644148996836471
          -0.0000012185501343499928 -0.0000012187294109932059 -0.000001220009565730469 -0.0000013615936344811933 -0.000001361422398544366 -0.000001361306119737647
          -0.0000015059482321273579 -0.0000015050513790448598 -0.0000015022351002196397 -0.0000016626626885995108 -0.0000016610724031186067 -0.0000016565529908012304
          -0.000001837592248463639 -0.0000018352408108940188 -0.0000018286152085071248 -0.0000020351228944682725 -0.000002031921621908788 -0.000002022509982054929
          -0.000002260857512415157 -0.0000022563663431995907 -0.0000022430141078477953 -0.0000029828679603187136 -0.0000025818055752213695 -0.0000029743317602650583
          -0.0000025750100815639625 -0.0000029477492649131605 -0.000002553958391044652 -0.0000034798459864525298 -0.0000034694786136577344 -0.0000034371957183829595
          -0.000004100886465634617 -0.000004088809140373454 -0.000004051432484337208 -0.000004877644371061102 -0.000004864216393858735 -0.000004822952855705586
          -0.000007805103132813688 -0.000006523807268822807 -0.000007793880114822562 -0.000006512052791111671 -0.000007760421712532728 -0.000006476658359002204
          -0.00000930090643640536 -0.000009290929428807677 -0.000009261299737538388 -0.000011019597136550617 -0.000011011609830975558 -0.000010987996140711144
          -0.000012958071237559781 -0.000012953070650290139 -0.000012938123036561891 -0.000009279608738380233 -0.000006663910462111426 -0.000009265419991321283
          -0.000006639111505086674 -0.000009222091927916716 -0.000006569230696630911 -0.000012167336105611022 -0.000012159810056551437 -0.000012137386131614099
          -0.000015093587278547124 -0.000015092636405396337 -0.000015089579826923361
        </DataArray>
        <DataArray type="Float64" Name="disp_z" format="ascii" RangeMin="-0.0000017558864124171659" RangeMax="0">
          0 0 0 0 -5.577018501587512e-8 -5.557308898424704e-8
          -5.6133734214785234e-8 -5.581931296037941e-8 -1.1133508051810772e-7 -1.1147673467322428e-7 -1.1169464892956024e-7 -1.1206969826358772e-7
          0 0 -5.548870838243092e-8 -5.786017335443744e-8 -1.1489468577470118e-7 -1.1270087774981135e-7
          0 0 -5.6519539007426415e-8 -5.649781327535576e-8 -1.1279362486354635e-7 -1.1285692132947142e-7
          0 0 -5.5997986264750396e-8 -5.59586981696319e-8 -1.1227021082831293e-7 -1.1214160130565512e-7
          0 0 -5.0989183500592206e-8 -5.087449081627757e-8 -1.0226257809468817e-7 -1.020570951036799e-7
          0 0 -4.692283049143538e-8 -4.6263715407842025e-8 -9.58823932489855e-8 -9.539372881890384e-8
          0 0 -4.3549741188143226e-8 -4.22078119061408e-8 -8.933263070129536e-8 -8.501755026170016e-8
          0 0 -4.476882514266827e-8 -5.0053270798613584e-8 -9.857351405515494e-8 -8.538872097778097e-8
          0 0 -5.83708563919663e-8 -5.665747251570451e-8 -1.1524199770599426e-7 -1.1781815258750684e-7
          0 0 -5.892710740709413e-8 -5.9316146862944984e-8 -1.1769428063010104e-7 -1.1698616273544635e-7
          0 0 -5.9601433804585156e-8 -5.958313274152537e-8 -1.19003873170484e-7 -1.1925546999300266e-7
          0 0 -5.873762223401969e-8 -5.905217968706042e-8 -1.1712358167424969e-7 -1.1760054874367023e-7
          0 0 -5.827057592240953e-8 -5.8366980501699464e-8 -1.164476662676507e-7 -1.166405829976857e-7
          0 0 -6.058902053890324e-8 -6.052859024917522e-8 -1.211752348529156e-7 -1.2106718446653888e-7
          0 0 -6.575886140061462e-8 -6.577631524809686e-8 -1.3149135641711072e-7 -1.3147079708078778e-7
          0 0 -7.15797378328911e-8 -7.174852232533154e-8 -1.4289160694246966e-7 -1.4310736383074747e-7
          0 0 -7.608232748839905e-8 -7.634724821936657e-8 -1.5207532006945682e-7 -1.523820066620747e-7
          0 0 -7.787391914658368e-8 -7.810970611532258e-8 -1.5638787437668103e-7 -1.5650530803715557e-7
          0 0 -7.648405540258883e-8 -7.64944021041075e-8 -1.5548260322335325e-7 -1.54864352519557e-7
          0 0 -5.551516474433301e-8 -5.613746036963916e-8 -1.1137152602095898e-7 -1.1163286329355288e-7
          0 -5.515553336920819e-8 -1.1490454424474138e-7 0 -5.654628733350074e-8 -1.1285729966820604e-7
          0 -5.61552374126181e-8 -1.1260204515813413e-7 0 -5.164583257587826e-8 -1.0299276406199428e-7
          0 -4.86581793055002e-8 -9.835581097468894e-8 0 -4.8883474211955537e-8 -9.839585835844104e-8
          0 -5.031971230459735e-8 -1.0973386369258067e-7 0 -5.808259133857847e-8 -1.142587537469094e-7
          0 -5.9063226756178867e-8 -1.1811758471125453e-7 0 -5.923301791269305e-8 -1.18214308430112e-7
          0 -5.795838999879903e-8 -1.1558363806053584e-7 0 -5.8009561475148926e-8 -1.1601334484511476e-7
          0 -6.062187311158324e-8 -1.2137179848661428e-7 0 -6.557891014677759e-8 -1.3130626729930003e-7
          0 -7.107239751460134e-8 -1.4232394022224984e-7 0 -7.534278654130415e-8 -1.5131314515586586e-7
          0 -7.722209151487676e-8 -1.563465248496026e-7 0 -7.679703908230716e-8 -1.5807944353667305e-7
          0 0 -5.5576879675440754e-8 -5.5836113342090426e-8 -1.1099116897322272e-7 -1.1188830891415208e-7
          0 -5.720622970415835e-8 -1.1276273335689741e-7 0 -5.658473176435683e-8 -1.1306477651280335e-7
          0 -5.644384664556295e-8 -1.130283107036514e-7 0 -5.265158005034472e-8 -1.0597630588997526e-7
          0 -5.211976363512802e-8 -1.0286831785775287e-7 0 -5.4469237196920035e-8 -1.101686210680538e-7
          0 -5.856129673777114e-8 -1.1481419947416504e-7 0 -5.7256800513603374e-8 -1.1479015381944055e-7
          0 -5.9115318284480316e-8 -1.1802818471322863e-7 0 -5.830666363445279e-8 -1.164365225398141e-7
          0 -5.680308051118595e-8 -1.1334080079597986e-7 0 -5.7641040918185554e-8 -1.1550371237575473e-7
          0 -6.058910707815728e-8 -1.2158993275911774e-7 0 -6.524700117560619e-8 -1.309773962913452e-7
          0 -7.025026015075925e-8 -1.4159311419128787e-7 0 -7.427243079742183e-8 -1.5073010712141774e-7
          0 -7.66349754817655e-8 -1.576793807643767e-7 0 -7.849614463889765e-8 -1.6485191115205834e-7
          0 0 -5.536531816424362e-8 -5.5856684680867166e-8 -1.1063998250745134e-7 -1.1173192746220385e-7
          0 -5.681043384015495e-8 -1.1303280444280734e-7 0 -5.669004246112611e-8 -1.1330956904587338e-7
          0 -5.671211758293833e-8 -1.1336623415038204e-7 0 -5.502715412737411e-8 -1.1173629738984247e-7
          0 -5.596322872409892e-8 -1.107356901006677e-7 0 -5.8244655540785785e-8 -1.173519275890184e-7
          0 -5.952351150350907e-8 -1.1717453169068531e-7 0 -5.7743579053500724e-8 -1.1542397645795181e-7
          0 -5.822596186804924e-8 -1.1644516221836013e-7 0 -5.6550216534041895e-8 -1.1228851754093769e-7
          0 -5.548617294753162e-8 -1.1133761140892062e-7 0 -5.7256487556803646e-8 -1.1500686814405106e-7
          0 -6.052905562881545e-8 -1.2194523830535034e-7 0 -6.482776976113347e-8 -1.3098906312075638e-7
          0 -6.936109177845812e-8 -1.4135802886261431e-7 0 -7.35345296049643e-8 -1.51871485362666e-7
          0 -7.750772246919024e-8 -1.6318057219255483e-7 0 -8.381012244493561e-8 -1.80234260406502e-7
          0 0 -5.498279220524357e-8 -5.5748137977889285e-8 -1.0995843090790258e-7 -1.1153354253259886e-7
          0 -5.666529168528889e-8 -1.1304626356240099e-7 0 -5.679990157041284e-8 -1.1356631351017202e-7
          0 -5.696358289674084e-8 -1.138112948239322e-7 0 -5.7748296003043995e-8 -1.1549012311265441e-7
          0 -5.819132287501425e-8 -1.1707615655926156e-7 0 -5.979061852442324e-8 -1.1850891411076463e-7
          0 -5.920221559309782e-8 -1.172471115386461e-7 0 -5.801685892326886e-8 -1.1597280669245199e-7
          0 -5.6085555708192856e-8 -1.118125108699047e-7 0 -5.385088112511612e-8 -1.0778769784966588e-7
          0 -5.442518088159127e-8 -1.0966013533109854e-7 0 -5.699162440159357e-8 -1.1494809653072534e-7
          0 -6.059590806253032e-8 -1.2267045101585653e-7 0 -6.469016468995678e-8 -1.3213054813866166e-7
          0 -6.934333225345891e-8 -1.433817907604692e-7 0 -7.487406383962729e-8 -1.5771068669647186e-7
          0 -8.267520516091442e-8 -1.7768880561663565e-7 0 -9.687550013631399e-8 -2.1123506644543933e-7
          0 0 -5.414074853702845e-8 -5.54731030822047e-8 -1.0866008447200631e-7 -1.1114723638684695e-7
          0 -5.6664251561150686e-8 -1.1320878077282769e-7 0 -5.691045960637068e-8 -1.138052058057874e-7
          0 -5.7225340712539984e-8 -1.143575031286515e-7 0 -5.845097013409883e-8 -1.165265729337376e-7
          0 -5.920121361214215e-8 -1.1795403111968843e-7 0 -5.9562754124375787e-8 -1.183951124947709e-7
          0 -5.873259064131815e-8 -1.1666286834986695e-7 0 -5.7838943842054e-8 -1.1580319409639638e-7
          0 -5.330818911822286e-8 -1.064817287767365e-7 0 -5.168546320108398e-8 -1.0451999194917463e-7
          0 -5.3791290829095186e-8 -1.0874072655875512e-7 0 -5.721871559084404e-8 -1.1588486126803652e-7
          0 -6.134057391331355e-8 -1.249154577383872e-7 0 -6.598768556865375e-8 -1.3583751761527197e-7
          0 -7.214654268957054e-8 -1.5057358441543348e-7 0 -8.150052151460839e-8 -1.7273899203150938e-7
          0 -9.703804355224817e-8 -2.0800481132845036e-7 0 -1.2416081400774912e-7 -2.6658199873220375e-7
          0 0 -5.23222128200073e-8 -5.491413114672756e-8 -1.0612586986333261e-7 -1.1044854919658472e-7
          0 -5.6740922215086587e-8 -1.1345556527926366e-7 0 -5.7038704162417407e-8 -1.1407833532610985e-7
          0 -5.742455949657938e-8 -1.1475788650831921e-7 0 -5.846122037296638e-8 -1.166935354821052e-7
          0 -5.91010052154038e-8 -1.1780427010875641e-7 0 -5.90613993862496e-8 -1.176595293925865e-7
          0 -5.8387775089616196e-8 -1.1645030893459064e-7 0 -5.677173878341367e-8 -1.1317158742389137e-7
          0 -5.1015416735167924e-8 -1.0267135308498876e-7 0 -5.071322420931026e-8 -1.0276121934988446e-7
          0 -5.407347967265902e-8 -1.093277223364334e-7 0 -5.8573927855511296e-8 -1.185456788878718e-7
          0 -6.386631091182996e-8 -1.2986128190157296e-7 0 -7.057410058018516e-8 -1.443827886472391e-7
          0 -8.08309329690058e-8 -1.6637106636867178e-7 0 -9.805001987125791e-8 -2.0223337701556217e-7
          0 -1.269779960838708e-7 -2.6118887298214085e-7 0 -1.7340093984038416e-7 -3.541988057993188e-7
          0 0 -4.8273153910829706e-8 -5.3917641354005246e-8 -1.021339858094706e-7 -1.0943257082166235e-7
          0 -5.677150865519022e-8 -1.1372781459326336e-7 0 -5.719478373179712e-8 -1.1437175660493165e-7
          0 -5.752654188369757e-8 -1.1504418854737352e-7 0 -5.857679508351602e-8 -1.1661251494008906e-7
          0 -5.873319153034535e-8 -1.1730111330812844e-7 0 -5.857748015764555e-8 -1.1694418053397565e-7
          0 -5.825869344881958e-8 -1.162531914451833e-7 0 -5.461648984182794e-8 -1.1012138815822216e-7
          0 -4.988175203997438e-8 -1.0041311417002401e-7 0 -5.1257962679000274e-8 -1.034017379261802e-7
          0 -5.57338859936552e-8 -1.1200806065172761e-7 0 -6.178489896995324e-8 -1.2389782404080236e-7
          0 -6.941885216127223e-8 -1.3902930749828965e-7 0 -8.033531270509294e-8 -1.6043617404889526e-7
          0 -9.808829783900571e-8 -1.946002623548821e-7 0 -1.278718849489383e-7 -2.513306206839741e-7
          0 -1.7601838659060937e-7 -3.426778120446405e-7 0 -2.4772099592414435e-7 -4.793867117948294e-7
          0 0 -4.706531363583771e-8 -5.354912628197356e-8 -8.588148972565039e-8 -1.0722022797710087e-7
          0 -5.681959413413741e-8 -1.1346821534645027e-7 0 -5.735670920981188e-8 -1.1476869778755724e-7
          0 -5.759290792029314e-8 -1.1526619680315326e-7 0 -5.8302050406237754e-8 -1.1636049454348586e-7
          0 -5.8392173211141825e-8 -1.1677719332582615e-7 0 -5.827955393860197e-8 -1.1615306711490821e-7
          0 -5.805147231414893e-8 -1.1624476619925544e-7 0 -5.270437613861882e-8 -1.0539629148425532e-7
          0 -5.0201866488242674e-8 -1.0153000184952696e-7 0 -5.2984309759747806e-8 -1.0731147635622407e-7
          0 -5.835126955437935e-8 -1.1819767611697366e-7 0 -6.625341230478199e-8 -1.3455402665532802e-7
          0 -7.696098813419237e-8 -1.5672091214153472e-7 0 -9.335867915915055e-8 -1.905585410729335e-7
          0 -1.2004236229872896e-7 -2.450426593553612e-7 0 -1.6384256530775177e-7 -3.333770705591648e-7
          0 -2.322314887300502e-7 -4.6961252704558767e-7 0 -3.3009433016193914e-7 -6.623481703015352e-7
          0 -4.561084659884974e-7 -9.08067133909251e-7 0 -5.976704610224036e-7 -0.00000118619705392455
          0 0 -6.369027548421998e-8 -8.460037233215733e-8 -1.2545563804685606e-7 -1.7631332071418782e-7
          0 -5.809845254032048e-8 -1.1676872404128048e-7 0 -5.830918596140526e-8 -1.1643833892323561e-7
          0 -5.803810949464303e-8 -1.1588779167870235e-7 0 -5.792670549359918e-8 -1.15824422448873e-7
          0 -5.8041758013322584e-8 -1.1596868986407186e-7 0 -1.3518091578906914e-7 -2.7231785407850957e-7
          0 -1.7689433259074395e-7 -3.552270868997909e-7 0 -2.3453031591716873e-7 -4.690325783710989e-7
          0 -3.1004372203414225e-7 -6.173229612430774e-7 0 -4.023584352716023e-7 -7.979636427776102e-7
          0 -4.874136023881983e-7 -9.769775062849367e-7 0 -5.071724298482694e-7 -0.0000010032449903849357
          0 -5.69311021601376e-7 -0.0000011404472894479257 0 -6.181581758118949e-7 -0.00000121982078377243
          0 -6.477315838188931e-7 -0.0000012972660672101106 0 -7.226446696477466e-7 -0.0000014279527897512292
          0 -7.172251961333612e-7 -0.000001435032362117412 0 0 -7.377155778447181e-8
          -7.283596564952399e-8 -1.537234459875745e-7 -1.5112609060993568e-7 0 -7.702794081837821e-8 -1.6249322754534112e-7
          0 -8.419538128926413e-8 -1.8073838277986638e-7 0 -9.830299548902384e-8 -2.1422770259221307e-7
          0 -1.2431346456051712e-7 -2.712060384641022e-7 0 -1.6945262115653577e-7 -3.6105204183773333e-7
          0 -2.4212881851017325e-7 -4.91342524637172e-7 0 -3.452742547674031e-7 -6.659558298790302e-7
          0 -4.6210065111998684e-7 -8.988775070819478e-7 0 0 -7.506594887859161e-7
          -6.105193129940445e-7 -0.000001481978323928248 -0.0000011784999049024682 0 0 -6.344279031476488e-8
          -7.943743090968808e-8 -1.2409074283635974e-7 -1.7334056894043303e-7 0 -5.7309918656996985e-8 -1.1524169616033471e-7
          0 -5.8910418361575036e-8 -1.1776396156648043e-7 0 -5.879831446773778e-8 -1.1743850236092357e-7
          0 -5.8331232547746696e-8 -1.1662011554925601e-7 0 -5.750174454079266e-8 -1.1514294395465802e-7
          0 -5.8138503861296366e-8 -1.1629441939730711e-7 0 -5.5766728252783886e-8 -1.1209188138241432e-7
          0 -5.603682885145824e-8 -1.1251004322122378e-7 0 -5.265383633938741e-8 -1.0602344823499598e-7
          0 -5.590566849812209e-8 -1.1280626866019158e-7 0 -6.226668429946613e-8 -1.2548987877088757e-7
          0 -7.181334522355022e-8 -1.449286389925558e-7 0 -8.580530593675571e-8 -1.732499339629474e-7
          0 -1.0599704854978944e-7 -2.1388366308928024e-7 0 0 -2.092529381215917e-7
          -1.6433238088126385e-7 -4.22073909484144e-7 -3.3210685071621234e-7 0 -2.6535392223035714e-7 -5.341105489827118e-7
          0 -3.3196616176137894e-7 -6.668888156583182e-7 0 -4.069708691378315e-7 -8.16406535056643e-7
          0 0 -5.675245591448765e-7 -5.01944624273399e-7 -0.0000011316809031859671 -0.000001001272722675967
          0 -6.270517754689026e-7 -0.0000012503959925074553 0 -6.770616247839157e-7 -0.000001350298233732416
          0 -7.135005178773887e-7 -0.0000014229691365341282 0 0 -8.151616737862907e-7
          -8.902034552456516e-7 -0.000001612096505110773 -0.0000017558864124171659 0 -7.708396778501485e-7 -0.0000015411415285663589
          0 -7.30637099741203e-7 -0.000001457098632292436
        </DataArray>
      </PointData>
      <CellData>
        <DataArray type="Int32" Name="libmesh_elem_id" format="ascii" RangeMin="0" RangeMax="1173">
          0 1 2 3 4 5
          6 7 8 9 10 11
          12 13 14 15 16 17
          18 19 20 21 22 23
          24 25 26 27 28 29
          30 31 32 33 34 35
          36 37 38 39 58 59
          60 61 62 63 64 65
          66 67 68 69 70 71
          72 73 74 75 76 77
          78 79 80 81 82 83
          84 85 86 87 88 89
          90 91 92 93 94 95
          96 97 116 117 118 119
          120 121 122 123 124 125
          126 127 128 129 130 131
          132 133 134 135 136 137
          138 139 140 141 142 143
          144 145 146 147 148 149
          150 151 152 153 154 155
          174 175 176 177 178 179
          180 181 182 183 184 185
          186 187 188 189 190 191
          192 193 194 195 196 197
          198 199 200 201 202 203
          204 205 206 207 208 209
          210 211 212 213 232 233
          234 235 236 237 238 239
          240 241 242 243 244 245
          246 247 248 249 250 251
          252 253 254 255 256 257
          258 259 260 261 262 263
          264 265 266 267 268 269
          270 271 290 291 292 293
          294 295 296 297 298 299
          300 301 302 303 304 305
          306 307 308 309 310 311
          312 313 314 315 316 317
          318 319 320 321 322 323
          324 325 326 327 328 329
          348 349 350 351 352 353
          354 355 356 357 358 359
          360 361 362 363 364 365
          366 367 368 369 370 371
          372 373 374 375 376 377
          378 379 380 381 382 383
          384 385 386 387 406 407
          408 409 410 411 412 413
          414 415 416 417 418 419
          420 421 422 423 424 425
          426 427 428 429 430 431
          432 433 434 435 436 437
          438 439 440 441 442 443
          444 445 464 465 466 467
          468 469 470 471 472 473
          474 475 476 477 478 479
          480 481 482 483 484 485
          486 487 488 489 490 491
          492 493 494 495 496 497
          498 499 500 501 502 503
          504 505 506 507 772 773
          774 775 790 791 792 793
          808 809 810 811 826 827
          828 829 844 845 846 847
          862 863 864 865 880 881
          882 883 898 899 916 917
          934 935 952 953 970 971
          988 989 1006 1007 1024 1025
          1026 1027 1042 1043 1044 1045
          1060 1061 1062 1063 1078 1079
          1080 1081 1096 1097 1098 1099
          1100 1101 1114 1115 1116 1117
          1118 1119 1132 1133 1134 1135
          1136 1137 1150 1151 1152 1153
          1154 1155 1168 1169 1170 1171
          1172 1173
        </DataArray>
        <DataArray type="Int32" Name="subdomain_id" format="ascii" RangeMin="103" RangeMax="105">
          103 103 103 103 103 103
          103 103 103 103 103 103
          103 103 103 103 103 103
          103 103 103 103 103 103
          103 103 103 103 103 103
          103 103 103 103 103 103
          103 103 103 103 103 103
          103 103 103 103 103 103
          103 103 103 103 103 103
          103 103 103 103 103 103
          103 103 103 103 103 103
          103 103 103 103 103 103
          103 103 103 103 103 103
          103 103 103 103 103 103
          103 103 103 103 103 103
          103 103 103 103 103 103
          103 103 103 103 103 103
          103 103 103 103 103 103
          103 103 103 103 103 103
          103 103 103 103 103 103
          103 103 103 103 103 103
          103 103 103 103 103 103
          103 103 103 103 103 103
          103 103 103 103 103 103
          103 103 103 103 103 103
          103 103 103 103 103 103
          103 103 103 103 103 103
          103 103 103 103 103 103
          103 103 103 103 103 103
          103 103 103 103 103 103
          103 103 103 103 103 103
          103 103 103 103 103 103
          103 103 103 103 103 103
          103 103 103 103 103 103
          103 103 103 103 103 103
          103 103 103 103 103 103
          103 103 103 103 103 103
          103 103 103 103 103 103
          103 103 103 103 103 103
          103 103 103 103 103 103
          103 103 103 103 103 103
          103 103 103 103 103 103
          103 103 103 103 103 103
          103 103 103 103 103 103
          103 103 103 103 103 103
          103 103 103 103 103 103
          103 103 103 103 103 103
          103 103 103 103 103 103
          103 103 103 103 103 103
          103 103 103 103 103 103
          103 103 103 103 103 103
          103 103 103 103 103 103
          103 103 103 103 103 103
          103 103 103 103 103 103
          103 103 103 103 103 103
          103 103 103 103 103 103
          103 103 103 103 103 103
          103 103 103 103 103 103
          103 103 103 103 103 103
          103 103 103 103 103 103
          103 103 103 103 105 105
          105 105 105 105 105 105
          105 105 105 105 105 105
          105 105 105 105 105 105
          105 105 105 105 105 105
          105 105 105 105 105 105
          105 105 105 105 105 105
          105 105 105 105 105 105
          105 105 105 105 105 105
          105 105 105 105 105 105
          105 105 105 105 105 105
          105 105 105 105 105 105
          105 105 105 105 105 105
          105 105 105 105 105 105
          105 105 105 105 105 105
          105 105
        </DataArray>
        <DataArray type="Int32" Name="processor_id" format="ascii" RangeMin="7" RangeMax="7">
          7 7 7 7 7 7
          7 7 7 7 7 7
          7 7 7 7 7 7
          7 7 7 7 7 7
          7 7 7 7 7 7
          7 7 7 7 7 7
          7 7 7 7 7 7
          7 7 7 7 7 7
          7 7 7 7 7 7
          7 7 7 7 7 7
          7 7 7 7 7 7
          7 7 7 7 7 7
          7 7 7 7 7 7
          7 7 7 7 7 7
          7 7 7 7 7 7
          7 7 7 7 7 7
          7 7 7 7 7 7
          7 7 7 7 7 7
          7 7 7 7 7 7
          7 7 7 7 7 7
          7 7 7 7 7 7
          7 7 7 7 7 7
          7 7 7 7 7 7
          7 7 7 7 7 7
          7 7 7 7 7 7
          7 7 7 7 7 7
          7 7 7 7 7 7
          7 7 7 7 7 7
          7 7 7 7 7 7
          7 7 7 7 7 7
          7 7 7 7 7 7
          7 7 7 7 7 7
          7 7 7 7 7 7
          7 7 7 7 7 7
          7 7 7 7 7 7
          7 7 7 7 7 7
          7 7 7 7 7 7
          7 7 7 7 7 7
          7 7 7 7 7 7
          7 7 7 7 7 7
          7 7 7 7 7 7
          7 7 7 7 7 7
          7 7 7 7 7 7
          7 7 7 7 7 7
          7 7 7 7 7 7
          7 7 7 7 7 7
          7 7 7 7 7 7
          7 7 7 7 7 7
          7 7 7 7 7 7
          7 7 7 7 7 7
          7 7 7 7 7 7
          7 7 7 7 7 7
          7 7 7 7 7 7
          7 7 7 7 7 7
          7 7 7 7 7 7
          7 7 7 7 7 7
          7 7 7 7 7 7
          7 7 7 7 7 7
          7 7 7 7 7 7
          7 7 7 7 7 7
          7 7 7 7 7 7
          7 7 7 7 7 7
          7 7 7 7 7 7
          7 7 7 7 7 7
          7 7 7 7 7 7
          7 7 7 7 7 7
          7 7 7 7 7 7
          7 7 7 7 7 7
          7 7 7 7 7 7
          7 7 7 7 7 7
          7 7 7 7 7 7
          7 7 7 7 7 7
          7 7 7 7 7 7
          7 7 7 7 7 7
          7 7 7 7 7 7
          7 7
        </DataArray>
      </CellData>
      <Points>
        <DataArray type="Float64" Name="Points" NumberOfComponents="3" format="ascii" RangeMin="0" RangeMax="0.009803689505302022">
          0 0 0 0.00011111111111093 0 0
          0.00011111111111095 0.00041379310344969 0 0 0.00041379310344996 0
          0 0 0.00015 0.00011111111111093 0 0.00015
          0.00011111111111095 0.00041379310344969 0.00015 0 0.00041379310344996 0.00015
          0 0 0.0003 0.00011111111111093 0 0.0003
          0.00011111111111095 0.00041379310344969 0.0003 0 0.00041379310344996 0.0003
          0.00011111111111096 0.00082758620689912 0 0 0.00082758620689964 0
          0.00011111111111096 0.00082758620689912 0.00015 0 0.00082758620689964 0.00015
          0.00011111111111096 0.00082758620689912 0.0003 0 0.00082758620689964 0.0003
          0.00011111111111098 0.0012413793103467 0 0 0.0012413793103472 0
          0.00011111111111098 0.0012413793103467 0.00015 0 0.0012413793103472 0.00015
          0.00011111111111098 0.0012413793103467 0.0003 0 0.0012413793103472 0.0003
          0.00011111111111099 0.0016551724137963 0 0 0.0016551724137971 0
          0.00011111111111099 0.0016551724137963 0.00015 0 0.0016551724137971 0.00015
          0.00011111111111099 0.0016551724137963 0.0003 0 0.0016551724137971 0.0003
          0.00011111111111101 0.002068965517246 0 0 0.0020689655172471 0
          0.00011111111111101 0.002068965517246 0.00015 0 0.0020689655172471 0.00015
          0.00011111111111101 0.002068965517246 0.0003 0 0.0020689655172471 0.0003
          0.00011111111111102 0.0024827586206956 0 0 0.002482758620697 0
          0.00011111111111102 0.0024827586206956 0.00015 0 0.002482758620697 0.00015
          0.00011111111111102 0.0024827586206956 0.0003 0 0.002482758620697 0.0003
          0.00011111111111104 0.0028965517241444 0 0 0.002896551724146 0
          0.00011111111111104 0.0028965517241444 0.00015 0 0.002896551724146 0.00015
          0.00011111111111104 0.0028965517241444 0.0003 0 0.002896551724146 0.0003
          0.00011111111111105 0.0033103448275919 0 0 0.0033103448275936 0
          0.00011111111111105 0.0033103448275919 0.00015 0 0.0033103448275936 0.00015
          0.00011111111111105 0.0033103448275919 0.0003 0 0.0033103448275936 0.0003
          0.00011111111111107 0.0037241379310415 0 0 0.0037241379310435 0
          0.00011111111111107 0.0037241379310415 0.00015 0 0.0037241379310435 0.00015
          0.00011111111111107 0.0037241379310415 0.0003 0 0.0037241379310435 0.0003
          0.00011111111111108 0.0041379310344912 0 0 0.0041379310344935 0
          0.00011111111111108 0.0041379310344912 0.00015 0 0.0041379310344935 0.00015
          0.00011111111111108 0.0041379310344912 0.0003 0 0.0041379310344935 0.0003
          0.0001111111111111 0.0045517241379399 0 0 0.0045517241379424 0
          0.0001111111111111 0.0045517241379399 0.00015 0 0.0045517241379424 0.00015
          0.0001111111111111 0.0045517241379399 0.0003 0 0.0045517241379424 0.0003
          0.00011111111111111 0.004965517241389 0 0 0.0049655172413917 0
          0.00011111111111111 0.004965517241389 0.00015 0 0.0049655172413917 0.00015
          0.00011111111111111 0.004965517241389 0.0003 0 0.0049655172413917 0.0003
          0.00011111111111113 0.0053793103448383 0 0 0.0053793103448414 0
          0.00011111111111113 0.0053793103448383 0.00015 0 0.0053793103448414 0.00015
          0.00011111111111113 0.0053793103448383 0.0003 0 0.0053793103448414 0.0003
          0.00011111111111114 0.005793103448287 0 0 0.0057931034482903 0
          0.00011111111111114 0.005793103448287 0.00015 0 0.0057931034482903 0.00015
          0.00011111111111114 0.005793103448287 0.0003 0 0.0057931034482903 0.0003
          0.00011111111111116 0.0062068965517355 0 0 0.0062068965517387 0
          0.00011111111111116 0.0062068965517355 0.00015 0 0.0062068965517387 0.00015
          0.00011111111111116 0.0062068965517355 0.0003 0 0.0062068965517387 0.0003
          0.00011111111111117 0.006620689655183 0 0 0.006620689655186 0
          0.00011111111111117 0.006620689655183 0.00015 0 0.006620689655186 0.00015
          0.00011111111111117 0.006620689655183 0.0003 0 0.006620689655186 0.0003
          0.00011111111111119 0.0070344827586302 0 0 0.007034482758633 0
          0.00011111111111119 0.0070344827586302 0.00015 0 0.007034482758633 0.00015
          0.00011111111111119 0.0070344827586302 0.0003 0 0.007034482758633 0.0003
          0.0001111111111112 0.0074482758620775 0 0 0.00744827586208 0
          0.0001111111111112 0.0074482758620775 0.00015 0 0.00744827586208 0.00015
          0.0001111111111112 0.0074482758620775 0.0003 0 0.00744827586208 0.0003
          0.00011111111111122 0.0078620689655252 0 0 0.0078620689655276 0
          0.00011111111111122 0.0078620689655252 0.00015 0 0.0078620689655276 0.00015
          0.00011111111111122 0.0078620689655252 0.0003 0 0.0078620689655276 0.0003
          0.00022222222222175 0 0 0.00022222222222178 0.00041379310344941 0
          0.00022222222222175 0 0.00015 0.00022222222222178 0.00041379310344941 0.00015
          0.00022222222222175 0 0.0003 0.00022222222222178 0.00041379310344941 0.0003
          0.00022222222222182 0.0008275862068986 0 0.00022222222222182 0.0008275862068986 0.00015
          0.00022222222222182 0.0008275862068986 0.0003 0.00022222222222185 0.0012413793103461 0
          0.00022222222222185 0.0012413793103461 0.00015 0.00022222222222185 0.0012413793103461 0.0003
          0.00022222222222188 0.0016551724137956 0 0.00022222222222188 0.0016551724137956 0.00015
          0.00022222222222188 0.0016551724137956 0.0003 0.00022222222222192 0.0020689655172449 0
          0.00022222222222192 0.0020689655172449 0.00015 0.00022222222222192 0.0020689655172449 0.0003
          0.00022222222222195 0.0024827586206942 0 0.00022222222222195 0.0024827586206942 0.00015
          0.00022222222222195 0.0024827586206942 0.0003 0.00022222222222199 0.0028965517241428 0
          0.00022222222222199 0.0028965517241428 0.00015 0.00022222222222199 0.0028965517241428 0.0003
          0.00022222222222202 0.0033103448275902 0 0.00022222222222202 0.0033103448275902 0.00015
          0.00022222222222202 0.0033103448275902 0.0003 0.00022222222222205 0.0037241379310395 0
          0.00022222222222205 0.0037241379310395 0.00015 0.00022222222222205 0.0037241379310395 0.0003
          0.00022222222222209 0.0041379310344889 0 0.00022222222222209 0.0041379310344889 0.00015
          0.00022222222222209 0.0041379310344889 0.0003 0.00022222222222212 0.0045517241379374 0
          0.00022222222222212 0.0045517241379374 0.00015 0.00022222222222212 0.0045517241379374 0.0003
          0.00022222222222216 0.0049655172413862 0 0.00022222222222216 0.0049655172413862 0.00015
          0.00022222222222216 0.0049655172413862 0.0003 0.00022222222222219 0.0053793103448353 0
          0.00022222222222219 0.0053793103448353 0.00015 0.00022222222222219 0.0053793103448353 0.0003
          0.00022222222222222 0.0057931034482838 0 0.00022222222222222 0.0057931034482838 0.00015
          0.00022222222222222 0.0057931034482838 0.0003 0.00022222222222226 0.0062068965517323 0
          0.00022222222222226 0.0062068965517323 0.00015 0.00022222222222226 0.0062068965517323 0.0003
          0.00022222222222229 0.0066206896551799 0 0.00022222222222229 0.0066206896551799 0.00015
          0.00022222222222229 0.0066206896551799 0.0003 0.00022222222222232 0.0070344827586275 0
          0.00022222222222232 0.0070344827586275 0.00015 0.00022222222222232 0.0070344827586275 0.0003
          0.00022222222222236 0.007448275862075 0 0.00022222222222236 0.007448275862075 0.00015
          0.00022222222222236 0.007448275862075 0.0003 0.00022222222222239 0.0078620689655229 0
          0.00022222222222239 0.0078620689655229 0.00015 0.00022222222222239 0.0078620689655229 0.0003
          0.00033333333333257 0 0 0.00033333333333262 0.00041379310344914 0
          0.00033333333333257 0 0.00015 0.00033333333333262 0.00041379310344914 0.00015
          0.00033333333333257 0 0.0003 0.00033333333333262 0.00041379310344914 0.0003
          0.00033333333333268 0.00082758620689808 0 0.00033333333333268 0.00082758620689808 0.00015
          0.00033333333333268 0.00082758620689808 0.0003 0.00033333333333273 0.0012413793103456 0
          0.00033333333333273 0.0012413793103456 0.00015 0.00033333333333273 0.0012413793103456 0.0003
          0.00033333333333278 0.0016551724137948 0 0.00033333333333278 0.0016551724137948 0.00015
          0.00033333333333278 0.0016551724137948 0.0003 0.00033333333333283 0.0020689655172438 0
          0.00033333333333283 0.0020689655172438 0.00015 0.00033333333333283 0.0020689655172438 0.0003
          0.00033333333333289 0.0024827586206928 0 0.00033333333333289 0.0024827586206928 0.00015
          0.00033333333333289 0.0024827586206928 0.0003 0.00033333333333294 0.0028965517241412 0
          0.00033333333333294 0.0028965517241412 0.00015 0.00033333333333294 0.0028965517241412 0.0003
          0.00033333333333299 0.0033103448275885 0 0.00033333333333299 0.0033103448275885 0.00015
          0.00033333333333299 0.0033103448275885 0.0003 0.00033333333333305 0.0037241379310375 0
          0.00033333333333305 0.0037241379310375 0.00015 0.00033333333333305 0.0037241379310375 0.0003
          0.0003333333333331 0.0041379310344865 0 0.0003333333333331 0.0041379310344865 0.00015
          0.0003333333333331 0.0041379310344865 0.0003 0.00033333333333315 0.0045517241379349 0
          0.00033333333333315 0.0045517241379349 0.00015 0.00033333333333315 0.0045517241379349 0.0003
          0.0003333333333332 0.0049655172413834 0 0.0003333333333332 0.0049655172413834 0.00015
          0.0003333333333332 0.0049655172413834 0.0003 0.00033333333333326 0.0053793103448322 0
          0.00033333333333326 0.0053793103448322 0.00015 0.00033333333333326 0.0053793103448322 0.0003
          0.00033333333333331 0.0057931034482806 0 0.00033333333333331 0.0057931034482806 0.00015
          0.00033333333333331 0.0057931034482806 0.0003 0.00033333333333336 0.006206896551729 0
          0.00033333333333336 0.006206896551729 0.00015 0.00033333333333336 0.006206896551729 0.0003
          0.00033333333333342 0.0066206896551769 0 0.00033333333333342 0.0066206896551769 0.00015
          0.00033333333333342 0.0066206896551769 0.0003 0.00033333333333347 0.0070344827586248 0
          0.00033333333333347 0.0070344827586248 0.00015 0.00033333333333347 0.0070344827586248 0.0003
          0.00033333333333352 0.0074482758620725 0 0.00033333333333352 0.0074482758620725 0.00015
          0.00033333333333352 0.0074482758620725 0.0003 0.00033333333333357 0.0078620689655205 0
          0.00033333333333357 0.0078620689655205 0.00015 0.00033333333333357 0.0078620689655205 0.0003
          0.00044444444444337 0 0 0.00044444444444345 0.00041379310344886 0
          0.00044444444444337 0 0.00015 0.00044444444444345 0.00041379310344886 0.00015
          0.00044444444444337 0 0.0003 0.00044444444444345 0.00041379310344886 0.0003
          0.00044444444444352 0.00082758620689756 0 0.00044444444444352 0.00082758620689756 0.00015
          0.00044444444444352 0.00082758620689756 0.0003 0.00044444444444359 0.0012413793103451 0
          0.00044444444444359 0.0012413793103451 0.00015 0.00044444444444359 0.0012413793103451 0.0003
          0.00044444444444367 0.001655172413794 0 0.00044444444444367 0.001655172413794 0.00015
          0.00044444444444367 0.001655172413794 0.0003 0.00044444444444374 0.0020689655172427 0
          0.00044444444444374 0.0020689655172427 0.00015 0.00044444444444374 0.0020689655172427 0.0003
          0.00044444444444382 0.0024827586206914 0 0.00044444444444382 0.0024827586206914 0.00015
          0.00044444444444382 0.0024827586206914 0.0003 0.00044444444444389 0.0028965517241395 0
          0.00044444444444389 0.0028965517241395 0.00015 0.00044444444444389 0.0028965517241395 0.0003
          0.00044444444444397 0.0033103448275869 0 0.00044444444444397 0.0033103448275869 0.00015
          0.00044444444444397 0.0033103448275869 0.0003 0.00044444444444404 0.0037241379310355 0
          0.00044444444444404 0.0037241379310355 0.00015 0.00044444444444404 0.0037241379310355 0.0003
          0.00044444444444412 0.0041379310344842 0 0.00044444444444412 0.0041379310344842 0.00015
          0.00044444444444412 0.0041379310344842 0.0003 0.00044444444444419 0.0045517241379324 0
          0.00044444444444419 0.0045517241379324 0.00015 0.00044444444444419 0.0045517241379324 0.0003
          0.00044444444444426 0.0049655172413807 0 0.00044444444444426 0.0049655172413807 0.00015
          0.00044444444444426 0.0049655172413807 0.0003 0.00044444444444434 0.0053793103448292 0
          0.00044444444444434 0.0053793103448292 0.00015 0.00044444444444434 0.0053793103448292 0.0003
          0.00044444444444441 0.0057931034482774 0 0.00044444444444441 0.0057931034482774 0.00015
          0.00044444444444441 0.0057931034482774 0.0003 0.00044444444444449 0.0062068965517258 0
          0.00044444444444449 0.0062068965517258 0.00015 0.00044444444444449 0.0062068965517258 0.0003
          0.00044444444444456 0.0066206896551738 0 0.00044444444444456 0.0066206896551738 0.00015
          0.00044444444444456 0.0066206896551738 0.0003 0.00044444444444464 0.007034482758622 0
          0.00044444444444464 0.007034482758622 0.00015 0.00044444444444464 0.007034482758622 0.0003
          0.00044444444444471 0.00744827586207 0 0.00044444444444471 0.00744827586207 0.00015
          0.00044444444444471 0.00744827586207 0.0003 0.00044444444444479 0.0078620689655182 0
          0.00044444444444479 0.0078620689655182 0.00015 0.00044444444444479 0.0078620689655182 0.0003
          0.00055555555555442 0 0 0.0005555555555545 0.00041379310344859 0
          0.00055555555555442 0 0.00015 0.0005555555555545 0.00041379310344859 0.00015
          0.00055555555555442 0 0.0003 0.0005555555555545 0.00041379310344859 0.0003
          0.00055555555555458 0.00082758620689704 0 0.00055555555555458 0.00082758620689704 0.00015
          0.00055555555555458 0.00082758620689704 0.0003 0.00055555555555465 0.0012413793103446 0
          0.00055555555555465 0.0012413793103446 0.00015 0.00055555555555465 0.0012413793103446 0.0003
          0.00055555555555473 0.0016551724137932 0 0.00055555555555473 0.0016551724137932 0.00015
          0.00055555555555473 0.0016551724137932 0.0003 0.00055555555555481 0.0020689655172416 0
          0.00055555555555481 0.0020689655172416 0.00015 0.00055555555555481 0.0020689655172416 0.0003
          0.00055555555555489 0.0024827586206899 0 0.00055555555555489 0.0024827586206899 0.00015
          0.00055555555555489 0.0024827586206899 0.0003 0.00055555555555497 0.0028965517241379 0
          0.00055555555555497 0.0028965517241379 0.00015 0.00055555555555497 0.0028965517241379 0.0003
          0.00055555555555504 0.0033103448275852 0 0.00055555555555504 0.0033103448275852 0.00015
          0.00055555555555504 0.0033103448275852 0.0003 0.00055555555555512 0.0037241379310336 0
          0.00055555555555512 0.0037241379310336 0.00015 0.00055555555555512 0.0037241379310336 0.0003
          0.0005555555555552 0.0041379310344819 0 0.0005555555555552 0.0041379310344819 0.00015
          0.0005555555555552 0.0041379310344819 0.0003 0.00055555555555528 0.0045517241379299 0
          0.00055555555555528 0.0045517241379299 0.00015 0.00055555555555528 0.0045517241379299 0.0003
          0.00055555555555535 0.0049655172413779 0 0.00055555555555535 0.0049655172413779 0.00015
          0.00055555555555535 0.0049655172413779 0.0003 0.00055555555555543 0.0053793103448261 0
          0.00055555555555543 0.0053793103448261 0.00015 0.00055555555555543 0.0053793103448261 0.0003
          0.00055555555555551 0.0057931034482741 0 0.00055555555555551 0.0057931034482741 0.00015
          0.00055555555555551 0.0057931034482741 0.0003 0.00055555555555559 0.0062068965517226 0
          0.00055555555555559 0.0062068965517226 0.00015 0.00055555555555559 0.0062068965517226 0.0003
          0.00055555555555566 0.0066206896551708 0 0.00055555555555566 0.0066206896551708 0.00015
          0.00055555555555566 0.0066206896551708 0.0003 0.00055555555555574 0.0070344827586193 0
          0.00055555555555574 0.0070344827586193 0.00015 0.00055555555555574 0.0070344827586193 0.0003
          0.00055555555555582 0.0074482758620675 0 0.00055555555555582 0.0074482758620675 0.00015
          0.00055555555555582 0.0074482758620675 0.0003 0.0005555555555559 0.0078620689655158 0
          0.0005555555555559 0.0078620689655158 0.00015 0.0005555555555559 0.0078620689655158 0.0003
          0.00066666666666586 0 0 0.0006666666666659 0.00041379310344831 0
          0.00066666666666586 0 0.00015 0.0006666666666659 0.00041379310344831 0.00015
          0.00066666666666586 0 0.0003 0.0006666666666659 0.00041379310344831 0.0003
          0.00066666666666595 0.00082758620689653 0 0.00066666666666595 0.00082758620689653 0.00015
          0.00066666666666595 0.00082758620689653 0.0003 0.00066666666666599 0.0012413793103441 0
          0.00066666666666599 0.0012413793103441 0.00015 0.00066666666666599 0.0012413793103441 0.0003
          0.00066666666666604 0.0016551724137924 0 0.00066666666666604 0.0016551724137924 0.00015
          0.00066666666666604 0.0016551724137924 0.0003 0.00066666666666608 0.0020689655172404 0
          0.00066666666666608 0.0020689655172404 0.00015 0.00066666666666608 0.0020689655172404 0.0003
          0.00066666666666613 0.0024827586206885 0 0.00066666666666613 0.0024827586206885 0.00015
          0.00066666666666613 0.0024827586206885 0.0003 0.00066666666666617 0.0028965517241363 0
          0.00066666666666617 0.0028965517241363 0.00015 0.00066666666666617 0.0028965517241363 0.0003
          0.00066666666666622 0.0033103448275835 0 0.00066666666666622 0.0033103448275835 0.00015
          0.00066666666666622 0.0033103448275835 0.0003 0.00066666666666626 0.0037241379310316 0
          0.00066666666666626 0.0037241379310316 0.00015 0.00066666666666626 0.0037241379310316 0.0003
          0.0006666666666663 0.0041379310344796 0 0.0006666666666663 0.0041379310344796 0.00015
          0.0006666666666663 0.0041379310344796 0.0003 0.00066666666666635 0.0045517241379274 0
          0.00066666666666635 0.0045517241379274 0.00015 0.00066666666666635 0.0045517241379274 0.0003
          0.00066666666666639 0.0049655172413752 0 0.00066666666666639 0.0049655172413752 0.00015
          0.00066666666666639 0.0049655172413752 0.0003 0.00066666666666644 0.0053793103448231 0
          0.00066666666666644 0.0053793103448231 0.00015 0.00066666666666644 0.0053793103448231 0.0003
          0.00066666666666648 0.0057931034482709 0 0.00066666666666648 0.0057931034482709 0.00015
          0.00066666666666648 0.0057931034482709 0.0003 0.00066666666666653 0.0062068965517194 0
          0.00066666666666653 0.0062068965517194 0.00015 0.00066666666666653 0.0062068965517194 0.0003
          0.00066666666666657 0.0066206896551677 0 0.00066666666666657 0.0066206896551677 0.00015
          0.00066666666666657 0.0066206896551677 0.0003 0.00066666666666661 0.0070344827586165 0
          0.00066666666666661 0.0070344827586165 0.00015 0.00066666666666661 0.0070344827586165 0.0003
          0.00066666666666666 0.0074482758620651 0 0.00066666666666666 0.0074482758620651 0.00015
          0.00066666666666666 0.0074482758620651 0.0003 0.0006666666666667 0.0078620689655135 0
          0.0006666666666667 0.0078620689655135 0.00015 0.0006666666666667 0.0078620689655135 0.0003
          0.00077777777777724 0 0 0.00077777777777728 0.00041379310344804 0
          0.00077777777777724 0 0.00015 0.00077777777777728 0.00041379310344804 0.00015
          0.00077777777777724 0 0.0003 0.00077777777777728 0.00041379310344804 0.0003
          0.00077777777777731 0.00082758620689601 0 0.00077777777777731 0.00082758620689601 0.00015
          0.00077777777777731 0.00082758620689601 0.0003 0.00077777777777734 0.0012413793103436 0
          0.00077777777777734 0.0012413793103436 0.00015 0.00077777777777734 0.0012413793103436 0.0003
          0.00077777777777737 0.0016551724137916 0 0.00077777777777737 0.0016551724137916 0.00015
          0.00077777777777737 0.0016551724137916 0.0003 0.0007777777777774 0.0020689655172393 0
          0.0007777777777774 0.0020689655172393 0.00015 0.0007777777777774 0.0020689655172393 0.0003
          0.00077777777777743 0.0024827586206871 0 0.00077777777777743 0.0024827586206871 0.00015
          0.00077777777777743 0.0024827586206871 0.0003 0.00077777777777747 0.0028965517241347 0
          0.00077777777777747 0.0028965517241347 0.00015 0.00077777777777747 0.0028965517241347 0.0003
          0.0007777777777775 0.0033103448275818 0 0.0007777777777775 0.0033103448275818 0.00015
          0.0007777777777775 0.0033103448275818 0.0003 0.00077777777777753 0.0037241379310296 0
          0.00077777777777753 0.0037241379310296 0.00015 0.00077777777777753 0.0037241379310296 0.0003
          0.00077777777777756 0.0041379310344773 0 0.00077777777777756 0.0041379310344773 0.00015
          0.00077777777777756 0.0041379310344773 0.0003 0.00077777777777759 0.0045517241379249 0
          0.00077777777777759 0.0045517241379249 0.00015 0.00077777777777759 0.0045517241379249 0.0003
          0.00077777777777762 0.0049655172413724 0 0.00077777777777762 0.0049655172413724 0.00015
          0.00077777777777762 0.0049655172413724 0.0003 0.00077777777777765 0.00537931034482 0
          0.00077777777777765 0.00537931034482 0.00015 0.00077777777777765 0.00537931034482 0.0003
          0.00077777777777769 0.0057931034482677 0 0.00077777777777769 0.0057931034482677 0.00015
          0.00077777777777769 0.0057931034482677 0.0003 0.00077777777777772 0.0062068965517161 0
          0.00077777777777772 0.0062068965517161 0.00015 0.00077777777777772 0.0062068965517161 0.0003
          0.00077777777777775 0.0066206896551647 0 0.00077777777777775 0.0066206896551647 0.00015
          0.00077777777777775 0.0066206896551647 0.0003 0.00077777777777778 0.0070344827586137 0
          0.00077777777777778 0.0070344827586137 0.00015 0.00077777777777778 0.0070344827586137 0.0003
          0.00077777777777781 0.0074482758620625 0 0.00077777777777781 0.0074482758620625 0.00015
          0.00077777777777781 0.0074482758620625 0.0003 0.00077777777777784 0.0078620689655112 0
          0.00077777777777784 0.0078620689655112 0.00015 0.00077777777777784 0.0078620689655112 0.0003
          0.00088888888888862 0 0 0.00088888888888863 0.00041379310344776 0
          0.00088888888888862 0 0.00015 0.00088888888888863 0.00041379310344776 0.00015
          0.00088888888888862 0 0.0003 0.00088888888888863 0.00041379310344776 0.0003
          0.00088888888888864 0.00082758620689549 0 0.00088888888888864 0.00082758620689549 0.00015
          0.00088888888888864 0.00082758620689549 0.0003 0.00088888888888865 0.0012413793103431 0
          0.00088888888888865 0.0012413793103431 0.00015 0.00088888888888865 0.0012413793103431 0.0003
          0.00088888888888866 0.0016551724137908 0 0.00088888888888866 0.0016551724137908 0.00015
          0.00088888888888866 0.0016551724137908 0.0003 0.00088888888888867 0.0020689655172382 0
          0.00088888888888867 0.0020689655172382 0.00015 0.00088888888888867 0.0020689655172382 0.0003
          0.00088888888888868 0.0024827586206857 0 0.00088888888888868 0.0024827586206857 0.00015
          0.00088888888888868 0.0024827586206857 0.0003 0.00088888888888868 0.002896551724133 0
          0.00088888888888868 0.002896551724133 0.00015 0.00088888888888868 0.002896551724133 0.0003
          0.00088888888888869 0.0033103448275802 0 0.00088888888888869 0.0033103448275802 0.00015
          0.00088888888888869 0.0033103448275802 0.0003 0.0008888888888887 0.0037241379310276 0
          0.0008888888888887 0.0037241379310276 0.00015 0.0008888888888887 0.0037241379310276 0.0003
          0.00088888888888871 0.004137931034475 0 0.00088888888888871 0.004137931034475 0.00015
          0.00088888888888871 0.004137931034475 0.0003 0.00088888888888872 0.0045517241379224 0
          0.00088888888888872 0.0045517241379224 0.00015 0.00088888888888872 0.0045517241379224 0.0003
          0.00088888888888873 0.0049655172413697 0 0.00088888888888873 0.0049655172413697 0.00015
          0.00088888888888873 0.0049655172413697 0.0003 0.00088888888888874 0.005379310344817 0
          0.00088888888888874 0.005379310344817 0.00015 0.00088888888888874 0.005379310344817 0.0003
          0.00088888888888875 0.0057931034482644 0 0.00088888888888875 0.0057931034482644 0.00015
          0.00088888888888875 0.0057931034482644 0.0003 0.00088888888888876 0.0062068965517129 0
          0.00088888888888876 0.0062068965517129 0.00015 0.00088888888888876 0.0062068965517129 0.0003
          0.00088888888888877 0.0066206896551616 0 0.00088888888888877 0.0066206896551616 0.00015
          0.00088888888888877 0.0066206896551616 0.0003 0.00088888888888877 0.007034482758611 0
          0.00088888888888877 0.007034482758611 0.00015 0.00088888888888877 0.007034482758611 0.0003
          0.00088888888888878 0.00744827586206 0 0.00088888888888878 0.00744827586206 0.00015
          0.00088888888888878 0.00744827586206 0.0003 0.00088888888888879 0.0078620689655088 0
          0.00088888888888879 0.0078620689655088 0.00015 0.00088888888888879 0.0078620689655088 0.0003
          0.001 0 0 0.001 0.00041379310344749 0
          0.001 0 0.00015 0.001 0.00041379310344749 0.00015
          0.001 0 0.0003 0.001 0.00041379310344749 0.0003
          0.001 0.00082758620689497 0 0.001 0.00082758620689497 0.00015
          0.001 0.00082758620689497 0.0003 0.001 0.0012413793103426 0
          0.001 0.0012413793103426 0.00015 0.001 0.0012413793103426 0.0003
          0.001 0.0016551724137901 0 0.001 0.0016551724137901 0.00015
          0.001 0.0016551724137901 0.0003 0.001 0.0020689655172371 0
          0.001 0.0020689655172371 0.00015 0.001 0.0020689655172371 0.0003
          0.001 0.0024827586206843 0 0.001 0.0024827586206843 0.00015
          0.001 0.0024827586206843 0.0003 0.001 0.0028965517241314 0
          0.001 0.0028965517241314 0.00015 0.001 0.0028965517241314 0.0003
          0.001 0.0033103448275785 0 0.001 0.0033103448275785 0.00015
          0.001 0.0033103448275785 0.0003 0.001 0.0037241379310256 0
          0.001 0.0037241379310256 0.00015 0.001 0.0037241379310256 0.0003
          0.001 0.0041379310344727 0 0.001 0.0041379310344727 0.00015
          0.001 0.0041379310344727 0.0003 0.001 0.0045517241379199 0
          0.001 0.0045517241379199 0.00015 0.001 0.0045517241379199 0.0003
          0.001 0.0049655172413669 0 0.001 0.0049655172413669 0.00015
          0.001 0.0049655172413669 0.0003 0.001 0.0053793103448139 0
          0.001 0.0053793103448139 0.00015 0.001 0.0053793103448139 0.0003
          0.001 0.0057931034482612 0 0.001 0.0057931034482612 0.00015
          0.001 0.0057931034482612 0.0003 0.001 0.0062068965517097 0
          0.001 0.0062068965517097 0.00015 0.001 0.0062068965517097 0.0003
          0.001 0.0066206896551586 0 0.001 0.0066206896551586 0.00015
          0.001 0.0066206896551586 0.0003 0.001 0.0070344827586082 0
          0.001 0.0070344827586082 0.00015 0.001 0.0070344827586082 0.0003
          0.001 0.0074482758620575 0 0.001 0.0074482758620575 0.00015
          0.001 0.0074482758620575 0.0003 0.001 0.0078620689655065 0
          0.001 0.0078620689655065 0.00015 0.001 0.0078620689655065 0.0003
          0.001 0.0082758620689564 0 0.001 0.0082758620689564 0.00015
          0.001 0.0082758620689564 0.0003 0.001 0.0086896551724064 0
          0.001 0.0086896551724064 0.00015 0.001 0.0086896551724064 0.0003
          0.0014444444444438 0.00041379310344749 0 0.0014444444444438 0 0
          0.0014444444444438 0.00041379310344749 0.00015 0.0014444444444438 0 0.00015
          0.0014444444444438 0.00041379310344749 0.0003 0.0014444444444438 0 0.0003
          0.0014444444444439 0.00082758620689497 0 0.0014444444444439 0.00082758620689497 0.00015
          0.0014444444444439 0.00082758620689497 0.0003 0.001444444444444 0.0012413793103426 0
          0.001444444444444 0.0012413793103426 0.00015 0.001444444444444 0.0012413793103426 0.0003
          0.001444444444444 0.0016551724137901 0 0.001444444444444 0.0016551724137901 0.00015
          0.001444444444444 0.0016551724137901 0.0003 0.0014444444444441 0.0020689655172371 0
          0.0014444444444441 0.0020689655172371 0.00015 0.0014444444444441 0.0020689655172371 0.0003
          0.0014444444444441 0.0024827586206843 0 0.0014444444444441 0.0024827586206843 0.00015
          0.0014444444444441 0.0024827586206843 0.0003 0.0014444444444446 0.0062068965517097 0
          0.0014444444444446 0.0062068965517097 0.00015 0.0014444444444446 0.0062068965517097 0.0003
          0.0014444444444447 0.0066206896551586 0 0.0014444444444447 0.0066206896551586 0.00015
          0.0014444444444447 0.0066206896551586 0.0003 0.0014444444444448 0.0070344827586082 0
          0.0014444444444448 0.0070344827586082 0.00015 0.0014444444444448 0.0070344827586082 0.0003
          0.0014444444444448 0.0074482758620576 0 0.0014444444444448 0.0074482758620576 0.00015
          0.0014444444444448 0.0074482758620576 0.0003 0.0014444444444449 0.0078620689655065 0
          0.0014444444444449 0.0078620689655065 0.00015 0.0014444444444449 0.0078620689655065 0.0003
          0.0018888888888896 0.0078620689655065 0 0.0018888888888896 0.0078620689655065 0.00015
          0.0018888888888896 0.0078620689655065 0.0003 0.0014444444444449 0.0082758620689564 0
          0.0014444444444449 0.0082758620689564 0.00015 0.0014444444444449 0.0082758620689564 0.0003
          0.0018888888888898 0.0082758620689564 0 0.0018888888888898 0.0082758620689564 0.00015
          0.0018888888888898 0.0082758620689564 0.0003 0.001444444444445 0.0086896551724064 0
          0.001444444444445 0.0086896551724064 0.00015 0.001444444444445 0.0086896551724064 0.0003
          0.0018888888888899 0.0086896551724064 0 0.0018888888888899 0.0086896551724064 0.00015
          0.0018888888888899 0.0086896551724064 0.0003 0.0014444444444451 0.0091034482758539 0
          0.0014444444444451 0.0091034482758539 0.00015 0.0014444444444451 0.0091034482758539 0.0003
          0.00188888888889 0.0091034482758539 0 0.00188888888889 0.0091034482758539 0.00015
          0.00188888888889 0.0091034482758539 0.0003 0.00011111111111123 0.0082758620689751 0
          0 0.0082758620689774 0 0.00011111111111123 0.0082758620689751 0.00015
          0 0.0082758620689774 0.00015 0.00011111111111123 0.0082758620689751 0.0003
          0 0.0082758620689774 0.0003 0.00022222222222243 0.0082758620689727 0
          0.00022222222222243 0.0082758620689727 0.00015 0.00022222222222243 0.0082758620689727 0.0003
          0.00033333333333363 0.0082758620689704 0 0.00033333333333363 0.0082758620689704 0.00015
          0.00033333333333363 0.0082758620689704 0.0003 0.00044444444444486 0.0082758620689681 0
          0.00044444444444486 0.0082758620689681 0.00015 0.00044444444444486 0.0082758620689681 0.0003
          0.00055555555555597 0.0082758620689657 0 0.00055555555555597 0.0082758620689657 0.00015
          0.00055555555555597 0.0082758620689657 0.0003 0.00066666666666675 0.0082758620689634 0
          0.00066666666666675 0.0082758620689634 0.00015 0.00066666666666675 0.0082758620689634 0.0003
          0.00077777777777787 0.0082758620689611 0 0.00077777777777787 0.0082758620689611 0.00015
          0.00077777777777787 0.0082758620689611 0.0003 0.0008888888888888 0.0082758620689588 0
          0.0008888888888888 0.0082758620689588 0.00015 0.0008888888888888 0.0082758620689588 0.0003
          0.00088888888888881 0.0086896551724084 0 0.00088888888888881 0.0086896551724084 0.00015
          0.00088888888888881 0.0086896551724084 0.0003 0.001 0.0091034482758539 0
          0.00088888888888882 0.0091034482758559 0 0.001 0.0091034482758539 0.00015
          0.00088888888888882 0.0091034482758559 0.00015 0.001 0.0091034482758539 0.0003
          0.00088888888888882 0.0091034482758559 0.0003 0.0018888888888873 0.00041379310344749 0
          0.0018888888888872 0 0 0.0018888888888873 0.00041379310344749 0.00015
          0.0018888888888872 0 0.00015 0.0018888888888873 0.00041379310344749 0.0003
          0.0018888888888872 0 0.0003 0.0018888888888875 0.00082758620689497 0
          0.0018888888888875 0.00082758620689497 0.00015 0.0018888888888875 0.00082758620689497 0.0003
          0.0018888888888876 0.0012413793103426 0 0.0018888888888876 0.0012413793103426 0.00015
          0.0018888888888876 0.0012413793103426 0.0003 0.0018888888888877 0.0016551724137901 0
          0.0018888888888877 0.0016551724137901 0.00015 0.0018888888888877 0.0016551724137901 0.0003
          0.0018888888888879 0.0020689655172371 0 0.0018888888888879 0.0020689655172371 0.00015
          0.0018888888888879 0.0020689655172371 0.0003 0.001888888888888 0.0024827586206843 0
          0.001888888888888 0.0024827586206843 0.00015 0.001888888888888 0.0024827586206843 0.0003
          0.0014444444444442 0.0028965517241314 0 0.0014444444444442 0.0028965517241314 0.00015
          0.0014444444444442 0.0028965517241314 0.0003 0.0018888888888881 0.0028965517241314 0
          0.0018888888888881 0.0028965517241314 0.00015 0.0018888888888881 0.0028965517241314 0.0003
          0.0014444444444442 0.0033103448275785 0 0.0014444444444442 0.0033103448275785 0.00015
          0.0014444444444442 0.0033103448275785 0.0003 0.0014444444444443 0.0037241379310256 0
          0.0014444444444443 0.0037241379310256 0.00015 0.0014444444444443 0.0037241379310256 0.0003
          0.0014444444444444 0.0041379310344727 0 0.0014444444444444 0.0041379310344727 0.00015
          0.0014444444444444 0.0041379310344727 0.0003 0.0014444444444444 0.0045517241379199 0
          0.0014444444444444 0.0045517241379199 0.00015 0.0014444444444444 0.0045517241379199 0.0003
          0.0014444444444445 0.0049655172413669 0 0.0014444444444445 0.0049655172413669 0.00015
          0.0014444444444445 0.0049655172413669 0.0003 0.0014444444444445 0.0053793103448139 0
          0.0014444444444445 0.0053793103448139 0.00015 0.0014444444444445 0.0053793103448139 0.0003
          0.0014444444444446 0.0057931034482612 0 0.0014444444444446 0.0057931034482612 0.00015
          0.0014444444444446 0.0057931034482612 0.0003 0.0018888888888891 0.0062068965517097 0
          0.001888888888889 0.0057931034482612 0 0.0018888888888891 0.0062068965517097 0.00015
          0.001888888888889 0.0057931034482612 0.00015 0.0018888888888891 0.0062068965517097 0.0003
          0.001888888888889 0.0057931034482612 0.0003 0.0018888888888893 0.0066206896551586 0
          0.0018888888888893 0.0066206896551586 0.00015 0.0018888888888893 0.0066206896551586 0.0003
          0.0018888888888894 0.0070344827586082 0 0.0018888888888894 0.0070344827586082 0.00015
          0.0018888888888894 0.0070344827586082 0.0003 0.0018888888888895 0.0074482758620575 0
          0.0018888888888895 0.0074482758620575 0.00015 0.0018888888888895 0.0074482758620575 0.0003
          0.0023333333333346 0.0078620689655065 0 0.0023333333333344 0.0074482758620575 0
          0.0023333333333346 0.0078620689655065 0.00015 0.0023333333333344 0.0074482758620575 0.00015
          0.0023333333333346 0.0078620689655065 0.0003 0.0023333333333344 0.0074482758620575 0.0003
          0.0023333333333348 0.0082758620689564 0 0.0023333333333348 0.0082758620689564 0.00015
          0.0023333333333348 0.0082758620689564 0.0003 0.002333333333335 0.0086896551724064 0
          0.002333333333335 0.0086896551724064 0.00015 0.002333333333335 0.0086896551724064 0.0003
          0.0023333333333351 0.0091034482758539 0 0.0023333333333351 0.0091034482758539 0.00015
          0.0023333333333351 0.0091034482758539 0.0003 0.0014444444444451 0.0095172413793029 0
          0.001 0.0095172413793029 0 0.0014444444444451 0.0095172413793029 0.00015
          0.001 0.0095172413793029 0.00015 0.0014444444444451 0.0095172413793029 0.0003
          0.001 0.0095172413793029 0.0003 0.0018888888888902 0.0095172413793029 0
          0.0018888888888902 0.0095172413793029 0.00015 0.0018888888888902 0.0095172413793029 0.0003
          0.0023333333333353 0.0095172413793029 0 0.0023333333333353 0.0095172413793029 0.00015
          0.0023333333333353 0.0095172413793029 0.0003
          <InformationKey name="L2_NORM_RANGE" location="vtkDataArray" length="2">
            <Value index="0">
              0
            </Value>
            <Value index="1">
              0.0098036895053
            </Value>
          </InformationKey>
        </DataArray>
      </Points>
      <Cells>
        <DataArray type="Int64" Name="connectivity" format="ascii" RangeMin="0" RangeMax="788">
          0 1 2 3 4 5
          6 7 4 5 6 7
          8 9 10 11 3 2
          12 13 7 6 14 15
          7 6 14 15 11 10
          16 17 13 12 18 19
          15 14 20 21 15 14
          20 21 17 16 22 23
          19 18 24 25 21 20
          26 27 21 20 26 27
          23 22 28 29 25 24
          30 31 27 26 32 33
          27 26 32 33 29 28
          34 35 31 30 36 37
          33 32 38 39 33 32
          38 39 35 34 40 41
          37 36 42 43 39 38
          44 45 39 38 44 45
          41 40 46 47 43 42
          48 49 45 44 50 51
          45 44 50 51 47 46
          52 53 49 48 54 55
          51 50 56 57 51 50
          56 57 53 52 58 59
          55 54 60 61 57 56
          62 63 57 56 62 63
          59 58 64 65 61 60
          66 67 63 62 68 69
          63 62 68 69 65 64
          70 71 67 66 72 73
          69 68 74 75 69 68
          74 75 71 70 76 77
          73 72 78 79 75 74
          80 81 75 74 80 81
          77 76 82 83 79 78
          84 85 81 80 86 87
          81 80 86 87 83 82
          88 89 85 84 90 91
          87 86 92 93 87 86
          92 93 89 88 94 95
          91 90 96 97 93 92
          98 99 93 92 98 99
          95 94 100 101 97 96
          102 103 99 98 104 105
          99 98 104 105 101 100
          106 107 103 102 108 109
          105 104 110 111 105 104
          110 111 107 106 112 113
          109 108 114 115 111 110
          116 117 111 110 116 117
          113 112 118 119 115 114
          663 664 117 116 665 666
          117 116 665 666 119 118
          667 668 1 120 121 2
          5 122 123 6 5 122
          123 6 9 124 125 10
          2 121 126 12 6 123
          127 14 6 123 127 14
          10 125 128 16 12 126
          129 18 14 127 130 20
          14 127 130 20 16 128
          131 22 18 129 132 24
          20 130 133 26 20 130
          133 26 22 131 134 28
          24 132 135 30 26 133
          136 32 26 133 136 32
          28 134 137 34 30 135
          138 36 32 136 139 38
          32 136 139 38 34 137
          140 40 36 138 141 42
          38 139 142 44 38 139
          142 44 40 140 143 46
          42 141 144 48 44 142
          145 50 44 142 145 50
          46 143 146 52 48 144
          147 54 50 145 148 56
          50 145 148 56 52 146
          149 58 54 147 150 60
          56 148 151 62 56 148
          151 62 58 149 152 64
          60 150 153 66 62 151
          154 68 62 151 154 68
          64 152 155 70 66 153
          156 72 68 154 157 74
          68 154 157 74 70 155
          158 76 72 156 159 78
          74 157 160 80 74 157
          160 80 76 158 161 82
          78 159 162 84 80 160
          163 86 80 160 163 86
          82 161 164 88 84 162
          165 90 86 163 166 92
          86 163 166 92 88 164
          167 94 90 165 168 96
          92 166 169 98 92 166
          169 98 94 167 170 100
          96 168 171 102 98 169
          172 104 98 169 172 104
          100 170 173 106 102 171
          174 108 104 172 175 110
          104 172 175 110 106 173
          176 112 108 174 177 114
          110 175 178 116 110 175
          178 116 112 176 179 118
          114 177 669 663 116 178
          670 665 116 178 670 665
          118 179 671 667 120 180
          181 121 122 182 183 123
          122 182 183 123 124 184
          185 125 121 181 186 126
          123 183 187 127 123 183
          187 127 125 185 188 128
          126 186 189 129 127 187
          190 130 127 187 190 130
          128 188 191 131 129 189
          192 132 130 190 193 133
          130 190 193 133 131 191
          194 134 132 192 195 135
          133 193 196 136 133 193
          196 136 134 194 197 137
          135 195 198 138 136 196
          199 139 136 196 199 139
          137 197 200 140 138 198
          201 141 139 199 202 142
          139 199 202 142 140 200
          203 143 141 201 204 144
          142 202 205 145 142 202
          205 145 143 203 206 146
          144 204 207 147 145 205
          208 148 145 205 208 148
          146 206 209 149 147 207
          210 150 148 208 211 151
          148 208 211 151 149 209
          212 152 150 210 213 153
          151 211 214 154 151 211
          214 154 152 212 215 155
          153 213 216 156 154 214
          217 157 154 214 217 157
          155 215 218 158 156 216
          219 159 157 217 220 160
          157 217 220 160 158 218
          221 161 159 219 222 162
          160 220 223 163 160 220
          223 163 161 221 224 164
          162 222 225 165 163 223
          226 166 163 223 226 166
          164 224 227 167 165 225
          228 168 166 226 229 169
          166 226 229 169 167 227
          230 170 168 228 231 171
          169 229 232 172 169 229
          232 172 170 230 233 173
          171 231 234 174 172 232
          235 175 172 232 235 175
          173 233 236 176 174 234
          237 177 175 235 238 178
          175 235 238 178 176 236
          239 179 177 237 672 669
          178 238 673 670 178 238
          673 670 179 239 674 671
          180 240 241 181 182 242
          243 183 182 242 243 183
          184 244 245 185 181 241
          246 186 183 243 247 187
          183 243 247 187 185 245
          248 188 186 246 249 189
          187 247 250 190 187 247
          250 190 188 248 251 191
          189 249 252 192 190 250
          253 193 190 250 253 193
          191 251 254 194 192 252
          255 195 193 253 256 196
          193 253 256 196 194 254
          257 197 195 255 258 198
          196 256 259 199 196 256
          259 199 197 257 260 200
          198 258 261 201 199 259
          262 202 199 259 262 202
          200 260 263 203 201 261
          264 204 202 262 265 205
          202 262 265 205 203 263
          266 206 204 264 267 207
          205 265 268 208 205 265
          268 208 206 266 269 209
          207 267 270 210 208 268
          271 211 208 268 271 211
          209 269 272 212 210 270
          273 213 211 271 274 214
          211 271 274 214 212 272
          275 215 213 273 276 216
          214 274 277 217 214 274
          277 217 215 275 278 218
          216 276 279 219 217 277
          280 220 217 277 280 220
          218 278 281 221 219 279
          282 222 220 280 283 223
          220 280 283 223 221 281
          284 224 222 282 285 225
          223 283 286 226 223 283
          286 226 224 284 287 227
          225 285 288 228 226 286
          289 229 226 286 289 229
          227 287 290 230 228 288
          291 231 229 289 292 232
          229 289 292 232 230 290
          293 233 231 291 294 234
          232 292 295 235 232 292
          295 235 233 293 296 236
          234 294 297 237 235 295
          298 238 235 295 298 238
          236 296 299 239 237 297
          675 672 238 298 676 673
          238 298 676 673 239 299
          677 674 240 300 301 241
          242 302 303 243 242 302
          303 243 244 304 305 245
          241 301 306 246 243 303
          307 247 243 303 307 247
          245 305 308 248 246 306
          309 249 247 307 310 250
          247 307 310 250 248 308
          311 251 249 309 312 252
          250 310 313 253 250 310
          313 253 251 311 314 254
          252 312 315 255 253 313
          316 256 253 313 316 256
          254 314 317 257 255 315
          318 258 256 316 319 259
          256 316 319 259 257 317
          320 260 258 318 321 261
          259 319 322 262 259 319
          322 262 260 320 323 263
          261 321 324 264 262 322
          325 265 262 322 325 265
          263 323 326 266 264 324
          327 267 265 325 328 268
          265 325 328 268 266 326
          329 269 267 327 330 270
          268 328 331 271 268 328
          331 271 269 329 332 272
          270 330 333 273 271 331
          334 274 271 331 334 274
          272 332 335 275 273 333
          336 276 274 334 337 277
          274 334 337 277 275 335
          338 278 276 336 339 279
          277 337 340 280 277 337
          340 280 278 338 341 281
          279 339 342 282 280 340
          343 283 280 340 343 283
          281 341 344 284 282 342
          345 285 283 343 346 286
          283 343 346 286 284 344
          347 287 285 345 348 288
          286 346 349 289 286 346
          349 289 287 347 350 290
          288 348 351 291 289 349
          352 292 289 349 352 292
          290 350 353 293 291 351
          354 294 292 352 355 295
          292 352 355 295 293 353
          356 296 294 354 357 297
          295 355 358 298 295 355
          358 298 296 356 359 299
          297 357 678 675 298 358
          679 676 298 358 679 676
          299 359 680 677 300 360
          361 301 302 362 363 303
          302 362 363 303 304 364
          365 305 301 361 366 306
          303 363 367 307 303 363
          367 307 305 365 368 308
          306 366 369 309 307 367
          370 310 307 367 370 310
          308 368 371 311 309 369
          372 312 310 370 373 313
          310 370 373 313 311 371
          374 314 312 372 375 315
          313 373 376 316 313 373
          376 316 314 374 377 317
          315 375 378 318 316 376
          379 319 316 376 379 319
          317 377 380 320 318 378
          381 321 319 379 382 322
          319 379 382 322 320 380
          383 323 321 381 384 324
          322 382 385 325 322 382
          385 325 323 383 386 326
          324 384 387 327 325 385
          388 328 325 385 388 328
          326 386 389 329 327 387
          390 330 328 388 391 331
          328 388 391 331 329 389
          392 332 330 390 393 333
          331 391 394 334 331 391
          394 334 332 392 395 335
          333 393 396 336 334 394
          397 337 334 394 397 337
          335 395 398 338 336 396
          399 339 337 397 400 340
          337 397 400 340 338 398
          401 341 339 399 402 342
          340 400 403 343 340 400
          403 343 341 401 404 344
          342 402 405 345 343 403
          406 346 343 403 406 346
          344 404 407 347 345 405
          408 348 346 406 409 349
          346 406 409 349 347 407
          410 350 348 408 411 351
          349 409 412 352 349 409
          412 352 350 410 413 353
          351 411 414 354 352 412
          415 355 352 412 415 355
          353 413 416 356 354 414
          417 357 355 415 418 358
          355 415 418 358 356 416
          419 359 357 417 681 678
          358 418 682 679 358 418
          682 679 359 419 683 680
          360 420 421 361 362 422
          423 363 362 422 423 363
          364 424 425 365 361 421
          426 366 363 423 427 367
          363 423 427 367 365 425
          428 368 366 426 429 369
          367 427 430 370 367 427
          430 370 368 428 431 371
          369 429 432 372 370 430
          433 373 370 430 433 373
          371 431 434 374 372 432
          435 375 373 433 436 376
          373 433 436 376 374 434
          437 377 375 435 438 378
          376 436 439 379 376 436
          439 379 377 437 440 380
          378 438 441 381 379 439
          442 382 379 439 442 382
          380 440 443 383 381 441
          444 384 382 442 445 385
          382 442 445 385 383 443
          446 386 384 444 447 387
          385 445 448 388 385 445
          448 388 386 446 449 389
          387 447 450 390 388 448
          451 391 388 448 451 391
          389 449 452 392 390 450
          453 393 391 451 454 394
          391 451 454 394 392 452
          455 395 393 453 456 396
          394 454 457 397 394 454
          457 397 395 455 458 398
          396 456 459 399 397 457
          460 400 397 457 460 400
          398 458 461 401 399 459
          462 402 400 460 463 403
          400 460 463 403 401 461
          464 404 402 462 465 405
          403 463 466 406 403 463
          466 406 404 464 467 407
          405 465 468 408 406 466
          469 409 406 466 469 409
          407 467 470 410 408 468
          471 411 409 469 472 412
          409 469 472 412 410 470
          473 413 411 471 474 414
          412 472 475 415 412 472
          475 415 413 473 476 416
          414 474 477 417 415 475
          478 418 415 475 478 418
          416 476 479 419 417 477
          684 681 418 478 685 682
          418 478 685 682 419 479
          686 683 420 480 481 421
          422 482 483 423 422 482
          483 423 424 484 485 425
          421 481 486 426 423 483
          487 427 423 483 487 427
          425 485 488 428 426 486
          489 429 427 487 490 430
          427 487 490 430 428 488
          491 431 429 489 492 432
          430 490 493 433 430 490
          493 433 431 491 494 434
          432 492 495 435 433 493
          496 436 433 493 496 436
          434 494 497 437 435 495
          498 438 436 496 499 439
          436 496 499 439 437 497
          500 440 438 498 501 441
          439 499 502 442 439 499
          502 442 440 500 503 443
          441 501 504 444 442 502
          505 445 442 502 505 445
          443 503 506 446 444 504
          507 447 445 505 508 448
          445 505 508 448 446 506
          509 449 447 507 510 450
          448 508 511 451 448 508
          511 451 449 509 512 452
          450 510 513 453 451 511
          514 454 451 511 514 454
          452 512 515 455 453 513
          516 456 454 514 517 457
          454 514 517 457 455 515
          518 458 456 516 519 459
          457 517 520 460 457 517
          520 460 458 518 521 461
          459 519 522 462 460 520
          523 463 460 520 523 463
          461 521 524 464 462 522
          525 465 463 523 526 466
          463 523 526 466 464 524
          527 467 465 525 528 468
          466 526 529 469 466 526
          529 469 467 527 530 470
          468 528 531 471 469 529
          532 472 469 529 532 472
          470 530 533 473 471 531
          534 474 472 532 535 475
          472 532 535 475 473 533
          536 476 474 534 537 477
          475 535 538 478 475 535
          538 478 476 536 539 479
          477 537 687 684 478 538
          688 685 478 538 688 685
          479 539 689 686 480 540
          541 481 482 542 543 483
          482 542 543 483 484 544
          545 485 481 541 546 486
          483 543 547 487 483 543
          547 487 485 545 548 488
          486 546 549 489 487 547
          550 490 487 547 550 490
          488 548 551 491 489 549
          552 492 490 550 553 493
          490 550 553 493 491 551
          554 494 492 552 555 495
          493 553 556 496 493 553
          556 496 494 554 557 497
          495 555 558 498 496 556
          559 499 496 556 559 499
          497 557 560 500 498 558
          561 501 499 559 562 502
          499 559 562 502 500 560
          563 503 501 561 564 504
          502 562 565 505 502 562
          565 505 503 563 566 506
          504 564 567 507 505 565
          568 508 505 565 568 508
          506 566 569 509 507 567
          570 510 508 568 571 511
          508 568 571 511 509 569
          572 512 510 570 573 513
          511 571 574 514 511 571
          574 514 512 572 575 515
          513 573 576 516 514 574
          577 517 514 574 577 517
          515 575 578 518 516 576
          579 519 517 577 580 520
          517 577 580 520 518 578
          581 521 519 579 582 522
          520 580 583 523 520 580
          583 523 521 581 584 524
          522 582 585 525 523 583
          586 526 523 583 586 526
          524 584 587 527 525 585
          588 528 526 586 589 529
          526 586 589 529 527 587
          590 530 528 588 591 531
          529 589 592 532 529 589
          592 532 530 590 593 533
          531 591 594 534 532 592
          595 535 532 592 595 535
          533 593 596 536 534 594
          597 537 535 595 598 538
          535 595 598 538 536 596
          599 539 537 597 600 687
          538 598 601 688 538 598
          601 688 539 599 602 689
          687 600 603 690 688 601
          604 691 688 601 604 691
          689 602 605 692 690 603
          693 694 691 604 695 696
          691 604 695 696 692 605
          697 698 606 541 540 607
          608 543 542 609 608 543
          542 609 610 545 544 611
          699 606 607 700 701 608
          609 702 701 608 609 702
          703 610 611 704 612 546
          541 606 613 547 543 608
          613 547 543 608 614 548
          545 610 705 612 606 699
          706 613 608 701 706 613
          608 701 707 614 610 703
          615 549 546 612 616 550
          547 613 616 550 547 613
          617 551 548 614 708 615
          612 705 709 616 613 706
          709 616 613 706 710 617
          614 707 618 552 549 615
          619 553 550 616 619 553
          550 616 620 554 551 617
          711 618 615 708 712 619
          616 709 712 619 616 709
          713 620 617 710 621 555
          552 618 622 556 553 619
          622 556 553 619 623 557
          554 620 714 621 618 711
          715 622 619 712 715 622
          619 712 716 623 620 713
          624 558 555 621 625 559
          556 622 625 559 556 622
          626 560 557 623 717 624
          621 714 718 625 622 715
          718 625 622 715 719 626
          623 716 720 561 558 624
          721 562 559 625 721 562
          559 625 722 563 560 626
          723 720 624 717 724 721
          625 718 724 721 625 718
          725 722 626 719 726 564
          561 720 727 565 562 721
          727 565 562 721 728 566
          563 722 729 567 564 726
          730 568 565 727 730 568
          565 727 731 569 566 728
          732 570 567 729 733 571
          568 730 733 571 568 730
          734 572 569 731 735 573
          570 732 736 574 571 733
          736 574 571 733 737 575
          572 734 738 576 573 735
          739 577 574 736 739 577
          574 736 740 578 575 737
          741 579 576 738 742 580
          577 739 742 580 577 739
          743 581 578 740 744 582
          579 741 745 583 580 742
          745 583 580 742 746 584
          581 743 627 585 582 744
          628 586 583 745 628 586
          583 745 629 587 584 746
          747 627 744 748 749 628
          745 750 749 628 745 750
          751 629 746 752 630 588
          585 627 631 589 586 628
          631 589 586 628 632 590
          587 629 753 630 627 747
          754 631 628 749 754 631
          628 749 755 632 629 751
          633 591 588 630 634 592
          589 631 634 592 589 631
          635 593 590 632 756 633
          630 753 757 634 631 754
          757 634 631 754 758 635
          632 755 636 594 591 633
          637 595 592 634 637 595
          592 634 638 596 593 635
          759 636 633 756 760 637
          634 757 760 637 634 757
          761 638 635 758 639 597
          594 636 640 598 595 637
          640 598 595 637 641 599
          596 638 642 639 636 759
          643 640 637 760 643 640
          637 760 644 641 638 761
          762 642 759 763 764 643
          760 765 764 643 760 765
          766 644 761 767 645 600
          597 639 646 601 598 640
          646 601 598 640 647 602
          599 641 648 645 639 642
          649 646 640 643 649 646
          640 643 650 647 641 644
          768 648 642 762 769 649
          643 764 769 649 643 764
          770 650 644 766 651 603
          600 645 652 604 601 646
          652 604 601 646 653 605
          602 647 654 651 645 648
          655 652 646 649 655 652
          646 649 656 653 647 650
          771 654 648 768 772 655
          649 769 772 655 649 769
          773 656 650 770 657 693
          603 651 658 695 604 652
          658 695 604 652 659 697
          605 653 660 657 651 654
          661 658 652 655 661 658
          652 655 662 659 653 656
          774 660 654 771 775 661
          655 772 775 661 655 772
          776 662 656 773 777 778
          693 657 779 780 695 658
          779 780 695 658 781 782
          697 659 783 777 657 660
          784 779 658 661 784 779
          658 661 785 781 659 662
          786 783 660 774 787 784
          661 775 787 784 661 775
          788 785 662 776
        </DataArray>
        <DataArray type="Int64" Name="offsets" format="ascii" RangeMin="8" RangeMax="3616">
          8 16 24 32 40 48
          56 64 72 80 88 96
          104 112 120 128 136 144
          152 160 168 176 184 192
          200 208 216 224 232 240
          248 256 264 272 280 288
          296 304 312 320 328 336
          344 352 360 368 376 384
          392 400 408 416 424 432
          440 448 456 464 472 480
          488 496 504 512 520 528
          536 544 552 560 568 576
          584 592 600 608 616 624
          632 640 648 656 664 672
          680 688 696 704 712 720
          728 736 744 752 760 768
          776 784 792 800 808 816
          824 832 840 848 856 864
          872 880 888 896 904 912
          920 928 936 944 952 960
          968 976 984 992 1000 1008
          1016 1024 1032 1040 1048 1056
          1064 1072 1080 1088 1096 1104
          1112 1120 1128 1136 1144 1152
          1160 1168 1176 1184 1192 1200
          1208 1216 1224 1232 1240 1248
          1256 1264 1272 1280 1288 1296
          1304 1312 1320 1328 1336 1344
          1352 1360 1368 1376 1384 1392
          1400 1408 1416 1424 1432 1440
          1448 1456 1464 1472 1480 1488
          1496 1504 1512 1520 1528 1536
          1544 1552 1560 1568 1576 1584
          1592 1600 1608 1616 1624 1632
          1640 1648 1656 1664 1672 1680
          1688 1696 1704 1712 1720 1728
          1736 1744 1752 1760 1768 1776
          1784 1792 1800 1808 1816 1824
          1832 1840 1848 1856 1864 1872
          1880 1888 1896 1904 1912 1920
          1928 1936 1944 1952 1960 1968
          1976 1984 1992 2000 2008 2016
          2024 2032 2040 2048 2056 2064
          2072 2080 2088 2096 2104 2112
          2120 2128 2136 2144 2152 2160
          2168 2176 2184 2192 2200 2208
          2216 2224 2232 2240 2248 2256
          2264 2272 2280 2288 2296 2304
          2312 2320 2328 2336 2344 2352
          2360 2368 2376 2384 2392 2400
          2408 2416 2424 2432 2440 2448
          2456 2464 2472 2480 2488 2496
          2504 2512 2520 2528 2536 2544
          2552 2560 2568 2576 2584 2592
          2600 2608 2616 2624 2632 2640
          2648 2656 2664 2672 2680 2688
          2696 2704 2712 2720 2728 2736
          2744 2752 2760 2768 2776 2784
          2792 2800 2808 2816 2824 2832
          2840 2848 2856 2864 2872 2880
          2888 2896 2904 2912 2920 2928
          2936 2944 2952 2960 2968 2976
          2984 2992 3000 3008 3016 3024
          3032 3040 3048 3056 3064 3072
          3080 3088 3096 3104 3112 3120
          3128 3136 3144 3152 3160 3168
          3176 3184 3192 3200 3208 3216
          3224 3232 3240 3248 3256 3264
          3272 3280 3288 3296 3304 3312
          3320 3328 3336 3344 3352 3360
          3368 3376 3384 3392 3400 3408
          3416 3424 3432 3440 3448 3456
          3464 3472 3480 3488 3496 3504
          3512 3520 3528 3536 3544 3552
          3560 3568 3576 3584 3592 3600
          3608 3616
        </DataArray>
        <DataArray type="UInt8" Name="types" format="ascii" RangeMin="12" RangeMax="12">
          12 12 12 12 12 12
          12 12 12 12 12 12
          12 12 12 12 12 12
          12 12 12 12 12 12
          12 12 12 12 12 12
          12 12 12 12 12 12
          12 12 12 12 12 12
          12 12 12 12 12 12
          12 12 12 12 12 12
          12 12 12 12 12 12
          12 12 12 12 12 12
          12 12 12 12 12 12
          12 12 12 12 12 12
          12 12 12 12 12 12
          12 12 12 12 12 12
          12 12 12 12 12 12
          12 12 12 12 12 12
          12 12 12 12 12 12
          12 12 12 12 12 12
          12 12 12 12 12 12
          12 12 12 12 12 12
          12 12 12 12 12 12
          12 12 12 12 12 12
          12 12 12 12 12 12
          12 12 12 12 12 12
          12 12 12 12 12 12
          12 12 12 12 12 12
          12 12 12 12 12 12
          12 12 12 12 12 12
          12 12 12 12 12 12
          12 12 12 12 12 12
          12 12 12 12 12 12
          12 12 12 12 12 12
          12 12 12 12 12 12
          12 12 12 12 12 12
          12 12 12 12 12 12
          12 12 12 12 12 12
          12 12 12 12 12 12
          12 12 12 12 12 12
          12 12 12 12 12 12
          12 12 12 12 12 12
          12 12 12 12 12 12
          12 12 12 12 12 12
          12 12 12 12 12 12
          12 12 12 12 12 12
          12 12 12 12 12 12
          12 12 12 12 12 12
          12 12 12 12 12 12
          12 12 12 12 12 12
          12 12 12 12 12 12
          12 12 12 12 12 12
          12 12 12 12 12 12
          12 12 12 12 12 12
          12 12 12 12 12 12
          12 12 12 12 12 12
          12 12 12 12 12 12
          12 12 12 12 12 12
          12 12 12 12 12 12
          12 12 12 12 12 12
          12 12 12 12 12 12
          12 12 12 12 12 12
          12 12 12 12 12 12
          12 12 12 12 12 12
          12 12 12 12 12 12
          12 12 12 12 12 12
          12 12 12 12 12 12
          12 12 12 12 12 12
          12 12 12 12 12 12
          12 12 12 12 12 12
          12 12 12 12 12 12
          12 12 12 12 12 12
          12 12 12 12 12 12
          12 12 12 12 12 12
          12 12 12 12 12 12
          12 12 12 12 12 12
          12 12
        </DataArray>
      </Cells>
    </Piece>
  </UnstructuredGrid>
</VTKFile>
